# vtk DataFile Version 4.2
vtk output
ASCII
DATASET UNSTRUCTURED_GRID
POINTS 12442 float
-40.0244 -35.6344 2 -40.0244 -35.6344 0 -100.024 -35.6344 2 
-100.024 -35.6344 0 -40.0244 64.3656 2 -40.0244 64.3656 0 
-100.024 64.3656 2 -100.024 64.3656 0 -70.9512 -0.588361 2 
-70.9512 -0.588361 0 -68.9512 -0.588361 2 -68.9512 -0.588361 0 
-68.9512 29.4116 2 -68.9512 29.4116 0 -70.9512 29.4116 2 
-70.9512 29.4116 0 -42.1244 -35.6344 0 -44.4044 -35.6344 0 
-46.5644 -35.6344 0 -48.8444 -35.6344 0 -50.8844 -35.6344 0 
-53.1644 -35.6344 0 -55.2044 -35.6344 0 -57.3044 -35.6344 0 
-59.3444 -35.6344 0 -61.5044 -35.6344 0 -63.8444 -35.6344 0 
-66.0644 -35.6344 0 -68.1644 -35.6344 0 -70.3844 -35.6344 0 
-72.4844 -35.6344 0 -74.5844 -35.6344 0 -76.6244 -35.6344 0 
-78.7244 -35.6344 0 -80.8244 -35.6344 0 -83.0444 -35.6344 0 
-85.1444 -35.6344 0 -87.2444 -35.6344 0 -89.2844 -35.6344 0 
-91.3244 -35.6344 0 -93.4844 -35.6344 0 -95.8244 -35.6344 0 
-97.9244 -35.6344 0 -42.1244 -35.6344 2 -44.4644 -35.6344 2 
-46.5644 -35.6344 2 -48.7844 -35.6344 2 -51.0644 -35.6344 2 
-53.1644 -35.6344 2 -55.5644 -35.6344 2 -57.6044 -35.6344 2 
-59.8844 -35.6344 2 -62.3444 -35.6344 2 -64.4444 -35.6344 2 
-66.7244 -35.6344 2 -68.8844 -35.6344 2 -70.9844 -35.6344 2 
-73.0844 -35.6344 2 -75.3044 -35.6344 2 -77.5844 -35.6344 2 
-79.6844 -35.6344 2 -82.0244 -35.6344 2 -84.1244 -35.6344 2 
-86.3444 -35.6344 2 -88.5644 -35.6344 2 -90.7244 -35.6344 2 
-93.1244 -35.6344 2 -95.3444 -35.6344 2 -97.6244 -35.6344 2 
-97.6244 64.3656 2 -95.5244 64.3656 2 -93.3644 64.3656 2 
-91.1444 64.3656 2 -89.1044 64.3656 2 -87.0644 64.3656 2 
-84.9044 64.3656 2 -82.7444 64.3656 2 -80.6444 64.3656 2 
-78.6044 64.3656 2 -76.5644 64.3656 2 -74.2244 64.3656 2 
-72.2444 64.3656 2 -70.0244 64.3656 2 -67.8644 64.3656 2 
-65.7644 64.3656 2 -63.4844 64.3656 2 -61.5044 64.3656 2 
-59.2844 64.3656 2 -56.8844 64.3656 2 -54.8444 64.3656 2 
-52.6244 64.3656 2 -50.5244 64.3656 2 -48.3644 64.3656 2 
-46.3244 64.3656 2 -44.2244 64.3656 2 -42.0044 64.3656 2 
-100.024 -33.3344 2 -100.024 -31.0344 2 -100.024 -28.8344 2 
-100.024 -26.7344 2 -100.024 -24.4344 2 -100.024 -22.2344 2 
-100.024 -19.9344 2 -100.024 -17.8344 2 -100.024 -15.7344 2 
-100.024 -13.4344 2 -100.024 -11.3344 2 -100.024 -9.1344 2 
-100.024 -7.1344 2 -100.024 -4.9344 2 -100.024 -2.8344 2 
-100.024 -0.434396 2 -100.024 1.7656 2 -100.024 4.0656 2 
-100.024 6.0656 2 -100.024 8.3656 2 -100.024 10.4656 2 
-100.024 12.5656 2 -100.024 14.7656 2 -100.024 16.7656 2 
-100.024 18.9656 2 -100.024 21.3656 2 -100.024 23.5656 2 
-100.024 25.7656 2 -100.024 27.8656 2 -100.024 30.0656 2 
-100.024 32.0656 2 -100.024 34.1656 2 -100.024 36.2656 2 
-100.024 38.4656 2 -100.024 40.4656 2 -100.024 42.6656 2 
-100.024 44.8656 2 -100.024 47.0656 2 -100.024 49.1656 2 
-100.024 51.3656 2 -100.024 53.5656 2 -100.024 55.6656 2 
-100.024 57.9656 2 -100.024 60.1656 2 -100.024 62.1656 2 
-40.0244 62.2656 2 -40.0244 59.9656 2 -40.0244 57.9656 2 
-40.0244 55.8656 2 -40.0244 53.7656 2 -40.0244 51.3656 2 
-40.0244 49.2656 2 -40.0244 47.1656 2 -40.0244 44.9656 2 
-40.0244 42.6656 2 -40.0244 40.5656 2 -40.0244 38.3656 2 
-40.0244 36.0656 2 -40.0244 33.9656 2 -40.0244 31.9656 2 
-40.0244 29.8656 2 -40.0244 27.7656 2 -40.0244 25.3656 2 
-40.0244 23.1656 2 -40.0244 20.8656 2 -40.0244 18.8656 2 
-40.0244 16.6656 2 -40.0244 14.3656 2 -40.0244 12.2656 2 
-40.0244 10.2656 2 -40.0244 7.9656 2 -40.0244 5.8656 2 
-40.0244 3.5656 2 -40.0244 1.4656 2 -40.0244 -0.934396 2 
-40.0244 -2.9344 2 -40.0244 -5.2344 2 -40.0244 -7.3344 2 
-40.0244 -9.5344 2 -40.0244 -11.5344 2 -40.0244 -13.9344 2 
-40.0244 -16.1344 2 -40.0244 -18.4344 2 -40.0244 -20.5344 2 
-40.0244 -22.6344 2 -40.0244 -24.8344 2 -40.0244 -26.9344 2 
-40.0244 -29.1344 2 -40.0244 -31.4344 2 -40.0244 -33.4344 2 
-68.9512 27.2516 2 -68.9512 24.8516 2 -68.9512 22.6016 2 
-68.9512 20.5616 2 -68.9512 18.3116 2 -68.9512 16.2416 2 
-68.9512 14.1116 2 -68.9512 11.8916 2 -68.9512 9.85164 2 
-68.9512 7.51164 2 -68.9512 5.50164 2 -68.9512 3.40164 2 
-68.9512 1.42164 2 -70.9512 1.48164 2 -70.9512 3.61164 2 
-70.9512 5.65164 2 -70.9512 7.75164 2 -70.9512 9.82164 2 
-70.9512 11.8616 2 -70.9512 14.1116 2 -70.9512 16.2716 2 
-70.9512 18.4316 2 -70.9512 20.7416 2 -70.9512 22.8116 2 
-70.9512 25.0916 2 -70.9512 27.2216 2 -97.8644 64.3656 0 
-95.7044 64.3656 0 -93.6044 64.3656 0 -91.5644 64.3656 0 
-89.4644 64.3656 0 -87.4244 64.3656 0 -85.2044 64.3656 0 
-83.1044 64.3656 0 -81.0044 64.3656 0 -78.5444 64.3656 0 
-76.2644 64.3656 0 -74.1644 64.3656 0 -72.1244 64.3656 0 
-69.7844 64.3656 0 -67.6844 64.3656 0 -65.5844 64.3656 0 
-63.4844 64.3656 0 -61.3244 64.3656 0 -59.2244 64.3656 0 
-57.0044 64.3656 0 -54.9044 64.3656 0 -52.7444 64.3656 0 
-50.7044 64.3656 0 -48.5444 64.3656 0 -46.5044 64.3656 0 
-44.3444 64.3656 0 -42.0644 64.3656 0 -100.024 -33.5344 0 
-100.024 -31.4344 0 -100.024 -29.2344 0 -100.024 -27.1344 0 
-100.024 -24.8344 0 -100.024 -22.7344 0 -100.024 -20.5344 0 
-100.024 -18.3344 0 -100.024 -16.0344 0 -100.024 -13.8344 0 
-100.024 -11.5344 0 -100.024 -9.3344 0 -100.024 -7.2344 0 
-100.024 -5.1344 0 -100.024 -3.0344 0 -100.024 -0.934396 0 
-100.024 1.1656 0 -100.024 3.1656 0 -100.024 5.3656 0 
-100.024 7.5656 0 -100.024 9.7656 0 -100.024 11.9656 0 
-100.024 14.0656 0 -100.024 16.3656 0 -100.024 18.5656 0 
-100.024 20.6656 0 -100.024 22.7656 0 -100.024 25.1656 0 
-100.024 27.2656 0 -100.024 29.3656 0 -100.024 31.5656 0 
-100.024 33.6656 0 -100.024 35.7656 0 -100.024 38.0656 0 
-100.024 40.1656 0 -100.024 42.4656 0 -100.024 44.4656 0 
-100.024 46.7656 0 -100.024 48.8656 0 -100.024 50.9656 0 
-100.024 53.1656 0 -100.024 55.4656 0 -100.024 57.5656 0 
-100.024 59.8656 0 -100.024 62.2656 0 -40.0244 62.1656 0 
-40.0244 59.7656 0 -40.0244 57.5656 0 -40.0244 55.3656 0 
-40.0244 53.3656 0 -40.0244 51.0656 0 -40.0244 48.9656 0 
-40.0244 46.8656 0 -40.0244 44.6656 0 -40.0244 42.5656 0 
-40.0244 40.4656 0 -40.0244 38.0656 0 -40.0244 35.9656 0 
-40.0244 33.8656 0 -40.0244 31.6656 0 -40.0244 29.5656 0 
-40.0244 27.3656 0 -40.0244 25.0656 0 -40.0244 22.9656 0 
-40.0244 20.5656 0 -40.0244 18.4656 0 -40.0244 15.7656 0 
-40.0244 13.6656 0 -40.0244 11.4656 0 -40.0244 9.1656 0 
-40.0244 7.1656 0 -40.0244 5.0656 0 -40.0244 2.7656 0 
-40.0244 0.765604 0 -40.0244 -1.3344 0 -40.0244 -3.6344 0 
-40.0244 -5.8344 0 -40.0244 -7.9344 0 -40.0244 -10.0344 0 
-40.0244 -12.2344 0 -40.0244 -14.3344 0 -40.0244 -16.4344 0 
-40.0244 -18.5344 0 -40.0244 -20.7344 0 -40.0244 -22.8344 0 
-40.0244 -24.9344 0 -40.0244 -27.1344 0 -40.0244 -29.2344 0 
-40.0244 -31.3344 0 -40.0244 -33.4344 0 -68.9512 27.4016 0 
-68.9512 25.0616 0 -68.9512 22.8716 0 -68.9512 20.8616 0 
-68.9512 18.5816 0 -68.9512 16.6016 0 -68.9512 14.4416 0 
-68.9512 12.1016 0 -68.9512 9.97164 0 -68.9512 7.72164 0 
-68.9512 5.68164 0 -68.9512 3.55164 0 -68.9512 1.51164 0 
-70.9512 1.63164 0 -70.9512 4.03164 0 -70.9512 6.16164 0 
-70.9512 8.35164 0 -70.9512 10.5716 0 -70.9512 12.7916 0 
-70.9512 14.8616 0 -70.9512 16.9016 0 -70.9512 18.9716 0 
-70.9512 21.0416 0 -70.9512 23.1116 0 -70.9512 25.1516 0 
-70.9512 27.3716 0 -96.9757 62.5707 2 -94.7402 62.6747 2 
-92.442 62.6823 2 -90.3963 62.4982 2 -88.2685 62.3824 2 
-86.1668 62.3806 2 -83.9299 62.3597 2 -81.8027 62.3267 2 
-79.6028 62.2985 2 -77.5019 62.3302 2 -75.378 62.3243 2 
-73.2594 62.327 2 -71.1156 62.3653 2 -68.9391 62.3887 2 
-66.7826 62.3878 2 -64.5559 62.3854 2 -62.5067 62.394 2 
-60.2965 62.4419 2 -58.05 62.4594 2 -55.8929 62.4337 2 
-53.6761 62.4002 2 -51.5256 62.3869 2 -49.4272 62.452 2 
-47.3755 62.5458 2 -45.4513 62.6847 2 -43.3869 62.4982 2 
-41.5454 62.1857 2 -98.0802 -32.6072 2 -98.0699 -30.1341 2 
-98.049 -27.874 2 -98.023 -25.5723 2 -97.9816 -23.4175 2 
-97.9934 -21.1832 2 -97.9409 -18.8857 2 -97.8797 -16.6983 2 
-97.9527 -14.6295 2 -97.9276 -12.4558 2 -97.9162 -10.2241 2 
-97.9356 -8.09859 2 -97.992 -5.99 2 -97.9899 -3.76072 2 
-97.9451 -1.55905 2 -97.9632 0.725433 2 -97.9911 2.82843 2 
-97.9786 5.02948 2 -97.9398 7.25593 2 -97.9668 9.39153 2 
-97.9932 11.4758 2 -98.014 13.6522 2 -98.0263 15.7921 2 
-98.0209 18.0448 2 -97.9829 20.2389 2 -98.0319 22.4403 2 
-98.0853 24.533 2 -98.0839 26.7418 2 -98.0416 28.9234 2 
-98.014 30.9441 2 -98.0631 33.0437 2 -98.0048 35.1458 2 
-97.9481 37.282 2 -97.9243 39.4456 2 -97.9301 41.5778 2 
-97.9722 43.7574 2 -98.0023 45.8718 2 -97.9832 48.0528 2 
-97.9686 50.2915 2 -97.9809 52.5143 2 -97.9502 54.6287 2 
-97.9776 56.8667 2 -98.0321 58.9697 2 -98.2039 60.9351 2 
-41.5981 58.5419 2 -41.7371 56.7495 2 -41.8187 54.5984 2 
-41.9039 52.4062 2 -41.9399 50.1277 2 -42.0043 47.9197 2 
-42.0087 45.768 2 -41.9873 43.5286 2 -41.9903 41.3206 2 
-42.0216 39.1626 2 -42.0147 36.9545 2 -42.0368 34.8582 2 
-42.0571 32.7533 2 -42.0154 30.6517 2 -41.9701 28.4098 2 
-41.999 26.1685 2 -42.0449 23.979 2 -42.0728 21.7763 2 
-42.0978 19.585 2 -42.0599 17.414 2 -42.025 15.2478 2 
-41.9541 13.1593 2 -41.912 11.0404 2 -41.9225 8.74665 2 
-41.9606 6.6011 2 -41.9774 4.45497 2 -41.9581 2.24709 2 
-42.0193 -0.0737864 2 -42.0201 -2.16594 2 -41.9986 -4.37336 2 
-41.9975 -6.54017 2 -42.0096 -8.70263 2 -41.9868 -10.8885 2 
-41.953 -13.062 2 -41.921 -15.2771 2 -41.973 -17.4892 2 
-42.0066 -19.7517 2 -41.9989 -21.9133 2 -41.9266 -23.9442 2 
-41.8467 -26.1507 2 -41.8822 -28.3478 2 -41.8297 -30.6223 2 
-41.7413 -32.8249 2 -43.4461 -33.994 2 -45.3968 -33.8073 2 
-47.547 -33.7762 2 -49.8649 -33.8164 2 -52.0505 -33.713 2 
-54.2457 -33.6736 2 -56.5465 -33.6533 2 -58.7986 -33.6443 2 
-61.104 -33.6312 2 -63.2669 -33.6037 2 -65.5037 -33.6145 2 
-67.7614 -33.6406 2 -69.8773 -33.6153 2 -72.0706 -33.5787 2 
-74.1732 -33.5923 2 -76.4152 -33.6095 2 -78.6466 -33.6366 2 
-80.8961 -33.661 2 -83.0354 -33.6906 2 -85.3107 -33.7135 2 
-87.4931 -33.7501 2 -89.6653 -33.75 2 -91.9676 -33.7453 2 
-94.2819 -33.7815 2 -96.2835 -33.8756 2 -69.9358 31.4888 2 
-66.7937 28.833 2 -66.6482 26.4727 2 -66.6938 23.9856 2 
-66.752 21.7029 2 -66.7924 19.5702 2 -66.7933 17.3406 2 
-66.8002 15.2539 2 -66.8569 13.0512 2 -66.8618 10.8463 2 
-66.8374 8.67835 2 -66.7571 6.40854 2 -66.7784 4.31484 2 
-66.8209 2.02722 2 -66.934 -0.322002 2 -70.1299 -2.75415 2 
-72.9037 0.0542805 2 -72.9629 2.37362 2 -72.9245 4.53905 2 
-72.9084 6.64321 2 -72.8659 8.72643 2 -72.8214 10.8176 2 
-72.8251 13.0853 2 -72.8319 15.318 2 -72.8549 17.4023 2 
-72.8811 19.703 2 -72.9243 21.8616 2 -72.9677 24.0918 2 
-72.9949 26.4406 2 -72.877 28.7203 2 -72.3149 31.1534 2 
-67.3857 31.3074 2 -67.5432 -2.74475 2 -72.5306 -2.3081 2 
-71.2481 33.4976 2 -93.7486 61.1242 2 -91.7223 60.7177 2 
-89.6706 60.4317 2 -87.5237 60.2693 2 -85.237 60.2026 2 
-82.9736 60.2417 2 -80.7259 60.2541 2 -78.492 60.2104 2 
-76.4035 60.2153 2 -74.3002 60.2463 2 -72.2219 60.3006 2 
-70.045 60.2937 2 -67.8235 60.3501 2 -65.6106 60.291 2 
-63.5079 60.354 2 -61.4442 60.3927 2 -59.0809 60.401 2 
-56.8878 60.3247 2 -54.7052 60.2469 2 -52.5 60.2544 2 
-50.3592 60.3171 2 -48.3201 60.4833 2 -46.3868 60.7038 2 
-44.5298 60.9562 2 -64.1686 25.4973 2 -43.7188 -32.0163 2 
-96.1126 -29.0705 2 -95.9347 -26.7179 2 -95.8332 -24.5091 2 
-95.7786 -22.375 2 -95.7728 -20.035 2 -95.7636 -17.7317 2 
-95.7667 -15.6402 2 -95.7548 -13.5281 2 -95.7322 -11.3533 2 
-95.7622 -9.10374 2 -95.7275 -7.06373 2 -95.7687 -4.82423 2 
-95.7422 -2.57412 2 -95.7479 -0.318135 2 -95.8224 1.76577 2 
-95.8379 3.94284 2 -95.8123 6.22485 2 -95.8219 8.35396 2 
-95.8083 10.4271 2 -95.8102 12.5566 2 -95.8074 14.7445 2 
-95.8412 16.9974 2 -95.9257 19.2064 2 -95.9555 21.4164 2 
-95.947 23.4219 2 -95.9529 25.5076 2 -96.02 27.7564 2 
-95.9247 29.8941 2 -95.8759 31.8623 2 -95.8464 34.0019 2 
-95.8451 36.1371 2 -95.8165 38.3394 2 -95.7645 40.3991 2 
-95.7771 42.5863 2 -95.834 44.7355 2 -95.8385 46.9064 2 
-95.868 49.1241 2 -95.8217 51.4417 2 -95.7718 53.5764 2 
-95.795 55.8084 2 -95.9037 58.0514 2 -95.9462 60.5071 2 
-64.6699 30.695 2 -95.8496 -31.6497 2 -43.3705 57.8356 2 
-43.6481 55.6795 2 -43.8936 53.4559 2 -44.0373 51.1105 2 
-44.0673 48.7703 2 -44.0465 46.6566 2 -44.055 44.3669 2 
-44.1155 42.1361 2 -44.1027 40.0428 2 -44.1288 37.8521 2 
-44.1076 35.6844 2 -44.1008 33.534 2 -44.1231 31.4684 2 
-44.1833 29.2297 2 -44.1555 26.9897 2 -44.1536 24.7158 2 
-44.1987 22.6324 2 -44.253 20.4139 2 -44.1733 18.3235 2 
-44.1081 16.0649 2 -44.0499 13.9873 2 -43.9898 11.8585 2 
-44.0046 9.64082 2 -43.9953 7.35444 2 -44.0547 5.28366 2 
-44.0826 3.07023 2 -44.088 0.835925 2 -44.0975 -1.39344 2 
-44.0962 -3.52733 2 -44.0978 -5.74532 2 -44.0423 -7.84462 2 
-43.9981 -10.0749 2 -43.9829 -12.1973 2 -44.0553 -14.4778 2 
-44.108 -16.656 2 -44.116 -18.9117 2 -44.0522 -21.1377 2 
-44.0074 -23.1764 2 -43.932 -25.304 2 -43.7715 -27.576 2 
-43.78 -29.8409 2 -68.3987 33.6413 2 -46.0145 -31.5857 2 
-48.6014 -31.909 2 -50.8275 -31.762 2 -53.1051 -31.6023 2 
-55.2894 -31.4576 2 -57.5844 -31.4701 2 -59.9516 -31.4096 2 
-62.1275 -31.3999 2 -64.2799 -31.3911 2 -66.59 -31.4104 2 
-68.8162 -31.4153 2 -70.9441 -31.3767 2 -73.1131 -31.4303 2 
-75.2821 -31.41 2 -77.5412 -31.446 2 -79.7849 -31.5033 2 
-81.9638 -31.5323 2 -84.2012 -31.6163 2 -86.4478 -31.717 2 
-88.6742 -31.7427 2 -90.8762 -31.7463 2 -93.2157 -31.8444 2 
-68.9593 -5.51132 2 -64.252 27.951 2 -64.5461 20.7414 2 
-64.5151 18.5275 2 -64.5335 16.3729 2 -64.6231 14.1942 2 
-64.6298 11.982 2 -64.6016 9.75339 2 -64.529 7.50114 2 
-64.4797 5.31236 2 -64.4285 2.89084 2 -64.5003 0.418545 2 
-64.7588 -2.34598 2 -74.8592 30.4378 2 -74.914 -1.48696 2 
-75.0705 0.990912 2 -74.8897 7.68466 2 -74.854 9.80492 2 
-74.8765 11.9934 2 -74.8036 14.2683 2 -74.7937 16.3745 2 
-74.8413 18.5753 2 -74.9142 20.8174 2 -75.0353 23.085 2 
-75.1735 25.5338 2 -75.1528 27.8876 2 -71.8782 -4.87223 2 
-64.4449 22.9909 2 -75.0863 3.29686 2 -74.9876 5.52848 2 
-42.6921 60.1262 2 -65.344 -5.93029 2 -74.2223 33.0864 2 
-65.4564 33.4388 2 -74.5264 -4.07928 2 -77.39 2.04381 2 
-77.4527 29.4583 2 -91.3159 58.5681 2 -89.0385 58.1405 2 
-86.7475 58.039 2 -84.2634 57.9816 2 -81.9331 57.8729 2 
-79.6076 57.9005 2 -77.4401 58.0013 2 -75.3497 58.0078 2 
-73.2866 58.0501 2 -71.0787 58.0365 2 -68.8741 57.9803 2 
-66.6242 57.9798 2 -64.5971 58.0436 2 -62.4395 58.1494 2 
-60.245 58.1524 2 -57.8956 58.1383 2 -55.6682 58.0351 2 
-53.4455 57.9902 2 -51.2329 58.0488 2 -49.0842 58.2555 2 
-46.989 58.5718 2 -93.8498 -27.9319 2 -93.646 -25.7415 2 
-93.5438 -23.4639 2 -93.4168 -21.2225 2 -93.4911 -18.873 2 
-93.5339 -16.6195 2 -93.4833 -14.5507 2 -93.4113 -12.4009 2 
-93.375 -10.1903 2 -93.3972 -7.982 2 -93.3276 -5.87915 2 
-93.3323 -3.61401 2 -93.4435 -1.37251 2 -93.5221 0.743038 2 
-93.5919 2.91556 2 -93.5438 5.15241 2 -93.5554 7.37601 2 
-93.6038 9.43807 2 -93.632 11.551 2 -93.6142 13.753 2 
-93.5807 15.9542 2 -93.5356 18.2028 2 -93.5242 20.4461 2 
-93.6707 22.5373 2 -93.8291 24.4746 2 -93.8505 26.5224 2 
-93.7162 28.706 2 -93.7009 30.7423 2 -93.6508 32.732 2 
-93.6334 34.9249 2 -93.5345 37.1067 2 -93.4854 39.2931 2 
-93.5205 41.3589 2 -93.5915 43.5171 2 -93.6176 45.7082 2 
-93.5849 47.9359 2 -93.5159 50.2577 2 -93.4844 52.5983 2 
-93.475 54.7828 2 -93.5642 57.0304 2 -93.7235 59.1676 2 
-62.034 17.5874 2 -67.7885 -8.6761 2 -94.2753 -30.0252 2 
-77.1407 32.341 2 -45.8363 54.6581 2 -46.1526 52.3103 2 
-46.2638 49.8567 2 -46.2336 47.5756 2 -46.2471 45.3711 2 
-46.2814 43.0887 2 -46.4696 40.936 2 -46.3806 38.7299 2 
-46.3106 36.5951 2 -46.414 34.5199 2 -46.4154 32.3453 2 
-46.5133 30.1613 2 -46.4983 27.9052 2 -46.3748 25.629 2 
-46.3844 23.5187 2 -46.5297 21.3451 2 -46.4718 19.2205 2 
-46.4435 17.0315 2 -46.2923 14.8766 2 -46.2237 12.8187 2 
-46.1819 10.5275 2 -46.1939 8.30397 2 -46.2732 6.11558 2 
-46.2695 4.01229 2 -46.3072 1.7973 2 -46.3526 -0.51362 2 
-46.3644 -2.62011 2 -46.3586 -4.80752 2 -46.2806 -6.99119 2 
-46.2241 -9.11268 2 -46.1954 -11.3271 2 -46.3257 -13.6139 2 
-46.3931 -15.7823 2 -46.4592 -18.0281 2 -46.3696 -20.284 2 
-46.2018 -22.3863 2 -46.0843 -24.4568 2 -45.9104 -26.6331 2 
-66.6713 36.1225 2 -47.5567 -30.1352 2 -73.1151 35.8511 2 
-61.7869 24.1474 2 -49.6041 -29.8762 2 -51.8118 -29.5804 2 
-54.0458 -29.332 2 -56.2561 -29.1937 2 -58.6895 -29.0612 2 
-61.0108 -29.03 2 -63.1478 -29.0127 2 -65.3773 -29.0305 2 
-67.6274 -29.0854 2 -69.8503 -29.0714 2 -71.9785 -29.0675 2 
-74.2391 -29.0438 2 -76.427 -29.0403 2 -78.7039 -29.0888 2 
-81.002 -29.2664 2 -83.2034 -29.3799 2 -85.4092 -29.5494 2 
-87.6674 -29.7589 2 -89.8865 -29.7544 2 -92.1318 -29.7253 2 
-61.9853 -1.2591 2 -69.8469 36.1185 2 -62.1623 15.4458 2 
-62.0197 19.9346 2 -62.2911 13.1309 2 -62.221 10.8299 2 
-62.1714 8.61146 2 -62.1225 6.34029 2 -62.0614 4.05344 2 
-62.0182 1.47119 2 -61.8276 -4.61412 2 -77.1163 -2.99381 2 
-77.3234 -0.489359 2 -73.9822 -6.80393 2 -76.9484 8.73654 2 
-76.8438 15.3656 2 -76.8366 17.4688 2 -76.9167 19.782 2 
-77.2494 21.9509 2 -77.4839 24.368 2 -77.5646 26.9039 2 
-71.0976 -7.74068 2 -62.1219 32.8551 2 -45.4208 56.9905 2 
-62.4297 21.9559 2 -76.9032 10.9369 2 -76.9048 13.1384 2 
-45.6845 -28.9854 2 -44.9082 59.045 2 -76.4198 35.2791 2 
-63.1985 35.8127 2 -61.5201 29.7041 2 -64.7004 -9.43026 2 
-77.2733 4.32535 2 -61.4801 26.9304 2 -61.6118 -8.1605 2 
-76.8183 -5.69466 2 -77.0562 6.58469 2 -64.699 38.8605 2 
-59.3581 0.13061 2 -88.5441 55.5244 2 -85.6685 55.7588 2 
-83.2567 55.5094 2 -80.8097 55.2765 2 -78.5617 55.4098 2 
-76.3424 55.6077 2 -74.3056 55.5737 2 -72.148 55.5326 2 
-69.8668 55.4609 2 -67.6215 55.3923 2 -65.4801 55.5256 2 
-63.4558 55.6417 2 -61.37 55.7085 2 -59.0001 55.7328 2 
-56.6994 55.5521 2 -54.4198 55.461 2 -52.1222 55.5305 2 
-49.823 55.8418 2 -47.567 56.3002 2 -91.2741 -27.314 2 
-79.793 34.5179 2 -59.2946 35.1941 2 -59.7068 14.452 2 
-58.5629 31.8291 2 -91.2179 -24.631 2 -91.0906 -22.3376 2 
-91.0392 -19.9782 2 -91.143 -17.646 2 -91.1155 -15.5119 2 
-90.9592 -13.4357 2 -90.9646 -11.2587 2 -90.9833 -8.99274 2 
-90.9298 -6.84485 2 -90.881 -4.64651 2 -90.8775 -2.41894 2 
-90.9395 -0.147332 2 -90.9576 1.94797 2 -91.0013 4.19249 2 
-91.0934 6.42198 2 -91.1685 8.50176 2 -91.2377 10.6034 2 
-91.2315 12.7872 2 -91.161 15.0161 2 -91.0577 17.2933 2 
-91.0398 19.5684 2 -91.0914 21.7194 2 -91.3358 23.7169 2 
-91.8784 25.4554 2 -91.4012 27.4105 2 -91.3152 29.499 2 
-91.3042 31.5591 2 -91.198 33.5691 2 -91.0885 35.8278 2 
-90.9956 38.0123 2 -90.9712 40.1437 2 -91.0894 42.2125 2 
-91.0707 44.3888 2 -91.0064 46.6645 2 -90.9994 49.0456 2 
-91.0701 51.4667 2 -91.0563 53.8089 2 -91.0648 56.202 2 
-76.4182 -8.66282 2 -79.0285 9.8639 2 -47.8569 -28.032 2 
-59.4595 16.6818 2 -48.5699 51.227 2 -48.6225 48.7112 2 
-48.5699 46.2705 2 -48.3486 44.2424 2 -49.2018 42.06 2 
-49.2126 39.6223 2 -48.4581 37.6051 2 -48.7887 35.6225 2 
-48.885 33.4483 2 -48.9361 31.2296 2 -49.0023 28.85 2 
-49.0031 26.5414 2 -48.4816 24.552 2 -49.0715 22.5808 2 
-49.215 20.3236 2 -48.8911 18.0379 2 -48.6975 15.8055 2 
-48.651 13.6819 2 -48.5078 11.5937 2 -48.4615 9.35895 2 
-48.611 7.14551 2 -48.7112 5.09096 2 -48.7586 2.82112 2 
-48.7689 0.579813 2 -48.7983 -1.68477 2 -48.8354 -3.7888 2 
-48.8398 -5.94239 2 -48.7226 -8.12569 2 -48.5696 -10.3529 2 
-48.6438 -12.6216 2 -48.9358 -14.8026 2 -49.0414 -17.0772 2 
-48.9235 -19.2771 2 -48.6284 -21.5575 2 -48.416 -23.6631 2 
-48.1096 -25.8249 2 -58.5848 25.3041 2 -71.6889 38.6658 2 
-52.6408 -27.2368 2 -54.8971 -26.8852 2 -57.3178 -26.6868 2 
-59.7101 -26.5223 2 -61.9798 -26.3999 2 -64.1801 -26.505 2 
-66.4331 -26.6929 2 -68.7005 -26.699 2 -70.8647 -26.6005 2 
-73.1448 -26.4713 2 -75.4012 -26.4379 2 -77.6497 -26.5104 2 
-79.978 -26.7128 2 -82.337 -26.8842 2 -84.5609 -27.1192 2 
-86.8533 -27.4588 2 -88.9173 -27.9643 2 -68.183 38.89 2 
-48.0779 53.8319 2 -59.7738 11.99 2 -59.1941 19.2487 2 
-59.6222 9.79043 2 -59.5815 7.50345 2 -59.5879 5.22493 2 
-59.5298 2.75558 2 -79.6269 -4.4855 2 -80.2286 28.2318 2 
-78.9506 16.4298 2 -79.7965 23.0071 2 -80.0471 25.547 2 
-80.3055 31.3384 2 -75.4109 38.3405 2 -78.9877 18.5347 2 
-66.4842 -12.4324 2 -58.8231 -2.9834 2 -79.3135 20.8738 2 
-58.4158 28.3951 2 -79.5847 -7.27522 2 -60.7292 38.5048 2 
-79.9015 3.1172 2 -79.8911 0.722236 2 -79.0798 12.0486 2 
-59.4149 22.0446 2 -62.3492 -12.419 2 -79.1405 7.68829 2 
-50.2281 -27.6109 2 -79.758 -1.88423 2 -57.9577 -6.51367 2 
-73.4485 -9.8852 2 -78.8967 37.7803 2 -78.9776 14.3149 2 
-70.0842 -11.3291 2 -77.995 41.0352 2 -84.6147 53.3167 2 
-82.1205 52.4879 2 -79.5333 51.6802 2 -77.3844 53.1959 2 
-75.3574 53.0437 2 -73.2015 53.0114 2 -70.9387 52.9805 2 
-68.4805 52.7022 2 -66.1757 52.4355 2 -64.333 53.2095 2 
-62.2873 52.7716 2 -60.2207 53.3893 2 -58.0241 53.0333 2 
-55.4892 52.9698 2 -53.0964 52.7971 2 -50.6072 53.0966 2 
-56.1108 37.9316 2 -79.6292 5.38873 2 -54.821 34.418 2 
-88.8868 -25.8072 2 -88.6805 -23.4532 2 -88.4158 -21.072 2 
-88.3412 -18.6357 2 -88.8973 -16.4782 2 -88.313 -14.5431 2 
-88.2194 -12.3601 2 -88.3982 -10.0981 2 -88.417 -7.76597 2 
-88.2667 -5.60641 2 -88.0857 -3.35262 2 -88.1241 -1.06805 2 
-88.3035 1.08261 2 -88.4593 3.25059 2 -88.4932 5.46673 2 
-88.5698 7.60219 2 -88.8269 9.6975 2 -88.8777 11.9055 2 
-88.7204 14.14 2 -88.5254 16.4192 2 -88.4278 18.7029 2 
-88.3625 21.058 2 -88.5279 23.3041 2 -89.0775 25.5804 2 
-88.8288 27.966 2 -88.8542 30.296 2 -88.8893 32.3083 2 
-88.8442 34.4256 2 -88.5137 36.6167 2 -88.1357 38.8383 2 
-88.1834 41.0109 2 -88.7659 43.0957 2 -88.0707 45.1364 2 
-88.1951 47.57 2 -88.5813 50.1499 2 -88.8642 52.6932 2 
-83.5411 33.5963 2 -64.3841 -16.8448 2 -56.7724 15.4054 2 
-62.4843 42.1116 2 -50.7975 47.2057 2 -51.3346 44.4909 2 
-52.9134 40.9917 2 -51.6388 37.4605 2 -51.3166 34.8236 2 
-51.9042 32.4234 2 -51.4067 30.0105 2 -51.9735 27.5947 2 
-51.5932 24.631 2 -52.2591 21.8291 2 -52.441 18.9834 2 
-51.008 16.7343 2 -51.2248 14.6166 2 -51.1517 12.489 2 
-50.5545 10.4447 2 -51.1132 8.41823 2 -51.2754 6.20009 2 
-51.3895 4.02957 2 -51.384 1.777 2 -51.3137 -0.52617 2 
-51.4419 -2.73576 2 -51.5941 -4.89474 2 -51.55 -7.14867 2 
-51.4134 -9.35291 2 -50.815 -11.5157 2 -51.617 -13.585 2 
-51.9737 -15.9101 2 -51.7346 -18.2231 2 -51.3984 -20.6183 2 
-51.0616 -22.9663 2 -53.3655 -24.7247 2 -81.1551 17.4966 2 
-82.3233 37.2223 2 -51.3955 50.0315 2 -57.9961 -10.9374 2 
-70.0443 41.697 2 -55.9081 -24.2368 2 -58.267 -24.3406 2 
-60.4626 -23.5447 2 -62.8874 -23.5804 2 -65.3582 -23.8242 2 
-67.49 -24.4039 2 -69.5193 -23.6885 2 -71.8868 -23.5794 2 
-74.4371 -23.4912 2 -76.7889 -23.4439 2 -79.0761 -23.9194 2 
-81.5542 -24.2739 2 -83.8984 -24.4988 2 -86.411 -24.9949 2 
-56.7401 8.8116 2 -56.2768 17.9544 2 -56.8383 6.41541 2 
-56.8093 1.57771 2 -66.4486 41.9228 2 -56.8976 4.06446 2 
-76.1138 -11.9369 2 -83.429 29.5553 2 -74.1874 41.485 2 
-56.8123 11.1395 2 -54.7452 30.1586 2 -57.4048 13.2517 2 
-55.2595 26.6387 2 -86.8428 53.7351 2 -56.4355 -1.01176 2 
-50.6637 -25.195 2 -82.4428 -5.83859 2 -72.891 -13.4846 2 
-82.3862 -3.20218 2 -58.015 41.7202 2 -82.8999 4.36129 2 
-59.2463 -16.0806 2 -79.3478 -10.4179 2 -82.9066 26.5835 2 
-80.9898 8.76096 2 -82.5784 1.85695 2 -81.2302 15.463 2 
-81.7833 40.5841 2 -81.0237 19.5384 2 -55.894 20.7403 2 
-81.5312 10.8554 2 -82.6178 23.907 2 -55.4968 23.6002 2 
-69.0718 -15.9033 2 -82.3983 21.4428 2 -85.1042 39.7727 2 
-82.0987 48.4182 2 -76.9353 50.4828 2 -74.4311 50.4571 2 
-71.9746 50.4191 2 -69.6026 50.4403 2 -66.9044 49.0173 2 
-63.6867 49.7997 2 -60.1716 50.0174 2 -57.1448 50.4635 2 
-54.4081 50.0154 2 -81.8281 6.72186 2 -82.4555 -0.68743 2 
-85.9733 -22.4715 2 -85.4374 -19.6341 2 -85.7209 -16.5402 2 
-85.4028 -11.1462 2 -86.0789 -8.87821 2 -85.4886 -6.72009 2 
-85.2382 -2.05739 2 -85.5762 2.48985 2 -86.0909 4.51592 2 
-85.2899 6.59785 2 -86.1499 8.75024 2 -86.4618 11.0944 2 
-86.2308 13.3335 2 -86.0159 15.5534 2 -85.8339 17.7121 2 
-85.5356 20.1716 2 -85.7868 24.7553 2 -85.962 27.0401 2 
-86.5134 29.1239 2 -86.0762 31.2279 2 -86.6779 33.1678 2 
-86.4628 35.1134 2 -85.3945 42.7527 2 -84.9437 45.917 2 
-85.6438 48.7198 2 -81.3166 13.2331 2 -54.2903 13.3194 2 
-53.9342 7.66055 2 -53.7228 -1.53992 2 -54.9428 -3.67161 2 
-54.2015 -6.12615 2 -54.7022 -8.68086 2 -53.9017 -11.4075 2 
-55.263 -14.184 2 -55.2825 -17.3253 2 -54.1482 -19.7643 2 
-54.0634 -22.2153 2 -82.8447 -8.87171 2 -81.1459 44.215 2 
-61.3145 -20.2559 2 -64.3015 -20.9405 2 -67.2556 -20.7143 2 
-70.3672 -20.1729 2 -73.0759 -20.6517 2 -75.8252 -19.5605 2 
-78.5635 -20.5225 2 -80.7731 -21.6556 2 -83.3166 -21.7265 2 
-60.3267 45.6793 2 -86.4798 51.4422 2 -68.2667 44.8306 2 
-75.9072 -15.3878 2 -84.0907 50.6533 2 -55.5589 44.394 2 
-53.5968 10.4042 2 -78.8527 47.7107 2 -85.3056 -13.7326 2 
-85.2407 -4.38949 2 -85.4239 0.275898 2 -85.4642 22.4176 2 
-53.5676 47.0172 2 -85.4367 37.0813 2 -72.5893 44.6764 2 
-79.1095 -13.6552 2 -57.5499 -20.9433 2 -53.6922 16.1038 2 
-54.0682 5.30099 2 -54.1175 2.94823 2 -54.0368 0.641024 2 
-76.7382 44.217 2 -83.4913 16.6393 2 -83.26 18.8781 2 
-64.5564 45.5891 2 -72.7751 -17.274 2 -72.9503 48.0404 2 
-83.2487 8.51548 2 -82.0418 -18.6481 2 -78.956 -17.0078 2 
-82.2314 -15.267 2 -83.6243 14.5117 2 -75.6197 47.4571 2 
-84.1862 10.325 2 -70.2128 47.5999 2 -56.9441 47.4683 2 
-82.3248 -12.1331 2 -83.7742 12.3953 2 -97.1154 62.5439 0 
-94.9894 62.3773 0 -92.8043 62.3871 0 -90.6279 62.4144 0 
-88.4181 62.4291 0 -86.3064 62.3612 0 -84.1333 62.2977 0 
-82.0438 62.2388 0 -79.6972 62.2932 0 -77.4427 62.2795 0 
-75.3046 62.2957 0 -73.2273 62.3709 0 -70.9148 62.3592 0 
-68.8055 62.3199 0 -66.6055 62.3037 0 -64.4312 62.3045 0 
-62.3484 62.2745 0 -60.2438 62.2549 0 -58.0628 62.2447 0 
-55.9199 62.2935 0 -53.848 62.3261 0 -51.6459 62.2825 0 
-49.6502 62.3524 0 -47.4994 62.4556 0 -45.4267 62.5683 0 
-43.2875 62.6265 0 -41.4446 62.805 0 -98.2224 -32.8883 0 
-98.0873 -30.5737 0 -97.9038 -28.4777 0 -97.8284 -26.1553 0 
-97.7556 -23.8801 0 -97.7808 -21.7644 0 -97.7771 -19.5178 0 
-97.8105 -17.1857 0 -97.7786 -14.9864 0 -97.8168 -12.7463 0 
-97.8042 -10.5894 0 -97.7651 -8.39151 0 -97.78 -6.23326 0 
-97.832 -4.13525 0 -97.751 -2.03484 0 -97.7155 0.136895 0 
-97.7076 2.21357 0 -97.6775 4.34609 0 -97.6484 6.41162 0 
-97.6581 8.68687 0 -97.6875 10.8874 0 -97.6662 13.0547 0 
-97.7075 15.164 0 -97.6909 17.3553 0 -97.6802 19.6037 0 
-97.6787 21.8088 0 -97.7024 23.8873 0 -97.7043 26.0889 0 
-97.7464 28.2209 0 -97.8116 30.4788 0 -97.746 32.6035 0 
-97.7314 34.7834 0 -97.7543 36.8794 0 -97.7334 39.0793 0 
-97.7423 41.2573 0 -97.7731 43.4709 0 -97.8053 45.7003 0 
-97.8026 47.8409 0 -97.7234 50.0367 0 -97.7385 52.2246 0 
-97.749 54.4621 0 -97.8843 56.6921 0 -98.061 58.8736 0 
-41.8789 60.8336 0 -41.6191 58.5157 0 -41.7411 56.335 0 
-41.8042 54.1784 0 -41.8775 52.0891 0 -41.882 49.8421 0 
-41.969 47.6515 0 -41.9895 45.5757 0 -41.9726 43.4084 0 
-42.0311 41.1871 0 -42.0553 39.0044 0 -42.0058 36.7493 0 
-41.9814 34.5826 0 -41.9553 32.4997 0 -41.9849 30.2038 0 
-41.9677 28.077 0 -42.0276 25.9048 0 -42.0308 23.6331 0 
-42.0562 21.4392 0 -42.0483 19.1816 0 -42.0744 16.769 0 
-42.0401 14.5278 0 -42.0225 12.2961 0 -41.9899 10.0927 0 
-41.9442 7.93621 0 -41.9612 5.87459 0 -41.9603 3.68755 0 
-41.9255 1.57669 0 -41.9237 -0.577946 0 -41.9609 -2.73199 0 
-41.9944 -5.07915 0 -41.9947 -7.2016 0 -41.9678 -9.24947 0 
-41.9287 -11.363 0 -41.9718 -13.4972 0 -41.9913 -15.6964 0 
-42.012 -17.8326 0 -41.9772 -19.8892 0 -41.9373 -22.0819 0 
-41.8718 -24.1491 0 -41.8125 -26.3164 0 -41.7734 -28.4965 0 
-41.7716 -30.6399 0 -41.7519 -32.771 0 -43.4132 -33.9894 0 
-45.3033 -33.7125 0 -47.5041 -33.6529 0 -49.678 -33.7553 0 
-52.0006 -33.7379 0 -54.0886 -33.6579 0 -56.2637 -33.5826 0 
-58.3296 -33.5199 0 -60.4441 -33.4971 0 -62.6425 -33.492 0 
-64.9162 -33.4771 0 -67.0832 -33.5622 0 -69.2763 -33.5836 0 
-71.3777 -33.6086 0 -73.4874 -33.5812 0 -75.5484 -33.5744 0 
-77.6697 -33.5414 0 -79.8397 -33.5224 0 -81.9964 -33.5499 0 
-84.1721 -33.577 0 -86.3527 -33.5638 0 -88.4372 -33.581 0 
-90.5235 -33.6109 0 -92.5975 -33.6502 0 -94.7694 -33.8374 0 
-96.6287 -34.0696 0 -69.8996 31.4343 0 -66.8918 28.7239 0 
-66.8732 26.5019 0 -66.8223 24.2116 0 -66.8473 22.005 0 
-66.8828 19.757 0 -66.8525 17.6459 0 -66.8748 15.4128 0 
-66.847 13.1923 0 -66.8032 10.9951 0 -66.8693 8.79137 0 
-66.888 6.67704 0 -66.8537 4.45006 0 -66.8657 2.262 0 
-66.9513 -0.042195 0 -70.0561 -2.57573 0 -73.0556 0.272634 0 
-73.0698 2.72231 0 -73.082 4.97271 0 -73.147 7.15938 0 
-73.1194 9.44408 0 -73.0757 11.5405 0 -73.0563 13.7579 0 
-73.0485 15.84 0 -73.0043 17.9401 0 -73.0446 20.0707 0 
-73.0719 22.2091 0 -73.0194 24.3199 0 -73.0319 26.5152 0 
-72.7836 28.8543 0 -73.0152 -2.52295 0 -67.3494 31.1932 0 
-98.3747 60.8934 0 -72.1536 31.1517 0 -67.4897 -2.34517 0 
-94.1561 60.2276 0 -96.2835 60.5356 0 -89.6271 60.4813 0 
-87.4171 60.3357 0 -85.2867 60.1457 0 -83.0597 60.0711 0 
-80.884 59.9647 0 -78.6045 60.0328 0 -76.4207 60.0858 0 
-74.2337 60.0678 0 -72.069 60.0639 0 -69.8654 60.1584 0 
-67.6669 60.0926 0 -65.4674 60.0573 0 -63.3404 60.0672 0 
-61.2102 60.0242 0 -59.1471 59.9826 0 -56.9785 60.0319 0 
-54.8439 60.0289 0 -52.6594 60.0969 0 -50.6007 60.2615 0 
-48.4504 60.378 0 -46.3442 60.5728 0 -44.2691 60.795 0 
-95.6708 -27.6443 0 -43.2382 59.2387 0 -71.4406 -4.74076 0 
-95.9074 -29.9067 0 -96.2274 -32.0855 0 -95.48 -25.3374 0 
-95.4278 -23.0549 0 -95.3767 -20.7587 0 -95.3537 -18.5023 0 
-95.3137 -16.1678 0 -95.2752 -13.9031 0 -95.3383 -11.699 0 
-95.4101 -9.55416 0 -95.4427 -7.43426 0 -95.4331 -5.27449 0 
-95.396 -3.06977 0 -95.3571 -0.968102 0 -95.2901 1.16903 0 
-95.2024 3.27474 0 -95.1759 5.39567 0 -95.1829 7.55349 0 
-95.2091 9.74833 0 -95.2155 11.9716 0 -95.1915 14.0953 0 
-95.1456 16.2464 0 -95.1314 18.4101 0 -95.148 20.6318 0 
-95.2383 22.7806 0 -95.2643 24.9542 0 -95.2487 27.1301 0 
-95.1844 29.2932 0 -95.2509 31.485 0 -95.2888 33.6386 0 
-95.3265 35.8494 0 -95.2381 37.9758 0 -95.2087 40.1572 0 
-95.2925 42.3666 0 -95.3528 44.5623 0 -95.3656 46.8342 0 
-95.3423 49.0644 0 -95.4081 51.2479 0 -95.4407 53.5497 0 
-95.527 55.9302 0 -95.7552 58.2804 0 -64.7402 27.9047 0 
-71.0756 33.4545 0 -75.2105 -0.936692 0 -43.4891 57.3137 0 
-43.7085 55.2531 0 -43.7945 53.0361 0 -43.9552 50.8649 0 
-44.1035 48.5635 0 -44.1409 46.4457 0 -44.2103 44.2351 0 
-44.2477 41.9482 0 -44.2356 39.8312 0 -44.1894 37.6311 0 
-44.1649 35.4281 0 -44.1635 33.2546 0 -44.2076 30.9908 0 
-44.1827 28.8486 0 -44.1956 26.6714 0 -44.1997 24.4513 0 
-44.2096 22.2367 0 -44.21 19.9585 0 -44.189 17.6737 0 
-44.1616 15.3692 0 -44.1117 13.2258 0 -44.0493 10.941 0 
-44.0471 8.78308 0 -44.0206 6.62608 0 -43.9633 4.52792 0 
-43.9376 2.38415 0 -43.9192 0.253632 0 -44.0665 -1.92538 0 
-44.1022 -4.13792 0 -44.0474 -6.35846 0 -44.0634 -8.45066 0 
-44.0569 -10.5602 0 -44.1367 -12.7126 0 -44.1763 -14.849 0 
-44.1265 -17.0641 0 -44.0796 -19.1183 0 -44.0036 -21.2923 0 
-43.8728 -23.3616 0 -43.797 -25.5531 0 -43.6437 -27.7239 0 
-43.5825 -29.8752 0 -43.6528 -32.0589 0 -48.4061 -31.6879 0 
-45.9747 -31.3836 0 -50.819 -31.7724 0 -52.9402 -31.5845 0 
-55.0373 -31.4064 0 -57.2823 -31.3054 0 -59.4186 -31.2968 0 
-61.5406 -31.2944 0 -63.7913 -31.2527 0 -65.927 -31.2814 0 
-68.1208 -31.3677 0 -70.2683 -31.4368 0 -72.3798 -31.389 0 
-74.5295 -31.3695 0 -76.6733 -31.2838 0 -78.7525 -31.2245 0 
-80.946 -31.325 0 -83.1709 -31.3566 0 -85.3716 -31.3423 0 
-87.5403 -31.3288 0 -89.8111 -31.3424 0 -91.9544 -31.4238 0 
-94.1262 -31.6206 0 -64.995 30.4095 0 -64.9667 -1.65918 0 
-68.4608 -4.68041 0 -64.6305 25.5326 0 -64.5755 23.275 0 
-64.5596 20.9894 0 -64.6296 18.6847 0 -64.6268 16.464 0 
-64.6258 14.2463 0 -64.6094 12.0241 0 -64.6191 9.88542 0 
-64.5673 7.6129 0 -64.5024 5.35638 0 -64.6773 3.16478 0 
-64.7987 0.740865 0 -75.3381 3.77117 0 -75.3766 6.02692 0 
-75.4205 8.2426 0 -75.3718 10.4608 0 -75.3765 12.6091 0 
-75.3413 14.7005 0 -75.2998 16.8626 0 -75.3333 19.0234 0 
-75.2932 21.215 0 -75.2695 23.4236 0 -75.274 25.7234 0 
-75.0714 28.0347 0 -68.2867 33.4988 0 -91.8913 60.3608 0 
-75.3463 1.37087 0 -74.4982 30.5988 0 -74.3657 -5.24899 0 
-73.7333 33.0931 0 -76.8899 -3.26018 0 -65.6408 -4.23615 0 
-65.5827 33.0474 0 -72.485 -7.00008 0 -84.3102 57.7975 0 
-88.7952 58.2231 0 -82.0369 57.7475 0 -79.7417 57.7444 0 
-77.5104 57.7159 0 -75.2753 57.7693 0 -73.1322 57.7768 0 
-71.0212 57.7711 0 -68.7473 57.7398 0 -66.5666 57.7175 0 
-64.3577 57.6737 0 -62.2446 57.6161 0 -60.135 57.6678 0 
-57.9791 57.6618 0 -55.8007 57.6786 0 -53.7099 57.7452 0 
-51.4822 57.9207 0 -49.2716 58.122 0 -47.1011 58.3742 0 
-45.0515 58.7372 0 -66.7368 -6.98027 0 -93.0024 -24.6251 0 
-77.1099 29.7393 0 -72.5174 35.7109 0 -93.2783 -27.0416 0 
-92.6829 -19.8715 0 -92.6748 -17.4476 0 -92.7612 -15.121 0 
-92.782 -12.8954 0 -92.8259 -10.7228 0 -92.886 -8.54842 0 
-92.9275 -6.40863 0 -92.9465 -4.21244 0 -92.8936 -2.06712 0 
-92.7347 0.0818251 0 -92.6903 2.20277 0 -92.65 4.3241 0 
-92.5887 6.40454 0 -92.5966 8.61682 0 -92.5035 10.8289 0 
-92.5086 13.0218 0 -92.5429 15.1233 0 -92.5604 17.2913 0 
-92.5346 19.5214 0 -92.5524 21.6647 0 -92.627 23.7818 0 
-92.6479 26.0179 0 -92.643 28.209 0 -92.69 30.3078 0 
-92.7431 32.5241 0 -92.6614 34.7407 0 -92.622 36.9151 0 
-92.6792 39.0683 0 -92.78 41.202 0 -92.8359 43.4399 0 
-92.8294 45.7599 0 -92.7901 48.07 0 -92.8141 50.2396 0 
-92.9549 52.5478 0 -93.1558 55.0098 0 -93.2032 57.839 0 
-77.7315 -0.233589 0 -46.103 52.0214 0 -46.2564 49.6181 0 
-46.4219 47.4742 0 -46.5458 45.2207 0 -46.6006 42.9161 0 
-46.5585 40.6396 0 -46.4293 38.575 0 -46.331 36.3666 0 
-46.3451 34.1213 0 -46.4565 31.9853 0 -46.4467 29.7777 0 
-46.4666 27.5692 0 -46.4963 25.3522 0 -46.5666 23.0515 0 
-46.6019 20.8992 0 -46.4958 18.6408 0 -46.4906 16.2948 0 
-46.4194 14.0484 0 -46.387 11.8864 0 -46.2648 9.65974 0 
-46.2192 7.42761 0 -46.2633 5.27275 0 -46.1621 3.27412 0 
-45.9482 1.24028 0 -46.173 -1.0276 0 -46.432 -3.0649 0 
-46.42 -5.31379 0 -46.2634 -7.53854 0 -46.2713 -9.66609 0 
-46.423 -11.871 0 -46.4652 -14.0002 0 -46.4083 -16.1726 0 
-46.2878 -18.2759 0 -46.217 -20.4057 0 -46.1385 -22.5643 0 
-46.0554 -24.7817 0 -45.8504 -27.1048 0 -45.4075 -29.0847 0 
-51.6632 -29.7324 0 -49.7062 -30.0212 0 -62.5094 29.5543 0 
-62.619 -3.40277 0 -76.3867 32.4601 0 -53.7748 -29.2676 0 
-55.8929 -28.818 0 -58.2532 -28.8552 0 -60.4145 -28.996 0 
-62.6877 -29.0045 0 -64.8019 -28.8942 0 -66.9174 -28.9426 0 
-69.1061 -29.0791 0 -71.3415 -29.0858 0 -73.4579 -28.979 0 
-75.6087 -28.888 0 -77.7739 -28.8458 0 -79.8239 -28.9012 0 
-82.1138 -28.9048 0 -84.4913 -28.8503 0 -86.7494 -28.8084 0 
-89.0176 -28.8508 0 -91.3556 -29.0482 0 -93.656 -29.405 0 
-77.8166 2.37943 0 -62.9003 32.2169 0 -92.7726 -22.2143 0 
-69.7215 -7.14069 0 -62.0797 24.4882 0 -61.985 22.1841 0 
-62.0014 19.8864 0 -62.1445 17.5051 0 -62.2584 15.2639 0 
-62.2816 13.0599 0 -62.2794 10.885 0 -62.1525 8.61328 0 
-61.9848 6.24265 0 -62.0636 3.98733 0 -77.8136 4.88547 0 
-66.5441 35.7588 0 -77.8091 7.13176 0 -77.8497 9.36461 0 
-77.878 11.4709 0 -77.8143 13.6162 0 -77.7914 15.7296 0 
-77.806 17.9631 0 -77.8113 20.1422 0 -77.826 22.4664 0 
-77.7389 24.8123 0 -77.5315 27.1724 0 -69.515 35.9977 0 
-86.4974 57.9766 0 -45.8093 54.3461 0 -62.2754 26.9843 0 
-45.4693 56.5861 0 -90.8747 58.6018 0 -63.3731 -6.36559 0 
-62.3218 -0.700461 0 -77.3269 -6.43633 0 -47.5417 -29.0545 0 
-75.4426 35.1776 0 -63.4873 35.1045 0 -62.6297 1.72176 0 
-74.7139 -8.32782 0 -83.3725 55.199 0 -76.3832 55.1683 0 
-74.1782 55.3373 0 -72.0337 55.3446 0 -69.8575 55.2486 0 
-67.6398 55.191 0 -65.5107 55.0921 0 -63.2636 55.0054 0 
-61.1662 54.8709 0 -58.9807 55.0362 0 -56.741 55.1383 0 
-54.5575 55.1652 0 -52.3672 55.3389 0 -50.0186 55.6079 0 
-47.6853 56.0159 0 -59.3301 25.7818 0 -80.0279 28.8227 0 
-48.9957 46.4263 0 -89.7647 -14.1675 0 -89.8334 -16.4198 0 
-89.903 -19.0094 0 -89.8429 -11.8616 0 -89.8481 -9.61423 0 
-90.0013 -7.51237 0 -90.0611 -5.36373 0 -90.1533 -3.25715 0 
-90.0842 -1.02486 0 -89.862 1.01966 0 -89.7327 3.16228 0 
-89.7398 5.35465 0 -89.6006 7.4695 0 -89.5568 9.67363 0 
-89.6226 11.8661 0 -89.6388 13.9781 0 -89.7013 16.0936 0 
-89.73 18.3232 0 -89.6793 20.5543 0 -89.6491 22.6598 0 
-89.6799 24.8774 0 -89.926 27.0687 0 -89.8856 29.305 0 
-89.8805 31.3243 0 -89.933 33.6048 0 -89.8522 35.8006 0 
-89.7859 37.9803 0 -89.8792 40.1451 0 -90.1609 42.2813 0 
-90.198 44.6522 0 -89.9984 47.0172 0 -90.0563 49.2242 0 
-90.1753 51.5407 0 -90.4421 53.9695 0 -90.7323 56.423 0 
-60.108 31.1846 0 -74.4633 38.2354 0 -56.7744 -26.1285 0 
-59.7789 28.4993 0 -68.2186 -9.76233 0 -60.3382 34.2091 0 
-48.779 48.6727 0 -48.5708 51.0825 0 -49.1456 44.0618 0 
-49.1616 41.7046 0 -48.9363 39.5712 0 -48.6239 37.4449 0 
-48.5611 35.1627 0 -48.7581 32.9669 0 -48.8288 30.8508 0 
-48.8643 28.6135 0 -48.9661 26.3583 0 -49.0806 24.0418 0 
-49.1175 21.8861 0 -49.074 19.7155 0 -49.0357 17.3042 0 
-48.9215 15.0512 0 -48.861 12.8448 0 -48.78 10.6492 0 
-48.6557 8.33486 0 -48.7865 6.01902 0 -48.7989 3.8834 0 
-48.0244 2.10981 0 -48.1525 0.198003 0 -49.0536 -1.71577 0 
-49.1371 -4.01517 0 -48.8097 -6.34075 0 -48.7351 -8.61827 0 
-48.9494 -10.8659 0 -49.0566 -13.005 0 -48.965 -15.1727 0 
-48.783 -17.4123 0 -48.5851 -19.5038 0 -48.5938 -21.7595 0 
-48.561 -23.9985 0 -48.1014 -26.4414 0 -80.3775 -4.64486 0 
-50.0034 -27.9694 0 -54.0494 -26.1323 0 -59.2566 -2.08806 0 
-78.39 34.317 0 -90.8282 -26.5919 0 -64.4541 38.2972 0 
-52.2274 -27.6509 0 -59.403 -26.3546 0 -61.5155 -26.9085 0 
-63.5547 -26.3532 0 -65.736 -26.2409 0 -67.9716 -26.5167 0 
-70.2019 -26.724 0 -72.4161 -26.5333 0 -74.4991 -26.273 0 
-76.7237 -26.2176 0 -78.8198 -26.2429 0 -81.0914 -26.3302 0 
-83.4877 -26.334 0 -85.8568 -26.152 0 -88.2957 -26.2591 0 
-80.4315 1.05611 0 -78.6066 55.1617 0 -80.4039 -1.69963 0 
-79.2262 31.5796 0 -48.1804 53.5993 0 -80.9566 55.1536 0 
-67.796 38.6833 0 -58.9709 20.9771 0 -59.3315 18.7046 0 
-59.5721 16.3077 0 -59.696 14.1646 0 -59.8475 11.8857 0 
-59.6692 9.66702 0 -59.3932 7.17686 0 -59.2275 4.49336 0 
-80.4137 3.67695 0 -80.3157 8.26434 0 -80.3698 10.4708 0 
-80.3467 12.5431 0 -80.3832 14.7117 0 -80.4805 16.8873 0 
-80.4657 19.0945 0 -80.4841 21.3601 0 -80.4388 23.7571 0 
-80.3547 26.3223 0 -71.1333 38.7237 0 -71.7011 -9.60607 0 
-59.0189 23.318 0 -80.3214 5.99323 0 -59.9585 -5.38872 0 
-64.7068 -9.46412 0 -88.1978 55.8218 0 -89.8811 -21.4434 0 
-60.8601 37.402 0 -80.3708 -7.76114 0 -59.5099 1.37487 0 
-85.7268 55.4672 0 -90.3217 -24.0286 0 -77.5105 37.4453 0 
-77.4105 -9.86848 0 -61.0984 -8.65897 0 -50.8525 -25.5781 0 
-75.1008 52.308 0 -68.7679 52.804 0 -66.6008 52.1648 0 
-64.459 52.5887 0 -62.3557 51.8266 0 -59.943 51.8331 0 
-57.7208 52.652 0 -55.4632 52.3412 0 -53.1624 52.6475 0 
-50.6352 53.0022 0 -83.6025 27.8984 0 -55.1199 -23.4581 0 
-86.6387 -13.1439 0 -86.8959 -8.36278 0 -87.5607 -6.41592 0 
-87.0171 -4.38196 0 -87.3808 -2.29574 0 -86.6332 -0.311941 0 
-86.4182 1.80531 0 -86.3727 4.04132 0 -86.405 6.32784 0 
-86.4507 8.48214 0 -86.395 10.6499 0 -86.5074 12.8112 0 
-86.5303 14.8928 0 -86.4544 17.119 0 -86.5121 19.3478 0 
-86.6217 21.5625 0 -86.6126 23.7831 0 -86.6296 26.0596 0 
-87.1688 28.2064 0 -86.3547 30.3194 0 -87.5043 32.4345 0 
-86.9747 34.5369 0 -86.7919 36.8414 0 -86.7366 39.1577 0 
-86.9471 41.4064 0 -87.6249 43.5372 0 -87.3049 45.7513 0 
-87.2239 48.2518 0 -87.2392 50.6168 0 -87.685 53.2164 0 
-52.0794 43.018 0 -51.4019 47.8886 0 -84.0224 -6.08607 0 
-51.7755 45.4819 0 -51.1449 50.3573 0 -51.8596 40.4793 0 
-51.3518 38.3025 0 -50.6463 36.3067 0 -51.226 34.2521 0 
-51.4552 32.1588 0 -51.5462 29.8166 0 -51.5236 27.4719 0 
-51.7761 25.1911 0 -52.1105 23.0216 0 -52.1028 20.7832 0 
-51.8495 18.4771 0 -51.8097 16.0928 0 -51.868 13.8597 0 
-51.5802 11.5238 0 -51.3274 9.29106 0 -50.9694 7.04839 0 
-52.1629 4.59252 0 -51.2607 1.11739 0 -52.1824 -2.21016 0 
-51.8683 -5.0634 0 -51.0156 -7.37645 0 -51.5821 -9.48015 0 
-51.9425 -11.7715 0 -51.9779 -14.0735 0 -51.7513 -16.5177 0 
-51.2724 -18.7778 0 -50.7562 -20.7994 0 -51.6997 -23.2032 0 
-55.7249 -0.573509 0 -82.4916 30.6921 0 -81.4068 33.4015 0 
-58.2139 -23.4952 0 -62.0069 41.0709 0 -74.3403 -11.8511 0 
-64.4254 -23.3717 0 -67.0125 -23.3599 0 -69.1375 -24.2537 0 
-71.2048 -24.3534 0 -73.1695 -23.4304 0 -75.4943 -23.4505 0 
-77.9148 -23.4973 0 -80.1569 -23.4701 0 -82.3092 -23.982 0 
-84.8639 -23.3898 0 -87.5033 -23.4777 0 -66.3378 -12.8415 0 
-70.4681 -12.8099 0 -61.4795 -23.8499 0 -55.694 2.62857 0 
-57.3411 32.8572 0 -77.3989 52.461 0 -86.7274 -15.5294 0 
-83.2838 9.50044 0 -55.6676 19.6275 0 -57.0568 17.424 0 
-55.8044 14.945 0 -57.4364 12.9435 0 -57.1207 10.8933 0 
-56.727 8.46717 0 -56.1045 5.66082 0 -83.2791 2.57441 0 
-86.7782 -10.6909 0 -55.8426 -4.12535 0 -57.1265 36.1622 0 
-65.6714 41.6788 0 -83.2608 11.5674 0 -83.3623 13.728 0 
-83.3235 15.8928 0 -83.3649 18.0309 0 -83.4196 20.3002 0 
-83.482 22.7104 0 -83.4444 25.1763 0 -70.9226 52.2508 0 
-73.019 52.8722 0 -58.1786 39.8455 0 -62.3111 -12.1648 0 
-80.5986 36.31 0 -57.2573 29.8465 0 -86.5255 -20.6212 0 
-82.3929 52.4028 0 -57.4462 -7.61292 0 -87.3458 -17.8653 0 
-83.6291 -9.13119 0 -84.9629 52.6411 0 -83.219 7.23887 0 
-56.8318 27.2627 0 -76.6412 40.8036 0 -55.6297 22.0495 0 
-79.8271 52.5234 0 -55.5929 24.5169 0 -83.2115 4.94748 0 
-80.6815 -11.2733 0 -69.3868 41.8868 0 -73.072 41.637 0 
-58.9907 44.2298 0 -83.4288 0.0272567 0 -61.1353 48.3944 0 
-57.2216 48.7319 0 -53.9116 49.8362 0 -75.9763 49.2776 0 
-68.6082 -16.4312 0 -83.8084 35.1864 0 -83.4035 38.0183 0 
-83.4086 40.9232 0 -84.3118 43.8553 0 -84.7403 46.8252 0 
-84.1264 49.5149 0 -55.1007 44.819 0 -67.2303 45.2898 0 
-54.5257 38.848 0 -55.1787 41.6896 0 -83.9507 -2.79669 0 
-54.0052 47.2265 0 -54.223 33.7783 0 -53.9133 -7.22605 0 
-54.8065 -9.9769 0 -55.2696 -12.7886 0 -55.0995 -15.5164 0 
-54.2712 -18.3159 0 -53.3842 -20.8922 0 -80.0023 39.465 0 
-77.7158 -14.0186 0 -63.4031 44.8894 0 -56.5036 -20.7848 0 
-84.5636 32.6551 0 -62.9053 -20.3987 0 -72.8314 49.393 0 
-73.96 -20.1736 0 -76.6908 -20.9608 0 -79.1971 -20.5485 0 
-82.4751 -20.8209 0 -84.0479 -17.7494 0 -82.7645 -14.6673 0 
-73.0741 -16.0553 0 -66.2918 -20.0663 0 -64.7974 49.1289 0 
-78.5051 50.0682 0 -59.7491 -20.7607 0 -83.9216 -11.8071 0 
-71.1013 45.2779 0 -81.0521 49.494 0 -68.9 49.1874 0 
-54.4281 31.1938 0 -53.3609 36.29 0 -54.3688 28.7757 0 
-54.0796 26.5139 0 -54.331 17.2904 0 -54.2188 10.094 0 
-53.675 7.40183 0 -70.2041 -20.735 0 -61.0201 -17.7389 0 
-54.6891 12.5113 0 -79.8403 43.1884 0 -75.2897 44.9919 0 
-58.5243 -11.0262 0 -63.979 -16.095 0 -81.8387 46.5368 0 
-59.1573 -14.494 0 -57.7182 -17.7532 0 -76.8753 -17.8962 0 
-78.61 46.9834 0 -80.4712 -17.4512 0 -62.7751 5.24743 0.994863 
-40.0244 -35.6344 1 -100.024 -35.6344 1 -41.0744 -35.6344 0 
-43.2644 -35.6344 0 -45.4844 -35.6344 0 -47.7044 -35.6344 0 
-49.8644 -35.6344 0 -52.0244 -35.6344 0 -54.1844 -35.6344 0 
-56.2544 -35.6344 0 -58.3244 -35.6344 0 -60.4244 -35.6344 0 
-62.6744 -35.6344 0 -64.9544 -35.6344 0 -67.1144 -35.6344 0 
-69.2744 -35.6344 0 -71.4344 -35.6344 0 -73.5344 -35.6344 0 
-75.6044 -35.6344 0 -77.6744 -35.6344 0 -79.7744 -35.6344 0 
-81.9344 -35.6344 0 -84.0944 -35.6344 0 -86.1944 -35.6344 0 
-88.2644 -35.6344 0 -90.3044 -35.6344 0 -92.4044 -35.6344 0 
-94.6544 -35.6344 0 -96.8744 -35.6344 0 -98.9744 -35.6344 0 
-41.0744 -35.6344 2 -43.2944 -35.6344 2 -45.5144 -35.6344 2 
-47.6744 -35.6344 2 -49.9244 -35.6344 2 -52.1144 -35.6344 2 
-54.3644 -35.6344 2 -56.5844 -35.6344 2 -58.7444 -35.6344 2 
-61.1144 -35.6344 2 -63.3944 -35.6344 2 -65.5844 -35.6344 2 
-67.8044 -35.6344 2 -69.9344 -35.6344 2 -72.0344 -35.6344 2 
-74.1944 -35.6344 2 -76.4444 -35.6344 2 -78.6344 -35.6344 2 
-80.8544 -35.6344 2 -83.0744 -35.6344 2 -85.2344 -35.6344 2 
-87.4544 -35.6344 2 -89.6444 -35.6344 2 -91.9244 -35.6344 2 
-94.2344 -35.6344 2 -96.4844 -35.6344 2 -98.8244 -35.6344 2 
-98.8244 64.3656 2 -96.5744 64.3656 2 -94.4444 64.3656 2 
-92.2544 64.3656 2 -90.1244 64.3656 2 -88.0844 64.3656 2 
-85.9844 64.3656 2 -83.8244 64.3656 2 -81.6944 64.3656 2 
-79.6244 64.3656 2 -77.5844 64.3656 2 -75.3944 64.3656 2 
-73.2344 64.3656 2 -71.1344 64.3656 2 -68.9444 64.3656 2 
-66.8144 64.3656 2 -64.6244 64.3656 2 -62.4944 64.3656 2 
-60.3944 64.3656 2 -58.0844 64.3656 2 -55.8644 64.3656 2 
-53.7344 64.3656 2 -51.5744 64.3656 2 -49.4444 64.3656 2 
-47.3444 64.3656 2 -45.2744 64.3656 2 -43.1144 64.3656 2 
-41.0144 64.3656 2 -100.024 -34.4844 2 -100.024 -32.1844 2 
-100.024 -29.9344 2 -100.024 -27.7844 2 -100.024 -25.5844 2 
-100.024 -23.3344 2 -100.024 -21.0844 2 -100.024 -18.8844 2 
-100.024 -16.7844 2 -100.024 -14.5844 2 -100.024 -12.3844 2 
-100.024 -10.2344 2 -100.024 -8.1344 2 -100.024 -6.0344 2 
-100.024 -3.8844 2 -100.024 -1.6344 2 -100.024 0.665604 2 
-100.024 2.9156 2 -100.024 5.0656 2 -100.024 7.2156 2 
-100.024 9.4156 2 -100.024 11.5156 2 -100.024 13.6656 2 
-100.024 15.7656 2 -100.024 17.8656 2 -100.024 20.1656 2 
-100.024 22.4656 2 -100.024 24.6656 2 -100.024 26.8156 2 
-100.024 28.9656 2 -100.024 31.0656 2 -100.024 33.1156 2 
-100.024 35.2156 2 -100.024 37.3656 2 -100.024 39.4656 2 
-100.024 41.5656 2 -100.024 43.7656 2 -100.024 45.9656 2 
-100.024 48.1156 2 -100.024 50.2656 2 -100.024 52.4656 2 
-100.024 54.6156 2 -100.024 56.8156 2 -100.024 59.0656 2 
-100.024 61.1656 2 -100.024 63.2656 2 -40.0244 63.3156 2 
-40.0244 61.1156 2 -40.0244 58.9656 2 -40.0244 56.9156 2 
-40.0244 54.8156 2 -40.0244 52.5656 2 -40.0244 50.3156 2 
-40.0244 48.2156 2 -40.0244 46.0656 2 -40.0244 43.8156 2 
-40.0244 41.6156 2 -40.0244 39.4656 2 -40.0244 37.2156 2 
-40.0244 35.0156 2 -40.0244 32.9656 2 -40.0244 30.9156 2 
-40.0244 28.8156 2 -40.0244 26.5656 2 -40.0244 24.2656 2 
-40.0244 22.0156 2 -40.0244 19.8656 2 -40.0244 17.7656 2 
-40.0244 15.5156 2 -40.0244 13.3156 2 -40.0244 11.2656 2 
-40.0244 9.1156 2 -40.0244 6.9156 2 -40.0244 4.7156 2 
-40.0244 2.5156 2 -40.0244 0.265604 2 -40.0244 -1.9344 2 
-40.0244 -4.0844 2 -40.0244 -6.2844 2 -40.0244 -8.4344 2 
-40.0244 -10.5344 2 -40.0244 -12.7344 2 -40.0244 -15.0344 2 
-40.0244 -17.2844 2 -40.0244 -19.4844 2 -40.0244 -21.5844 2 
-40.0244 -23.7344 2 -40.0244 -25.8844 2 -40.0244 -28.0344 2 
-40.0244 -30.2844 2 -40.0244 -32.4344 2 -40.0244 -34.5344 2 
-69.9512 29.4116 2 -68.9512 28.3316 2 -68.9512 26.0516 2 
-68.9512 23.7266 2 -68.9512 21.5816 2 -68.9512 19.4366 2 
-68.9512 17.2766 2 -68.9512 15.1766 2 -68.9512 13.0016 2 
-68.9512 10.8716 2 -68.9512 8.68164 2 -68.9512 6.50664 2 
-68.9512 4.45164 2 -68.9512 2.41164 2 -68.9512 0.416639 2 
-69.9512 -0.588361 2 -70.9512 0.446639 2 -70.9512 2.54664 2 
-70.9512 4.63164 2 -70.9512 6.70164 2 -70.9512 8.78664 2 
-70.9512 10.8416 2 -70.9512 12.9866 2 -70.9512 15.1916 2 
-70.9512 17.3516 2 -70.9512 19.5866 2 -70.9512 21.7766 2 
-70.9512 23.9516 2 -70.9512 26.1566 2 -70.9512 28.3166 2 
-98.9444 64.3656 0 -96.7844 64.3656 0 -94.6544 64.3656 0 
-92.5844 64.3656 0 -90.5144 64.3656 0 -88.4444 64.3656 0 
-86.3144 64.3656 0 -84.1544 64.3656 0 -82.0544 64.3656 0 
-79.7744 64.3656 0 -77.4044 64.3656 0 -75.2144 64.3656 0 
-73.1444 64.3656 0 -70.9544 64.3656 0 -68.7344 64.3656 0 
-66.6344 64.3656 0 -64.5344 64.3656 0 -62.4044 64.3656 0 
-60.2744 64.3656 0 -58.1144 64.3656 0 -55.9544 64.3656 0 
-53.8244 64.3656 0 -51.7244 64.3656 0 -49.6244 64.3656 0 
-47.5244 64.3656 0 -45.4244 64.3656 0 -43.2044 64.3656 0 
-41.0444 64.3656 0 -100.024 -34.5844 0 -100.024 -32.4844 0 
-100.024 -30.3344 0 -100.024 -28.1844 0 -100.024 -25.9844 0 
-100.024 -23.7844 0 -100.024 -21.6344 0 -100.024 -19.4344 0 
-100.024 -17.1844 0 -100.024 -14.9344 0 -100.024 -12.6844 0 
-100.024 -10.4344 0 -100.024 -8.2844 0 -100.024 -6.1844 0 
-100.024 -4.0844 0 -100.024 -1.9844 0 -100.024 0.115604 0 
-100.024 2.1656 0 -100.024 4.2656 0 -100.024 6.4656 0 
-100.024 8.6656 0 -100.024 10.8656 0 -100.024 13.0156 0 
-100.024 15.2156 0 -100.024 17.4656 0 -100.024 19.6156 0 
-100.024 21.7156 0 -100.024 23.9656 0 -100.024 26.2156 0 
-100.024 28.3156 0 -100.024 30.4656 0 -100.024 32.6156 0 
-100.024 34.7156 0 -100.024 36.9156 0 -100.024 39.1156 0 
-100.024 41.3156 0 -100.024 43.4656 0 -100.024 45.6156 0 
-100.024 47.8156 0 -100.024 49.9156 0 -100.024 52.0656 0 
-100.024 54.3156 0 -100.024 56.5156 0 -100.024 58.7156 0 
-100.024 61.0656 0 -100.024 63.3156 0 -40.0244 63.2656 0 
-40.0244 60.9656 0 -40.0244 58.6656 0 -40.0244 56.4656 0 
-40.0244 54.3656 0 -40.0244 52.2156 0 -40.0244 50.0156 0 
-40.0244 47.9156 0 -40.0244 45.7656 0 -40.0244 43.6156 0 
-40.0244 41.5156 0 -40.0244 39.2656 0 -40.0244 37.0156 0 
-40.0244 34.9156 0 -40.0244 32.7656 0 -40.0244 30.6156 0 
-40.0244 28.4656 0 -40.0244 26.2156 0 -40.0244 24.0156 0 
-40.0244 21.7656 0 -40.0244 19.5156 0 -40.0244 17.1156 0 
-40.0244 14.7156 0 -40.0244 12.5656 0 -40.0244 10.3156 0 
-40.0244 8.1656 0 -40.0244 6.1156 0 -40.0244 3.9156 0 
-40.0244 1.7656 0 -40.0244 -0.284396 0 -40.0244 -2.4844 0 
-40.0244 -4.7344 0 -40.0244 -6.8844 0 -40.0244 -8.9844 0 
-40.0244 -11.1344 0 -40.0244 -13.2844 0 -40.0244 -15.3844 0 
-40.0244 -17.4844 0 -40.0244 -19.6344 0 -40.0244 -21.7844 0 
-40.0244 -23.8844 0 -40.0244 -26.0344 0 -40.0244 -28.1844 0 
-40.0244 -30.2844 0 -40.0244 -32.3844 0 -40.0244 -34.5344 0 
-69.9512 29.4116 0 -68.9512 28.4066 0 -68.9512 26.2316 0 
-68.9512 23.9666 0 -68.9512 21.8666 0 -68.9512 19.7216 0 
-68.9512 17.5916 0 -68.9512 15.5216 0 -68.9512 13.2716 0 
-68.9512 11.0366 0 -68.9512 8.84664 0 -68.9512 6.70164 0 
-68.9512 4.61664 0 -68.9512 2.53164 0 -68.9512 0.461639 0 
-69.9512 -0.588361 0 -70.9512 0.521639 0 -70.9512 2.83164 0 
-70.9512 5.09664 0 -70.9512 7.25664 0 -70.9512 9.46164 0 
-70.9512 11.6816 0 -70.9512 13.8266 0 -70.9512 15.8816 0 
-70.9512 17.9366 0 -70.9512 20.0066 0 -70.9512 22.0766 0 
-70.9512 24.1316 0 -70.9512 26.2616 0 -70.9512 28.3916 0 
-40.0244 64.3656 1 -100.024 64.3656 1 -70.9512 -0.588361 1 
-70.9512 29.4116 1 -68.9512 -0.588361 1 -68.9512 29.4116 1 
-41.0744 -35.6344 1 -98.9744 -35.6344 1 -42.1244 -35.6344 1 
-43.2644 -35.6344 1 -44.4344 -35.6344 1 -45.5144 -35.6344 1 
-47.6744 -35.6344 1 -46.5644 -35.6344 1 -48.8144 -35.6344 1 
-49.8344 -35.6344 1 -50.9744 -35.6344 1 -52.1144 -35.6344 1 
-53.1644 -35.6344 1 -54.1844 -35.6344 1 -55.3844 -35.6344 1 
-56.4344 -35.6344 1 -57.4544 -35.6344 1 -58.4744 -35.6344 1 
-59.6144 -35.6344 1 -60.6944 -35.6344 1 -61.9244 -35.6344 1 
-63.0944 -35.6344 1 -64.1444 -35.6344 1 -65.2544 -35.6344 1 
-66.3944 -35.6344 1 -67.4444 -35.6344 1 -68.5244 -35.6344 1 
-69.6344 -35.6344 1 -70.6844 -35.6344 1 -71.7344 -35.6344 1 
-72.7844 -35.6344 1 -73.8344 -35.6344 1 -74.9444 -35.6344 1 
-75.9644 -35.6344 1 -77.1044 -35.6344 1 -78.1544 -35.6344 1 
-79.2044 -35.6344 1 -80.2544 -35.6344 1 -81.4244 -35.6344 1 
-82.5344 -35.6344 1 -83.5844 -35.6344 1 -84.6344 -35.6344 1 
-85.7444 -35.6344 1 -86.7944 -35.6344 1 -87.9044 -35.6344 1 
-88.9244 -35.6344 1 -90.0044 -35.6344 1 -91.0244 -35.6344 1 
-92.2244 -35.6344 1 -93.3044 -35.6344 1 -94.4144 -35.6344 1 
-95.5844 -35.6344 1 -96.7244 -35.6344 1 -97.7744 -35.6344 1 
-98.8244 63.2656 2 -97.3001 63.4681 2 -96.2501 63.4681 2 
-95.1323 63.5202 2 -94.0523 63.5202 2 -95.858 62.6227 2 
-92.9032 63.5239 2 -91.7932 63.5239 2 -93.5911 62.6785 2 
-90.7704 63.4319 2 -89.7504 63.4319 2 -91.4192 62.5903 2 
-88.6864 63.374 2 -87.6664 63.374 2 -89.3324 62.4403 2 
-86.6156 63.3731 2 -85.5356 63.3731 2 -87.2176 62.3815 2 
-84.4171 63.3627 2 -83.3371 63.3627 2 -85.0483 62.3701 2 
-82.2735 63.3462 2 -81.2235 63.3462 2 -82.8663 62.3432 2 
-80.1236 63.3321 2 -79.1036 63.3321 2 -80.7027 62.3126 2 
-78.0532 63.3479 2 -77.0331 63.3479 2 -78.5524 62.3144 2 
-75.9712 63.345 2 -74.8012 63.345 2 -76.44 62.3272 2 
-73.7419 63.3463 2 -72.7519 63.3463 2 -74.3187 62.3256 2 
-71.68 63.3654 2 -70.57 63.3654 2 -72.1875 62.3461 2 
-69.4818 63.3771 2 -68.4018 63.3771 2 -70.0273 62.377 2 
-67.3235 63.3767 2 -66.2735 63.3767 2 -67.8609 62.3882 2 
-65.1602 63.3755 2 -64.0202 63.3755 2 -65.6693 62.3866 2 
-62.9956 63.3798 2 -62.0056 63.3798 2 -63.5313 62.3897 2 
-60.9005 63.4037 2 -59.7905 63.4037 2 -61.4016 62.418 2 
-58.6672 63.4125 2 -57.4672 63.4125 2 -59.1733 62.4506 2 
-56.3887 63.3997 2 -55.3687 63.3997 2 -56.9715 62.4466 2 
-54.2602 63.3829 2 -53.1502 63.3829 2 -54.7845 62.417 2 
-52.075 63.3763 2 -51.025 63.3763 2 -52.6008 62.3936 2 
-49.9758 63.4088 2 -48.8958 63.4088 2 -50.4764 62.4195 2 
-47.87 63.4557 2 -46.85 63.4557 2 -48.4013 62.4989 2 
-45.8879 63.5251 2 -44.8379 63.5251 2 -46.4134 62.6152 2 
-43.8057 63.4319 2 -42.6957 63.4319 2 -44.4191 62.5914 2 
-41.7749 63.2756 2 -40.7849 63.2756 2 -40.7849 62.2256 2 
-42.4662 62.3419 2 -98.8244 -34.4844 2 -99.0523 -32.9708 2 
-99.0523 -31.8208 2 -99.0472 -30.5842 2 -99.0472 -29.4842 2 
-98.0751 -31.3706 2 -99.0367 -28.3542 2 -99.0367 -27.3042 2 
-98.0595 -29.004 2 -99.0237 -26.1533 2 -99.0237 -25.0033 2 
-98.036 -26.7231 2 -99.003 -23.9259 2 -99.003 -22.8259 2 
-98.0023 -24.4949 2 -99.0089 -21.7088 2 -99.0089 -20.5588 2 
-97.9875 -22.3003 2 -98.9827 -19.4101 2 -98.9827 -18.3601 2 
-97.9671 -20.0344 2 -98.952 -17.2663 2 -98.952 -16.2163 2 
-97.9103 -17.792 2 -98.9885 -15.182 2 -98.9885 -14.032 2 
-97.9162 -15.6639 2 -98.976 -12.9451 2 -98.976 -11.8951 2 
-97.9401 -13.5427 2 -98.9703 -10.7792 2 -98.9703 -9.67923 2 
-97.9219 -11.34 2 -98.98 -8.61649 2 -98.98 -7.61649 2 
-97.9259 -9.16133 2 -99.0082 -6.5622 2 -99.0082 -5.4622 2 
-97.9638 -7.0443 2 -99.0072 -4.34756 2 -99.0072 -3.29756 2 
-97.991 -4.87536 2 -98.9848 -2.19672 2 -98.9848 -0.996722 2 
-97.9675 -2.65988 2 -98.9938 0.145518 2 -98.9938 1.24552 2 
-97.9542 -0.416807 2 -99.0078 2.29702 2 -99.0078 3.44702 2 
-97.9772 1.77693 2 -99.0015 4.54754 2 -99.0015 5.54754 2 
-97.9848 3.92896 2 -98.9821 6.66077 2 -98.9821 7.81077 2 
-97.9592 6.1427 2 -98.9956 8.87857 2 -98.9956 9.92857 2 
-97.9533 8.32373 2 -99.0088 10.9707 2 -99.0088 12.0207 2 
-97.98 10.4337 2 -99.0192 13.1089 2 -99.0192 14.2089 2 
-98.0036 12.564 2 -99.0253 15.2788 2 -99.0253 16.2788 2 
-98.0201 14.7221 2 -99.0227 17.4052 2 -99.0227 18.5052 2 
-98.0236 16.9185 2 -99.0037 19.6023 2 -99.0037 20.8023 2 
-98.0019 19.1419 2 -99.0282 21.9029 2 -99.0282 23.0029 2 
-98.0074 21.3396 2 -99.0549 24.0493 2 -99.0549 25.1493 2 
-98.0586 23.4866 2 -99.0541 26.2537 2 -99.0541 27.3037 2 
-98.0846 25.6374 2 -99.033 28.3945 2 -99.033 29.4945 2 
-98.0627 27.8326 2 -99.0192 30.5049 2 -99.0192 31.5049 2 
-98.0278 29.9338 2 -99.0438 32.5546 2 -99.0438 33.6046 2 
-98.0386 31.9939 2 -99.0146 34.6557 2 -99.0146 35.7057 2 
-98.034 34.0947 2 -98.9863 36.7738 2 -98.9863 37.8738 2 
-97.9765 36.2139 2 -98.9743 38.9556 2 -98.9743 39.9556 2 
-97.9362 38.3638 2 -98.9772 41.0217 2 -98.9772 42.1217 2 
-97.9272 40.5117 2 -98.9983 43.2115 2 -98.9983 44.3115 2 
-97.9511 42.6676 2 -99.0134 45.3687 2 -99.0134 46.4687 2 
-97.9873 44.8146 2 -99.0038 47.5592 2 -99.0038 48.6092 2 
-97.9928 46.9623 2 -98.9965 49.7286 2 -98.9965 50.8286 2 
-97.9759 49.1722 2 -99.0027 51.9399 2 -99.0027 53.0399 2 
-97.9747 51.4029 2 -98.9873 54.0972 2 -98.9873 55.1472 2 
-97.9655 53.5715 2 -99.001 56.2662 2 -99.001 57.4162 2 
-97.9639 55.7477 2 -99.0283 58.4676 2 -99.0283 59.5676 2 
-98.0049 57.9182 2 -99.1142 60.5504 2 -99.1142 61.5504 2 
-98.118 59.9524 2 -69.9512 29.4116 1 -40.7849 61.0756 2 
-40.8113 59.2537 2 -40.8113 58.2537 2 -40.8808 57.3576 2 
-40.8808 56.3076 2 -41.6676 57.6457 2 -40.9216 55.232 2 
-40.9216 54.182 2 -41.7779 55.674 2 -40.9642 53.0859 2 
-40.9642 51.8859 2 -41.8613 53.5023 2 -40.9822 50.7467 2 
-40.9822 49.6967 2 -41.9219 51.267 2 -41.0143 48.5926 2 
-41.0143 47.5426 2 -41.9721 49.0237 2 -41.0166 46.4668 2 
-41.0166 45.3668 2 -42.0065 46.8439 2 -41.0058 44.2471 2 
-41.0058 43.0971 2 -41.998 44.6483 2 -41.0074 41.9931 2 
-41.0074 40.9431 2 -41.9888 42.4246 2 -41.023 39.8641 2 
-41.023 38.7641 2 -42.0059 40.2416 2 -41.0196 37.66 2 
-41.0196 36.51 2 -42.0181 38.0585 2 -41.0306 35.4619 2 
-41.0306 34.4119 2 -42.0258 35.9063 2 -41.0408 33.3595 2 
-41.0408 32.3595 2 -42.047 33.8058 2 -41.0199 31.3086 2 
-41.0199 30.2586 2 -42.0362 31.7025 2 -40.9973 29.1377 2 
-40.9973 28.0877 2 -41.9927 29.5308 2 -41.0117 26.967 2 
-41.0117 25.767 2 -41.9845 27.2891 2 -41.0346 24.6723 2 
-41.0346 23.5723 2 -42.0219 25.0737 2 -41.0486 22.4709 2 
-41.0486 21.3209 2 -42.0588 22.8777 2 -41.0611 20.2253 2 
-41.0611 19.2253 2 -42.0853 20.6807 2 -41.0422 18.1398 2 
-41.0422 17.0398 2 -42.0788 18.4995 2 -41.0247 15.9567 2 
-41.0247 14.8067 2 -42.0425 16.3309 2 -40.9892 13.7625 2 
-40.9892 12.7125 2 -41.9895 14.2035 2 -40.9682 11.653 2 
-40.9682 10.653 2 -41.933 12.0999 2 -40.9735 9.50613 2 
-40.9735 8.35613 2 -41.9172 9.89353 2 -40.9925 7.28335 2 
-40.9925 6.23335 2 -41.9416 7.67388 2 -41.0009 5.16029 2 
-41.0009 4.01029 2 -41.969 5.52804 2 -40.9912 2.90635 2 
-40.9912 1.85635 2 -41.9677 3.35103 2 -41.0219 0.695909 2 
-41.0219 -0.504091 2 -41.9887 1.08665 2 -41.0223 -1.55017 2 
-41.0223 -2.55017 2 -42.0197 -1.11987 2 -41.0115 -3.65388 2 
-41.0115 -4.80388 2 -42.0093 -3.26965 2 -41.0109 -5.88728 2 
-41.0109 -6.93728 2 -41.998 -5.45677 2 -41.017 -8.01851 2 
-41.017 -9.11851 2 -42.0035 -7.6214 2 -41.0056 -10.2114 2 
-41.0056 -11.2114 2 -41.9982 -9.79554 2 -40.9887 -12.2982 2 
-40.9887 -13.4982 2 -41.9699 -11.9752 2 -40.9727 -14.6058 2 
-40.9727 -15.7058 2 -41.937 -14.1696 2 -40.9987 -16.8118 2 
-40.9987 -17.9618 2 -41.947 -16.3832 2 -41.0155 -19.0931 2 
-41.0155 -20.1431 2 -41.9898 -18.6205 2 -41.0116 -21.2239 2 
-41.0116 -22.2739 2 -42.0027 -20.8325 2 -40.9755 -23.2893 2 
-40.9755 -24.3893 2 -41.9627 -22.9287 2 -40.9356 -25.4925 2 
-40.9356 -26.5425 2 -41.8866 -25.0474 2 -40.9533 -27.6411 2 
-40.9533 -28.7411 2 -41.8644 -27.2492 2 -40.927 -29.8783 2 
-40.927 -31.0283 2 -41.8559 -29.485 2 -40.8829 -32.1297 2 
-40.8829 -33.1297 2 -41.7855 -31.7236 2 -41.0744 -34.5344 2 
-42.7852 -34.8142 2 -43.9552 -34.8142 2 -44.9306 -34.7209 2 
-45.9806 -34.7209 2 -44.4215 -33.9006 2 -47.0557 -34.7053 2 
-48.1657 -34.7053 2 -46.4719 -33.7918 2 -49.3247 -34.7254 2 
-50.4647 -34.7254 2 -48.7059 -33.7963 2 -51.5575 -34.6737 2 
-52.6075 -34.6737 2 -50.9577 -33.7647 2 -53.705 -34.654 2 
-54.905 -34.654 2 -53.1481 -33.6933 2 -56.0554 -34.6438 2 
-57.0754 -34.6438 2 -55.3961 -33.6634 2 -58.2015 -34.6394 2 
-59.3415 -34.6394 2 -57.6725 -33.6488 2 -60.4942 -34.6328 2 
-61.7242 -34.6328 2 -59.9513 -33.6378 2 -62.8057 -34.619 2 
-63.8557 -34.619 2 -62.1855 -33.6175 2 -64.9741 -34.6244 2 
-66.1141 -34.6244 2 -64.3853 -33.6091 2 -67.2429 -34.6375 2 
-68.3229 -34.6375 2 -66.6326 -33.6275 2 -69.3809 -34.6248 2 
-70.4309 -34.6248 2 -68.8194 -33.6279 2 -71.5275 -34.6066 2 
-72.5775 -34.6066 2 -70.9739 -33.597 2 -73.6288 -34.6133 2 
-74.7388 -34.6133 2 -73.1219 -33.5855 2 -75.8598 -34.6219 2 
-76.9998 -34.6219 2 -75.2942 -33.6009 2 -78.1155 -34.6355 2 
-79.1655 -34.6355 2 -77.5309 -33.623 2 -80.2902 -34.6477 2 
-81.4602 -34.6477 2 -79.7713 -33.6488 2 -82.5299 -34.6625 2 
-83.5799 -34.6625 2 -81.9657 -33.6758 2 -84.7176 -34.674 2 
-85.8276 -34.674 2 -84.1731 -33.7021 2 -86.9188 -34.6922 2 
-88.0288 -34.6922 2 -86.4019 -33.7318 2 -89.1149 -34.6922 2 
-90.1949 -34.6922 2 -88.5792 -33.75 2 -91.346 -34.6899 2 
-92.546 -34.6899 2 -90.8165 -33.7476 2 -93.7032 -34.7079 2 
-94.8132 -34.7079 2 -93.1248 -33.7634 2 -95.814 -34.755 2 
-96.954 -34.755 2 -95.2827 -33.8286 2 -69.4435 30.4502 2 
-70.4435 30.4502 2 -67.8724 28.0423 2 -67.8724 29.1223 2 
-67.7997 25.6622 2 -67.7997 26.8622 2 -66.7209 27.6529 2 
-67.8225 23.2936 2 -67.8225 24.4186 2 -66.671 25.2291 2 
-67.8516 21.1323 2 -67.8516 22.1523 2 -66.7229 22.8443 2 
-67.8718 18.9409 2 -67.8718 20.0659 2 -66.7722 20.6366 2 
-67.8722 16.7911 2 -67.8722 17.8261 2 -66.7929 18.4554 2 
-67.8757 14.6828 2 -67.8757 15.7478 2 -66.7968 16.2973 2 
-67.904 12.4714 2 -67.904 13.5814 2 -66.8286 14.1526 2 
-67.9065 10.349 2 -67.9065 11.369 2 -66.8593 11.9488 2 
-67.8943 8.095 2 -67.8943 9.265 2 -66.8496 9.76234 2 
-67.8541 5.95509 2 -67.8541 6.96009 2 -66.7973 7.54345 2 
-67.8648 3.85824 2 -67.8648 4.90824 2 -66.7677 5.36169 2 
-67.886 1.72443 2 -67.886 2.71443 2 -66.7997 3.17103 2 
-67.9426 -0.455181 2 -67.9426 0.549819 2 -66.8775 0.852607 2 
-70.5405 -1.67125 2 -69.5405 -1.67125 2 -71.9274 0.76796 2 
-71.9274 -0.26704 2 -71.957 2.99263 2 -71.957 1.92763 2 
-72.9333 1.21395 2 -71.9378 5.09534 2 -71.9378 4.07534 2 
-72.9437 3.45633 2 -71.9298 7.19742 2 -71.9298 6.14742 2 
-72.9165 5.59113 2 -71.9085 9.27404 2 -71.9085 8.23904 2 
-72.8872 7.68482 2 -71.8863 11.3396 2 -71.8863 10.3196 2 
-72.8436 9.772 2 -71.8881 13.5985 2 -71.8881 12.4735 2 
-72.8232 11.9514 2 -71.8915 15.7948 2 -71.8915 14.7148 2 
-72.8285 14.2016 2 -71.903 17.917 2 -71.903 16.837 2 
-72.8434 16.3601 2 -71.9161 20.2223 2 -71.9161 19.0673 2 
-72.868 18.5527 2 -71.9378 22.3366 2 -71.9378 21.3016 2 
-72.9027 20.7823 2 -71.9594 24.5917 2 -71.9594 23.4517 2 
-72.946 22.9767 2 -71.973 26.8311 2 -71.973 25.7661 2 
-72.9813 25.2662 2 -71.9141 29.066 2 -71.9141 27.971 2 
-72.936 27.5805 2 -98.5001 62.3681 2 -97.8523 -34.1208 2 
-71.1254 31.3211 2 -71.633 30.2825 2 -68.1684 30.3595 2 
-68.6608 31.3981 2 -41.9329 -34.2297 2 -67.0897 30.0702 2 
-68.8366 -2.74945 2 -68.2472 -1.66656 2 -67.2386 -1.53338 2 
-71.7409 -1.44823 2 -71.3303 -2.53112 2 -72.7172 -1.12691 2 
-72.596 29.9368 2 -42.5937 -33.4095 2 -97.1819 -33.2414 2 
-70.592 32.4932 2 -71.7815 32.3255 2 -94.2444 61.8995 2 
-93.0953 61.9032 2 -92.0821 61.7 2 -91.0593 61.608 2 
-92.7355 60.921 2 -90.0335 61.465 2 -88.9695 61.407 2 
-90.6964 60.5747 2 -87.8961 61.3259 2 -86.8453 61.325 2 
-88.5971 60.3505 2 -85.7019 61.2916 2 -84.5834 61.2811 2 
-86.3803 60.2359 2 -83.4517 61.3007 2 -82.3881 61.2842 2 
-84.1053 60.2221 2 -81.2643 61.2904 2 -80.1644 61.2763 2 
-81.8498 60.2479 2 -79.0474 61.2545 2 -77.997 61.2703 2 
-79.609 60.2322 2 -76.9527 61.2727 2 -75.8908 61.2698 2 
-77.4478 60.2129 2 -74.8391 61.2853 2 -73.7798 61.2866 2 
-75.3518 60.2308 2 -72.7407 61.3138 2 -71.6687 61.333 2 
-73.2611 60.2735 2 -70.5803 61.3295 2 -69.4921 61.3412 2 
-71.1335 60.2972 2 -68.3813 61.3694 2 -67.303 61.3689 2 
-68.9342 60.3219 2 -66.1966 61.3394 2 -65.0832 61.3382 2 
-66.717 60.3205 2 -64.0319 61.3697 2 -63.0073 61.374 2 
-64.5592 60.3225 2 -61.9755 61.3934 2 -60.8704 61.4173 2 
-62.4761 60.3733 2 -59.6887 61.4214 2 -58.5655 61.4302 2 
-60.2626 60.3968 2 -57.4689 61.3921 2 -56.3903 61.3792 2 
-57.9844 60.3628 2 -55.299 61.3403 2 -54.1906 61.3236 2 
-55.7965 60.2858 2 -53.088 61.3273 2 -52.0128 61.3207 2 
-53.6026 60.2507 2 -50.9424 61.352 2 -49.8932 61.3846 2 
-51.4296 60.2858 2 -48.8736 61.4677 2 -47.8478 61.5145 2 
-49.3397 60.4002 2 -46.8811 61.6248 2 -45.919 61.6942 2 
-47.3535 60.5935 2 -44.9906 61.8204 2 -43.9584 61.7272 2 
-45.4583 60.83 2 -65.4312 24.7414 2 -65.4084 25.985 2 
-42.7301 -32.4206 2 -43.5825 -33.0051 2 -42.7743 -31.3193 2 
-97.5898 61.7529 2 -97.0913 -29.6023 2 -97.0808 -28.4723 2 
-96.9919 -27.296 2 -96.9788 -26.1451 2 -96.0237 -27.8942 2 
-96.9281 -25.0407 2 -96.9074 -23.9633 2 -95.884 -25.6135 2 
-96.8801 -22.8963 2 -96.886 -21.7791 2 -95.8059 -23.4421 2 
-96.8831 -20.6091 2 -96.8568 -19.4604 2 -95.7757 -21.205 2 
-96.8522 -18.3087 2 -96.8216 -17.215 2 -95.7682 -18.8834 2 
-96.8232 -16.1692 2 -96.8597 -15.1349 2 -95.7651 -16.6859 2 
-96.8537 -14.0788 2 -96.8412 -12.992 2 -95.7608 -14.5841 2 
-96.8299 -11.9046 2 -96.8242 -10.7887 2 -95.7435 -12.4407 2 
-96.8392 -9.66391 2 -96.8489 -8.60117 2 -95.7472 -10.2285 2 
-96.8316 -7.58116 2 -96.8598 -6.52687 2 -95.7449 -8.08374 2 
-96.8803 -5.40712 2 -96.8793 -4.29247 2 -95.7481 -5.94398 2 
-96.866 -3.16742 2 -96.8436 -2.06658 2 -95.7554 -3.69917 2 
-96.8465 -0.938591 2 -96.8556 0.203649 2 -95.745 -1.44613 2 
-96.8928 1.2456 2 -96.9068 2.2971 2 -95.7852 0.723815 2 
-96.9145 3.38564 2 -96.9082 4.48616 2 -95.8302 2.8543 2 
-96.8954 5.62717 2 -96.8761 6.74039 2 -95.8251 5.08384 2 
-96.8809 7.80494 2 -96.8943 8.87275 2 -95.8171 7.28941 2 
-96.8875 9.90932 2 -96.9007 10.9515 2 -95.8151 9.39053 2 
-96.9017 12.0162 2 -96.9121 13.1044 2 -95.8092 11.4919 2 
-96.9107 14.1983 2 -96.9168 15.2683 2 -95.8088 13.6505 2 
-96.9338 16.3947 2 -96.9311 17.5211 2 -95.8243 15.8709 2 
-96.9733 18.6256 2 -96.9543 19.7226 2 -95.8835 18.1019 2 
-96.9692 20.8277 2 -96.9937 21.9283 2 -95.9406 20.3114 2 
-96.9894 22.9311 2 -97.0161 23.9774 2 -95.9512 22.4191 2 
-97.0191 25.0203 2 -97.0184 26.1247 2 -95.95 24.4647 2 
-97.0519 27.2491 2 -97.0308 28.3399 2 -95.9865 26.632 2 
-96.9831 29.4087 2 -96.9694 30.4191 2 -95.9724 28.8252 2 
-96.9449 31.4032 2 -96.9695 32.453 2 -95.9003 30.8782 2 
-96.9548 33.5228 2 -96.9256 34.5739 2 -95.8612 32.9321 2 
-96.9249 35.6414 2 -96.8966 36.7096 2 -95.8458 35.0695 2 
-96.8823 37.8107 2 -96.8704 38.8925 2 -95.8308 37.2382 2 
-96.8444 39.9223 2 -96.8473 40.9885 2 -95.7905 39.3693 2 
-96.8536 42.0821 2 -96.8747 43.1718 2 -95.7708 41.4927 2 
-96.9031 44.2464 2 -96.9182 45.3036 2 -95.8055 43.6609 2 
-96.9204 46.3891 2 -96.9109 47.4796 2 -95.8362 45.8209 2 
-96.9256 48.5885 2 -96.9183 49.7078 2 -95.8533 48.0153 2 
-96.8951 50.8666 2 -96.9013 51.978 2 -95.8449 50.2829 2 
-96.8763 53.0453 2 -96.861 54.1026 2 -95.7968 52.509 2 
-96.8726 55.2186 2 -96.8863 56.3376 2 -95.7834 54.6924 2 
-96.9407 57.459 2 -96.9679 58.5105 2 -95.8493 56.9299 2 
-96.9892 59.7384 2 -97.0751 60.7211 2 -95.925 59.2793 2 
-65.7318 29.764 2 -66.0278 31.0012 2 -96.9649 -32.1284 2 
-96.9597 -30.8919 2 -95.9811 -30.3601 2 -42.4843 58.1887 2 
-42.5538 57.2926 2 -42.6926 56.2145 2 -42.7334 55.1389 2 
-43.5093 56.7576 2 -42.8562 54.0271 2 -42.8988 52.931 2 
-43.7709 54.5677 2 -42.9706 51.7583 2 -42.9886 50.6191 2 
-43.9654 52.2832 2 -43.0036 49.449 2 -43.0358 48.345 2 
-44.0523 49.9404 2 -43.0254 47.2882 2 -43.0276 46.2123 2 
-44.0569 47.7135 2 -43.0318 45.0674 2 -43.0211 43.9478 2 
-44.0508 45.5118 2 -43.0514 42.8324 2 -43.0529 41.7284 2 
-44.0852 43.2515 2 -43.0465 40.6817 2 -43.0621 39.6027 2 
-44.1091 41.0894 2 -43.0752 38.5073 2 -43.0718 37.4033 2 
-44.1157 38.9474 2 -43.0611 36.3194 2 -43.0722 35.2713 2 
-44.1182 36.7682 2 -43.0688 34.1961 2 -43.079 33.1437 2 
-44.1042 34.6092 2 -43.0901 32.1108 2 -43.0692 31.06 2 
-44.112 32.5012 2 -43.0993 29.9407 2 -43.0767 28.8197 2 
-44.1532 30.349 2 -43.0628 27.6998 2 -43.0772 26.5791 2 
-44.1694 28.1097 2 -43.0763 25.4421 2 -43.0992 24.3474 2 
-44.1545 25.8528 2 -43.1218 23.3057 2 -43.1357 22.2043 2 
-44.1761 23.6741 2 -43.1629 21.0951 2 -43.1754 19.9995 2 
-44.2259 21.5231 2 -43.1355 18.9543 2 -43.1166 17.8688 2 
-44.2132 19.3687 2 -43.084 16.7394 2 -43.0665 15.6563 2 
-44.1407 17.1942 2 -43.0375 14.6175 2 -43.002 13.5733 2 
-44.079 15.0261 2 -42.9719 12.5089 2 -42.9509 11.4495 2 
-44.0199 12.9229 2 -42.9583 10.3406 2 -42.9636 9.19373 2 
-43.9972 10.7497 2 -42.9589 8.05054 2 -42.978 6.97777 2 
-44 8.49763 2 -43.0077 5.94238 2 -43.0161 4.86931 2 
-44.025 6.31905 2 -43.03 3.7626 2 -43.0203 2.65866 2 
-44.0687 4.17695 2 -43.023 1.54151 2 -43.0537 0.381069 2 
-44.0853 1.95308 2 -43.0584 -0.733615 2 -43.0588 -1.77969 2 
-44.0928 -0.27876 2 -43.0581 -2.84664 2 -43.0474 -3.95035 2 
-44.0968 -2.46039 2 -43.0482 -5.05934 2 -43.0476 -6.14274 2 
-44.097 -4.63632 2 -43.0199 -7.1924 2 -43.026 -8.27363 2 
-44.07 -6.79497 2 -43.0038 -9.38876 2 -42.9924 -10.4817 2 
-44.0202 -8.95976 2 -42.9848 -11.5429 2 -42.9679 -12.6296 2 
-43.9905 -11.1361 2 -43.0041 -13.7699 2 -42.9881 -14.8775 2 
-44.0191 -13.3376 2 -43.0145 -15.9666 2 -43.0405 -17.0726 2 
-44.0817 -15.5669 2 -43.0445 -18.2004 2 -43.0613 -19.3317 2 
-44.112 -17.7838 2 -43.0294 -20.4447 2 -43.0256 -21.5255 2 
-44.0841 -20.0247 2 -43.0031 -22.5449 2 -42.967 -23.5603 2 
-44.0298 -22.1571 2 -42.9293 -24.6241 2 -42.8894 -25.7273 2 
-43.9697 -24.2402 2 -42.8091 -26.8633 2 -42.8269 -27.9619 2 
-43.8518 -26.44 2 -42.8311 -29.0943 2 -42.8048 -30.2316 2 
-43.7494 -30.9286 2 -43.7758 -28.7084 2 -96.461 61.5389 2 
-44.5578 -32.9118 2 -96.0665 -32.7627 2 -67.8922 32.4744 2 
-69.1673 32.5651 2 -69.8234 33.5694 2 -45.7057 -32.6965 2 
-46.7807 -32.6809 2 -48.0742 -32.8426 2 -49.2331 -32.8627 2 
-47.3079 -31.7473 2 -50.3462 -32.7892 2 -51.439 -32.7375 2 
-49.7144 -31.8355 2 -52.5778 -32.6576 2 -53.6754 -32.6379 2 
-51.9663 -31.6821 2 -54.7676 -32.5656 2 -55.9179 -32.5554 2 
-54.1973 -31.5299 2 -57.0654 -32.5617 2 -58.1915 -32.5572 2 
-56.4369 -31.4638 2 -59.3751 -32.527 2 -60.5278 -32.5204 2 
-58.768 -31.4398 2 -61.6158 -32.5155 2 -62.6972 -32.5018 2 
-61.0395 -31.4047 2 -63.7734 -32.4974 2 -64.8918 -32.5028 2 
-63.2037 -31.3955 2 -66.0469 -32.5124 2 -67.1757 -32.5255 2 
-65.435 -31.4007 2 -68.2888 -32.5279 2 -69.3468 -32.5153 2 
-67.7031 -31.4128 2 -70.4107 -32.496 2 -71.5073 -32.4777 2 
-69.8802 -31.396 2 -72.5918 -32.5045 2 -73.6432 -32.5113 2 
-72.0286 -31.4035 2 -74.7276 -32.5011 2 -75.8487 -32.5097 2 
-74.1976 -31.4201 2 -76.9782 -32.5277 2 -78.0939 -32.5413 2 
-76.4116 -31.428 2 -79.2158 -32.57 2 -80.3405 -32.5822 2 
-78.663 -31.4747 2 -81.4299 -32.5967 2 -82.4996 -32.6115 2 
-80.8744 -31.5178 2 -83.6183 -32.6535 2 -84.756 -32.6649 2 
-83.0825 -31.5743 2 -85.8793 -32.7153 2 -86.9705 -32.7335 2 
-85.3245 -31.6666 2 -88.0837 -32.7464 2 -89.1697 -32.7463 2 
-87.561 -31.7299 2 -90.2707 -32.7481 2 -91.4219 -32.7458 2 
-89.7752 -31.7445 2 -92.5917 -32.7949 2 -93.7488 -32.8129 2 
-92.046 -31.7954 2 -95.0657 -32.7156 2 -69.5446 -4.13274 2 
-68.2513 -4.12804 2 -65.4501 27.2118 2 -65.5228 28.392 2 
-64.461 29.323 2 -64.2103 26.7241 2 -65.6692 20.1558 2 
-65.649 21.2222 2 -65.6542 17.9341 2 -65.6538 19.0489 2 
-64.5306 19.6344 2 -65.6668 15.8134 2 -65.6634 16.8568 2 
-64.5243 17.4502 2 -65.74 13.6227 2 -65.7117 14.7241 2 
-64.5783 15.2836 2 -65.7458 11.4142 2 -65.7434 12.5166 2 
-64.6265 13.0881 2 -65.7195 9.21587 2 -65.7317 10.2999 2 
-64.6157 10.8677 2 -65.643 6.95484 2 -65.6832 8.08974 2 
-64.5653 8.62726 2 -65.629 4.8136 2 -65.6184 5.86045 2 
-64.5043 6.40675 2 -65.6247 2.45903 2 -65.6034 3.60284 2 
-64.4541 4.1016 2 -65.7171 0.0482716 2 -65.6606 1.22288 2 
-64.4644 1.65469 2 -66.151 -2.54537 2 -65.8464 -1.33399 2 
-73.5871 30.7956 2 -73.8681 29.579 2 -73.9089 -0.71634 2 
-73.7223 -1.89753 2 -74.0167 1.68227 2 -73.9871 0.522596 2 
-73.8778 8.20555 2 -73.8991 7.16393 2 -73.8377 10.3112 2 
-73.8599 9.26567 2 -74.8718 8.74479 2 -73.8508 12.5394 2 
-73.849 11.4055 2 -74.8652 10.8992 2 -73.8177 14.7931 2 
-73.8144 13.6768 2 -74.8401 13.1308 2 -73.8243 16.8884 2 
-73.8128 15.8462 2 -74.7987 15.3214 2 -73.8612 19.1391 2 
-73.8481 17.9888 2 -74.8175 17.4749 2 -73.9193 21.3395 2 
-73.8976 20.2602 2 -74.8777 19.6963 2 -74.0015 23.5884 2 
-73.9798 22.4733 2 -74.9748 21.9512 2 -74.0842 25.9872 2 
-74.0706 24.8128 2 -75.1044 24.3094 2 -74.0149 28.3039 2 
-74.0739 27.1641 2 -75.1631 26.7107 2 -72.2044 -3.59016 2 
-71.004 -3.81319 2 -70.4187 -5.19178 2 -95.3432 61.5909 2 
-65.5984 22.3469 2 -65.5694 23.4882 2 -64.4955 21.8661 2 
-74.0054 3.91795 2 -74.0246 2.83524 2 -75.0784 2.14389 2 
-73.948 6.08585 2 -73.9561 5.03377 2 -75.0369 4.41267 2 
-74.9387 6.60657 2 -94.5326 -31.7471 2 -64.3068 24.2441 2 
-43.0395 61.3122 2 -42.1188 61.156 2 -41.3583 60.0459 2 
-43.611 60.5412 2 -67.1517 -5.72081 2 -66.4436 -4.33752 2 
-44.8667 -31.801 2 -42.1451 59.3341 2 -73.2686 32.1199 2 
-74.5408 31.7621 2 -66.4211 32.3731 2 -66.9276 33.54 2 
-72.7352 33.292 2 -43.0313 58.9809 2 -94.8474 60.8157 2 
-64.6295 -0.963717 2 -65.0514 -4.13813 2 -75.006 29.1627 2 
-74.7202 -2.78312 2 -73.5285 -3.19369 2 -74.9923 -0.248024 2 
-73.2023 -4.47575 2 -65.0632 32.0669 2 -76.2381 2.67034 2 
-76.2302 1.51736 2 -76.156 29.948 2 -76.3028 28.6729 2 
-91.5191 59.6429 2 -90.4932 59.4999 2 -89.3545 59.2861 2 
-88.2811 59.2049 2 -90.1772 58.3543 2 -87.1356 59.1542 2 
-85.9922 59.1208 2 -87.893 58.0898 2 -84.7502 59.0921 2 
-83.6185 59.1116 2 -85.5055 58.0103 2 -82.4533 59.0573 2 
-81.3295 59.0635 2 -83.0983 57.9272 2 -80.1667 59.0773 2 
-79.0498 59.0554 2 -80.7703 57.8867 2 -77.9661 59.1058 2 
-76.9218 59.1083 2 -78.5238 57.9509 2 -75.8766 59.1116 2 
-74.8249 59.1271 2 -76.3949 58.0045 2 -73.7934 59.1482 2 
-72.7543 59.1754 2 -74.3182 58.029 2 -71.6503 59.1686 2 
-70.5619 59.1651 2 -72.1827 58.0433 2 -69.4595 59.137 2 
-68.3488 59.1652 2 -69.9764 58.0084 2 -67.2238 59.165 2 
-66.1174 59.1354 2 -67.7491 57.9801 2 -65.1038 59.1673 2 
-64.0525 59.1988 2 -65.6106 58.0117 2 -62.9737 59.2517 2 
-61.9418 59.2711 2 -63.5183 58.0965 2 -60.8446 59.2725 2 
-59.6629 59.2767 2 -61.3422 58.1509 2 -58.4883 59.2696 2 
-57.3917 59.2315 2 -59.0703 58.1454 2 -56.278 59.1799 2 
-55.1867 59.141 2 -56.7819 58.0867 2 -54.0753 59.1186 2 
-52.9728 59.1223 2 -54.5568 58.0127 2 -51.8664 59.1516 2 
-50.796 59.183 2 -52.3392 58.0195 2 -49.7217 59.2863 2 
-48.7022 59.3694 2 -50.1585 58.1521 2 -47.6545 59.5275 2 
-46.6879 59.6378 2 -48.0366 58.4136 2 -44.8973 -30.7133 2 
-94.9812 -28.5012 2 -94.8922 -27.3249 2 -94.7904 -26.2297 2 
-94.7396 -25.1253 2 -93.7479 -26.8367 2 -94.6885 -23.9865 2 
-94.6612 -22.9195 2 -93.5949 -24.6027 2 -94.5977 -21.7988 2 
-94.5948 -20.6287 2 -93.4803 -22.3432 2 -94.6319 -19.454 2 
-94.6273 -18.3024 2 -93.454 -20.0477 2 -94.6488 -17.1756 2 
-94.6503 -16.1298 2 -93.5125 -17.7462 2 -94.625 -15.0954 2 
-94.6191 -14.0394 2 -93.5086 -15.5851 2 -94.5831 -12.9645 2 
-94.5718 -11.8771 2 -93.4473 -13.4758 2 -94.5536 -10.7718 2 
-94.5686 -9.64702 2 -93.3932 -11.2956 2 -94.5797 -8.54287 2 
-94.5624 -7.52287 2 -93.3861 -9.08615 2 -94.5276 -6.47144 2 
-94.5481 -5.35169 2 -93.3624 -6.93058 2 -94.5505 -4.21912 2 
-94.5372 -3.09406 2 -93.33 -4.74658 2 -94.5928 -1.97331 2 
-94.5957 -0.845323 2 -93.3879 -2.49326 2 -94.635 0.212452 2 
-94.6723 1.2544 2 -93.4828 -0.314737 2 -94.7072 2.34066 2 
-94.7149 3.4292 2 -93.557 1.8293 2 -94.6909 4.54762 2 
-94.6781 5.68863 2 -93.5679 4.03399 2 -94.6838 6.80043 2 
-94.6886 7.86498 2 -93.5496 6.26421 2 -94.7128 8.89601 2 
-94.706 9.93259 2 -93.5796 8.40704 2 -94.7201 10.9891 2 
-94.7211 12.0538 2 -93.6179 10.4945 2 -94.7122 13.1548 2 
-94.7108 14.2487 2 -93.6231 12.652 2 -94.6941 15.3493 2 
-94.711 16.4758 2 -93.5975 14.8536 2 -94.6884 17.6001 2 
-94.7306 18.7046 2 -93.5582 17.0785 2 -94.7249 19.8262 2 
-94.7398 20.9312 2 -93.5299 19.3244 2 -94.8131 21.9768 2 
-94.8088 22.9796 2 -93.5974 21.4917 2 -94.888 23.9482 2 
-94.891 24.9911 2 -93.7499 23.506 2 -94.9017 26.015 2 
-94.9353 27.1394 2 -93.8398 25.4985 2 -94.8681 28.2312 2 
-94.8204 29.3 2 -93.7833 27.6142 2 -94.8128 30.3182 2 
-94.7884 31.3023 2 -93.7085 29.7241 2 -94.7634 32.2971 2 
-94.7486 33.3669 2 -93.6759 31.7371 2 -94.7399 34.4634 2 
-94.7393 35.531 2 -93.6421 33.8284 2 -94.6898 36.6219 2 
-94.6755 37.723 2 -93.5839 36.0158 2 -94.6509 38.8163 2 
-94.625 39.8461 2 -93.5099 38.1999 2 -94.6425 40.879 2 
-94.6488 41.9726 2 -93.503 40.326 2 -94.6843 43.0517 2 
-94.7127 44.1263 2 -93.556 42.438 2 -94.7258 45.2218 2 
-94.7281 46.3073 2 -93.6046 44.6127 2 -94.7117 47.4211 2 
-94.7264 48.53 2 -93.6012 46.822 2 -94.692 49.6909 2 
-94.6688 50.8497 2 -93.5504 49.0968 2 -94.6531 52.02 2 
-94.6281 53.0873 2 -93.5002 51.428 2 -94.6234 54.1796 2 
-94.635 55.2956 2 -93.4797 53.6905 2 -94.6796 56.4194 2 
-94.7339 57.5409 2 -93.5196 55.9066 2 -94.8136 58.6095 2 
-94.8349 59.8374 2 -93.7361 60.1459 2 -93.6438 58.099 2 
-63.2838 16.9802 2 -63.2746 18.0574 2 -68.3739 -7.09371 2 
-66.5663 -7.30319 2 -95.0624 -30.8375 2 -95.194 -29.5479 2 
-94.0625 -28.9785 2 -93.7455 -30.9348 2 -75.6815 32.7137 2 
-75.9999 31.3894 2 -44.7422 55.1688 2 -44.865 54.057 2 
-45.0231 52.8831 2 -45.0949 51.7104 2 -45.9945 53.4842 2 
-45.1505 50.4836 2 -45.1656 49.3135 2 -46.2082 51.0835 2 
-45.1504 48.1729 2 -45.14 47.1161 2 -46.2487 48.7161 2 
-45.1468 46.0139 2 -45.1511 44.869 2 -46.2403 46.4733 2 
-45.1682 43.7278 2 -45.1984 42.6124 2 -46.2643 44.2299 2 
-45.2925 41.536 2 -45.2861 40.4894 2 -46.3755 42.0123 2 
-45.2416 39.3864 2 -45.2547 38.291 2 -46.4251 39.8329 2 
-45.2197 37.2236 2 -45.2091 36.1397 2 -46.3456 37.6625 2 
-45.2608 35.1021 2 -45.2574 34.027 2 -46.3623 35.5575 2 
-45.2581 32.9397 2 -45.2692 31.9068 2 -46.4147 33.4326 2 
-45.3182 30.8148 2 -45.3483 29.6955 2 -46.4643 31.2533 2 
-45.3408 28.5674 2 -45.3269 27.4475 2 -46.5058 29.0333 2 
-45.2651 26.3093 2 -45.2642 25.1724 2 -46.4365 26.7671 2 
-45.269 24.1172 2 -45.2915 23.0755 2 -46.3796 24.5738 2 
-45.3642 21.9887 2 -45.3913 20.8795 2 -46.457 22.4319 2 
-45.3624 19.8172 2 -45.3226 18.772 2 -46.5007 20.2828 2 
-45.3084 17.6775 2 -45.2758 16.5482 2 -46.4576 18.126 2 
-45.2002 15.4707 2 -45.1711 14.4319 2 -46.3679 15.954 2 
-45.1368 13.403 2 -45.1067 12.3386 2 -46.258 13.8476 2 
-45.0858 11.193 2 -45.0933 10.0841 2 -46.2028 11.6731 2 
-45.0992 8.9724 2 -45.0946 7.8292 2 -46.1879 9.41572 2 
-45.1343 6.73501 2 -45.164 5.69962 2 -46.2335 7.20978 2 
-45.1621 4.64797 2 -45.1761 3.54126 2 -46.2714 5.06394 2 
-45.1949 2.43377 2 -45.1976 1.31661 2 -46.2884 2.9048 2 
-45.2203 0.161152 2 -45.2251 -0.953532 2 -46.3299 0.64184 2 
-45.2309 -2.00678 2 -45.2303 -3.07372 2 -46.3585 -1.56686 2 
-45.2274 -4.16743 2 -45.2282 -5.27642 2 -46.3615 -3.71381 2 
-45.1892 -6.36825 2 -45.1615 -7.4179 2 -46.3196 -5.89935 2 
-45.1332 -8.47865 2 -45.1111 -9.59379 2 -46.2523 -8.05193 2 
-45.0967 -10.701 2 -45.0892 -11.7622 2 -46.2098 -10.2199 2 
-45.1543 -12.9056 2 -45.1905 -14.0459 2 -46.2605 -12.4705 2 
-45.2242 -15.13 2 -45.2506 -16.2191 2 -46.3594 -14.6981 2 
-45.2836 -17.342 2 -45.2876 -18.4699 2 -46.4262 -16.9052 2 
-45.2428 -19.5978 2 -45.2109 -20.7108 2 -46.4144 -19.156 2 
-45.127 -21.762 2 -45.1046 -22.7813 2 -46.2857 -21.3351 2 
-45.0459 -23.8166 2 -45.0082 -24.8804 2 -46.143 -23.4215 2 
-44.9212 -25.9686 2 -44.841 -27.1046 2 -45.9974 -25.5449 2 
-66.0639 34.7806 2 -67.535 34.8819 2 -46.7856 -30.8604 2 
-48.079 -31.0221 2 -72.1816 34.6744 2 -73.6687 34.4688 2 
-63.1159 23.5691 2 -62.9778 24.8223 2 -49.1027 -30.8926 2 
-50.2158 -30.8191 2 -48.5804 -30.0057 2 -51.3197 -30.6712 2 
-52.4585 -30.5914 2 -50.708 -29.7283 2 -53.5755 -30.4671 2 
-54.6676 -30.3948 2 -52.9288 -29.4562 2 -55.7728 -30.3257 2 
-56.9202 -30.3319 2 -55.151 -29.2628 2 -58.137 -30.2656 2 
-59.3205 -30.2354 2 -57.4728 -29.1274 2 -60.4812 -30.2198 2 
-61.5691 -30.2149 2 -59.8501 -29.0456 2 -62.6376 -30.2063 2 
-63.7139 -30.2019 2 -62.0793 -29.0213 2 -64.8286 -30.2108 2 
-65.9837 -30.2204 2 -64.2626 -29.0216 2 -67.1087 -30.2479 2 
-68.2218 -30.2503 2 -66.5024 -29.0579 2 -69.3332 -30.2433 2 
-70.3972 -30.224 2 -68.7388 -29.0784 2 -71.4613 -30.2221 2 
-72.5458 -30.2489 2 -70.9144 -29.0695 2 -73.6761 -30.2371 2 
-74.7606 -30.2269 2 -73.1088 -29.0557 2 -75.8546 -30.2251 2 
-76.9841 -30.2432 2 -75.3331 -29.0421 2 -78.1225 -30.2674 2 
-79.2444 -30.2961 2 -77.5655 -29.0645 2 -80.3935 -30.3849 2 
-81.4829 -30.3994 2 -79.8529 -29.1776 2 -82.5836 -30.4561 2 
-83.7023 -30.4981 2 -82.1027 -29.3232 2 -84.8052 -30.5828 2 
-85.9285 -30.6332 2 -84.3063 -29.4646 2 -87.0576 -30.738 2 
-88.1708 -30.7508 2 -86.5383 -29.6541 2 -89.2804 -30.7486 2 
-90.3813 -30.7504 2 -88.7769 -29.7567 2 -91.504 -30.7358 2 
-92.6738 -30.7848 2 -93.2036 -29.8752 2 -91.0092 -29.7398 2 
-63.372 -1.80254 2 -63.2428 -0.420278 2 -69.1228 34.8799 2 
-70.5475 34.808 2 -68.2591 36.1205 2 -63.3927 14.82 2 
-63.3479 15.9093 2 -62.0982 16.5166 2 -63.2674 19.231 2 
-63.2829 20.338 2 -62.0269 18.761 2 -63.4605 12.5565 2 
-63.4571 13.6626 2 -62.2267 14.2883 2 -63.4113 10.2917 2 
-63.4254 11.406 2 -62.256 11.9804 2 -63.3502 8.0563 2 
-63.3865 9.18242 2 -62.1962 9.7207 2 -63.3011 5.82633 2 
-63.3257 6.92071 2 -62.147 7.47588 2 -63.2449 3.47214 2 
-63.2706 4.6829 2 -62.092 5.19687 2 -63.2593 0.944869 2 
-63.2233 2.18101 2 -62.0398 2.76232 2 -63.5858 -5.27221 2 
-63.2932 -3.48005 2 -76.0152 -2.24039 2 -75.8213 -3.53655 2 
-76.1969 0.250777 2 -76.1187 -0.98816 2 -77.2198 -1.74159 2 
-77.3567 0.777228 2 -74.2543 -5.44161 2 -72.9302 -5.83808 2 
-75.9012 9.27073 2 -75.919 8.2106 2 -75.8188 15.8701 2 
-75.8237 14.8169 2 -75.839 18.022 2 -75.8152 16.9216 2 
-76.8402 16.4172 2 -75.9154 20.2997 2 -75.879 19.1786 2 
-76.8766 18.6254 2 -76.1424 22.5179 2 -76.0818 21.3841 2 
-77.083 20.8664 2 -76.3287 24.9509 2 -76.2596 23.7265 2 
-77.3667 23.1595 2 -76.3587 27.3958 2 -76.369 26.2189 2 
-77.5243 25.636 2 -71.4879 -6.30645 2 -70.0284 -6.626 2 
-69.443 -8.20839 2 -72.5399 -7.27231 2 -63.3959 31.775 2 
-63.7892 33.1469 2 -92.7229 59.9426 2 -44.3957 57.4131 2 
-44.5345 56.335 2 -45.6286 55.8243 2 -63.4879 21.3487 2 
-63.4373 22.4734 2 -62.1083 23.0517 2 -62.2247 20.9452 2 
-75.8899 11.4652 2 -75.8786 10.3709 2 -76.9258 9.83674 2 
-75.8542 13.7033 2 -75.8907 12.5659 2 -76.904 12.0377 2 
-76.8743 14.252 2 -77.5087 28.1811 2 -44.7323 -29.4131 2 
-45.8495 -30.2856 2 -46.6206 -29.5603 2 -44.728 -28.2807 2 
-45.6475 59.8744 2 -44.719 60.0006 2 -75.3211 34.1828 2 
-76.7803 33.8101 2 -62.6602 34.3339 2 -64.3275 34.6257 2 
-63.095 30.1996 2 -61.821 31.2796 2 -66.2444 -9.05318 2 
-65.0222 -7.68027 2 -43.8001 59.5856 2 -44.1394 58.4403 2 
-45.7975 -27.8093 2 -64.9349 35.9676 2 -76.1304 4.92692 2 
-76.1798 3.8111 2 -77.3316 3.18458 2 -74.7674 35.5651 2 
-61.6335 25.5389 2 -62.8244 26.2138 2 -71.481 35.9848 2 
-45.9486 58.8084 2 -62.0018 0.106046 2 -62.8661 27.4407 2 
-62.886 28.8275 2 -61.9065 -2.93661 2 -63.4779 -7.04539 2 
-61.7197 -6.38731 2 -63.1561 -8.79538 2 -76.9673 -4.34424 2 
-75.6724 -4.88697 2 -92.5197 58.8679 2 -77.2967 30.8996 2 
-45.1645 58.0178 2 -75.4003 -6.2493 2 -75.9729 7.13468 2 
-76.0219 6.05659 2 -77.1647 5.45502 2 -77.0023 7.66062 2 
-63.9487 37.3366 2 -65.6851 37.4915 2 -60.6717 -0.564246 2 
-60.6882 0.800901 2 -61.5001 28.3173 2 -88.7913 56.8325 2 
-87.6458 56.7817 2 -86.208 56.8989 2 -84.966 56.8702 2 
-87.1063 55.6416 2 -83.7601 56.7455 2 -82.5949 56.6911 2 
-84.4626 55.6341 2 -81.3714 56.5747 2 -80.2086 56.5885 2 
-82.0332 55.393 2 -79.0846 56.6551 2 -78.0009 56.7055 2 
-79.6857 55.3432 2 -76.8913 56.8045 2 -75.846 56.8078 2 
-77.4521 55.5087 2 -74.8276 56.7908 2 -73.7961 56.8119 2 
-75.324 55.5907 2 -72.7173 56.7913 2 -71.6134 56.7845 2 
-73.2268 55.5531 2 -70.4727 56.7487 2 -69.3704 56.7206 2 
-71.0074 55.4967 2 -68.2478 56.6863 2 -67.1228 56.6861 2 
-68.7441 55.4266 2 -66.0521 56.7527 2 -65.0386 56.7846 2 
-66.5508 55.459 2 -64.0265 56.8427 2 -62.9477 56.8956 2 
-64.4679 55.5837 2 -61.9047 56.929 2 -60.8075 56.9305 2 
-62.4129 55.6751 2 -59.6225 56.9426 2 -58.4479 56.9356 2 
-60.1851 55.7207 2 -57.2976 56.8452 2 -56.1838 56.7936 2 
-57.8498 55.6424 2 -55.044 56.748 2 -53.9326 56.7256 2 
-55.5596 55.5065 2 -52.7839 56.7604 2 -51.6775 56.7897 2 
-53.271 55.4957 2 -50.5279 56.9453 2 -49.4536 57.0486 2 
-50.9726 55.6861 2 -48.3256 57.2778 2 -47.278 57.436 2 
-48.695 56.071 2 -92.5619 -27.6229 2 -92.4601 -26.5277 2 
-78.1064 34.8985 2 -78.4669 33.4295 2 -60.7082 34.0246 2 
-61.2465 35.5034 2 -60.9989 13.7914 2 -60.9346 14.9489 2 
-60.0415 30.7666 2 -60.3424 32.3421 2 -58.9288 33.5116 2 
-92.432 -25.1862 2 -92.3808 -24.0474 2 -91.246 -25.9725 2 
-92.3172 -22.9007 2 -92.2537 -21.78 2 -91.1543 -23.4843 2 
-92.228 -20.6003 2 -92.2652 -19.4256 2 -91.0649 -21.1579 2 
-92.317 -18.2595 2 -92.3385 -17.1328 2 -91.0911 -18.8121 2 
-92.3247 -16.0657 2 -92.2994 -15.0313 2 -91.1292 -16.579 2 
-92.2213 -13.9932 2 -92.1853 -12.9183 2 -91.0374 -14.4738 2 
-92.188 -11.8298 2 -92.1698 -10.7245 2 -90.9619 -12.3472 2 
-92.1791 -9.59152 2 -92.1903 -8.48737 2 -90.9739 -10.1257 2 
-92.1635 -7.41342 2 -92.1287 -6.362 2 -90.9566 -7.91879 2 
-92.1043 -5.26283 2 -92.1067 -4.13026 2 -90.9054 -5.74568 2 
-92.1049 -3.01647 2 -92.1605 -1.89573 2 -90.8792 -3.53273 2 
-92.1915 -0.759922 2 -92.2308 0.297853 2 -90.9085 -1.28314 2 
-92.2399 1.34551 2 -92.2748 2.43177 2 -90.9486 0.900321 2 
-92.2966 3.55403 2 -92.2726 4.67245 2 -90.9795 3.07023 2 
-92.3186 5.7872 2 -92.3244 6.899 2 -91.0474 5.30724 2 
-92.3619 7.93888 2 -92.3861 8.96991 2 -91.1309 7.46187 2 
-92.4207 10.0207 2 -92.4349 11.0772 2 -91.2031 9.55256 2 
-92.4317 12.1691 2 -92.4228 13.2701 2 -91.2346 11.6953 2 
-92.3876 14.3846 2 -92.3709 15.4852 2 -91.1963 13.9017 2 
-92.3192 16.6237 2 -92.2967 17.748 2 -91.1094 16.1547 2 
-92.2877 18.8856 2 -92.282 20.0072 2 -91.0488 18.4308 2 
-92.3078 21.0827 2 -92.381 22.1283 2 -91.0656 20.6439 2 
-92.5032 23.1271 2 -92.5825 24.0958 2 -91.2136 22.7181 2 
-92.8537 24.965 2 -92.8644 25.9889 2 -91.6071 24.5862 2 
-92.6259 26.9664 2 -92.5587 28.0582 2 -91.6398 26.4329 2 
-92.5157 29.1025 2 -92.508 30.1206 2 -91.3582 28.4547 2 
-92.5025 31.1507 2 -92.4775 32.1455 2 -91.3097 30.5291 2 
-92.4244 33.1505 2 -92.4157 34.247 2 -91.2511 32.5641 2 
-92.3609 35.3764 2 -92.3115 36.4672 2 -91.1432 34.6984 2 
-92.2651 37.5595 2 -92.2405 38.6527 2 -91.0421 36.92 2 
-92.2283 39.7184 2 -92.2459 40.7513 2 -90.9834 39.078 2 
-92.305 41.7857 2 -92.3405 42.8648 2 -91.0303 41.1781 2 
-92.3311 43.9529 2 -92.3441 45.0485 2 -91.08 43.3006 2 
-92.312 46.1864 2 -92.2956 47.3002 2 -91.0385 45.5266 2 
-92.2921 48.4907 2 -92.2577 49.6517 2 -91.0029 47.8551 2 
-92.293 50.8622 2 -92.2773 52.0325 2 -91.0348 50.2562 2 
-92.2704 53.2036 2 -92.2657 54.2958 2 -91.0632 52.6378 2 
-92.2699 55.4924 2 -92.3145 56.6162 2 -91.0606 55.0054 2 
-76.6183 -7.17874 2 -75.2002 -7.73338 2 -92.9908 -28.8286 2 
-77.9659 10.4004 2 -77.9884 9.30022 2 -46.8837 -27.3326 2 
-46.7707 -28.5087 2 -47.7068 -29.0836 2 -60.8109 16.0638 2 
-60.7467 17.1346 2 -59.5831 15.5669 2 -47.3612 51.7686 2 
-47.4168 50.5418 2 -47.4432 49.2839 2 -47.428 48.1434 2 
-48.5962 49.9691 2 -47.4017 46.923 2 -47.4085 45.8208 2 
-48.5962 47.4909 2 -47.2978 44.8068 2 -47.315 43.6656 2 
-48.4592 45.2565 2 -47.7416 42.5744 2 -47.8357 41.498 2 
-48.7752 43.1512 2 -47.8411 40.2791 2 -47.7966 39.1761 2 
-49.2072 40.8411 2 -47.4193 38.1675 2 -47.3843 37.1001 2 
-48.8353 38.6137 2 -47.5497 36.1088 2 -47.6014 35.0712 2 
-48.6234 36.6138 2 -47.6495 33.9841 2 -47.6502 32.8968 2 
-48.8369 34.5354 2 -47.6757 31.7875 2 -47.7247 30.6955 2 
-48.9105 32.339 2 -47.7578 29.5056 2 -47.7503 28.3776 2 
-48.9692 30.0398 2 -47.7507 27.2233 2 -47.6889 26.0852 2 
-49.0027 27.6957 2 -47.4282 25.0905 2 -47.433 24.0354 2 
-48.7423 25.5467 2 -47.7279 23.0497 2 -47.8006 21.9629 2 
-48.7765 23.5664 2 -47.8723 20.8343 2 -47.8434 19.772 2 
-49.1432 21.4522 2 -47.6814 18.6292 2 -47.6673 17.5347 2 
-49.053 19.1807 2 -47.5705 16.4185 2 -47.4949 15.3411 2 
-48.7943 16.9217 2 -47.4716 14.2792 2 -47.4373 13.2503 2 
-48.6742 14.7437 2 -47.3657 12.2062 2 -47.3448 11.0606 2 
-48.5794 12.6378 2 -47.3217 9.94321 2 -47.3277 8.83146 2 
-48.4846 10.4763 2 -47.4024 7.72474 2 -47.4421 6.63055 2 
-48.5362 8.25223 2 -47.4922 5.60327 2 -47.4903 4.55163 2 
-48.6611 6.11824 2 -47.5141 3.41671 2 -47.5329 2.30921 2 
-48.7349 3.95604 2 -47.5381 1.18856 2 -47.5608 0.0330964 2 
-48.7638 1.70047 2 -47.5755 -1.0992 2 -47.5813 -2.15244 2 
-48.7836 -0.552479 2 -47.5999 -3.20446 2 -47.597 -4.29816 2 
-48.8168 -2.73679 2 -47.5992 -5.37496 2 -47.5602 -6.46679 2 
-48.8376 -4.8656 2 -47.5016 -7.55844 2 -47.4733 -8.61918 2 
-48.7812 -7.03404 2 -47.3969 -9.73279 2 -47.3825 -10.84 2 
-48.6461 -9.2393 2 -47.4196 -11.9743 2 -47.4848 -13.1178 2 
-48.6067 -11.4872 2 -47.6307 -14.2083 2 -47.6645 -15.2925 2 
-48.7898 -13.7121 2 -47.7173 -16.4298 2 -47.7503 -17.5527 2 
-48.9886 -15.9399 2 -47.6914 -18.6526 2 -47.6465 -19.7805 2 
-48.9825 -18.1772 2 -47.499 -20.9207 2 -47.4151 -21.9719 2 
-48.776 -20.4173 2 -47.3089 -23.0247 2 -47.2502 -24.0599 2 
-48.5222 -22.6103 2 -47.097 -25.1408 2 -47.01 -26.229 2 
-47.9832 -26.9285 2 -48.2628 -24.744 2 -60.1858 24.7258 2 
-60.0325 26.1173 2 -70.7679 37.3922 2 -72.402 37.2585 2 
-52.2263 -28.4086 2 -53.3433 -28.2844 2 -54.4714 -28.1086 2 
-55.5766 -28.0394 2 -53.7689 -27.061 2 -56.7869 -27.9403 2 
-58.0036 -27.874 2 -56.1074 -26.786 2 -59.1998 -27.7918 2 
-60.3604 -27.7761 2 -58.5139 -26.6046 2 -61.4953 -27.7149 2 
-62.5638 -27.7063 2 -60.8449 -26.4611 2 -63.664 -27.7589 2 
-64.7787 -27.7677 2 -63.08 -26.4525 2 -65.9052 -27.8617 2 
-67.0303 -27.8892 2 -65.3066 -26.599 2 -68.1639 -27.8922 2 
-69.2754 -27.8852 2 -67.5668 -26.6959 2 -70.3575 -27.836 2 
-71.4216 -27.834 2 -69.7826 -26.6497 2 -72.5617 -27.7694 2 
-73.692 -27.7576 2 -72.0048 -26.5359 2 -74.8202 -27.7409 2 
-75.9141 -27.7391 2 -74.273 -26.4546 2 -77.0384 -27.7754 2 
-78.1768 -27.7996 2 -76.5255 -26.4741 2 -79.3409 -27.9008 2 
-80.49 -27.9896 2 -78.8139 -26.6116 2 -81.6695 -28.0753 2 
-82.7702 -28.132 2 -81.1575 -26.7985 2 -83.8821 -28.2495 2 
-84.985 -28.3343 2 -83.4489 -27.0017 2 -86.1313 -28.5041 2 
-87.2603 -28.6089 2 -85.7071 -27.289 2 -88.2923 -28.8616 2 
-89.4019 -28.8594 2 -87.8853 -27.7116 2 -67.4271 37.5062 2 
-69.015 37.5042 2 -69.9359 38.7779 2 -46.9571 54.245 2 
-47.1153 53.0711 2 -48.3239 52.5295 2 -46.2049 57.7811 2 
-60.9974 11.4099 2 -61.0324 12.5604 2 -59.7403 13.221 2 
-60.6141 18.418 2 -60.6069 19.5916 2 -59.3268 17.9652 2 
-60.8968 9.20095 2 -60.9216 10.3102 2 -59.698 10.8902 2 
-60.852 6.92187 2 -60.8765 8.05746 2 -59.6019 8.64694 2 
-60.8247 4.63918 2 -60.8552 5.78261 2 -59.5847 6.36419 2 
-60.774 2.11338 2 -60.7956 3.40451 2 -59.4439 1.44309 2 
-78.3716 -3.73966 2 -78.2226 -5.09008 2 -78.8407 28.8451 2 
-78.8966 27.5679 2 -77.8936 16.9493 2 -77.8972 15.8977 2 
-78.6402 23.6876 2 -78.5229 22.479 2 -78.8059 26.2254 2 
-78.7655 24.9575 2 -79.9218 24.277 2 -80.1379 26.8894 2 
-78.7231 31.8397 2 -78.8791 30.3983 2 -74.263 37.0958 2 
-75.9154 36.8098 2 -73.5499 38.5031 2 -77.9522 19.1583 2 
-77.9121 18.0017 2 -78.9691 17.4822 2 -67.1363 -10.5543 2 
-65.5923 -10.9313 2 -60.3254 -3.79876 2 -60.4042 -2.12125 2 
-59.0906 -1.42639 2 -78.2815 21.4123 2 -78.1151 20.3279 2 
-79.1506 19.7042 2 -79.555 21.9404 2 -59.948 27.6628 2 
-59.9679 29.0496 2 -58.5003 26.8496 2 -46.4939 56.6453 2 
-48.7305 -28.9541 2 -79.6058 -5.88036 2 -78.2015 -6.48494 2 
-78.0014 -7.96902 2 -90.0516 57.1713 2 -89.8045 55.8632 2 
-91.7029 -28.5196 2 -80.0492 32.9282 2 -60.0119 36.8495 2 
-61.9638 37.1588 2 -46.7017 55.4791 2 -78.5874 3.72127 2 
-78.6457 2.58051 2 -79.8963 1.91972 2 -78.6405 1.38302 2 
-78.6072 0.116438 2 -92.44 57.7993 2 -77.9915 11.4928 2 
-79.0541 10.9562 2 -77.9923 12.5935 2 -60.9223 22.0003 2 
-60.6009 23.096 2 -58.9998 23.6744 2 -64.4167 -12.4257 2 
-63.5248 -10.9247 2 -62.7141 38.6827 2 -79.0845 8.7761 2 
-78.0444 8.21242 2 -78.0983 7.13649 2 -51.0199 -28.5957 2 
-51.4344 -27.4239 2 -49.9161 -28.7436 2 -61.9805 -10.2898 2 
-66.441 38.8752 2 -90.5803 -28.5342 2 -47.8225 55.0661 2 
-58.4894 30.1121 2 -80.267 29.7851 2 -59.5588 3.99025 2 
-78.4371 -2.43902 2 -79.6924 -3.18487 2 -78.5407 -1.1868 2 
-49.0425 -27.8215 2 -59.7847 -7.33709 2 -59.8926 -5.5639 2 
-58.3904 -4.74853 2 -91.1904 57.3851 2 -74.9334 -9.27401 2 
-73.7154 -8.34457 2 -90.0957 -27.6392 2 -77.6583 36.5297 2 
-79.3449 36.1491 2 -78.9641 15.3723 2 -77.9107 14.8403 2 
-77.9412 13.7267 2 -70.5909 -9.53491 2 -68.9363 -10.0026 2 
-68.2842 -11.8808 2 -72.273 -8.81294 2 -77.1538 38.0604 2 
-76.7029 39.6878 2 -78.4459 39.4078 2 -48.9505 54.8369 2 
-85.1416 54.5377 2 -83.9357 54.413 2 -82.6886 53.9987 2 
-81.4651 53.8822 2 -83.3676 52.9023 2 -80.1715 53.4784 2 
-79.0475 53.545 2 -80.8269 52.0841 2 -77.9731 54.3029 2 
-76.8634 54.4018 2 -78.4588 52.438 2 -75.8499 54.3257 2 
-74.8315 54.3087 2 -76.3709 53.1198 2 -73.7535 54.2925 2 
-72.6748 54.272 2 -74.2794 53.0276 2 -71.5434 54.2565 2 
-70.4027 54.2207 2 -72.0701 52.9959 2 -69.1736 54.0815 2 
-68.051 54.0472 2 -69.7096 52.8413 2 -66.8986 53.9139 2 
-65.8279 53.9805 2 -67.3281 52.5688 2 -64.9065 54.3675 2 
-63.8944 54.4256 2 -65.2543 52.8225 2 -62.8716 54.2067 2 
-61.8287 54.2401 2 -63.3102 52.9905 2 -60.7953 54.5489 2 
-59.6104 54.5611 2 -61.254 53.0805 2 -58.5121 54.383 2 
-57.3618 54.2927 2 -59.1224 53.2113 2 -56.0943 54.2609 2 
-54.9545 54.2154 2 -56.7566 53.0015 2 -53.7581 54.129 2 
-52.6093 54.1638 2 -54.2928 52.8834 2 -51.3647 54.3135 2 
-50.2151 54.4692 2 -51.8518 52.9468 2 -57.7027 36.5629 2 
-58.42 38.2182 2 -78.4512 4.85704 2 -79.7653 4.25296 2 
-78.3427 5.98671 2 -56.6919 33.1235 2 -57.0578 34.806 2 
-55.4659 36.1748 2 -90.0804 -26.5606 2 -90.0523 -25.2191 2 
-88.902 -26.8858 2 -89.9492 -24.0421 2 -89.8856 -22.8954 2 
-88.7836 -24.6302 2 -89.7532 -21.7048 2 -89.7275 -20.5251 2 
-88.5482 -22.2626 2 -89.6902 -19.3069 2 -89.7421 -18.1409 2 
-88.3785 -19.8538 2 -90.0201 -17.0621 2 -90.0064 -15.9951 2 
-88.6192 -17.557 2 -89.7142 -15.0275 2 -89.6361 -13.9894 2 
-88.6052 -15.5107 2 -89.5893 -12.8979 2 -89.592 -11.8094 2 
-88.2662 -13.4516 2 -89.6814 -10.6784 2 -89.6907 -9.54544 2 
-88.3088 -11.2291 2 -89.7002 -8.37935 2 -89.6734 -7.30541 2 
-88.4076 -8.93206 2 -89.5983 -6.22563 2 -89.5738 -5.12646 2 
-88.3419 -6.68619 2 -89.4833 -3.99957 2 -89.4816 -2.88578 2 
-88.1762 -4.47952 2 -89.5008 -1.74349 2 -89.5318 -0.60769 2 
-88.1049 -2.21033 2 -89.6215 0.467639 2 -89.6305 1.51529 2 
-88.2138 0.00728101 2 -89.7084 2.59928 2 -89.7303 3.72154 2 
-88.3814 2.1666 2 -89.7473 4.82961 2 -89.7933 5.94436 2 
-88.4762 4.35866 2 -89.8316 7.01208 2 -89.8691 8.05197 2 
-88.5315 6.53446 2 -89.9977 9.09963 2 -90.0323 10.1504 2 
-88.6983 8.64984 2 -90.0577 11.2544 2 -90.0546 12.3463 2 
-88.8523 10.8015 2 -89.9759 13.4636 2 -89.9407 14.578 2 
-88.799 13.0227 2 -89.8432 15.7177 2 -89.7915 16.8563 2 
-88.6229 15.2796 2 -89.7427 17.9981 2 -89.7338 19.1356 2 
-88.4766 17.561 2 -89.7012 20.3132 2 -89.7269 21.3887 2 
-88.3951 19.8804 2 -89.8097 22.5117 2 -89.9319 23.5105 2 
-88.4452 22.181 2 -90.2066 24.6487 2 -90.4779 25.5179 2 
-88.8027 24.4423 2 -90.2393 26.4954 2 -90.115 27.6882 2 
-90.072 28.7325 2 -88.9531 26.7732 2 -90.0847 29.8975 2 
-90.0792 30.9276 2 -88.8415 29.131 2 -90.0967 31.9337 2 
-90.0436 32.9387 2 -88.8717 31.3022 2 -90.0211 33.9973 2 
-89.9664 35.1267 2 -88.8668 33.367 2 -89.8011 36.2222 2 
-89.7547 37.3145 2 -88.679 35.5211 2 -89.5657 38.4253 2 
-89.5534 39.491 2 -88.3247 37.7275 2 -89.5773 40.5773 2 
-89.6364 41.6117 2 -88.1596 39.9246 2 -89.9277 42.6541 2 
-89.9183 43.7422 2 -88.4747 42.0533 2 -89.5707 44.7626 2 
-89.5385 45.9005 2 -88.4183 44.116 2 -89.6007 47.1172 2 
-89.5973 48.3078 2 -88.1329 46.3532 2 -89.7904 49.5978 2 
-89.8257 50.8083 2 -88.3882 48.8599 2 -89.9671 52.0799 2 
-89.9602 53.251 2 -81.6671 34.0571 2 -81.9233 32.4673 2 
-65.4342 -14.6386 2 -63.3667 -14.6319 2 -58.2396 14.9287 2 
-58.1159 16.0436 2 -61.6067 40.3082 2 -63.5916 40.486 2 
-49.71 47.9585 2 -49.6837 46.7381 2 -49.9523 45.3807 2 
-49.8416 44.3667 2 -51.0661 45.8483 2 -50.2682 43.2755 2 
-68.9512 3.47664 1 -68.9512 4.52664 1 -51.0576 41.5259 2 
-51.063 40.307 2 -52.124 42.7413 2 -50.4257 38.5414 2 
-50.0484 37.5328 2 -52.2761 39.2261 2 -50.2138 36.5415 2 
-68.9512 5.59164 1 -68.9512 6.59664 1 -50.0526 35.2231 2 
-50.1008 34.136 2 -51.4777 36.142 2 -50.3946 32.9358 2 
-50.4201 31.8265 2 -51.6104 33.6235 2 -50.1714 30.6201 2 
-50.2045 29.4302 2 -51.6554 31.2169 2 -50.4879 28.2223 2 
-50.4883 27.068 2 -51.6901 28.8026 2 -50.2981 25.5862 2 
-50.0374 24.5915 2 -51.7834 26.1128 2 -50.3323 23.6059 2 
-68.9512 7.61664 1 -68.9512 8.78664 1 -50.6653 22.2049 2 
-50.737 21.0763 2 -51.9262 23.23 2 -50.828 19.6535 2 
-50.666 18.5106 2 -52.3501 20.4062 2 -49.9495 17.3861 2 
-49.8527 16.2699 2 -51.7245 17.8588 2 -49.9612 15.2111 2 
-49.9379 14.1492 2 -51.1164 15.6754 2 -49.9013 13.0855 2 
-49.8297 12.0414 2 -51.1882 13.5528 2 -49.5311 11.0192 2 
-49.508 9.90184 2 -50.8531 11.4669 2 -49.7873 8.88859 2 
-49.8621 7.78187 2 -50.8338 9.43148 2 -49.9432 6.6728 2 
-49.9933 5.64552 2 -51.1943 7.30916 2 -50.0503 4.56026 2 
-50.0741 3.42534 2 -51.3325 5.11483 2 -50.0713 2.29906 2 
-50.0764 1.17841 2 -51.3867 2.90329 2 -50.0413 0.0268216 2 
-50.056 -1.10547 2 -51.3489 0.625418 2 -50.1201 -2.21027 2 
-50.1386 -3.26228 2 -51.3778 -1.63097 2 -50.2148 -4.34177 2 
-50.217 -5.41857 2 -51.518 -3.81525 2 -50.1949 -6.54553 2 
-50.1363 -7.63718 2 -51.5721 -6.02171 2 -50.068 -8.7393 2 
-49.9915 -9.85291 2 -51.4817 -8.25079 2 -49.6923 -10.9343 2 
-49.7294 -12.0686 2 -51.1142 -10.4343 2 -50.1304 -13.1033 2 
-50.2764 -14.1938 2 -51.216 -12.5503 2 -50.4548 -15.3564 2 
-50.5076 -16.4937 2 -51.7954 -14.7475 2 -50.388 -17.6502 2 
-50.3291 -18.7501 2 -51.8541 -17.0666 2 -50.161 -19.9477 2 
-50.0134 -21.0879 2 -51.5665 -19.4207 2 -49.845 -22.2619 2 
-49.7388 -23.3147 2 -51.23 -21.7923 2 -49.3426 53.4643 2 
-49.5886 52.1618 2 -53.0032 -25.9808 2 -54.1313 -25.8049 2 
-80.0714 18.0157 2 -80.0528 16.9632 2 -80.61 37.5013 2 
-81.0582 35.8701 2 -82.9322 35.4093 2 -49.9827 50.6292 2 
-50.009 49.3714 2 -51.0965 48.6186 2 -60.1727 -11.6782 2 
-59.8039 -9.54895 2 -69.1137 40.2935 2 -70.8666 40.1814 2 
-55.4026 -25.561 2 -56.6129 -25.4618 2 -54.6368 -24.4807 2 
-57.7924 -25.5137 2 -58.9886 -25.4315 2 -57.0876 -24.2887 2 
-60.0863 -25.0335 2 -61.2212 -24.9723 2 -59.3648 -23.9427 2 
-62.4336 -24.9902 2 -63.5338 -25.0427 2 -61.675 -23.5626 2 
-64.7692 -25.1646 2 -65.8957 -25.2586 2 -64.1228 -23.7023 2 
-66.9616 -25.5484 2 -68.0953 -25.5514 2 -66.4241 -24.114 2 
-69.1099 -25.1937 2 -70.192 -25.1445 2 -68.5047 -24.0462 2 
-71.3758 -25.09 2 -72.5158 -25.0253 2 -70.7031 -23.6339 2 
-73.791 -24.9812 2 -74.9192 -24.9645 2 -73.1619 -23.5353 2 
-76.095 -24.9409 2 -77.2193 -24.9772 2 -75.613 -23.4675 2 
-78.3629 -25.2149 2 -79.527 -25.3161 2 -77.9325 -23.6816 2 
-80.7661 -25.4934 2 -81.9456 -25.5791 2 -80.3151 -24.0966 2 
-83.1177 -25.6915 2 -84.2296 -25.809 2 -82.7263 -24.3863 2 
-85.4859 -26.057 2 -86.6321 -26.2268 2 -85.1547 -24.7468 2 
-87.87 -26.633 2 -58.1608 8.15752 2 -58.1812 9.30101 2 
-57.8681 17.3181 2 -57.7355 18.6015 2 -56.5246 16.6799 2 
-59.3045 20.6466 2 -60.7173 20.9896 2 -58.2131 5.82017 2 
-58.2099 6.95943 2 -56.7892 7.6135 2 -58.0837 0.854158 2 
-58.1695 2.16664 2 -65.5738 40.3917 2 -67.3158 40.4064 2 
-68.2464 41.8099 2 -58.2137 3.41002 2 -58.2427 4.64469 2 
-56.8679 5.23993 2 -56.8534 2.82108 2 -76.266 -10.2998 2 
-74.7812 -10.911 2 -49.1688 -26.7179 2 -81.8672 30.4468 2 
-81.8288 28.8935 2 -72.9381 40.0754 2 -74.7991 39.9127 2 
-76.0912 41.2601 2 -72.1158 41.591 2 -58.2172 10.465 2 
-58.293 11.5647 2 -56.7762 9.97557 2 -56.5805 29.2769 2 
-56.6541 30.9939 2 -58.5893 12.6208 2 -58.5558 13.8518 2 
-57.0886 14.3285 2 -57.1086 12.1956 2 -56.9222 25.9714 2 
-56.8377 27.5169 2 -87.6935 54.6297 2 -86.2557 54.7469 2 
-85.7287 53.5259 2 -71.7663 -10.6072 2 -57.6293 -1.99758 2 
-57.8968 -0.440577 2 -56.6224 0.282971 2 -50.4459 -26.403 2 
-51.6522 -26.2159 2 -52.0146 -24.9598 2 -49.3866 -25.5099 2 
-81.0349 -5.16204 2 -81.0137 -6.5569 2 -73.1697 -11.6849 2 
-71.4876 -12.4069 2 -81.0066 -3.84384 2 -82.4145 -4.52038 2 
-81.0721 -2.54321 2 -57.0629 39.8259 2 -59.3721 40.1125 2 
-81.2645 4.87501 2 -81.4007 3.73925 2 -54.7831 32.2883 2 
-79.8245 -0.580998 2 -88.7227 51.4215 2 -83.4851 31.5758 2 
-89.8002 54.6666 2 -79.0287 13.1817 2 -61.8152 -16.4627 2 
-60.7977 -14.2498 2 -68.9512 9.91164 1 -68.9512 10.9316 1 
-79.4662 -8.84658 2 -77.883 -9.54038 2 -77.7308 -11.1774 2 
-64.4664 42.0172 2 -50.8626 -24.0807 2 -49.5399 -24.429 2 
-83.1678 28.0694 2 -81.5676 27.4077 2 -81.4769 26.0652 2 
-51.0014 51.564 2 -87.6489 -25.4011 2 -80.0092 9.31243 2 
-80.0652 8.22463 2 -81.24 2.48707 2 -81.2347 1.28959 2 
-82.7392 3.10912 2 -81.1926 16.4798 2 -80.0904 15.9464 2 
-80.1039 14.8889 2 -56.883 -3.3275 2 -56.4502 -5.09264 2 
-58.6212 -13.509 2 -55.0024 28.3987 2 -74.5024 -12.7107 2 
-80.34 39.1822 2 -82.0533 38.9032 2 -80.0057 19.0366 2 
-81.0894 18.5175 2 -80.1686 20.2061 2 -56.0854 19.3474 2 
-57.5441 19.9945 2 -57.6545 21.3925 2 -60.2496 41.9159 2 
-57.9769 -8.72554 2 -80.3055 11.452 2 -80.2798 10.3596 2 
-81.2605 9.80817 2 -79.8891 40.8097 2 -88.7041 54.1088 2 
-79.3848 6.53851 2 -81.3325 24.727 2 -81.2072 23.457 2 
-82.7622 25.2453 2 -57.0408 24.4522 2 -55.3781 25.1194 2 
-87.8535 53.2141 2 -67.778 -14.1679 2 -66.728 -16.3741 2 
-69.578 -13.6162 2 -81.0974 22.2249 2 -80.8559 21.1583 2 
-82.508 22.6749 2 -70.9814 -14.694 2 -83.4437 40.1784 2 
-83.7138 38.4975 2 -54.5121 39.4617 2 -55.4642 41.356 2 
-82.1096 50.4531 2 -80.816 50.0492 2 -77.1598 51.8394 2 
-76.1463 51.7633 2 -74.8942 51.7504 2 -73.8163 51.7343 2 
-75.6832 50.47 2 -72.5881 51.7152 2 -71.4567 51.6998 2 
-73.2029 50.4381 2 -70.2707 51.7104 2 -69.0415 51.5712 2 
-70.7886 50.4297 2 -67.6924 50.8597 2 -66.54 50.7264 2 
-68.2535 49.7288 2 -64.9312 51.1176 2 -64.0098 51.5046 2 
-65.2955 49.4085 2 -62.987 51.2856 2 -68.9512 11.9966 1 
-68.9512 13.1066 1 -61.2295 51.3945 2 -60.1961 51.7034 2 
-61.9291 49.9085 2 -59.0978 51.5253 2 -68.9512 14.2766 1 
-68.9512 15.3416 1 -57.5844 51.7484 2 -56.317 51.7167 2 
-58.6582 50.2405 2 -54.9487 51.4926 2 -53.7523 51.4062 2 
-55.7764 50.2395 2 -52.246 51.4143 2 -80.4843 7.20507 2 
-80.7286 6.05529 2 -82.364 5.54157 2 -81.409 7.74141 2 
-53.3247 31.291 2 -53.3626 33.4207 2 -81.1733 0.017403 2 
-81.1067 -1.28583 2 -82.517 0.584758 2 -87.5458 -24.224 2 
-87.3269 -22.9623 2 -87.1946 -21.7717 2 -86.1921 -23.7332 2 
-86.9266 -20.353 2 -86.8893 -19.1349 2 -85.7053 -21.0528 2 
-87.031 -17.5879 2 -87.3091 -16.5092 2 -85.5791 -18.0871 2 
-87.017 -15.5416 2 -68.9512 16.4216 1 -68.9512 17.4566 1 
-86.8111 -11.7531 2 -86.9005 -10.6222 2 -87.2386 -9.48818 2 
-87.248 -8.32209 2 -85.7409 -10.0122 2 -86.9528 -7.24303 2 
-86.8776 -6.16325 2 -85.7838 -7.79915 2 -86.6619 -2.705 2 
-86.6812 -1.56272 2 -86.9399 1.78623 2 -87.0178 2.87022 2 
-87.2751 3.88325 2 -87.2921 4.99133 2 -85.8336 3.50288 2 
-86.8915 6.03229 2 -86.9298 7.10002 2 -85.6904 5.55689 2 
-87.3598 8.17621 2 -87.4884 9.22387 2 -85.7199 7.67404 2 
-87.6444 10.396 2 -87.6698 11.5 2 -86.3059 9.92233 2 
-87.5542 12.6195 2 -87.4756 13.7367 2 -86.3463 12.214 2 
-87.3681 14.8467 2 -87.2706 15.9863 2 -86.1233 14.4434 2 
-87.1796 17.0656 2 -87.1308 18.2075 2 -85.9249 16.6327 2 
-86.9817 19.4373 2 -86.949 20.6148 2 -85.6847 18.9419 2 
-87.1574 24.0297 2 -87.4322 25.1679 2 -87.5197 26.3103 2 
-87.3954 27.5031 2 -85.8744 25.8977 2 -87.6711 28.545 2 
-87.6838 29.71 2 -86.2377 28.082 2 -87.4652 30.762 2 
-87.4827 31.7681 2 -86.2948 30.1759 2 -87.7836 32.7381 2 
-87.7611 33.7967 2 -86.3771 32.1978 2 -87.6535 34.7695 2 
-87.4882 35.865 2 -86.5704 34.1406 2 -86.62 39.3055 2 
-86.6438 40.3918 2 -87.0802 42.9242 2 -86.7326 43.9446 2 
-86.5072 45.5267 2 -86.5694 46.7435 2 -85.1691 44.3349 2 
-86.9195 48.1449 2 -87.1126 49.4348 2 -85.2938 47.3184 2 
-80.1471 13.774 2 -80.1982 12.6408 2 -81.4239 12.0442 2 
-81.2734 14.348 2 -53.2299 35.9392 2 -53.8748 37.696 2 
-52.2136 -23.8455 2 -53.545 24.1156 2 -53.4264 25.6349 2 
-52.7576 13.968 2 -52.721 12.9042 2 -52.5237 8.03939 2 
-52.6048 6.93032 2 -52.5183 -1.03304 2 -52.5824 -2.13784 2 
-53.1923 -3.20368 2 -53.2685 -4.28317 2 -54.3328 -2.60576 2 
-52.8978 -5.51045 2 -52.8758 -6.63741 2 -54.5722 -4.89888 2 
-53.1261 -7.91476 2 -53.0578 -9.01689 2 -54.4519 -7.40351 2 
-52.6576 -10.3802 2 -52.3584 -11.4616 2 -54.302 -10.0442 2 
-52.7594 -12.4962 2 -68.9512 18.4466 1 -68.9512 19.5716 1 
-53.44 -13.8845 2 -53.6184 -15.0471 2 -54.5824 -12.7958 2 
-53.6281 -16.6177 2 -53.5085 -17.7742 2 -55.2727 -15.7547 2 
-52.9414 -18.9937 2 -52.7733 -20.1913 2 -54.7153 -18.5448 2 
-52.7309 -21.4168 2 -52.5625 -22.5908 2 -54.1058 -20.9898 2 
-82.6438 -7.35515 2 -81.2147 -8.07347 2 -81.0963 -9.64482 2 
-79.5704 42.6251 2 -81.4646 42.3996 2 -57.9085 -22.6419 2 
-59.0063 -22.244 2 -60.8885 -21.9003 2 -62.101 -21.9182 2 
-59.4322 -20.5996 2 -63.5945 -22.2605 2 -64.8299 -22.3824 2 
-62.808 -20.5982 2 -66.3069 -22.2693 2 -67.3728 -22.5591 2 
-65.7785 -20.8274 2 -68.3875 -22.2014 2 -68.9512 20.7116 1 
-68.9512 21.7316 1 -69.9433 -21.9307 2 -71.127 -21.8761 2 
-68.8114 -20.4436 2 -72.4814 -22.1156 2 -73.7565 -22.0715 2 
-71.7215 -20.4123 2 -75.1311 -21.5258 2 -76.307 -21.5022 2 
-74.4506 -20.1061 2 -77.6762 -21.9832 2 -78.8198 -22.221 2 
-77.1944 -20.0415 2 -79.9246 -22.7875 2 -81.1636 -22.9648 2 
-79.6683 -21.0891 2 -82.4354 -23.0002 2 -83.6075 -23.1126 2 
-82.0449 -21.6911 2 -84.9358 -23.4851 2 -52.1826 47.1115 2 
-52.4511 45.754 2 -59.1709 43.6998 2 -61.4055 43.8954 2 
-87.5305 50.796 2 -87.672 52.0677 2 -86.6613 52.5886 2 
-86.0618 50.081 2 -67.3577 43.3767 2 -69.1555 43.2638 2 
-57.4558 22.8224 2 -84.8087 32.4121 2 -84.7526 30.3916 2 
-56.3492 -9.80913 2 -56.3299 -7.59726 2 -76.0105 -13.6624 2 
-74.3991 -14.4362 2 -85.5472 52.3795 2 -55.3862 7.03798 2 
-55.3371 8.23607 2 -84.3527 51.985 2 -83.1056 51.5706 2 
-83.0947 49.5357 2 -85.2852 51.0477 2 -52.9018 50.0234 2 
-53.7145 -23.47 2 -68.9512 22.7366 1 -68.9512 23.8616 1 
-55.6954 22.1702 2 -83.5889 41.6684 2 -85.2494 41.2627 2 
-54.2362 42.6928 2 -56.7869 43.0571 2 -83.8418 -5.11404 2 
-83.8134 -3.79584 2 -55.1685 9.60788 2 -55.2045 10.7718 2 
-54.9858 -23.226 2 -78.2343 51.0815 2 -79.193 49.6954 2 
-77.894 49.0968 2 -80.4757 48.0645 2 -53.7655 9.03236 2 
-82.4209 -1.94481 2 -86.7625 -13.0464 2 -85.3542 -12.4394 2 
-86.8093 -14.1379 2 -86.7537 -4.99795 2 -86.6632 -3.87106 2 
-86.774 -0.396075 2 -86.8637 0.679254 2 -86.9961 22.8608 2 
-85.6255 23.5864 2 -86.9134 21.7378 2 -52.4815 48.5243 2 
-68.9512 24.9566 1 -68.9512 26.1566 1 -53.9879 48.5163 2 
-86.7862 37.9598 2 -85.2705 38.427 2 -83.88 37.1518 2 
-86.9752 36.849 2 -70.428 44.7535 2 -71.3168 43.1867 2 
-73.3884 43.0807 2 -77.6117 -12.7961 2 -77.5083 -14.5215 2 
-79.2287 -12.0366 2 -62.8493 -18.5504 2 -60.2804 -18.1683 2 
-54.0766 21.2847 2 -53.8779 22.7146 2 -83.2702 43.4839 2 
-84.6955 28.2977 2 -84.4343 26.8118 2 -68.9512 27.3266 1 
-68.9512 28.4066 1 -56.729 -22.59 2 -68.9512 2.45664 1 
-68.9512 1.46664 1 -53.0688 34.6208 2 -53.076 30.0846 2 
-53.3593 28.8766 2 -53.6165 27.1167 2 -54.1675 19.8618 2 
-52.3501 16.4191 2 -52.4585 15.3602 2 -54.0012 6.48077 2 
-52.6718 5.75054 2 -52.7288 4.66528 2 -55.4532 5.8582 2 
-52.0756 10.4244 2 -52.355 9.4112 2 -52.7535 3.4889 2 
-52.7507 2.36262 2 -54.0928 4.12461 2 -52.7104 1.20901 2 
-52.6753 0.0574271 2 -53.8798 -0.449448 2 -54.0771 1.79463 2 
-83.9657 -6.27934 2 -84.1666 -7.7959 2 -77.3666 42.6261 2 
-78.942 44.216 2 -75.4628 42.851 2 -84.645 -22.099 2 
-85.5132 -15.1364 2 -82.3232 17.068 2 -82.3607 16.0511 2 
-84.4889 35.3388 2 -84.2381 3.42557 2 -84.0773 2.1734 2 
-81.711 20.4906 2 -57.9428 45.0366 2 -55.2323 15.7546 2 
-54.9845 17.0291 2 -85.4999 21.2946 2 -55.4829 4.68273 2 
-82.1418 19.2083 2 -82.2075 18.1874 2 -83.3756 17.7587 2 
-82.8291 20.1604 2 -55.8067 -21.5793 2 -85.3311 -0.890743 2 
-85.2394 -3.22344 2 -85.5001 1.38287 2 -53.9913 14.7116 2 
-55.5314 14.3624 2 -63.5203 43.8503 2 -65.5025 43.7559 2 
-55.4634 2.26297 2 -55.5075 3.50635 2 -55.6892 -2.34168 2 
-84.3467 25.6694 2 -84.2023 24.3312 2 -55.2362 -0.18537 2 
-55.4231 1.10937 2 -74.3411 -16.3309 2 -72.8331 -15.3793 2 
-66.4116 45.2099 2 -55.8476 13.2855 2 -84.041 23.1623 2 
-83.9313 21.9302 2 -57.2547 -15.1323 2 -56.6296 -12.5607 2 
-70.9235 -16.5887 2 -83.559 6.65985 2 -84.0949 5.47957 2 
-68.1637 -18.3088 2 -65.8198 -18.7796 2 -62.4416 45.6342 2 
-53.0666 17.5436 2 -54.3589 18.4689 2 -53.9436 11.8618 2 
-55.5513 12.2295 2 -55.0792 -1.27584 2 -73.6907 49.2488 2 
-72.4625 49.2297 2 -82.1193 8.63822 2 -82.5384 7.61867 2 
-84.0012 1.06642 2 -54.5632 45.7056 2 -53.4468 44.4424 2 
-84.377 -20.6803 2 -83.7396 -19.1411 2 -83.8813 -17.5941 2 
-82.6792 -20.1873 2 -82.1366 -16.9576 2 -80.4989 -17.8279 2 
-80.5937 -16.1374 2 -85.3646 -5.55479 2 -56.0796 -6.31991 2 
-86.789 41.8818 2 -84.2693 7.55667 2 -84.6993 8.63286 2 
-84.7536 16.0963 2 -84.6626 17.1757 2 -84.5469 18.2951 2 
-84.3978 19.5249 2 -85.9497 36.0974 2 -84.8672 49.6865 2 
-83.9669 20.8072 2 -83.0448 45.066 2 -81.6223 46.3166 2 
-83.5212 47.1676 2 -84.9712 29.3396 2 -58.3981 -18.5119 2 
-52.3742 11.4466 2 -56.4162 -19.1343 2 -57.2644 -16.703 2 
-62.0067 47.7395 2 -64.1215 47.6944 2 -55.9489 -11.1725 2 
-55.849 -20.3538 2 -84.4954 4.43861 2 -83.9762 -15.9036 2 
-83.7685 -14.4998 2 -71.5712 -18.7234 2 -72.9255 -18.9629 2 
-81.4074 -20.1519 2 -82.39 9.68543 2 -83.8469 -1.37241 2 
-83.8122 -2.62978 2 -84.8201 15.0325 2 -83.5578 15.5755 2 
-84.9275 13.9226 2 -76.2775 48.97 2 -75.0254 48.9571 2 
-74.285 47.7487 2 -77.2362 47.5839 2 -85.1095 33.382 2 
-65.7304 47.3032 2 -67.5855 46.9239 2 -83.7175 9.42023 2 
-85.1681 9.5376 2 -85.324 10.7097 2 -85.0019 34.3548 2 
-75.8662 -17.4742 2 -74.3002 -18.4172 2 -71.0937 49.0095 2 
-69.9077 49.0201 2 -60.2491 47.8483 2 -57.0444 48.9659 2 
-55.6761 48.7419 2 -55.2558 47.2427 2 -83.9397 -0.205766 2 
-82.4272 14.9873 2 -84.1238 -10.0089 2 -84.4618 -8.87496 2 
-82.8587 10.5902 2 -82.4705 13.8724 2 -83.8638 -11.6397 2 
-82.5848 -10.5024 2 -80.8363 -11.2755 2 -83.8152 -12.9329 2 
-58.6354 46.5738 2 -58.5578 48.7428 2 -85.118 11.7449 2 
-85.0025 12.8644 2 -83.6992 13.4535 2 -83.9802 11.3601 2 
-71.5816 47.8201 2 -82.2781 -13.7001 2 -69.2398 46.2153 2 
-68.5586 48.3086 2 -74.6637 44.4467 2 -80.7172 -12.8942 2 
-82.5454 12.8142 2 -82.6527 11.6253 2 -64.3428 -18.8926 2 
-79.9993 45.9629 2 -77.4316 -16.1978 2 -77.3906 -18.2842 2 
-69.7195 -18.0381 2 -77.7954 45.9638 2 -83.8713 48.569 2 
-56.2515 45.9311 2 -80.3026 -19.5853 2 -78.7598 -18.7652 2 
-74.1045 46.0668 2 -76.1789 45.837 2 -79.0328 -15.3315 2 
-80.6705 -14.4611 2 -72.7698 46.3584 2 -71.4011 46.1382 2 
-98.9444 63.3156 0 -96.4099 63.4547 0 -97.4899 63.4547 0 
-94.2969 63.3714 0 -95.3469 63.3714 0 -96.0524 62.4606 0 
-92.1843 63.3764 0 -93.2043 63.3764 0 -93.8968 62.3822 0 
-90.0462 63.39 0 -91.0962 63.39 0 -91.7161 62.4008 0 
-87.9213 63.3974 0 -88.9413 63.3974 0 -89.523 62.4218 0 
-85.7554 63.3634 0 -86.8654 63.3634 0 -87.3623 62.3952 0 
-83.6189 63.3317 0 -84.6689 63.3317 0 -85.2199 62.3295 0 
-81.5241 63.3022 0 -82.5741 63.3022 0 -83.0886 62.2683 0 
-79.1208 63.3294 0 -80.3508 63.3294 0 -80.8705 62.266 0 
-76.8535 63.3225 0 -77.9935 63.3225 0 -78.57 62.2863 0 
-74.7345 63.3306 0 -75.7845 63.3306 0 -76.3736 62.2876 0 
-72.6759 63.3683 0 -73.6959 63.3683 0 -74.266 62.3333 0 
-70.3496 63.3624 0 -71.5196 63.3624 0 -72.0711 62.3651 0 
-68.2449 63.3427 0 -69.295 63.3427 0 -69.8601 62.3395 0 
-66.095 63.3346 0 -67.145 63.3346 0 -67.7055 62.3118 0 
-63.9578 63.335 0 -65.0078 63.335 0 -65.5184 62.3041 0 
-61.8364 63.3201 0 -62.9164 63.3201 0 -63.3898 62.2895 0 
-59.7341 63.3103 0 -60.7841 63.3103 0 -61.2961 62.2647 0 
-57.5336 63.3051 0 -58.6436 63.3051 0 -59.1533 62.2498 0 
-55.4122 63.3295 0 -56.4622 63.3295 0 -56.9913 62.2691 0 
-53.2962 63.3458 0 -54.3762 63.3458 0 -54.8839 62.3098 0 
-51.1752 63.324 0 -52.1952 63.324 0 -52.7469 62.3043 0 
-49.0973 63.359 0 -50.1773 63.359 0 -50.6481 62.3174 0 
-47.0019 63.4106 0 -48.0219 63.4106 0 -48.5748 62.404 0 
-44.8855 63.4669 0 -45.9655 63.4669 0 -46.463 62.5119 0 
-42.6759 63.496 0 -43.8159 63.496 0 -44.3571 62.5974 0 
-40.7345 63.5853 0 -41.7545 63.5853 0 -42.366 62.7158 0 
-40.7345 62.4853 0 -98.9744 -34.5844 0 -99.1234 -32.1613 0 
-99.1234 -33.2113 0 -99.0558 -29.904 0 -99.0558 -31.004 0 
-98.1548 -31.731 0 -98.9641 -27.8061 0 -98.9641 -28.8561 0 
-97.9955 -29.5257 0 -98.9264 -25.4949 0 -98.9264 -26.6449 0 
-97.8661 -27.3165 0 -98.89 -23.3072 0 -98.89 -24.3572 0 
-97.792 -25.0177 0 -98.9026 -21.1494 0 -98.9026 -22.2494 0 
-97.7682 -22.8222 0 -98.9007 -18.9261 0 -98.9007 -20.0261 0 
-97.779 -20.6411 0 -98.9175 -16.61 0 -98.9175 -17.76 0 
-97.7938 -18.3518 0 -98.9015 -14.4104 0 -98.9015 -15.5104 0 
-97.7945 -16.0861 0 -98.9206 -12.1403 0 -98.9206 -13.2903 0 
-97.7977 -13.8663 0 -98.9143 -9.9619 0 -98.9143 -11.0619 0 
-97.8105 -11.6678 0 -98.8948 -7.81295 0 -98.8948 -8.86295 0 
-97.7846 -9.49046 0 -98.9022 -5.68383 0 -98.9022 -6.73383 0 
-97.7726 -7.31238 0 -98.9282 -3.58482 0 -98.9282 -4.63482 0 
-97.806 -5.18426 0 -98.8877 -1.48462 0 -98.8877 -2.53462 0 
-97.7915 -3.08505 0 -98.8699 0.651249 0 -98.8699 -0.398751 0 
-97.7333 -0.948975 0 -98.866 2.68959 0 -98.866 1.68959 0 
-97.7115 1.17523 0 -98.8509 4.85585 0 -98.8509 3.75585 0 
-97.6925 3.27983 0 -98.8364 6.98861 0 -98.8364 5.88861 0 
-97.6629 5.37886 0 -98.8412 9.22624 0 -98.8412 8.12624 0 
-97.6533 7.54924 0 -98.8559 11.4265 0 -98.8559 10.3265 0 
-97.6728 9.78712 0 -98.8453 13.5602 0 -98.8453 12.5102 0 
-97.6768 11.971 0 -98.866 15.7648 0 -98.866 14.6148 0 
-97.6868 14.1094 0 -98.8577 17.9605 0 -98.8577 16.8605 0 
-97.6992 16.2597 0 -98.8523 20.1347 0 -98.8523 19.0847 0 
-97.6856 18.4795 0 -98.8516 22.2872 0 -98.8516 21.2372 0 
-97.6795 20.7063 0 -98.8634 24.5265 0 -98.8634 23.3265 0 
-97.6905 22.8481 0 -98.8643 26.6772 0 -98.8643 25.6272 0 
-97.7033 24.9881 0 -98.8854 28.7933 0 -98.8854 27.7433 0 
-97.7254 27.1549 0 -98.918 31.0222 0 -98.918 29.9222 0 
-97.779 29.3499 0 -98.8852 33.1345 0 -98.8852 32.0845 0 
-97.7788 31.5412 0 -98.8779 35.2745 0 -98.8779 34.2245 0 
-97.7387 33.6935 0 -98.8894 37.4725 0 -98.8894 36.3225 0 
-97.7429 35.8314 0 -98.8789 39.6224 0 -98.8789 38.5724 0 
-97.7439 37.9793 0 -98.8834 41.8614 0 -98.8834 40.7114 0 
-97.7379 40.1683 0 -98.8988 43.9682 0 -98.8988 42.9682 0 
-97.7577 42.3641 0 -98.9149 46.2329 0 -98.9149 45.0829 0 
-97.7892 44.5856 0 -98.9135 48.3532 0 -98.9135 47.3032 0 
-97.8039 46.7706 0 -98.8739 50.5011 0 -98.8739 49.4511 0 
-97.763 48.9388 0 -98.8814 52.6951 0 -98.8814 51.5951 0 
-97.7309 51.1306 0 -98.8867 54.9638 0 -98.8867 53.8138 0 
-97.7437 53.3434 0 -98.9544 57.1288 0 -98.9544 56.0788 0 
-97.8167 55.5771 0 -99.0427 59.3696 0 -99.0427 58.2196 0 
-97.9727 57.7828 0 -98.0734 -34.2613 0 -40.9517 60.2996 0 
-40.9517 61.4996 0 -41.6618 61.8193 0 -40.8218 58.0407 0 
-40.8218 59.1407 0 -41.749 59.6747 0 -40.8827 55.8503 0 
-40.8827 56.9503 0 -41.6801 57.4254 0 -40.9143 53.772 0 
-40.9143 54.772 0 -41.7727 55.2567 0 -40.951 51.5774 0 
-40.951 52.7274 0 -41.8409 53.1338 0 -40.9532 49.4038 0 
-40.9532 50.4538 0 -41.8798 50.9656 0 -40.9967 47.2585 0 
-40.9967 48.3085 0 -41.9255 48.7468 0 -41.007 45.1207 0 
-41.007 46.2207 0 -41.9793 46.6136 0 -40.9985 42.987 0 
-40.9985 44.037 0 -41.9811 44.4921 0 -41.0278 40.8264 0 
-41.0278 41.8764 0 -42.0019 42.2978 0 -41.0399 38.535 0 
-41.0399 39.735 0 -42.0432 40.0958 0 -41.0151 36.3575 0 
-41.0151 37.4075 0 -42.0306 37.8769 0 -41.0029 34.2241 0 
-41.0029 35.2741 0 -41.9936 35.666 0 -40.9899 32.0826 0 
-40.9899 33.1826 0 -41.9683 33.5411 0 -41.0047 29.8847 0 
-41.0047 30.9347 0 -41.9701 31.3517 0 -40.9961 27.7213 0 
-40.9961 28.8213 0 -41.9763 29.1404 0 -41.026 25.4852 0 
-41.026 26.6352 0 -41.9976 26.9909 0 -41.0276 23.2994 0 
-41.0276 24.3494 0 -42.0292 24.769 0 -41.0403 21.0024 0 
-41.0403 22.2024 0 -42.0435 22.5361 0 -41.0364 18.8236 0 
-41.0364 19.8736 0 -42.0522 20.3104 0 -41.0494 16.2673 0 
-41.0494 17.6173 0 -42.0614 17.9753 0 -41.0323 14.0967 0 
-41.0323 15.1467 0 -42.0573 15.6484 0 -41.0234 11.8809 0 
-41.0234 12.9809 0 -42.0313 13.412 0 -41.0072 9.62915 0 
-41.0072 10.7791 0 -42.0062 11.1944 0 -40.9843 7.55091 0 
-40.9843 8.55091 0 -41.9671 9.01445 0 -40.9928 5.4701 0 
-40.9928 6.5201 0 -41.9527 6.9054 0 -40.9924 3.22658 0 
-40.9924 4.37658 0 -41.9608 4.78107 0 -40.9749 1.17115 0 
-40.9749 2.17115 0 -41.9429 2.63212 0 -40.974 -0.956171 0 
-40.974 0.0938292 0 -41.9246 0.499374 0 -40.9927 -3.18319 0 
-40.9927 -2.03319 0 -41.9423 -1.65497 0 -41.0094 -5.45677 0 
-41.0094 -4.35677 0 -41.9777 -3.90557 0 -41.0096 -7.568 0 
-41.0096 -6.518 0 -41.9946 -6.14038 0 -40.9961 -9.64193 0 
-40.9961 -8.59193 0 -41.9813 -8.22554 0 -40.9766 -11.7987 0 
-40.9766 -10.6987 0 -41.9483 -10.3062 0 -40.9981 -13.9158 0 
-40.9981 -12.8658 0 -41.9502 -12.4301 0 -41.0079 -16.0654 0 
-41.0079 -15.0154 0 -41.9816 -14.5968 0 -41.0182 -18.1835 0 
-41.0182 -17.1335 0 -42.0016 -16.7645 0 -41.0008 -20.3118 0 
-41.0008 -19.2118 0 -41.9946 -18.8609 0 -40.9809 -22.4581 0 
-40.9809 -21.4081 0 -41.9572 -20.9855 0 -40.9481 -24.5418 0 
-40.9481 -23.4918 0 -41.9045 -23.1155 0 -40.9184 -26.7254 0 
-40.9184 -25.6254 0 -41.8421 -25.2328 0 -40.8989 -28.8655 0 
-40.8989 -27.8155 0 -41.7929 -27.4065 0 -40.898 -30.9872 0 
-40.898 -29.9372 0 -41.7725 -29.5682 0 -40.8882 -33.1027 0 
-40.8882 -32.0527 0 -41.7618 -31.7055 0 -41.0744 -34.5344 0 
-43.9088 -34.8119 0 -42.7688 -34.8119 0 -45.9338 -34.6734 0 
-44.8538 -34.6734 0 -44.3583 -33.8509 0 -48.1742 -34.6436 0 
-47.0342 -34.6436 0 -46.4037 -33.6827 0 -50.2812 -34.6949 0 
-49.2612 -34.6949 0 -48.591 -33.7041 0 -52.5825 -34.6862 0 
-51.4425 -34.6862 0 -50.8393 -33.7466 0 -54.6465 -34.6462 0 
-53.6265 -34.6462 0 -53.0446 -33.6979 0 -56.7841 -34.6085 0 
-55.7341 -34.6085 0 -55.1762 -33.6203 0 -58.837 -34.5771 0 
-57.817 -34.5771 0 -57.2967 -33.5513 0 -60.9743 -34.5657 0 
-59.8943 -34.5657 0 -59.3868 -33.5085 0 -63.2435 -34.5632 0 
-62.0735 -34.5632 0 -61.5433 -33.4945 0 -65.4903 -34.5558 0 
-64.3803 -34.5558 0 -63.7794 -33.4846 0 -67.6238 -34.5983 0 
-66.5738 -34.5983 0 -65.9997 -33.5197 0 -69.8304 -34.609 0 
-68.7204 -34.609 0 -68.1798 -33.5729 0 -71.931 -34.6215 0 
-70.881 -34.6215 0 -70.327 -33.5961 0 -74.0359 -34.6078 0 
-72.9859 -34.6078 0 -72.4325 -33.5949 0 -76.0864 -34.6044 0 
-75.0664 -34.6044 0 -74.5179 -33.5778 0 -78.1971 -34.5879 0 
-77.1471 -34.5879 0 -76.6091 -33.5579 0 -80.3321 -34.5784 0 
-79.2821 -34.5784 0 -78.7547 -33.5319 0 -82.5204 -34.5921 0 
-81.4104 -34.5921 0 -80.918 -33.5361 0 -84.6582 -34.6057 0 
-83.6082 -34.6057 0 -83.0842 -33.5635 0 -86.7986 -34.5991 0 
-85.7486 -34.5991 0 -85.2624 -33.5704 0 -88.8608 -34.6077 0 
-87.8408 -34.6077 0 -87.395 -33.5724 0 -90.924 -34.6227 0 
-89.904 -34.6227 0 -89.4803 -33.5959 0 -93.0409 -34.6423 0 
-91.9609 -34.6423 0 -91.5605 -33.6305 0 -95.2969 -34.7359 0 
-94.1269 -34.7359 0 -93.6834 -33.7438 0 -97.2766 -34.852 0 
-96.2266 -34.852 0 -95.6991 -33.9535 0 -97.4256 -33.4789 0 
-70.4254 30.423 0 -69.4254 30.423 0 -67.9215 29.0678 0 
-67.9215 28.0628 0 -67.9122 26.9518 0 -67.9122 25.7818 0 
-66.8825 27.6129 0 -67.8867 24.6366 0 -67.8867 23.5416 0 
-66.8478 25.3568 0 -67.8992 22.4383 0 -67.8992 21.4333 0 
-66.8348 23.1083 0 -67.917 20.3093 0 -67.917 19.1693 0 
-66.865 20.881 0 -67.9018 18.1138 0 -67.9018 17.1238 0 
-66.8676 18.7014 0 -67.913 16.0072 0 -67.913 14.9272 0 
-66.8636 16.5293 0 -67.8991 13.817 0 -67.8991 12.647 0 
-66.8609 14.3025 0 -67.8772 11.5484 0 -67.8772 10.4834 0 
-66.8251 12.0937 0 -67.9102 9.38151 0 -67.9102 8.25651 0 
-66.8362 9.89325 0 -67.9196 7.19934 0 -67.9196 6.17934 0 
-66.8787 7.73421 0 -67.9024 5.06585 0 -67.9024 4.00085 0 
-66.8708 5.56355 0 -67.9084 2.90682 0 -67.9084 1.88682 0 
-66.8597 3.35603 0 -67.9512 0.734722 0 -67.9512 -0.315278 0 
-66.9085 1.1099 0 -69.5036 -1.58204 0 -70.5036 -1.58204 0 
-72.0034 -0.157864 0 -72.0034 0.952137 0 -72.0105 2.17697 0 
-72.0105 3.37697 0 -73.0627 1.49747 0 -72.0166 4.50218 0 
-72.0166 5.56718 0 -73.0759 3.84751 0 -72.0491 6.66051 0 
-72.0491 7.75551 0 -73.1145 6.06605 0 -72.0353 8.89786 0 
-72.0353 10.0079 0 -73.1332 8.30173 0 -72.0134 11.0561 0 
-72.0134 12.1661 0 -73.0975 10.4923 0 -72.0037 13.2748 0 
-72.0037 14.3098 0 -73.066 12.6492 0 -71.9998 15.3508 0 
-71.9998 16.3708 0 -73.0524 14.7989 0 -71.9778 17.4209 0 
-71.9778 18.4559 0 -73.0264 16.89 0 -71.9979 19.5211 0 
-71.9979 20.5561 0 -73.0245 19.0054 0 -72.0115 21.6254 0 
-72.0115 22.6604 0 -73.0582 21.1399 0 -71.9853 23.7158 0 
-71.9853 24.7358 0 -73.0456 23.2645 0 -71.9915 25.8334 0 
-71.9915 26.9434 0 -73.0256 25.4175 0 -71.8674 28.113 0 
-71.8674 29.133 0 -72.9077 27.6847 0 -98.5699 62.4047 0 
-71.9832 -1.55565 0 -73.0354 -1.12516 0 -68.6245 31.3137 0 
-68.1503 30.3024 0 -99.1996 61.5795 0 -99.1996 60.3795 0 
-41.9382 -34.2027 0 -42.5826 -33.3802 0 -71.5524 30.2817 0 
-71.0266 31.293 0 -67.1206 29.9585 0 -71.5356 -2.54934 0 
-67.2205 -1.19368 0 -68.2204 -1.46677 0 -68.7729 -2.46045 0 
-97.7451 61.7186 0 -72.4686 30.003 0 -98.2179 59.8835 0 
-93.4802 61.3074 0 -94.5727 61.3024 0 -95.6364 61.4565 0 
-96.6995 61.5397 0 -97.3291 60.7145 0 -95.2198 60.3816 0 
-89.0226 61.4552 0 -90.1275 61.4478 0 -86.8618 61.3485 0 
-87.9176 61.3824 0 -88.5221 60.4085 0 -84.71 61.2217 0 
-85.7965 61.2534 0 -86.3519 60.2407 0 -82.5518 61.1549 0 
-83.5965 61.1844 0 -84.1732 60.1084 0 -80.2906 61.1289 0 
-81.4639 61.1017 0 -81.9718 60.0179 0 -78.0236 61.1561 0 
-79.1509 61.163 0 -79.7442 59.9987 0 -75.8626 61.1907 0 
-76.9317 61.1826 0 -77.5126 60.0593 0 -73.7305 61.2194 0 
-74.7691 61.1818 0 -75.3272 60.0768 0 -71.4919 61.2115 0 
-72.6482 61.2174 0 -73.1513 60.0658 0 -69.3355 61.2391 0 
-70.3901 61.2588 0 -70.9672 60.1111 0 -67.1362 61.1981 0 
-68.2362 61.2062 0 -68.7662 60.1255 0 -64.9493 61.1809 0 
-66.0365 61.1805 0 -66.5672 60.075 0 -62.8444 61.1709 0 
-63.8858 61.1859 0 -64.4039 60.0623 0 -60.727 61.1395 0 
-61.7793 61.1493 0 -62.2753 60.0457 0 -58.6049 61.1136 0 
-59.6954 61.1188 0 -60.1786 60.0034 0 -56.4492 61.1627 0 
-57.5207 61.1383 0 -58.0628 60.0073 0 -54.3459 61.1775 0 
-55.3819 61.1612 0 -55.9112 60.0304 0 -52.1527 61.1897 0 
-53.2537 61.2115 0 -53.7516 60.0629 0 -50.1255 61.3069 0 
-51.1233 61.272 0 -51.6301 60.1792 0 -47.9749 61.4168 0 
-49.0503 61.3652 0 -49.5256 60.3197 0 -45.8854 61.5705 0 
-46.9218 61.5142 0 -47.3973 60.4754 0 -43.7783 61.7107 0 
-44.8479 61.6816 0 -45.3066 60.6839 0 -96.7496 -26.8998 0 
-96.7873 -28.061 0 -42.4287 58.8772 0 -42.5586 60.0362 0 
-70.7483 -3.65824 0 -72.2279 -3.63185 0 -96.9056 -29.1922 0 
-96.9973 -30.2402 0 -95.7891 -28.7755 0 -97.1573 -31.3296 0 
-97.2249 -32.4869 0 -96.4281 -33.0775 0 -96.0674 -30.9961 0 
-96.6178 -24.6087 0 -96.6542 -25.7464 0 -95.5754 -26.4908 0 
-96.6043 -22.4097 0 -96.5917 -23.4675 0 -95.4539 -24.1961 0 
-96.5769 -20.1383 0 -96.5788 -21.2616 0 -95.4023 -21.9068 0 
-96.5821 -17.844 0 -96.5654 -19.0101 0 -95.3652 -19.6305 0 
-96.5461 -15.5771 0 -96.5621 -16.6767 0 -95.3337 -17.335 0 
-96.546 -13.3247 0 -96.5269 -14.4447 0 -95.2945 -15.0354 0 
-96.5712 -11.1442 0 -96.5776 -12.2226 0 -95.3068 -12.801 0 
-96.5876 -8.97283 0 -96.6071 -10.0718 0 -95.3742 -10.6266 0 
-96.6113 -6.83376 0 -96.6039 -7.91288 0 -95.4264 -8.49421 0 
-96.6326 -4.70487 0 -96.6066 -5.75387 0 -95.4379 -6.35437 0 
-96.5735 -2.55231 0 -96.614 -3.60251 0 -95.4146 -4.17213 0 
-96.5363 -0.415604 0 -96.5541 -1.50147 0 -95.3765 -2.01894 0 
-96.4989 1.6913 0 -96.5028 0.652965 0 -95.3236 0.100466 0 
-96.4399 3.81042 0 -96.455 2.74416 0 -95.2463 2.22189 0 
-96.4122 5.90364 0 -96.4267 4.87088 0 -95.1891 4.3352 0 
-96.4205 8.12018 0 -96.4157 6.98256 0 -95.1794 6.47458 0 
-96.4483 10.3179 0 -96.4336 9.2176 0 -95.196 8.65091 0 
-96.4408 12.5132 0 -96.4515 11.4295 0 -95.2123 10.86 0 
-96.4495 14.6297 0 -96.4288 13.575 0 -95.2035 13.0335 0 
-96.4183 16.8008 0 -96.4266 15.7052 0 -95.1686 15.1709 0 
-96.4058 19.0069 0 -96.4112 17.8827 0 -95.1385 17.3282 0 
-96.4134 21.2203 0 -96.4141 20.1178 0 -95.1397 19.521 0 
-96.4703 23.334 0 -96.4585 22.2947 0 -95.1931 21.7062 0 
-96.4843 25.5215 0 -96.4833 24.4207 0 -95.2513 23.8674 0 
-96.4976 27.6755 0 -96.4765 26.6095 0 -95.2565 26.0422 0 
-96.498 29.886 0 -96.4654 28.7571 0 -95.2165 28.2117 0 
-96.4984 32.0443 0 -96.5312 30.9819 0 -95.2176 30.3891 0 
-96.5101 34.211 0 -96.5174 33.1211 0 -95.2698 32.5618 0 
-96.5404 36.3644 0 -96.529 35.3164 0 -95.3077 34.744 0 
-96.4858 38.5275 0 -96.4962 37.4276 0 -95.2823 36.9126 0 
-96.4755 40.7072 0 -96.4711 39.6182 0 -95.2234 39.0665 0 
-96.5328 42.9188 0 -96.5174 41.812 0 -95.2506 41.2619 0 
-96.579 45.1313 0 -96.563 44.0166 0 -95.3227 43.4645 0 
-96.5841 47.3375 0 -96.5854 46.2672 0 -95.3592 45.6983 0 
-96.5329 49.5505 0 -96.5724 48.4526 0 -95.3539 47.9493 0 
-96.5733 51.7363 0 -96.5657 50.6423 0 -95.3752 50.1562 0 
-96.5948 54.0059 0 -96.5896 52.8871 0 -95.4244 52.3988 0 
-96.7057 56.3111 0 -96.638 55.1962 0 -95.4838 54.74 0 
-96.9081 58.577 0 -96.8198 57.4862 0 -95.6411 57.1053 0 
-65.816 28.3143 0 -65.8067 27.2033 0 -71.6146 32.3031 0 
-70.4876 32.4444 0 -74.1128 -1.72982 0 -74.133 -0.332029 0 
-42.6151 56.8244 0 -42.5541 57.9147 0 -43.3637 58.2762 0 
-42.7564 54.7158 0 -42.7248 55.7941 0 -43.5988 56.2834 0 
-42.836 52.5626 0 -42.7994 53.6073 0 -43.7515 54.1446 0 
-42.9186 50.3535 0 -42.9164 51.477 0 -43.8749 51.9505 0 
-43.0362 48.1075 0 -42.9928 49.2028 0 -44.0294 49.7142 0 
-43.0652 46.0107 0 -43.055 47.0486 0 -44.1222 47.5046 0 
-43.0915 43.8218 0 -43.0999 44.9054 0 -44.1756 45.3404 0 
-43.1394 41.5677 0 -43.1101 42.6783 0 -44.229 43.0917 0 
-43.1454 39.4178 0 -43.1334 40.5092 0 -44.2416 40.8897 0 
-43.0976 37.1902 0 -43.1223 38.3178 0 -44.2125 38.7312 0 
-43.0731 35.0054 0 -43.0854 36.0887 0 -44.1771 36.5296 0 
-43.0594 32.8771 0 -43.0725 33.9186 0 -44.1642 34.3414 0 
-43.0962 30.5973 0 -43.0814 31.7452 0 -44.1855 32.1227 0 
-43.0752 28.4628 0 -43.0838 29.5262 0 -44.1951 29.9197 0 
-43.1116 26.2881 0 -43.0816 27.3742 0 -44.1891 27.76 0 
-43.1153 24.0422 0 -43.1136 25.178 0 -44.1976 25.5613 0 
-43.1329 21.8379 0 -43.1202 22.9349 0 -44.2046 23.344 0 
-43.1292 19.57 0 -43.1331 20.6988 0 -44.2098 21.0976 0 
-43.1317 17.2214 0 -43.1186 18.4277 0 -44.1995 18.8161 0 
-43.1009 14.9485 0 -43.118 16.0691 0 -44.1753 16.5215 0 
-43.0671 12.761 0 -43.0759 13.8768 0 -44.1367 14.2975 0 
-43.0196 10.5168 0 -43.0359 11.6186 0 -44.0805 12.0834 0 
-42.9957 8.35964 0 -43.0185 9.43789 0 -44.0482 9.86204 0 
-42.9909 6.25033 0 -42.9824 7.28114 0 -44.0339 7.70458 0 
-42.9618 4.10773 0 -42.9623 5.20125 0 -43.992 5.577 0 
-42.9315 1.98042 0 -42.949 3.03585 0 -43.9505 3.45603 0 
-42.9215 -0.162157 0 -42.9224 0.915163 0 -43.9284 1.31889 0 
-43.0137 -2.32868 0 -42.9951 -1.25166 0 -43.9929 -0.835874 0 
-43.0483 -4.60853 0 -43.0315 -3.43495 0 -44.0843 -3.03165 0 
-43.021 -6.78003 0 -43.0209 -5.71881 0 -44.0748 -5.24819 0 
-43.0156 -8.85007 0 -43.0291 -7.82613 0 -44.0554 -7.40456 0 
-42.9928 -10.9616 0 -43.0124 -9.90486 0 -44.0601 -9.50545 0 
-43.0542 -13.1049 0 -43.0327 -12.0378 0 -44.0968 -11.6364 0 
-43.0838 -15.2727 0 -43.0741 -14.1731 0 -44.1565 -13.7808 0 
-43.0692 -17.4483 0 -43.0589 -16.3802 0 -44.1514 -15.9566 0 
-43.0284 -19.5038 0 -43.0458 -18.4754 0 -44.103 -18.0912 0 
-42.9704 -21.6871 0 -42.9904 -20.5908 0 -44.0416 -20.2053 0 
-42.8723 -23.7554 0 -42.905 -22.7218 0 -43.9382 -22.327 0 
-42.8047 -25.9348 0 -42.8344 -24.8511 0 -43.8349 -24.4574 0 
-42.7085 -28.1102 0 -42.7281 -27.0202 0 -43.7203 -26.6385 0 
-42.6771 -30.2576 0 -42.6779 -29.1858 0 -43.6131 -28.7995 0 
-42.7024 -32.415 0 -42.7122 -31.3494 0 -43.6176 -30.967 0 
-43.533 -33.0242 0 -49.042 -32.7216 0 -47.9551 -32.6704 0 
-46.7394 -32.5182 0 -45.639 -32.548 0 -47.1904 -31.5357 0 
-97.1722 59.7046 0 -44.478 -32.8857 0 -51.4098 -32.7552 0 
-50.2485 -32.7639 0 -49.6125 -31.7301 0 -53.5144 -32.6212 0 
-52.4704 -32.6612 0 -51.8796 -31.6785 0 -55.6505 -32.4945 0 
-54.563 -32.5322 0 -53.9888 -31.4954 0 -57.8059 -32.4126 0 
-56.773 -32.444 0 -56.1598 -31.3559 0 -59.9314 -32.3969 0 
-58.8741 -32.4083 0 -58.3505 -31.3011 0 -62.0915 -32.3932 0 
-60.9923 -32.3957 0 -60.4796 -31.2956 0 -64.3538 -32.3649 0 
-63.2169 -32.3724 0 -62.6659 -31.2736 0 -66.5051 -32.4218 0 
-65.4216 -32.3793 0 -64.8591 -31.2671 0 -68.6985 -32.4757 0 
-67.602 -32.465 0 -67.0239 -31.3245 0 -70.823 -32.5227 0 
-69.7723 -32.5102 0 -69.1945 -31.4023 0 -72.9336 -32.4851 0 
-71.8787 -32.4988 0 -71.3241 -31.4129 0 -75.039 -32.472 0 
-74.0085 -32.4754 0 -73.4547 -31.3793 0 -77.1715 -32.4126 0 
-76.1109 -32.4291 0 -75.6014 -31.3266 0 -79.2961 -32.3734 0 
-78.2111 -32.3829 0 -77.7129 -31.2541 0 -81.4712 -32.4375 0 
-80.3929 -32.4237 0 -79.8493 -31.2748 0 -83.6715 -32.4668 0 
-82.5836 -32.4532 0 -82.0585 -31.3408 0 -85.8622 -32.453 0 
-84.7718 -32.4597 0 -84.2712 -31.3494 0 -87.9887 -32.4549 0 
-86.9465 -32.4463 0 -86.4559 -31.3355 0 -90.1673 -32.4767 0 
-89.1241 -32.4617 0 -88.6757 -31.3356 0 -92.2759 -32.537 0 
-91.2389 -32.5173 0 -90.8827 -31.3831 0 -94.4478 -32.729 0 
-93.3618 -32.6354 0 -93.0403 -31.5222 0 -66.1722 30.8013 0 
-65.9434 29.5667 0 -65.959 -0.850688 0 -66.2282 -2.00218 0 
-67.9753 -3.51279 0 -69.2584 -3.62807 0 -65.7519 26.0173 0 
-65.7264 24.8721 0 -64.6854 26.7187 0 -65.6989 23.7433 0 
-65.7114 22.64 0 -64.603 24.4038 0 -65.7035 21.4972 0 
-65.7212 20.3732 0 -64.5676 22.1322 0 -65.7562 19.2208 0 
-65.741 18.1653 0 -64.5946 19.8371 0 -65.7396 17.055 0 
-65.7508 15.9384 0 -64.6282 17.5743 0 -65.7503 14.8295 0 
-65.7364 13.7193 0 -64.6263 15.3551 0 -65.7282 12.6082 0 
-65.7063 11.5096 0 -64.6176 13.1352 0 -65.7111 10.4403 0 
-65.7442 9.3384 0 -64.6142 10.9548 0 -65.7183 8.20214 0 
-65.7277 7.14497 0 -64.5932 8.74916 0 -65.6952 6.01671 0 
-65.678 4.90322 0 -64.5349 6.48464 0 -65.7655 3.80742 0 
-65.7715 2.71339 0 -64.5898 4.26058 0 -65.8322 1.50143 0 
-65.875 0.349335 0 -64.8827 -0.459158 0 -64.738 1.95282 0 
-74.2039 3.24674 0 -74.21 4.37194 0 -74.2293 5.49981 0 
-74.2618 6.59315 0 -75.3573 4.89904 0 -74.2838 7.70099 0 
-74.2699 8.84334 0 -75.3986 7.13476 0 -74.2456 9.95242 0 
-74.2237 11.0006 0 -75.3961 9.35168 0 -74.2261 12.0748 0 
-74.2164 13.1835 0 -75.3742 11.535 0 -74.1988 14.2292 0 
-74.1949 15.2703 0 -75.3589 13.6548 0 -74.1742 16.3513 0 
-74.1521 17.4013 0 -75.3206 15.7816 0 -74.1688 18.4818 0 
-74.1889 19.5471 0 -75.3166 17.943 0 -74.1689 20.6428 0 
-74.1825 21.7121 0 -75.3132 20.1192 0 -74.1707 22.8164 0 
-74.1445 23.8718 0 -75.2814 22.3193 0 -74.1467 25.0216 0 
-74.153 26.1193 0 -75.2718 24.5735 0 -74.0517 27.275 0 
-73.9275 28.4445 0 -75.1727 26.8791 0 -69.0931 32.4666 0 
-67.818 32.346 0 -69.6811 33.4767 0 -91.2596 61.3876 0 
-92.3478 61.374 0 -93.0237 60.2942 0 -90.7592 60.421 0 
-74.2009 0.821753 0 -74.208 2.04659 0 -75.2784 0.21709 0 
-73.6409 29.7266 0 -73.3259 30.8753 0 -44.8137 -31.7213 0 
-42.5832 61.73 0 -43.7537 60.0168 0 -43.074 60.8143 0 
-72.9031 -4.99487 0 -73.6904 -3.88597 0 -72.9434 32.1224 0 
-72.4045 33.2738 0 -96.0193 59.408 0 -64.8676 29.1571 0 
-75.3422 2.57102 0 -74.1158 31.8459 0 -74.9525 -2.89157 0 
-76.0502 -2.09844 0 -75.6278 -4.25459 0 -66.5652 -3.29066 0 
-67.0508 -4.45828 0 -95.4984 -32.9614 0 -95.1768 -31.8531 0 
-66.4661 32.1203 0 -65.2888 31.7284 0 -65.3037 -2.94766 0 
-69.9507 -4.71058 0 -66.9347 33.2731 0 -74.7848 29.3168 0 
-71.9628 -5.87042 0 -73.4253 -6.12453 0 -83.6849 58.9343 0 
-84.7984 58.9716 0 -88.1062 59.2794 0 -89.2111 59.3522 0 
-81.4604 58.8561 0 -82.5483 58.9093 0 -83.1735 57.7725 0 
-79.1731 58.8886 0 -80.3129 58.8545 0 -80.8893 57.7459 0 
-76.9656 58.9008 0 -78.0575 58.8743 0 -78.6261 57.7301 0 
-74.7545 58.9185 0 -75.848 58.9275 0 -76.3929 57.7426 0 
-72.6006 58.9203 0 -73.6829 58.9223 0 -74.2037 57.773 0 
-70.4433 58.9647 0 -71.5451 58.9175 0 -72.0767 57.7739 0 
-68.2071 58.9162 0 -69.3064 58.9491 0 -69.8842 57.7554 0 
-66.017 58.8874 0 -67.1168 58.9051 0 -67.657 57.7286 0 
-63.8491 58.8705 0 -64.9126 58.8655 0 -65.4622 57.6956 0 
-61.7274 58.8201 0 -62.7925 58.8417 0 -63.3012 57.6449 0 
-59.641 58.8252 0 -60.6726 58.846 0 -61.1898 57.642 0 
-57.4788 58.8468 0 -58.5631 58.8222 0 -59.0571 57.6648 0 
-55.3223 58.8537 0 -56.3896 58.8552 0 -56.8899 57.6702 0 
-53.1846 58.921 0 -54.2769 58.887 0 -54.7553 57.7119 0 
-51.0415 59.0911 0 -52.0708 59.0088 0 -52.596 57.833 0 
-48.861 59.25 0 -49.9362 59.1917 0 -50.3769 58.0214 0 
-46.7227 59.4735 0 -47.7758 59.3761 0 -48.1864 58.2481 0 
-44.6603 59.7661 0 -45.6978 59.655 0 -46.0763 58.5557 0 
-44.1449 58.988 0 -66.1888 -5.60821 0 -67.5988 -5.83034 0 
-94.2151 -23.84 0 -94.2412 -24.9813 0 -76.0907 28.887 0 
-75.8041 30.1691 0 -73.1253 34.402 0 -71.7965 34.5827 0 
-94.3792 -26.1895 0 -94.4745 -27.3429 0 -93.1403 -25.8333 0 
-95.0168 -30.7637 0 -94.9556 59.254 0 -94.0183 -19.1869 0 
-94.0298 -20.3151 0 -93.9942 -16.8077 0 -94.0142 -17.9749 0 
-92.6788 -18.6595 0 -94.0182 -14.512 0 -94.0375 -15.6444 0 
-92.718 -16.2843 0 -94.0602 -12.2972 0 -94.0286 -13.3992 0 
-92.7716 -14.0082 0 -94.118 -10.1385 0 -94.0821 -11.2109 0 
-92.804 -11.8091 0 -94.1643 -7.99134 0 -94.148 -9.05129 0 
-92.8559 -9.63563 0 -94.1803 -5.84156 0 -94.1851 -6.92144 0 
-92.9067 -7.47852 0 -94.1713 -3.6411 0 -94.1898 -4.74346 0 
-92.937 -5.31053 0 -94.1253 -1.51761 0 -94.1448 -2.56844 0 
-92.9201 -3.13978 0 -94.0124 0.62543 0 -94.0459 -0.443139 0 
-92.8141 -0.992645 0 -93.9463 2.73876 0 -93.9902 1.6859 0 
-92.7125 1.1423 0 -93.9129 4.85988 0 -93.9262 3.79942 0 
-92.6701 3.26344 0 -93.8858 6.97902 0 -93.8823 5.9001 0 
-92.6193 5.36432 0 -93.9029 9.18258 0 -93.8898 8.08515 0 
-92.5927 7.51068 0 -93.8595 11.4002 0 -93.8563 10.2886 0 
-92.55 9.72285 0 -93.85 13.5586 0 -93.862 12.4967 0 
-92.506 11.9253 0 -93.8443 15.6849 0 -93.8672 14.6093 0 
-92.5257 14.0726 0 -93.8459 17.8507 0 -93.853 16.7688 0 
-92.5517 16.2073 0 -93.8413 20.0766 0 -93.833 18.9657 0 
-92.5475 18.4063 0 -93.8953 22.2227 0 -93.8502 21.1483 0 
-92.5435 20.593 0 -93.9456 24.368 0 -93.9326 23.2812 0 
-92.5897 22.7232 0 -93.9483 26.574 0 -93.9561 25.4861 0 
-92.6375 24.8999 0 -93.9137 28.7511 0 -93.9459 27.6696 0 
-92.6455 27.1135 0 -93.9705 30.8964 0 -93.9372 29.8005 0 
-92.6665 29.2584 0 -94.0159 33.0813 0 -93.997 32.0046 0 
-92.7165 31.4159 0 -93.994 35.2951 0 -93.9751 34.1897 0 
-92.7022 33.6324 0 -93.9301 37.4455 0 -93.9743 36.3823 0 
-92.6417 35.8279 0 -93.9439 39.6128 0 -93.9586 38.5221 0 
-92.6506 37.9917 0 -94.0363 41.7843 0 -93.9944 40.6796 0 
-92.7296 40.1352 0 -94.0943 44.0011 0 -94.0642 42.9033 0 
-92.8079 42.321 0 -94.0975 46.2971 0 -94.0911 45.1611 0 
-92.8326 44.5999 0 -94.0662 48.5672 0 -94.0778 47.4521 0 
-92.8097 46.915 0 -94.1111 50.7437 0 -94.0782 49.652 0 
-92.8021 49.1548 0 -94.1978 53.0487 0 -94.1815 51.8978 0 
-92.8845 51.3937 0 -94.3414 55.47 0 -94.2982 54.2797 0 
-93.0553 53.7788 0 -94.4792 58.0597 0 -94.3651 56.8846 0 
-93.1795 56.4244 0 -76.471 -0.58514 0 -76.5389 0.568642 0 
-44.2703 58.0255 0 -45.0291 51.4431 0 -44.9488 52.5287 0 
-45.1799 49.0908 0 -45.1058 50.2415 0 -46.1797 50.8197 0 
-45.2814 46.9599 0 -45.2627 48.0188 0 -46.3391 48.5461 0 
-45.378 44.7279 0 -45.3434 45.8332 0 -46.4838 46.3474 0 
-45.4241 42.4322 0 -45.4055 43.5756 0 -46.5732 44.0684 0 
-45.397 40.2354 0 -45.4031 41.2939 0 -46.5795 41.7778 0 
-45.3093 38.1031 0 -45.3325 39.2031 0 -46.4939 39.6073 0 
-45.2479 35.8974 0 -45.2602 36.9988 0 -46.3801 37.4708 0 
-45.2543 33.688 0 -45.255 34.7747 0 -46.3381 35.2439 0 
-45.332 31.488 0 -45.31 32.62 0 -46.4008 33.0533 0 
-45.3147 29.3131 0 -45.3271 30.3842 0 -46.4516 30.8815 0 
-45.3311 27.1203 0 -45.3247 28.2089 0 -46.4567 28.6735 0 
-45.348 24.9017 0 -45.3459 26.0118 0 -46.4815 26.4607 0 
-45.3881 22.6441 0 -45.3831 23.7514 0 -46.5314 24.2018 0 
-45.4059 20.4289 0 -45.4057 21.568 0 -46.5842 21.9753 0 
-45.3424 18.1573 0 -45.3529 19.2996 0 -46.5488 19.77 0 
-45.3261 15.832 0 -45.3398 16.9843 0 -46.4932 17.4678 0 
-45.2656 13.6371 0 -45.2905 14.7088 0 -46.455 15.1716 0 
-45.2182 11.4137 0 -45.2494 12.5561 0 -46.4032 12.9674 0 
-45.1559 9.22141 0 -45.157 10.3004 0 -46.3259 10.7731 0 
-45.1199 7.02684 0 -45.1331 8.10534 0 -46.242 8.54367 0 
-45.1133 4.90033 0 -45.1419 5.94941 0 -46.2412 6.35018 0 
-45.0499 2.82913 0 -45.0627 3.90102 0 -46.2127 4.27343 0 
-44.9337 0.746955 0 -44.9429 1.81221 0 -46.0552 2.2572 0 
-45.1198 -1.47649 0 -45.0461 -0.386982 0 -46.0606 0.106342 0 
-45.2671 -3.60141 0 -45.2492 -2.49514 0 -46.3025 -2.04625 0 
-45.2337 -5.83612 0 -45.2611 -4.72585 0 -46.426 -4.18934 0 
-45.1634 -7.9946 0 -45.1554 -6.9485 0 -46.3417 -6.42616 0 
-45.1641 -10.1132 0 -45.1673 -9.05838 0 -46.2674 -8.60232 0 
-45.2798 -12.2918 0 -45.2399 -11.2156 0 -46.3471 -10.7685 0 
-45.3208 -14.4246 0 -45.3009 -13.3564 0 -46.4441 -12.9356 0 
-45.2674 -16.6184 0 -45.2923 -15.5108 0 -46.4367 -15.0864 0 
-45.1837 -18.6971 0 -45.2071 -17.67 0 -46.3481 -17.2243 0 
-45.1103 -20.849 0 -45.1483 -19.762 0 -46.2524 -19.3408 0 
-45.0056 -22.963 0 -45.071 -21.9283 0 -46.1777 -21.485 0 
-44.9262 -25.1674 0 -44.9641 -24.0717 0 -46.0969 -23.673 0 
-44.7471 -27.4143 0 -44.8237 -26.3289 0 -45.9529 -25.9432 0 
-44.495 -29.4799 0 -44.5256 -28.4043 0 -45.6289 -28.0947 0 
-44.7786 -30.6294 0 -52.3017 -30.6585 0 -51.2411 -30.7524 0 
-50.2626 -30.8968 0 -49.0561 -30.8546 0 -50.6847 -29.8768 0 
-63.7522 29.9819 0 -63.6248 28.7295 0 -63.7928 -2.53098 0 
-64.1299 -3.81946 0 -75.4425 31.5295 0 -75.06 32.7766 0 
-54.4061 -30.337 0 -53.3575 -30.4261 0 -52.719 -29.5 0 
-56.5876 -30.0617 0 -55.4651 -30.1122 0 -54.8338 -29.0428 0 
-58.8359 -30.076 0 -57.7678 -30.0803 0 -57.0731 -28.8366 0 
-60.9775 -30.1452 0 -59.9166 -30.1464 0 -59.3339 -28.9256 0 
-63.2395 -30.1286 0 -62.1142 -30.1495 0 -61.5511 -29.0003 0 
-65.3644 -30.0878 0 -64.2966 -30.0735 0 -63.7448 -28.9494 0 
-67.5191 -30.1552 0 -66.4222 -30.112 0 -65.8597 -28.9184 0 
-69.6872 -30.258 0 -68.6134 -30.2234 0 -68.0118 -29.0109 0 
-71.8607 -30.2374 0 -70.8049 -30.2613 0 -70.2238 -29.0825 0 
-73.9937 -30.1742 0 -72.9189 -30.184 0 -72.3997 -29.0324 0 
-76.141 -30.0859 0 -75.0691 -30.1288 0 -74.5333 -28.9335 0 
-78.2632 -30.0352 0 -77.2236 -30.0648 0 -76.6913 -28.8669 0 
-80.385 -30.1131 0 -79.2882 -30.0628 0 -78.7989 -28.8735 0 
-82.6424 -30.1307 0 -81.5299 -30.1149 0 -80.9689 -28.903 0 
-84.9314 -30.0963 0 -83.8311 -30.1035 0 -83.3026 -28.8776 0 
-87.1448 -30.0686 0 -86.0605 -30.0753 0 -85.6204 -28.8293 0 
-89.4143 -30.0966 0 -88.2789 -30.0898 0 -87.8835 -28.8296 0 
-91.655 -30.236 0 -90.5833 -30.1953 0 -90.1866 -28.9495 0 
-93.8911 -30.5128 0 -92.8052 -30.4144 0 -92.5058 -29.2266 0 
-76.5815 1.87515 0 -76.5773 3.0753 0 -77.7741 1.07292 0 
-64.2415 32.6321 0 -63.9476 31.3132 0 -62.7049 30.8856 0 
-94.0746 -21.4865 0 -94.1002 -22.6346 0 -92.8875 -23.4197 0 
-92.7278 -21.0429 0 -94.6634 -28.5246 0 -94.7817 -29.6559 0 
-69.0911 -5.91055 0 -70.581 -5.94072 0 -63.3551 25.0104 0 
-63.3276 23.8816 0 -63.2802 22.7296 0 -63.2723 21.5868 0 
-62.0323 23.3361 0 -63.2805 20.4379 0 -63.3155 19.2855 0 
-61.9932 21.0352 0 -63.387 18.0949 0 -63.3857 16.9846 0 
-62.073 18.6958 0 -63.4426 15.8639 0 -63.4421 14.7551 0 
-62.2015 16.3845 0 -63.4537 13.6531 0 -63.4455 12.542 0 
-62.27 14.1619 0 -63.4444 11.4546 0 -63.4492 10.3852 0 
-62.2805 11.9724 0 -63.3858 9.24935 0 -63.3599 8.11309 0 
-62.216 9.74915 0 -63.2761 6.92778 0 -63.2436 5.79951 0 
-62.0687 7.42797 0 -63.283 4.67185 0 -63.3704 3.57605 0 
-62.0242 5.11499 0 -76.5758 4.32832 0 -76.5951 5.45619 0 
-77.8151 3.63245 0 -67.4154 34.6288 0 -66.0634 34.4031 0 
-76.5928 6.57934 0 -76.6148 7.68718 0 -77.8113 6.00861 0 
-76.6351 8.8036 0 -76.6107 9.91268 0 -77.8294 8.24819 0 
-76.6249 10.9658 0 -76.6273 12.04 0 -77.8639 10.4178 0 
-76.5955 13.1127 0 -76.5778 14.1584 0 -77.8462 12.5436 0 
-76.5663 15.215 0 -76.5456 16.2961 0 -77.8029 14.6729 0 
-76.5529 17.4128 0 -76.5697 18.4933 0 -77.7987 16.8463 0 
-76.5723 19.5828 0 -76.5522 20.6786 0 -77.8087 19.0527 0 
-76.5596 21.8407 0 -76.5478 22.945 0 -77.8187 21.3043 0 
-76.5042 24.1179 0 -76.5065 25.2678 0 -77.7825 23.6393 0 
-76.4028 26.4479 0 -76.3015 27.6036 0 -77.6352 25.9923 0 
-70.2953 34.7261 0 -68.9008 34.7483 0 -71.0162 35.8543 0 
-85.892 59.0611 0 -86.9572 59.1562 0 -87.6463 58.0999 0 
-85.4038 57.887 0 -44.8019 53.6911 0 -44.7589 54.7996 0 
-45.9562 53.1837 0 -63.5078 27.4445 0 -63.4529 26.2585 0 
-62.1775 25.7362 0 -45.6911 -30.2342 0 -45.6393 55.4661 0 
-44.5889 55.9196 0 -44.4792 56.9499 0 -89.835 58.4125 0 
-90.2509 59.5415 0 -91.383 59.4813 0 -64.5069 -5.30087 0 
-65.0549 -6.67293 0 -62.996 -4.88418 0 -93.4671 -28.2233 0 
-77.3207 28.4558 0 -76.7483 31.0997 0 -68.2291 -7.06048 0 
-77.3107 -1.74689 0 -63.5603 0.0202018 0 -63.6443 -1.17982 0 
-45.2604 57.6616 0 -75.8463 -5.84266 0 -77.1084 -4.84825 0 
-47.9739 -30.3712 0 -46.7582 -30.2191 0 -62.4704 -2.05162 0 
-75.9146 33.8189 0 -74.5879 34.1353 0 -93.6796 59.0333 0 
-65.0157 35.4316 0 -64.535 34.0759 0 -46.4746 -29.0696 0 
-63.1938 33.6607 0 -73.98 35.4443 0 -71.1032 -7.07038 0 
-63.6535 2.44327 0 -63.7142 1.23131 0 -62.4757 0.510651 0 
-62.3466 2.85454 0 -68.0296 35.8782 0 -73.5994 -7.66395 0 
-74.5398 -6.78841 0 -76.0204 -7.38207 0 -62.3924 28.2693 0 
-48.6239 -29.5379 0 -82.7047 56.4732 0 -83.8413 56.4982 0 
-75.8293 56.4688 0 -76.9468 56.4421 0 -73.6552 56.557 0 
-74.7267 56.5533 0 -75.2807 55.2528 0 -71.5275 56.5578 0 
-72.583 56.5607 0 -73.106 55.3409 0 -69.3024 56.4942 0 
-70.4393 56.5098 0 -70.9456 55.2966 0 -67.1032 56.4542 0 
-68.1936 56.4654 0 -68.7486 55.2198 0 -64.9342 56.3829 0 
-66.0387 56.4048 0 -66.5752 55.1415 0 -62.7541 56.3108 0 
-63.8106 56.3396 0 -64.3871 55.0487 0 -60.6506 56.2693 0 
-61.7054 56.2435 0 -62.2149 54.9381 0 -58.4799 56.349 0 
-59.5579 56.352 0 -60.0735 54.9535 0 -56.2708 56.4084 0 
-57.36 56.4 0 -57.8608 55.0873 0 -54.1337 56.4552 0 
-55.1791 56.4219 0 -55.6492 55.1517 0 -51.9247 56.6298 0 
-53.0385 56.542 0 -53.4624 55.252 0 -49.6451 56.8649 0 
-50.7504 56.7643 0 -51.1929 55.4734 0 -47.3932 57.1951 0 
-48.4784 57.069 0 -48.8519 55.8119 0 -46.2852 57.4801 0 
-60.8028 26.3831 0 -60.7049 25.135 0 -78.7797 27.9976 0 
-78.5689 29.281 0 -47.7707 45.8235 0 -47.7088 46.9502 0 
-91.2734 -13.5314 0 -91.263 -14.6442 0 -91.2973 -15.7704 0 
-91.2541 -16.9337 0 -89.7991 -15.2936 0 -91.2889 -18.2285 0 
-91.293 -19.4405 0 -89.8682 -17.7146 0 -91.3344 -11.2922 0 
-91.3125 -12.3785 0 -89.8038 -13.0145 0 -91.367 -9.08133 0 
-91.337 -10.1685 0 -89.8455 -10.7379 0 -91.4644 -6.9605 0 
-91.4436 -8.0304 0 -89.9247 -8.5633 0 -91.5038 -4.78808 0 
-91.4943 -5.88618 0 -90.0312 -6.43805 0 -91.5234 -2.66213 0 
-91.5499 -3.73479 0 -90.1072 -4.31044 0 -91.4094 -0.471519 0 
-91.4889 -1.54599 0 -90.1187 -2.14101 0 -91.2762 1.61122 0 
-91.2984 0.550745 0 -89.9731 -0.00259911 0 -91.1913 3.74319 0 
-91.2115 2.68253 0 -89.7974 2.09097 0 -91.1643 5.8796 0 
-91.1949 4.83938 0 -89.7362 4.25847 0 -91.0986 8.04316 0 
-91.0947 6.93702 0 -89.6702 6.41208 0 -91.0301 10.2513 0 
-91.0767 9.14522 0 -89.5787 8.57157 0 -91.0656 12.444 0 
-91.063 11.3475 0 -89.5897 10.7699 0 -91.0909 14.5507 0 
-91.0737 13.4999 0 -89.6307 12.9221 0 -91.1308 16.6924 0 
-91.1221 15.6085 0 -89.6701 15.0359 0 -91.1323 18.9223 0 
-91.1452 17.8072 0 -89.7156 17.2084 0 -91.1159 21.1095 0 
-91.107 20.0378 0 -89.7047 19.4387 0 -91.1381 23.2208 0 
-91.1007 22.1623 0 -89.6642 21.607 0 -91.1639 25.4477 0 
-91.1534 24.3296 0 -89.6645 23.7686 0 -91.2845 27.6388 0 
-91.287 26.5433 0 -89.8029 25.973 0 -91.2878 29.8064 0 
-91.2643 28.757 0 -89.9058 28.1868 0 -91.3118 31.9242 0 
-91.2852 30.816 0 -89.883 30.3146 0 -91.2972 34.1728 0 
-91.338 33.0644 0 -89.9067 32.4645 0 -91.2371 36.3579 0 
-91.2568 35.2707 0 -89.8926 34.7027 0 -91.2325 38.5243 0 
-91.204 37.4477 0 -89.819 36.8904 0 -91.3296 40.6736 0 
-91.2792 39.6067 0 -89.8325 39.0627 0 -91.4984 42.8606 0 
-91.4705 41.7417 0 -90.02 41.2132 0 -91.5137 45.2061 0 
-91.5169 44.0461 0 -90.1795 43.4667 0 -91.3942 47.5436 0 
-91.4139 46.3886 0 -90.0982 45.8347 0 -91.4352 49.7319 0 
-91.4232 48.6471 0 -90.0274 48.1207 0 -91.5651 52.0442 0 
-91.4947 50.8901 0 -90.1158 50.3825 0 -91.7989 54.4897 0 
-91.6985 53.2586 0 -90.3087 52.7551 0 -91.9678 57.131 0 
-91.944 55.7164 0 -90.5872 55.1963 0 -61.5041 31.7008 0 
-61.3087 30.3695 0 -74.9529 36.7065 0 -73.4904 36.9732 0 
-57.5138 -27.4918 0 -56.3336 -27.4732 0 -61.1441 29.0268 0 
-61.0271 27.7418 0 -59.5545 27.1406 0 -59.9434 29.842 0 
-67.4777 -8.3713 0 -68.97 -8.45151 0 -92.5473 59.0999 0 
-61.9127 34.6568 0 -61.6192 33.213 0 -47.6004 48.0734 0 
-47.5177 49.1454 0 -48.8873 47.5495 0 -47.4136 50.3503 0 
-47.3369 51.5519 0 -48.6749 49.8776 0 -47.8731 43.4889 0 
-47.8457 44.6413 0 -49.0706 45.2441 0 -47.86 41.1721 0 
-47.8811 42.3103 0 -49.1536 42.8832 0 -47.6828 39.0731 0 
-47.7474 40.1054 0 -49.049 40.6379 0 -47.4774 36.9058 0 
-47.5266 38.01 0 -48.7801 38.508 0 -47.4531 34.642 0 
-47.446 35.7646 0 -48.5925 36.3038 0 -47.6073 32.4761 0 
-47.5516 33.5441 0 -48.6596 34.0648 0 -47.6378 30.3142 0 
-47.6427 31.418 0 -48.7935 31.9088 0 -47.6655 28.0913 0 
-47.6555 29.1956 0 -48.8465 29.7321 0 -47.7312 25.8552 0 
-47.7164 26.9638 0 -48.9151 27.4859 0 -47.8236 23.5466 0 
-47.7885 24.697 0 -49.0233 25.2 0 -47.8597 21.3927 0 
-47.842 22.4688 0 -49.099 22.9639 0 -47.7849 19.1781 0 
-47.838 20.3074 0 -49.0958 20.8008 0 -47.7632 16.7995 0 
-47.7657 17.9725 0 -49.0549 18.5099 0 -47.6704 14.5498 0 
-47.706 15.673 0 -48.9786 16.1777 0 -47.624 12.3656 0 
-47.6402 13.4466 0 -48.8912 13.948 0 -47.5224 10.1545 0 
-47.5835 11.2678 0 -48.8205 11.747 0 -47.4375 7.88123 0 
-47.4603 8.9973 0 -48.7179 9.49205 0 -47.5249 5.64589 0 
-47.5028 6.72332 0 -48.7211 7.17694 0 -47.4805 3.57876 0 
-47.5311 4.57807 0 -48.7927 4.95121 0 -46.9863 1.67505 0 
-47.0933 2.69197 0 -48.4116 2.99661 0 -47.1628 -0.414796 0 
-47.0503 0.719141 0 -48.0884 1.15391 0 -47.7428 -2.39033 0 
-47.6133 -1.37168 0 -48.603 -0.758881 0 -47.7786 -4.66448 0 
-47.7846 -3.54004 0 -49.0954 -2.86547 0 -47.5366 -6.93965 0 
-47.6149 -5.82727 0 -48.9734 -5.17796 0 -47.5032 -9.14218 0 
-47.4992 -8.0784 0 -48.7724 -7.47951 0 -47.6862 -11.3685 0 
-47.6103 -10.266 0 -48.8422 -9.74209 0 -47.7609 -13.5026 0 
-47.7398 -12.438 0 -49.003 -11.9354 0 -47.6867 -15.6727 0 
-47.7151 -14.5865 0 -49.0108 -14.0889 0 -47.5354 -17.8441 0 
-47.5956 -16.7925 0 -48.874 -16.2925 0 -47.401 -19.9547 0 
-47.4364 -18.8899 0 -48.684 -18.458 0 -47.3661 -22.1619 0 
-47.4054 -21.0826 0 -48.5894 -20.6316 0 -47.3082 -24.3901 0 
-47.3497 -23.2814 0 -48.5774 -22.879 0 -46.9759 -26.7731 0 
-47.0784 -25.6115 0 -48.3312 -25.22 0 -46.696 -28.0796 0 
-46.7473 55.181 0 -46.5773 56.301 0 -78.8522 -5.54059 0 
-78.6337 -3.95252 0 -50.8333 -28.8509 0 -49.8548 -28.9953 0 
-54.9712 -27.4751 0 -53.9121 -27.6999 0 -55.4119 -26.1304 0 
-60.7892 -1.39426 0 -60.9378 -2.74541 0 -77.3883 33.3886 0 
-76.9163 34.7473 0 -92.3169 -28.0449 0 -92.0533 -26.8167 0 
-91.0919 -27.8201 0 -65.4991 37.028 0 -63.9707 36.7009 0 
-53.0011 -28.4593 0 -51.9453 -28.6917 0 -51.1154 -27.8102 0 
-53.1384 -26.8916 0 -59.9088 -27.6753 0 -58.8281 -27.6049 0 
-58.0887 -26.2416 0 -62.1016 -27.9565 0 -60.965 -27.9523 0 
-60.4593 -26.6316 0 -64.1783 -27.6237 0 -63.1212 -27.6789 0 
-62.5351 -26.6309 0 -66.3267 -27.5918 0 -65.2689 -27.5675 0 
-64.6453 -26.297 0 -68.5389 -27.7979 0 -67.4445 -27.7297 0 
-66.8538 -26.3788 0 -70.7717 -27.9049 0 -69.654 -27.9016 0 
-69.0868 -26.6203 0 -72.937 -27.7561 0 -71.8788 -27.8096 0 
-71.309 -26.6286 0 -75.0539 -27.5805 0 -73.9785 -27.626 0 
-73.4576 -26.4031 0 -77.2488 -27.5317 0 -76.1662 -27.5528 0 
-75.6114 -26.2453 0 -79.3219 -27.572 0 -78.2968 -27.5444 0 
-77.7718 -26.2302 0 -81.6026 -27.6175 0 -80.4577 -27.6157 0 
-79.9556 -26.2865 0 -83.9895 -27.5922 0 -82.8007 -27.6194 0 
-82.2896 -26.3321 0 -86.3031 -27.4802 0 -85.1741 -27.5012 0 
-84.6722 -26.243 0 -88.6567 -27.555 0 -87.5226 -27.5337 0 
-87.0763 -26.2056 0 -79.0815 0.411262 0 -79.1241 1.71777 0 
-91.9153 -25.6085 0 -78.0585 56.4388 0 -79.1742 56.4531 0 
-77.4949 55.165 0 -78.6469 -2.47991 0 -79.0677 -0.966609 0 
-80.4177 -0.321758 0 -80.3907 -3.17224 0 -78.1681 30.6594 0 
-77.8064 32.0199 0 -78.8081 32.9483 0 -47.1417 52.8103 0 
-46.9949 53.9727 0 -48.3756 52.3409 0 -80.3492 56.449 0 
-81.4968 56.4506 0 -82.1645 55.1763 0 -79.7816 55.1577 0 
-68.6555 37.3405 0 -67.1701 37.221 0 -66.125 38.4902 0 
-60.4779 21.5806 0 -60.4861 20.4317 0 -60.6665 19.2955 0 
-60.738 18.1049 0 -59.1512 19.8408 0 -60.8583 16.9064 0 
-60.9153 15.7858 0 -59.4518 17.5061 0 -60.9772 14.7142 0 
-60.9888 13.6122 0 -59.6341 15.2361 0 -61.0645 12.4728 0 
-61.0635 11.3853 0 -59.7718 13.0251 0 -60.9743 10.276 0 
-60.9109 9.14015 0 -59.7584 10.7764 0 -60.7728 7.89507 0 
-60.689 6.70976 0 -59.5312 8.42194 0 -60.6062 5.368 0 
-60.6456 4.24034 0 -59.3103 5.83511 0 -79.1151 3.02819 0 
-79.1136 4.28121 0 -80.4226 2.36653 0 -79.0624 7.69805 0 
-79.0827 8.81448 0 -79.1097 9.91772 0 -79.1239 10.9709 0 
-80.3427 9.36759 0 -79.1124 12.007 0 -79.0805 13.0797 0 
-80.3582 11.507 0 -79.0988 14.164 0 -79.0873 15.2206 0 
-80.365 13.6274 0 -79.1359 16.3084 0 -79.1433 17.4252 0 
-80.4319 15.7995 0 -79.1359 18.5288 0 -79.1385 19.6183 0 
-80.4731 17.9909 0 -79.1477 20.7512 0 -79.1551 21.9133 0 
-80.4749 20.2273 0 -79.1324 23.1118 0 -79.0889 24.2847 0 
-80.4615 22.5586 0 -79.0468 25.5673 0 -78.9431 26.7473 0 
-80.3968 25.0397 0 -71.8253 37.2173 0 -70.3242 37.3607 0 
-69.4647 38.7035 0 -72.7983 38.4796 0 -70.7113 -8.37338 0 
-72.093 -8.30307 0 -60.5493 23.9031 0 -60.502 22.751 0 
-58.9949 22.1475 0 -59.1745 24.5499 0 -79.0675 5.43935 0 
-79.0652 6.56249 0 -80.3185 7.12879 0 -80.3675 4.83509 0 
-47.8216 -27.7479 0 -89.7638 57.3231 0 -90.8035 57.5124 0 
-61.2887 -4.39574 0 -61.6658 -5.87715 0 -48.7725 -28.5119 0 
-49.0524 -27.2054 0 -80.1913 27.5725 0 -65.7218 -8.22219 0 
-66.4627 -9.61322 0 -47.9328 54.8076 0 -79.627 30.2012 0 
-69.9598 -9.6842 0 -87.3476 56.8992 0 -88.4965 57.0225 0 
-89.465 56.1224 0 -89.892 -20.2264 0 -91.282 -20.6575 0 
-91.3269 -21.8289 0 -60.2231 32.6969 0 -73.2075 -8.96695 0 
-59.6075 -3.73839 0 -92.039 58.2204 0 -62.1737 36.2532 0 
-60.5992 35.8055 0 -78.8489 -7.09874 0 -80.3741 -6.203 0 
-60.9159 0.337205 0 -59.3833 -0.356593 0 -84.5496 55.3331 0 
-85.0185 56.6323 0 -86.1121 56.7219 0 -91.5471 -23.1214 0 
-91.662 -24.3268 0 -90.575 -25.3102 0 -90.1014 -22.736 0 
-77.9502 35.8812 0 -76.4765 36.3115 0 -75.9869 37.8404 0 
-89.9229 -27.7214 0 -62.6571 37.8496 0 -89.562 -26.4255 0 
-59.3687 2.93411 0 -60.7868 2.6811 0 -76.0622 -9.09815 0 
-77.3687 -8.1524 0 -78.8906 -8.81481 0 -64.0399 -7.91485 0 
-60.5284 -7.02385 0 -62.2357 -7.51228 0 -62.9026 -9.06155 0 
-50.428 -26.7737 0 -49.477 -26.0097 0 -49.7068 -24.7883 0 
-74.6395 53.8226 0 -75.742 53.7381 0 -68.2038 53.9975 0 
-69.3127 54.0263 0 -66.0558 53.6284 0 -67.1203 53.6779 0 
-67.6843 52.4844 0 -63.8613 53.797 0 -64.9849 53.8404 0 
-65.5299 52.3767 0 -61.761 53.3488 0 -62.8097 53.416 0 
-63.4074 52.2077 0 -59.4619 53.4347 0 -60.5546 53.352 0 
-61.1494 51.8299 0 -57.2309 53.8951 0 -58.3508 53.8441 0 
-58.8319 52.2426 0 -55.0104 53.7532 0 -56.1021 53.7398 0 
-56.592 52.4966 0 -52.7648 53.9932 0 -53.86 53.9063 0 
-54.3128 52.4944 0 -50.3269 54.305 0 -51.5012 54.1705 0 
-51.8988 52.8249 0 -49.0995 54.6036 0 -81.9786 27.1104 0 
-81.8152 28.3606 0 -55.9472 -24.7933 0 -54.5847 -24.7952 0 
-62.5171 -25.1015 0 -61.4975 -25.3792 0 -88.2408 -12.5028 0 
-88.2017 -13.6557 0 -88.4486 -7.93757 0 -88.372 -8.98851 0 
-88.8109 -5.88983 0 -88.781 -6.96414 0 -87.2283 -7.38935 0 
-88.5852 -3.81955 0 -88.5391 -4.87285 0 -87.2889 -5.39894 0 
-88.7325 -1.6603 0 -88.767 -2.77645 0 -87.1989 -3.33885 0 
-88.2476 0.353861 0 -88.3587 -0.668402 0 -87.007 -1.30384 0 
-88.0755 2.4838 0 -88.1401 1.41249 0 -86.5257 0.746686 0 
-88.0563 4.69799 0 -88.0527 3.6018 0 -86.3955 2.92332 0 
-88.0028 6.89867 0 -88.0724 5.84125 0 -86.3889 5.18458 0 
-88.0038 9.07788 0 -88.0257 7.97582 0 -86.4279 7.40499 0 
-88.0088 11.258 0 -87.9759 10.1618 0 -86.4229 9.56604 0 
-88.0731 13.3947 0 -88.065 12.3387 0 -86.4512 11.7306 0 
-88.1158 15.4932 0 -88.0846 14.4354 0 -86.5188 13.852 0 
-88.0922 17.7211 0 -88.0779 16.6063 0 -86.4924 16.0059 0 
-88.0957 19.951 0 -88.121 18.8355 0 -86.4832 18.2334 0 
-88.1354 22.1111 0 -88.1505 21.0584 0 -86.5669 20.4551 0 
-88.1463 24.3302 0 -88.1309 23.2215 0 -86.6172 22.6728 0 
-88.2778 26.5641 0 -88.1548 25.4685 0 -86.6211 24.9213 0 
-88.5272 28.7557 0 -88.5474 27.6375 0 -86.8992 27.133 0 
-88.1176 30.8218 0 -88.1201 29.8122 0 -86.7617 29.2629 0 
-88.7187 33.0196 0 -88.6924 31.8794 0 -86.9295 31.3769 0 
-88.4134 35.1687 0 -88.4539 34.0708 0 -87.2395 33.4857 0 
-88.2889 37.4109 0 -88.322 36.321 0 -86.8833 35.6891 0 
-88.3079 39.6514 0 -88.2613 38.569 0 -86.7643 37.9996 0 
-88.554 41.8439 0 -88.4131 40.7758 0 -86.8418 40.2821 0 
-88.9115 44.0947 0 -88.8929 42.9092 0 -87.286 42.4718 0 
-88.6517 46.3843 0 -88.7515 45.2017 0 -87.4649 44.6442 0 
-88.6401 48.738 0 -88.6111 47.6345 0 -87.2644 47.0015 0 
-88.7072 51.0788 0 -88.6477 49.9205 0 -87.2315 49.4343 0 
-89.0635 53.593 0 -88.9302 52.3786 0 -87.4621 51.9166 0 
-89.3199 54.8957 0 -89.3087 -25.1438 0 -61.0698 1.54832 0 
-50.6205 42.3613 0 -50.6125 43.5399 0 -50.1988 47.1575 0 
-50.0904 48.2807 0 -82.1966 -6.92361 0 -82.2 -5.36546 0 
-50.4605 44.7718 0 -50.3856 45.9541 0 -51.5887 46.6853 0 
-49.9619 49.515 0 -49.8579 50.7199 0 -51.2734 49.123 0 
-50.3979 40.0252 0 -50.5106 41.0919 0 -51.9695 41.7486 0 
-49.9878 37.8737 0 -50.144 38.9369 0 -51.6057 39.3909 0 
-49.6037 35.7347 0 -49.6351 36.8758 0 -50.9991 37.3046 0 
-49.9921 33.6095 0 -49.8936 34.7074 0 -50.9362 35.2794 0 
-50.142 31.5048 0 -50.1067 32.5628 0 -51.3406 33.2054 0 
-50.2052 29.215 0 -50.1875 30.3337 0 -51.5007 30.9877 0 
-50.2448 26.9151 0 -50.1939 28.0427 0 -51.5349 28.6443 0 
-50.4284 24.6164 0 -50.3711 25.7747 0 -51.6499 26.3315 0 
-50.614 22.4539 0 -50.5956 23.5317 0 -51.9433 24.1063 0 
-50.5884 20.2494 0 -50.6102 21.3347 0 -52.1067 21.9024 0 
-50.4426 17.8906 0 -50.4618 19.0963 0 -51.9762 19.6301 0 
-50.3656 15.572 0 -50.4227 16.6985 0 -51.8296 17.285 0 
-50.3645 13.3523 0 -50.3947 14.4554 0 -51.8389 14.9763 0 
-50.1801 11.0865 0 -50.2206 12.1843 0 -51.7241 12.6917 0 
-49.9916 8.81296 0 -50.0537 9.97015 0 -51.4538 10.4074 0 
-49.878 6.53371 0 -49.8126 7.69162 0 -51.1484 8.16972 0 
-50.4809 4.23796 0 -50.4747 5.30577 0 -51.5662 5.82046 0 
-49.6425 1.6136 0 -50.0298 2.50039 0 -51.7118 2.85496 0 
-49.7066 0.657698 0 -50.1571 -0.299186 0 -50.6598 -3.11266 0 
-50.618 -1.96296 0 -51.7215 -0.546382 0 -50.339 -5.70208 0 
-50.5027 -4.53929 0 -52.0253 -3.63678 0 -49.8754 -7.99736 0 
-49.9127 -6.8586 0 -51.4419 -6.21993 0 -50.2657 -10.173 0 
-50.1586 -9.04921 0 -51.2989 -8.4283 0 -50.4995 -12.3883 0 
-50.4459 -11.3187 0 -51.7623 -10.6258 0 -50.4715 -14.6231 0 
-50.5173 -13.5393 0 -51.9602 -12.9225 0 -50.2672 -16.965 0 
-50.3582 -15.8452 0 -51.8646 -15.2956 0 -49.9287 -19.1408 0 
-50.0277 -18.095 0 -51.5118 -17.6477 0 -49.675 -21.2794 0 
-49.6706 -20.1516 0 -51.0143 -19.7886 0 -50.1304 -23.6009 0 
-50.1468 -22.4813 0 -51.228 -22.0013 0 -57.6174 0.400681 0 
-57.4907 -1.33078 0 -81.2598 29.7574 0 -80.8589 31.1359 0 
-83.0471 29.2953 0 -80.3165 32.4905 0 -79.8984 33.8592 0 
-58.8085 -24.9249 0 -57.4941 -24.8118 0 -56.6669 -23.4766 0 
-63.2305 39.6841 0 -61.4335 39.2365 0 -73.0207 -10.7286 0 
-74.5271 -10.0895 0 -65.0807 -24.8063 0 -63.99 -24.8625 0 
-62.9525 -23.6108 0 -67.4921 -24.9383 0 -66.3742 -24.8004 0 
-65.7189 -23.3658 0 -69.6697 -25.4888 0 -68.5546 -25.3852 0 
-68.075 -23.8068 0 -71.8105 -25.4433 0 -70.7033 -25.5387 0 
-70.1711 -24.3035 0 -73.8343 -24.8517 0 -72.7928 -24.9818 0 
-72.1872 -23.8919 0 -76.109 -24.834 0 -74.9967 -24.8617 0 
-74.3319 -23.4404 0 -78.3673 -24.8701 0 -77.3193 -24.8575 0 
-76.7046 -23.4739 0 -80.6242 -24.9002 0 -79.4883 -24.8565 0 
-79.0359 -23.4837 0 -82.8984 -25.158 0 -81.7003 -25.1561 0 
-81.233 -23.7261 0 -85.3604 -24.7709 0 -84.1758 -24.8619 0 
-83.5866 -23.6859 0 -87.8995 -24.8684 0 -86.68 -24.8149 0 
-86.1836 -23.4337 0 -65.5223 -11.1528 0 -67.2782 -11.3019 0 
-69.3433 -11.2861 0 -71.0846 -11.208 0 -68.403 -12.8257 0 
-60.4413 -25.1023 0 -59.8467 -23.6725 0 -57.4608 3.56096 0 
-57.602 2.00172 0 -58.8397 33.5331 0 -58.7246 32.0209 0 
-76.8911 53.8146 0 -78.0027 53.8114 0 -76.2498 52.3845 0 
-88.246 -14.8484 0 -88.2804 -15.9746 0 -86.683 -14.3366 0 
-81.7997 8.88239 0 -81.8268 9.98563 0 -49.603 52.0423 0 
-49.4078 53.3008 0 -57.3193 20.3023 0 -57.4996 19.166 0 
-58.1942 18.0643 0 -58.3144 16.8659 0 -56.3622 18.5258 0 
-57.6883 15.6263 0 -57.7502 14.5548 0 -56.4306 16.1845 0 
-58.5662 13.5541 0 -58.642 12.4146 0 -56.6204 13.9442 0 
-58.4841 11.3895 0 -58.395 10.2802 0 -57.2785 11.9184 0 
-58.1981 9.0671 0 -58.0601 7.82202 0 -56.9239 9.68025 0 
-57.7488 6.41884 0 -57.666 5.07709 0 -56.4157 7.06399 0 
-81.8553 1.81526 0 -81.8464 3.12568 0 -88.3131 -10.1526 0 
-88.3106 -11.2763 0 -86.7085 -11.9174 0 -86.8371 -9.52685 0 
-57.5496 -3.1067 0 -57.9006 -4.75704 0 -55.7838 -2.34943 0 
-58.9933 36.7821 0 -58.7324 35.1857 0 -66.7337 40.181 0 
-65.0627 39.988 0 -81.8153 11.0191 0 -81.8037 12.0553 0 
-83.2723 10.5339 0 -81.8545 13.1356 0 -81.8728 14.2198 0 
-83.3116 12.6477 0 -81.8534 15.3022 0 -81.902 16.39 0 
-83.3429 14.8104 0 -81.9227 17.4591 0 -81.9153 18.5627 0 
-83.3442 16.9619 0 -81.9426 19.6973 0 -81.9518 20.8302 0 
-83.3922 19.1655 0 -81.983 22.0353 0 -81.9604 23.2337 0 
-83.4508 21.5053 0 -81.9416 24.4667 0 -81.8996 25.7493 0 
-83.5235 26.5373 0 -70.39 53.7497 0 -71.4782 53.7977 0 
-69.8452 52.5274 0 -72.5264 54.1084 0 -73.5986 54.1047 0 
-71.9708 52.5615 0 -51.54 -26.6145 0 -74.0599 52.5901 0 
-60.0928 40.4582 0 -59.5193 38.6237 0 -61.7048 -10.4119 0 
-63.509 -10.8144 0 -64.3245 -12.5031 0 -53.4098 -23.3306 0 
-52.8746 -24.6677 0 -81.0027 34.8557 0 -79.4943 35.3135 0 
-79.0545 36.8776 0 -50.8901 51.6798 0 -55.7095 1.02753 0 
-83.4632 23.9433 0 -58.6826 30.5156 0 -58.5181 29.1729 0 
-57.2992 31.3518 0 -86.9623 55.6445 0 -88.2142 -19.8153 0 
-88.2033 -21.0323 0 -81.6747 53.7782 0 -82.8827 53.8009 0 
-56.6444 -5.86914 0 -58.7024 -6.50082 0 -59.2723 -8.13595 0 
-88.5896 -17.1426 0 -88.6244 -18.4374 0 -86.9356 -19.2433 0 
-87.9414 54.5191 0 -51.9275 44.2499 0 -81.9999 -8.44617 0 
-83.8258 -7.60863 0 -88.9125 -23.7531 0 -84.1677 53.92 0 
-85.3448 54.0541 0 -83.6779 52.5219 0 -51.2761 -24.3906 0 
-81.7702 6.61605 0 -81.7673 7.7516 0 -83.2514 8.36965 0 
-58.3053 27.881 0 -58.081 26.5223 0 -57.0446 28.5546 0 
-57.2338 34.5097 0 -87.0366 -16.6973 0 -77.0758 39.1244 0 
-75.5522 39.5195 0 -75.8754 -10.8598 0 -81.9492 32.0468 0 
-63.8392 41.3749 0 -72.4042 -12.3305 0 -57.3003 21.5133 0 
-55.6487 20.8385 0 -57.3243 22.6837 0 -55.8993 4.14469 0 
-78.613 52.4922 0 -79.2169 53.8425 0 -80.3919 53.8385 0 
-56.2124 25.8898 0 -57.4615 25.1493 0 -57.3059 23.9174 0 
-81.8126 4.31222 0 -81.7664 5.47035 0 -83.2152 6.09317 0 
-83.2453 3.76094 0 -79.046 -10.5709 0 -80.5261 -9.51724 0 
-82.1553 -10.2023 0 -68.5914 40.285 0 -67.5291 41.7828 0 
-57.6525 38.0039 0 -70.26 40.3052 0 -73.7676 39.9362 0 
-72.1026 40.1803 0 -71.2294 41.7619 0 -74.8566 41.2203 0 
-60.4988 42.6504 0 -58.5846 42.0377 0 -81.9164 -0.836186 0 
-81.9302 0.541685 0 -60.5391 50.1137 0 -61.7455 50.1105 0 
-57.4712 50.692 0 -58.5823 50.2825 0 -59.1785 48.5631 0 
-56.3424 50.5366 0 -68.9512 0.416639 1 -53.537 51.2418 0 
-54.6874 51.0887 0 -55.5666 49.284 0 -63.5766 50.4778 0 
-64.6282 50.8588 0 -62.9663 48.7616 0 -75.5385 50.7928 0 
-76.6876 50.8693 0 -81.11 52.4631 0 -86.7059 54.3418 0 
-67.473 -14.6364 0 -69.5382 -14.6206 0 -84.9235 0.916285 0 
-85.031 -0.142342 0 -84.8259 3.30787 0 -84.8487 2.18986 0 
-84.8082 5.63766 0 -84.7921 4.4944 0 -84.8348 7.8605 0 
-84.812 6.78335 0 -84.8394 10.0752 0 -84.8673 8.99129 0 
-84.8841 12.1893 0 -84.8279 11.1087 0 -84.9463 14.3104 0 
-84.9348 13.2696 0 -84.8889 16.5059 0 -84.9269 15.3928 0 
-84.9385 18.6894 0 -84.9096 17.575 0 -85.0473 23.2467 0 
-85.0519 22.1364 0 -85.037 25.6179 0 -85.0285 24.4797 0 
-85.3001 36.0139 0 -85.3915 34.8616 0 -85.0701 38.588 0 
-85.0977 37.4299 0 -83.6059 36.6024 0 -85.1778 41.1648 0 
-85.0726 40.0404 0 -83.4061 39.4707 0 -85.9684 43.6963 0 
-85.6294 42.6309 0 -83.8602 42.3893 0 -85.8084 44.8033 0 
-85.9821 47.5385 0 -86.0226 46.2883 0 -84.5261 45.3403 0 
-85.6828 50.0659 0 -85.6751 48.8834 0 -84.4333 48.1701 0 
-53.59 43.9185 0 -53.4381 45.1505 0 -68.3085 43.5883 0 
-66.4508 43.4843 0 -88.6922 -22.4606 0 -53.4773 1.87298 0 
-53.4928 0.271942 0 -52.9387 38.5753 0 -53.1926 39.6637 0 
-53.5191 41.0845 0 -53.6291 42.3538 0 -54.8522 40.2688 0 
-83.9866 -4.44138 0 -82.1641 -3.72077 0 -52.8904 46.3542 0 
-52.7036 47.5576 0 -54.5529 46.0228 0 -52.6568 48.8624 0 
-52.5283 50.0967 0 -52.8391 32.9686 0 -52.7245 34.0152 0 
-53.8663 21.4164 0 -53.8701 22.5356 0 -52.7477 -8.3531 0 
-52.4645 -7.30125 0 -53.3745 -10.8742 0 -53.1943 -9.72853 0 
-54.3599 -8.60147 0 -53.6238 -13.431 0 -53.606 -12.28 0 
-55.038 -11.3827 0 -53.4254 -16.0171 0 -53.5387 -14.795 0 
-55.1846 -14.1525 0 -52.7718 -18.5468 0 -53.0113 -17.4168 0 
-54.6854 -16.9162 0 -52.0702 -20.8458 0 -52.3283 -19.835 0 
-53.8277 -19.6041 0 -82.1773 -2.24816 0 -83.354 1.30083 0 
-85.0206 20.9313 0 -85.5198 -5.23401 0 -85.4839 -3.58932 0 
-87.0144 -22.0495 0 -83.6898 -1.38472 0 -78.7564 38.4552 0 
-78.3217 40.1343 0 -80.3004 37.8875 0 -76.0281 -12.9349 0 
-77.5631 -11.9435 0 -79.1986 -12.646 0 -64.5372 43.2841 0 
-62.705 42.9802 0 -61.1969 44.5596 0 -65.3167 45.0896 0 
-57.3587 -22.14 0 -55.8118 -22.1214 0 -85.2919 -1.55432 0 
-69.6708 -22.4943 0 -68.6083 -22.0474 0 -83.5276 31.6736 0 
-82.9852 33.0283 0 -63.6653 -21.8852 0 -62.1924 -22.1243 0 
-72.9252 51.1326 0 -73.9661 50.8505 0 -74.4038 49.3353 0 
-74.7272 -21.812 0 -73.5648 -21.802 0 -77.3028 -22.2291 0 
-76.0926 -22.2056 0 -75.3254 -20.5672 0 -79.677 -22.0093 0 
-78.556 -22.0229 0 -77.9439 -20.7547 0 -82.3922 -22.4014 0 
-81.316 -22.1455 0 -80.8361 -20.6847 0 -52.451 -25.8552 0 
-84.9786 29.1089 0 -84.4231 30.5057 0 -85.3876 -16.6394 0 
-85.6968 -17.8073 0 -84.7016 -13.9056 0 -84.7459 -15.0984 0 
-83.4062 -16.2083 0 -86.324 52.9288 0 -56.3521 39.3468 0 
-55.8261 37.5051 0 -53.9537 -1.39183 0 -54.0125 -3.16776 0 
-71.7711 -14.4326 0 -73.7072 -13.9532 0 -85.2625 -8.74698 0 
-85.4592 -7.22442 0 -55.6748 34.9703 0 -55.7821 33.3178 0 
-66.6521 -21.7131 0 -65.3586 -21.719 0 -64.5985 -20.2325 0 
-68.2479 -20.4007 0 -71.877 50.8219 0 -65.6991 50.6469 0 
-69.9512 -0.588361 1 -85.2037 -9.91106 0 -77.2407 49.6729 0 
-77.952 51.2646 0 -79.1661 51.2958 0 -58.9815 -22.128 0 
-58.1263 -20.7728 0 -60.6143 -22.3053 0 -67.7504 50.6761 0 
-68.8339 50.9957 0 -66.8487 49.1581 0 -83.7753 -10.4691 0 
-85.3499 -11.249 0 -85.2801 -12.4755 0 -82.3015 -11.5402 0 
-52.1537 51.5024 0 -54.2521 -22.1751 0 -52.542 -22.0477 0 
-70.244 43.5823 0 -69.1658 45.2838 0 -80.4396 51.0087 0 
-81.7225 50.9484 0 -79.7786 49.7811 0 -54.878 -5.6757 0 
-55.6798 -7.41948 0 -85.4591 31.4872 0 -57.0847 42.9597 0 
-57.0457 44.5244 0 -55.1397 43.2543 0 -85.6657 -2.54622 0 
-85.7915 -6.25099 0 -84.9658 19.824 0 -85.6947 -22.0055 0 
-84.5003 -20.721 0 -83.6695 -22.1053 0 -85.3857 28.0524 0 
-85.1161 26.979 0 -86.034 32.5448 0 -85.7692 33.596 0 
-86.1011 51.629 0 -54.9439 -20.8385 0 -69.9113 50.7191 0 
-70.8657 49.2902 0 -53.9285 3.61055 0 -83.2596 50.9589 0 
-84.5447 51.078 0 -52.9416 31.6763 0 -54.3256 32.486 0 
-55.8846 32.0255 0 -52.9872 30.5052 0 -53.9584 48.5313 0 
-52.0036 36.2984 0 -52.3563 37.2963 0 -52.2934 35.271 0 
-52.9462 28.1238 0 -52.9575 29.2962 0 -52.9279 25.8525 0 
-52.8016 26.9929 0 -52.8908 -6.14472 0 -53.8554 -4.59438 0 
-53.7585 19.0523 0 -53.8852 20.2053 0 -53.0703 16.6916 0 
-53.0902 17.8837 0 -53.8362 14.4023 0 -53.8071 15.5189 0 
-52.7731 9.69253 0 -52.8995 10.8089 0 -52.3222 7.22511 0 
-52.5012 8.34644 0 -75.3949 -15.037 0 -85.2867 -19.1853 0 
-70.9512 26.1866 1 -70.9512 25.1216 1 -70.7044 -22.5442 0 
-84.186 33.9207 0 -82.6076 34.2939 0 -55.6113 23.2832 0 
-61.3272 -20.5797 0 -61.9627 -19.0688 0 -60.3846 -19.2498 0 
-70.9512 24.1016 1 -70.9512 22.9616 1 -82.2035 35.7482 0 
-71.6868 -22.0827 0 -70.9512 21.9266 1 -70.9512 20.8916 1 
-72.082 -20.4543 0 -70.9512 19.8566 1 -70.9512 18.7016 1 
-82.5892 49.5045 0 -70.9512 17.6666 1 -70.9512 16.5866 1 
-83.2615 -19.2851 0 -54.3984 29.9848 0 -53.2785 13.1855 0 
-55.2467 13.7281 0 -56.0627 12.7274 0 -53.1346 12.0175 0 
-54.2242 27.6448 0 -55.9049 11.7023 0 -70.8412 -16.2433 0 
-55.4557 26.8883 0 -54.8363 25.5154 0 -54.1337 5.12667 0 
-72.0866 43.4574 0 -55.6697 10.4937 0 -55.4729 9.28059 0 
-55.201 7.9345 0 -54.8897 6.53132 0 -79.9213 41.3267 0 
-78.2407 41.996 0 -55.6003 28.0192 0 -52.9189 5.99718 0 
-77.565 44.0902 0 -75.9654 42.8978 0 -74.1808 43.3145 0 
-55.813 29.3111 0 -59.8113 -9.84257 0 -60.4177 -11.5955 0 
-63.1451 -14.1299 0 -65.1584 -14.4683 0 -56.8969 -11.9074 0 
-56.6654 -10.5015 0 -70.0007 47.2326 0 -68.0651 47.2386 0 
-80.2401 -14.343 0 -81.723 -12.9703 0 -55.8427 30.5201 0 
-66.2936 -16.2631 0 -58.1062 46.4809 0 -56.1611 46.7755 0 
-57.9853 -9.31954 0 -82.9826 48.0259 0 -83.2895 46.681 0 
-81.4454 48.0154 0 -73.1955 45.1349 0 -54.4539 11.3026 0 
-65.1354 -18.0807 0 -67.45 -18.2488 0 -58.8408 -12.7601 0 
-60.7342 -13.3294 0 -61.5681 -15.2945 0 -53.8517 23.7692 0 
-53.9469 8.74792 0 -53.6845 24.854 0 -54.9993 18.4589 0 
-55.0677 16.1177 0 -70.9512 15.5666 1 -70.9512 14.4866 1 
-60.063 46.3121 0 -62.2692 46.6419 0 -55.3874 -19.5504 0 
-57.1109 -19.269 0 -55.9947 -18.0346 0 -81.7029 38.7417 0 
-82.001 37.1641 0 -83.343 -13.2372 0 -56.6786 40.7676 0 
-78.0362 -19.2223 0 -76.783 -19.4285 0 -81.6245 42.0558 0 
-81.7055 40.1941 0 -57.2134 -13.6413 0 -55.6134 47.9792 0 
-55.6939 17.3572 0 -69.4061 -18.5831 0 -71.6391 -18.3952 0 
-66.0138 47.2093 0 -79.8311 48.2387 0 -78.5576 48.5258 0 
-64.1003 47.0091 0 -71.9663 47.3355 0 -56.1263 -8.79491 0 
-70.9512 13.4516 1 -70.9512 12.3266 1 -53.9433 37.569 0 
-70.9512 11.2166 1 -70.9512 10.1966 1 -77.2932 48.1305 0 
-80.2244 46.7601 0 -81.4732 -19.136 0 -79.8342 -18.9998 0 
-78.6733 -17.6737 0 -82.2596 -17.6003 0 -83.0753 45.1961 0 
-74.0605 47.1925 0 -53.7919 35.0342 0 -73.517 -18.1145 0 
-56.4089 -16.6348 0 -82.0761 43.5219 0 -81.6179 -16.0592 0 
-79.0935 -15.7349 0 -70.9512 9.08664 1 -70.9512 8.05164 1 
-60.0887 -16.1165 0 -62.4996 -16.9169 0 -75.4176 -19.0349 0 
-74.9747 -16.9757 0 -58.7336 -19.257 0 -75.633 47.1348 0 
-76.9499 45.9877 0 -63.4421 -18.2468 0 -79.2252 45.0859 0 
-80.8395 44.8626 0 -55.2437 36.2261 0 -70.9512 6.95664 1 
-70.9512 5.90664 1 -58.4377 -16.1236 0 -57.1284 -15.0052 0 
-77.2955 -15.9574 0 -70.9512 4.84164 1 -70.9512 3.82164 1 
-70.9512 27.2966 1 -70.9512 28.3916 1 -59.3691 -17.7461 0 
-70.9512 2.62164 1 -70.9512 1.55664 1 -40.0244 63.3156 1 
-40.0244 -34.5344 1 -40.0244 -33.4344 1 -40.0244 62.2156 1 
-40.0244 61.0656 1 -40.0244 59.8656 1 -40.0244 58.8656 1 
-40.0244 57.7656 1 -40.0244 56.7156 1 -40.0244 55.6156 1 
-40.0244 54.5656 1 -40.0244 53.5656 1 -40.0244 52.3656 1 
-40.0244 51.2156 1 -40.0244 50.1656 1 -40.0244 49.1156 1 
-40.0244 48.0656 1 -40.0244 47.0156 1 -40.0244 45.9156 1 
-40.0244 44.8156 1 -40.0244 43.6656 1 -40.0244 42.6156 1 
-40.0244 41.5656 1 -40.0244 40.5156 1 -40.0244 39.4156 1 
-40.0244 38.2156 1 -40.0244 37.0656 1 -40.0244 36.0156 1 
-40.0244 34.9656 1 -40.0244 33.9156 1 -40.0244 32.9156 1 
-40.0244 31.8156 1 -40.0244 30.7656 1 -40.0244 29.7156 1 
-40.0244 28.6656 1 -40.0244 27.5656 1 -40.0244 26.3656 1 
-40.0244 25.2156 1 -40.0244 24.1156 1 -40.0244 23.0656 1 
-40.0244 21.9156 1 -40.0244 20.7156 1 -40.0244 19.7156 1 
-40.0244 18.6656 1 -40.0244 17.5656 1 -40.0244 16.2156 1 
-40.0244 15.0656 1 -40.0244 14.0156 1 -40.0244 12.9656 1 
-40.0244 11.8656 1 -40.0244 10.8656 1 -40.0244 9.7156 1 
-40.0244 8.5656 1 -40.0244 7.5656 1 -40.0244 6.5156 1 
-40.0244 5.4656 1 -40.0244 4.3156 1 -40.0244 3.1656 1 
-40.0244 2.1156 1 -40.0244 1.1156 1 -40.0244 -0.084396 1 
-40.0244 -1.1344 1 -40.0244 -2.1344 1 -40.0244 -3.2844 1 
-40.0244 -4.4344 1 -40.0244 -5.5344 1 -40.0244 -6.5844 1 
-40.0244 -7.6344 1 -40.0244 -8.7344 1 -40.0244 -9.7844 1 
-40.0244 -10.7844 1 -40.0244 -11.8844 1 -40.0244 -13.0844 1 
-40.0244 -14.1344 1 -40.0244 -15.2344 1 -40.0244 -16.2844 1 
-40.0244 -17.4344 1 -40.0244 -18.4844 1 -40.0244 -19.5344 1 
-40.0244 -20.6344 1 -40.0244 -21.6844 1 -40.0244 -22.7344 1 
-40.0244 -23.8344 1 -40.0244 -24.8844 1 -40.0244 -25.9344 1 
-40.0244 -27.0344 1 -40.0244 -28.1344 1 -40.0244 -29.1844 1 
-40.0244 -30.3344 1 -40.0244 -31.3844 1 -40.0244 -32.4344 1 
-100.024 -34.5844 1 -100.024 63.3156 1 -100.024 62.2156 1 
-100.024 -33.4344 1 -100.024 -32.3844 1 -100.024 -31.2344 1 
-100.024 -30.1344 1 -100.024 -29.0344 1 -100.024 -27.9844 1 
-100.024 -26.9344 1 -100.024 -25.7844 1 -100.024 -24.6344 1 
-100.024 -23.5844 1 -100.024 -22.4844 1 -100.024 -21.3844 1 
-100.024 -20.2344 1 -100.024 -19.1344 1 -100.024 -18.0844 1 
-100.024 -16.9344 1 -100.024 -15.8844 1 -100.024 -14.7844 1 
-100.024 -13.6344 1 -100.024 -12.4844 1 -100.024 -11.4344 1 
-100.024 -10.3344 1 -100.024 -9.2344 1 -100.024 -8.1844 1 
-100.024 -7.1844 1 -100.024 -6.1344 1 -100.024 -5.0344 1 
-100.024 -3.9844 1 -100.024 -2.9344 1 -100.024 -1.8844 1 
-100.024 -0.684396 1 -100.024 0.365604 1 -100.024 1.4656 1 
-100.024 2.4656 1 -100.024 3.6156 1 -100.024 4.7156 1 
-100.024 5.7156 1 -100.024 6.8156 1 -100.024 7.9656 1 
-100.024 9.0656 1 -100.024 10.1156 1 -100.024 11.2156 1 
-100.024 12.2656 1 -100.024 13.3156 1 -100.024 14.4156 1 
-100.024 15.5656 1 -100.024 16.5656 1 -100.024 17.6656 1 
-100.024 18.7656 1 -100.024 19.8156 1 -100.024 21.0156 1 
-100.024 22.0656 1 -100.024 23.1656 1 -100.024 24.3656 1 
-100.024 25.4656 1 -100.024 26.5156 1 -100.024 27.5656 1 
-100.024 28.6156 1 -100.024 29.7156 1 -100.024 30.8156 1 
-100.024 31.8156 1 -100.024 32.8656 1 -100.024 33.9156 1 
-100.024 34.9656 1 -100.024 36.0156 1 -100.024 37.1656 1 
-100.024 38.2656 1 -100.024 39.3156 1 -100.024 40.3156 1 
-100.024 41.4656 1 -100.024 42.5656 1 -100.024 43.5656 1 
-100.024 44.6656 1 -100.024 45.8156 1 -100.024 46.9156 1 
-100.024 47.9656 1 -100.024 49.0156 1 -100.024 50.0656 1 
-100.024 51.1656 1 -100.024 52.2656 1 -100.024 53.3656 1 
-100.024 54.5156 1 -100.024 55.5656 1 -100.024 56.6156 1 
-100.024 57.7656 1 -100.024 58.9156 1 -100.024 60.0156 1 
-100.024 61.2156 1 -98.9444 64.3656 1 -41.0144 64.3656 1 
-42.0344 64.3656 1 -97.7444 64.3656 1 -96.6644 64.3656 1 
-95.6144 64.3656 1 -94.5644 64.3656 1 -93.4844 64.3656 1 
-92.4644 64.3656 1 -91.3544 64.3656 1 -90.3044 64.3656 1 
-89.2844 64.3656 1 -88.2644 64.3656 1 -87.2444 64.3656 1 
-86.1344 64.3656 1 -85.0544 64.3656 1 -84.0044 64.3656 1 
-82.9244 64.3656 1 -81.8744 64.3656 1 -80.8244 64.3656 1 
-79.5944 64.3656 1 -77.5544 64.3656 1 -76.4144 64.3656 1 
-75.2444 64.3656 1 -74.1944 64.3656 1 -73.2044 64.3656 1 
-72.1844 64.3656 1 -71.0744 64.3656 1 -69.9044 64.3656 1 
-68.8244 64.3656 1 -67.7744 64.3656 1 -66.7244 64.3656 1 
-65.6744 64.3656 1 -64.5344 64.3656 1 -63.4844 64.3656 1 
-62.4944 64.3656 1 -61.4144 64.3656 1 -60.3044 64.3656 1 
-59.2544 64.3656 1 -58.1444 64.3656 1 -56.9444 64.3656 1 
-55.8944 64.3656 1 -54.8744 64.3656 1 -53.7944 64.3656 1 
-52.6844 64.3656 1 -51.6644 64.3656 1 -50.6144 64.3656 1 
-49.5344 64.3656 1 -48.4544 64.3656 1 -47.4344 64.3656 1 
-46.4144 64.3656 1 -45.3344 64.3656 1 -44.2844 64.3656 1 
-43.1444 64.3656 1 -78.5744 64.3656 1 -69.9512 28.3316 2 
-69.9512 27.2366 2 -69.9512 26.1716 2 -69.9512 24.9716 2 
-69.9512 23.8316 2 -69.9512 22.7066 2 -69.9512 21.6716 2 
-69.9512 20.6516 2 -69.9512 19.4966 2 -69.9512 18.3716 2 
-69.9512 17.2916 2 -69.9512 16.2566 2 -69.9512 15.1766 2 
-69.9512 14.1116 2 -69.9512 13.0016 2 -69.9512 11.8766 2 
-69.9512 10.8566 2 -69.9512 8.80164 2 -69.9512 7.63164 2 
-69.9512 6.58164 2 -69.9512 5.57664 2 -69.9512 4.55664 2 
-69.9512 3.50664 2 -69.9512 2.44164 2 -69.9512 1.45164 2 
-69.9512 0.416639 2 -69.9512 9.83664 2 -69.9512 28.4066 0 
-69.9512 27.3866 0 -69.9512 25.1066 0 -69.9512 26.2766 0 
-69.9512 22.9916 0 -69.9512 24.0866 0 -69.9512 20.9516 0 
-69.9512 21.9566 0 -69.9512 18.7766 0 -69.9512 19.9166 0 
-69.9512 16.7516 0 -69.9512 17.7416 0 -69.9512 14.6516 0 
-69.9512 15.7316 0 -69.9512 12.4466 0 -69.9512 13.6166 0 
-69.9512 10.2716 0 -69.9512 11.3366 0 -69.9512 8.03664 0 
-69.9512 9.16164 0 -69.9512 5.92164 0 -69.9512 6.94164 0 
-69.9512 3.79164 0 -69.9512 4.85664 0 -69.9512 1.57164 0 
-69.9512 2.59164 0 -69.9512 0.461639 0 -70.9512 0.446639 1 
-69.9512 14.4866 1 -69.9512 13.4516 1 -69.9512 4.76664 1 
-69.9512 7.73664 1 -69.9512 9.10164 1 -69.9512 20.8016 1 
-69.9512 19.7666 1 -69.9512 10.2116 1 -69.9512 18.6416 1 
-69.9512 23.9816 1 -69.9512 15.5516 1 -69.9512 21.8216 1 
-69.9512 27.3116 1 -69.9512 26.2016 1 -69.9512 17.6066 1 
-69.9512 0.416639 1 -69.9512 28.4066 1 -69.9512 11.2316 1 
-69.9512 6.83664 1 -69.9512 5.66664 1 -69.9512 16.5716 1 
-69.9512 12.3416 1 -69.9512 25.0016 1 -69.9512 22.8416 1 
-69.9512 2.51664 1 -69.9512 3.58164 1 -69.9512 1.52664 1 
-46.4007 -15.9775 1 -47.7249 -16.6249 1 -46.4338 -17.1004 1 
-73.7259 63.3683 1 -74.7645 63.3306 1 -73.2434 62.349 1 
-74.282 62.3113 1 -47.6151 33.7848 1 -48.7231 34.3055 1 
-48.8216 33.2076 1 -81.9288 60.1032 1 -82.5087 61.2402 1 
-80.8049 60.1094 1 -81.3849 61.2464 1 -81.9232 62.2827 1 
-86.248 5.42188 1 -86.2318 4.27862 1 -84.6512 4.7317 1 
-85.8474 6.46285 1 -84.2507 5.77267 1 -67.8225 23.4286 1 
-67.8992 22.3033 1 -79.6747 57.8224 1 -79.106 58.9666 1 
-78.559 57.8082 1 -61.3225 62.3582 1 -60.8105 63.4037 1 
-60.2702 62.3484 1 -50.6406 42.539 1 -49.1737 43.0609 1 
-49.1817 41.8823 1 -69.5564 48.3937 1 -69.2513 49.8139 1 
-70.4373 49.8032 1 -58.6372 63.4125 1 -59.7605 63.4037 1 
-84.6225 36.1338 1 -86.1143 36.9614 1 -85.1356 35.1499 1 
-86.6273 35.9774 1 -64.5765 38.5789 1 -66.2475 38.7719 1 
-65.5627 37.2099 1 -67.2336 37.4029 1 -60.1456 60.2126 1 
-59.114 60.1918 1 -59.6624 61.3279 1 -86.7187 34.8251 1 
-60.7276 59.0883 1 -59.696 59.0675 1 -94.8843 -29.2378 1 
-93.9656 -29.7151 1 -96.01 -29.4886 1 -95.0914 -29.966 1 
-93.1115 22.101 1 -94.4093 21.5846 1 -94.4545 22.659 1 
-52.4341 -27.4439 1 -53.2078 -28.2522 1 -52.0196 -28.6157 1 
-52.7933 -29.424 1 -56.4487 63.3997 1 -55.9064 62.3636 1 
-55.3987 63.3997 1 -43.0539 48.2416 1 -41.9431 48.8809 1 
-44.0854 48.6669 1 -42.9747 49.3062 1 -98.9641 -28.6561 1 
-48.4754 -0.743384 1 -47.2526 -0.157809 1 -47.4857 -1.35618 1 
-46.2628 -0.770608 1 -95.5904 47.9854 1 -96.8205 47.3736 1 
-95.6021 46.8703 1 -97.9109 -3.94799 1 -96.7871 -3.35468 1 
-96.8003 -4.47974 1 -41.8992 -24.0466 1 -40.9755 -23.3893 1 
-40.9481 -24.4918 1 -84.7426 -18.6917 1 -86.3916 -18.7497 1 
-84.8844 -17.1448 1 -86.5333 -17.2027 1 -46.1834 50.939 1 
-45.1095 50.3608 1 -46.2601 49.7374 1 -55.4279 48.6522 1 
-55.4747 47.3474 1 -57.0829 48.1001 1 -55.5282 50.1498 1 
-57.1832 49.5977 1 -54.1599 49.9258 1 -53.7396 48.4267 1 
-84.2868 57.8895 1 -83.1502 57.8645 1 -83.7834 56.6534 1 
-82.6468 56.6284 1 -73.9299 14.0131 1 -73.9261 15.0541 1 
-75.0725 14.4844 1 -53.7864 47.1219 1 -86.0165 -14.631 1 
-86.2241 -16.0348 1 -84.035 -14.2 1 -84.2427 -15.6037 1 
-42.4164 62.4061 1 -41.495 62.4953 1 -42.6459 63.496 1 
-41.7245 63.5853 1 -56.5003 -17.5393 1 -55.191 -16.4209 1 
-58.4822 -16.9169 1 -57.1729 -15.7985 1 -79.878 45.5992 1 
-81.4923 45.3759 1 -78.7314 47.3471 1 -80.3457 47.1237 1 
-74.281 57.9097 1 -73.2094 57.9134 1 -74.7904 56.6715 1 
-73.7189 56.6752 1 -49.7331 -0.164083 1 -50.1837 -1.12097 1 
-48.9259 -1.70027 1 -99.0037 20.4523 1 -98.8516 21.5872 1 
-97.8308 21.0239 1 -94.3361 20.539 1 -93.0383 21.0554 1 
-51.7091 -6.10604 1 -51.7312 -4.97907 1 -51.2828 -7.26256 1 
-51.3049 -6.1356 1 -48.4633 62.4538 1 -48.9858 63.4088 1 
-49.5387 62.4022 1 -95.5008 13.326 1 -95.4994 14.4199 1 
-94.4028 13.9242 1 -48.4607 0.388908 1 -95.6086 25.2309 1 
-94.5467 24.7144 1 -94.5574 25.7383 1 -95.5563 1.4674 1 
-94.4061 0.956036 1 -94.441 2.0423 1 -98.8523 19.2847 1 
-97.8316 19.9213 1 -97.8505 18.8243 1 -46.514 40.7878 1 
-45.3586 41.4421 1 -45.3526 40.3836 1 -51.5504 60.2579 1 
-52.0729 61.2684 1 -52.5797 60.1756 1 -52.1848 22.4253 1 
-50.6883 21.8576 1 -50.591 22.8012 1 -49.0945 22.2334 1 
-81.6307 26.4529 1 -80.2009 25.9346 1 -80.2917 27.2771 1 
-98.9983 44.1115 1 -98.8988 43.0682 1 -97.8727 43.6141 1 
-75.3413 62.31 1 -75.854 61.2555 1 -74.8024 61.271 1 
-91.9626 42.8262 1 -93.2137 43.4785 1 -93.1782 42.3994 1 
-90.566 41.2125 1 -89.1722 41.6461 1 -90.4252 40.1444 1 
-89.0313 40.578 1 -96.7751 43.0286 1 -97.8516 42.5244 1 
-96.7597 41.9218 1 -97.8362 41.4176 1 -48.9333 28.7317 1 
-48.9155 29.8504 1 -47.7245 29.3138 1 -80.9738 52.5057 1 
-81.5863 50.991 1 -82.2567 52.4454 1 -66.7706 22.9953 1 
-66.7996 21.854 1 -65.6461 22.4979 1 -60.5318 -20.5083 1 
-59.5163 -19.0046 1 -58.6495 -20.852 1 -57.6341 -19.3483 1 
-76.8541 -4.47742 1 -77.0726 -6.06549 1 -78.2584 -3.87284 1 
-78.4769 -5.46091 1 -76.3057 4.04826 1 -76.364 2.90749 1 
-75.2122 3.53402 1 -96.7466 -2.30448 1 -95.5496 -1.77111 1 
-96.7495 -1.17649 1 -95.5525 -0.643119 1 -51.2872 0.295611 1 
-50.0148 0.848603 1 -45.9809 53.3282 1 -45.8228 54.5021 1 
-44.8515 53.901 1 -42.073 19.3833 1 -41.0611 20.0753 1 
-42.077 20.5121 1 -43.5686 56.4966 1 -44.455 57.1521 1 
-43.4298 57.5747 1 -91.2985 59.6598 1 -90.6747 60.5995 1 
-90.2726 59.5167 1 -89.6488 60.4565 1 -86.1339 -25.5734 1 
-86.3551 -26.8054 1 -87.3534 -25.627 1 -87.5745 -26.859 1 
-46.5658 21.1222 1 -47.9084 20.6114 1 -46.5369 20.0599 1 
-76.0179 -28.9642 1 -75.505 -27.663 1 -74.9239 -28.9659 1 
-43.6783 55.4663 1 -44.5587 56.1328 1 -41.8907 52.2477 1 
-40.9642 52.8859 1 -41.8541 53.2923 1 -81.505 1.45653 1 
-80.1613 0.889174 1 -81.4435 0.184342 1 -97.8504 -8.24505 1 
-96.7637 -8.74763 1 -97.8407 -9.30779 1 -94.9879 -31.6352 1 
-95.3095 -32.7435 1 -94.2041 -32.7011 1 -94.5257 -33.8094 1 
-94.3632 16.1003 1 -94.3861 15.0248 1 -93.0618 15.5388 1 
-95.5353 -11.5262 1 -96.7682 -10.9714 1 -95.5712 -10.4537 1 
-41.9689 28.2434 1 -40.9973 28.9877 1 -41.9775 29.3068 1 
-81.7142 -26.6072 1 -81.0467 -27.7983 1 -80.5347 -26.5215 1 
-77.1073 -31.3649 1 -78.1468 -31.3353 1 -77.6575 -30.1459 1 
-51.2277 -27.6309 1 -50.9076 -28.7749 1 -50.1157 -27.7902 1 
-43.0411 34.0583 1 -42.0192 33.668 1 -44.1322 33.3943 1 
-43.1103 33.004 1 -45.1072 7.39102 1 -44.0079 6.99026 1 
-44.0212 8.06876 1 -44.027 10.2909 1 -45.1347 9.65028 1 
-44.0259 9.21195 1 -76.1634 -1.96525 1 -77.4239 -1.6137 1 
-77.0031 -3.127 1 -51.7375 -29.6564 1 -62.1835 -23.7151 1 
-63.6564 -23.4761 1 -63.221 -24.9668 1 -96.7745 -12.0498 1 
-47.4151 7.28656 1 -46.2462 6.77159 1 -48.6987 6.58227 1 
-47.5298 6.0673 1 -46.2687 -1.82385 1 -46.3982 -2.8425 1 
-47.6151 -2.37483 1 -98.8559 10.6765 1 -64.4565 -25.0887 1 
-65.5471 -25.0325 1 -64.8918 -23.598 1 -91.913 -18.7588 1 
-93.087 -19.3722 1 -91.8611 -19.9248 1 -98.8854 28.0433 1 
-61.2681 55.2897 1 -60.6934 54.1301 1 -60.0832 55.3018 1 
-89.6042 -24.9179 1 -89.8575 -26.1996 1 -88.5913 -26.0332 1 
-41.0079 -15.9154 1 -77.1149 47.2203 1 -75.798 48.3673 1 
-77.4145 48.4941 1 -98.9848 -1.24672 1 -49.1445 20.0195 1 
-50.5322 19.4003 1 -50.6589 20.5534 1 -41.0182 -18.1335 1 
-41.9925 -17.6609 1 -40.9987 -16.9618 1 -50.2743 29.3333 1 
-97.8669 15.478 1 -98.866 14.9648 1 -97.8607 14.4081 1 
-46.4695 39.6848 1 -47.6585 39.1505 1 -46.405 38.6525 1 
-41.9919 -19.8205 1 -41.0155 -19.1431 1 -42.0093 -18.7921 1 
-53.0227 -31.5934 1 -52.376 -30.5825 1 -51.8839 -31.6733 1 
-52.5825 -34.6862 1 -52.0256 -33.7255 1 -51.5325 -34.6862 1 
-96.7574 14.9542 1 -91.7437 -29.3867 1 -90.621 -29.4013 1 
-91.3148 -28.1811 1 -75.9818 -33.5919 1 -75.4153 -32.4922 1 
-74.8608 -33.5833 1 -48.8824 31.0402 1 -47.671 30.506 1 
-41.9965 -4.72626 1 -41.0115 -4.00388 1 -41.0094 -5.15677 1 
-93.36 56.0201 1 -93.3154 54.8963 1 -92.1103 55.6059 1 
-87.3609 1.44396 1 -87.4683 0.385334 1 -85.9211 1.04061 1 
-86.0286 -0.0180214 1 -52.6891 2.03281 1 -53.1402 3.77038 1 
-51.3251 2.57348 1 -51.7762 4.31105 1 -95.638 50.186 1 
-96.7957 49.5804 1 -95.6051 49.0943 1 -94.3642 -3.34189 1 
-94.3827 -4.44425 1 -95.5823 -3.947 1 -95.6009 -5.04936 1 
-73.8485 -29.0114 1 -74.3843 -30.2067 1 -88.195 -24.6425 1 
-94.4626 53.074 1 -95.6062 53.563 1 -95.6312 52.4957 1 
-95.5348 42.4765 1 -94.442 42.9419 1 -94.4065 41.8628 1 
-89.2808 -22.4483 1 -88.0919 -23.4654 1 -89.1485 -21.2577 1 
-87.9596 -22.2748 1 -46.3054 12.3525 1 -47.5423 12.8317 1 
-46.3216 13.4336 1 -50.6336 -29.8043 1 -49.6551 -29.9487 1 
-49.8038 -28.9228 1 -71.903 17.152 1 -72.9296 17.6712 1 
-72.9517 16.6212 1 -53.6265 -34.6462 1 -54.1671 -33.6657 1 
-54.725 -34.654 1 -47.4817 -21.0217 1 -48.6111 -21.6585 1 
-47.3978 -22.0729 1 -48.3353 -24.9117 1 -49.481 -25.7015 1 
-48.1055 -26.1331 1 -51.1224 6.62424 1 -49.7902 7.09695 1 
-51.0413 7.73331 1 -71.5221 48.4965 1 -72.8908 48.7167 1 
-72.403 49.906 1 -66.8655 9.81885 1 -67.9102 9.32151 1 
-66.8534 8.73486 1 -76.1416 -23.4472 1 -77.3518 -23.4706 1 
-76.7398 -22.2024 1 -66.77 27.5983 1 -65.6942 27.1887 1 
-66.7607 26.4873 1 -81.3513 -16.3591 1 -81.2565 -18.0496 1 
-79.7136 -17.2295 1 -50.3964 -16.7975 1 -51.7429 -17.3704 1 
-51.8625 -16.2139 1 -71.5524 30.2817 1 -70.4254 30.423 1 
-84.7032 26.1082 1 -84.7823 27.4693 1 -86.2958 26.5498 1 
-57.5207 -25.2345 1 -57.0461 -26.4077 1 -56.3413 -25.1826 1 
-42.0378 23.8061 1 -42.0518 22.7047 1 -41.0276 23.3994 1 
-56.4051 -33.618 1 -55.7766 -32.5201 1 -55.2547 -33.6281 1 
-41.7466 -32.798 1 -42.5773 -33.4072 1 -41.9329 -34.2297 1 
-69.9177 31.4616 1 -69.4254 30.423 1 -77.1253 31.0401 1 
-77.2813 29.5988 1 -75.9846 30.0885 1 -94.462 50.7528 1 
-93.2354 51.4027 1 -93.165 50.2487 1 -93.1284 0.412432 1 
-93.1062 1.47291 1 -95.5934 44.6489 1 -95.5998 45.7848 1 
-94.4852 45.1353 1 -94.4916 46.2712 1 -72.9427 18.8215 1 
-71.9778 18.1859 1 -99.0088 11.7207 1 -97.8403 11.1816 1 
-72.0134 11.7011 1 -48.6068 -20.5307 1 -49.6923 -21.1784 1 
-96.7854 37.6094 1 -96.7997 36.5082 1 -97.8512 37.0807 1 
-59.0715 -34.6394 1 -57.967 -34.5771 1 -58.5641 -33.5821 1 
-93.2071 46.8479 1 -93.2235 45.7341 1 -94.4752 47.385 1 
-56.0802 -0.792636 1 -57.8461 -1.54991 1 -57.5415 -0.221449 1 
-59.3073 -0.978723 1 -94.8648 62.526 1 -95.4678 61.4422 1 
-95.9825 62.474 1 -72.0491 7.45551 1 -66.6753 -27.8178 1 
-66.0845 -26.4669 1 -65.6175 -27.7936 1 -60.4029 23.7327 1 
-61.8859 23.1658 1 -59.2169 22.6813 1 -60.6999 22.1144 1 
-86.4874 -8.62049 1 -86.4286 -9.78457 1 -84.854 -9.0047 1 
-48.7811 24.2969 1 -47.4889 24.9521 1 -47.5241 23.8018 1 
-97.8941 26.4154 1 -97.8948 25.3109 1 -96.8286 25.7982 1 
-41.0219 0.345909 1 -73.993 21.5133 1 -75.1037 21.0162 1 
-73.9794 20.444 1 -96.8029 19.405 1 -95.5286 18.8082 1 
-96.8083 18.2808 1 -99.0146 35.4557 1 -97.8681 34.9646 1 
-98.8779 34.4745 1 -91.9287 -6.62674 1 -90.4955 -6.10429 1 
-90.4656 -7.17861 1 -48.8091 47.5688 1 -50.0122 48.2999 1 
-48.7007 48.692 1 -76.5198 -34.6219 1 -77.0425 -33.5754 1 
-89.1221 -18.8226 1 -89.1594 -20.0407 1 -90.4711 -19.4938 1 
-89.4001 -17.7438 1 -88.1215 -17.1718 1 -89.3654 -16.449 1 
-51.3223 1.4472 1 -52.6487 0.879208 1 -90.4602 -20.7108 1 
-56.9146 16.4147 1 -56.6668 17.6892 1 -58.2581 17.0529 1 
-86.0171 59.0923 1 -86.6224 58.0078 1 -87.0823 59.1874 1 
-88.9168 58.1818 1 -89.9566 58.3712 1 -89.8854 57.2818 1 
-93.222 31.6332 1 -92.0236 32.0416 1 -93.1969 32.628 1 
-57.1447 38.8886 1 -58.0968 40.7829 1 -59.4539 39.1752 1 
-71.7683 -21.8016 1 -72.5282 -23.5049 1 -70.2856 -20.4539 1 
-71.0454 -22.1572 1 -70.6571 46.4389 1 -49.0745 39.5967 1 
-47.703 40.2536 1 -67.094 56.5549 1 -66.0233 56.6215 1 
-66.5954 57.8487 1 -52.6536 49.9338 1 -76.4104 62.3019 1 
-76.9231 61.2474 1 -54.2766 61.2865 1 -53.762 62.3632 1 
-53.174 61.2902 1 -76.4121 60.1505 1 -73.7601 59.059 1 
-74.7917 59.0378 1 -75.3125 57.8886 1 -74.2669 60.1571 1 
-51.0773 -20.7088 1 -49.8399 -20.0382 1 -97.8757 -18.0357 1 
-98.9827 -18.6101 1 -97.859 -19.2018 1 -58.0297 60.2164 1 
-58.5718 61.3228 1 -56.9332 60.1783 1 -57.4753 61.2847 1 
-50.0555 33.8502 1 -51.2713 34.5378 1 -49.9388 34.9931 1 
-43.1148 23.1327 1 -51.0632 61.3242 1 -50.5879 62.3697 1 
-51.5858 62.3347 1 -81.4412 21.4015 1 -82.9401 22.0766 1 
-81.4185 22.5999 1 -48.7673 59.3167 1 -48.3853 60.4306 1 
-49.4048 60.3476 1 -51.8748 26.3929 1 -53.0266 27.0543 1 
-51.7485 27.5333 1 -91.8602 -14.2784 1 -91.9384 -15.3165 1 
-90.362 -13.8016 1 -90.4401 -14.8397 1 -54.6696 26.5763 1 
-52.8364 25.5724 1 -52.7698 34.301 1 -52.3387 35.5568 1 
-54.522 34.0981 1 -54.0909 35.354 1 -50.0873 63.359 1 
-50.0047 61.3348 1 -50.48 60.2893 1 -91.9089 -17.5468 1 
-93.0829 -18.1603 1 -91.9297 34.1549 1 -91.875 35.2843 1 
-90.5655 33.5869 1 -90.5108 34.7163 1 -75.1331 6.85579 1 
-75.1821 5.7777 1 -74.0184 7.42202 1 -74.0673 6.34393 1 
-97.8451 -16.942 1 -96.7886 -16.4129 1 -96.7871 -17.4587 1 
-95.5402 -15.904 1 -95.5386 -16.9498 1 -91.8256 4.2583 1 
-90.367 3.67739 1 -91.8458 3.19763 1 -95.5201 3.60879 1 
-96.7728 3.0782 1 -96.7577 4.14446 1 -44.9937 -25.0428 1 
-43.9024 -24.3328 1 -43.8645 -25.4286 1 -44.2041 22.4345 1 
-44.2313 21.3253 1 -43.1412 22.0065 1 -97.8343 3.58726 1 
-97.828 4.68779 1 -99.0192 31.2549 1 -86.0838 47.0844 1 
-87.7095 47.9109 1 -86.1243 45.8341 1 -87.75 46.6607 1 
-89.0389 -14.3553 1 -89.0732 -15.4815 1 -90.4744 -15.9659 1 
-97.9128 30.7115 1 -96.8682 30.1865 1 -97.9266 29.7011 1 
-95.5634 31.6737 1 -95.5878 30.6896 1 -96.8438 31.1706 1 
-95.4765 15.4954 1 -94.4636 48.5001 1 -94.4291 49.6611 1 
-63.8263 37.055 1 -93.215 53.6653 1 -92.0056 53.1783 1 
-93.2197 52.573 1 -84.7966 13.5308 1 -86.3691 13.0724 1 
-83.5683 13.0616 1 -85.1408 12.6033 1 -65.8663 0.209431 1 
-65.8098 1.38404 1 -64.6495 0.579705 1 -93.153 49.1639 1 
-53.5931 24.5739 1 -55.4262 25.5778 1 -82.1368 9.1307 1 
-82.4075 10.1779 1 -83.2663 9.00796 1 -41.007 45.2707 1 
-41.0058 44.0971 1 -41.9884 44.5522 1 -77.4921 28.3153 1 
-78.8801 27.7021 1 -77.5481 27.0382 1 -94.4339 -19.8158 1 
-95.5747 -20.3968 1 -94.3968 -20.9906 1 -43.0223 44.9713 1 
-41.9991 45.6719 1 -89.2247 10.7818 1 -90.4301 11.2348 1 
-89.2501 11.8858 1 -96.7797 -22.0697 1 -97.8812 -22.591 1 
-96.7671 -23.1275 1 -97.8686 -23.6488 1 -42.9019 -24.7266 1 
-41.8592 -25.1499 1 -44.075 47.6101 1 -44.0937 46.5512 1 
-45.1685 48.0695 1 -45.1872 47.0106 1 -45.1437 -8.78167 1 
-44.0307 -9.26278 1 -46.2477 -9.38939 1 -45.1347 -9.87049 1 
-96.775 38.7093 1 -97.8408 38.1806 1 -72.7359 63.3683 1 
-72.9545 27.6177 1 -74.0924 27.2014 1 -73.0134 26.4779 1 
-90.4312 15.5549 1 -90.3999 14.4971 1 -91.852 15.0697 1 
-43.0078 47.1541 1 -41.9888 46.7098 1 -43.0748 46.1068 1 
-46.5481 22.1983 1 -45.3826 22.8419 1 -46.4755 23.2851 1 
-89.1796 14.059 1 -89.2582 12.9418 1 -90.4352 13.3827 1 
-47.6262 56.1581 1 -48.7541 55.9289 1 -48.4193 57.2111 1 
-49.5473 56.9819 1 -93.1624 -7.19531 1 -93.1276 -6.14389 1 
-87.6253 14.5164 1 -86.3806 14.1132 1 -87.6139 13.4756 1 
-52.4638 57.9555 1 -51.3575 57.9848 1 -53.0525 59.0436 1 
-51.9461 59.0729 1 -97.9152 27.4814 1 -97.894 28.5722 1 
-55.5448 24.0585 1 -83.0557 4.65439 1 -84.3938 3.71866 1 
-89.0074 39.4917 1 -88.9608 38.4093 1 -90.4374 39.0787 1 
-90.3908 37.9963 1 -89.1498 37.2985 1 -43.1108 18.7526 1 
-42.0541 18.2978 1 -44.1812 17.9986 1 -43.1244 17.5439 1 
-47.5222 48.0927 1 -47.4959 46.8723 1 -46.3277 47.5249 1 
-45.3696 21.7909 1 -43.0285 -3.12966 1 -41.9798 -3.55268 1 
-41.9905 -2.44896 1 -98.918 30.2722 1 -46.0699 -24.6192 1 
-47.3227 -24.2277 1 -46.1114 -23.5105 1 -51.707 43.7544 1 
-50.2401 44.2763 1 -51.5551 44.9864 1 -41.9854 31.5757 1 
-43.0392 31.984 1 -42.0062 32.6265 1 -61.7297 -25.1249 1 
-62.7672 -26.3766 1 -56.0224 46.1437 1 -96.74 8.52041 1 
-97.7989 7.9714 1 -97.8124 9.0392 1 -63.1242 24.9927 1 
-64.3996 25.5149 1 -63.222 26.2408 1 -59.6213 -33.5707 1 
-59.1086 -32.4705 1 -74.3513 -32.4809 1 -73.8303 -33.5867 1 
-73.8213 -31.3999 1 -73.3003 -32.5057 1 -66.8376 19.6636 1 
-67.917 20.1593 1 -66.8174 20.7299 1 -49.5522 36.9559 1 
-51.1426 36.8836 1 -49.7175 35.9646 1 -51.6847 24.911 1 
-99.0027 52.8399 1 -98.8814 51.7951 1 -97.8597 52.3694 1 
-89.0968 47.2936 1 -89.1257 48.3971 1 -84.775 59.0636 1 
-85.3804 57.9791 1 -98.8789 38.7724 1 -46.2845 11.2069 1 
-47.4474 11.7401 1 -41.9814 42.3645 1 -40.9985 43.037 1 
-41.0074 41.9431 1 -48.6314 -30.0782 1 -49.1538 -30.9651 1 
-86.3271 60.2691 1 -87.4704 60.3025 1 -44.1327 44.301 1 
-45.2287 44.8031 1 -45.2459 43.6619 1 -75.1121 27.9612 1 
-73.9742 28.3775 1 -58.3604 -26.5207 1 -57.7855 -27.771 1 
-59.5566 -26.4385 1 -58.9817 -27.6887 1 -46.3503 -6.15249 1 
-47.6299 -5.62809 1 -46.3893 -5.06065 1 -52.4964 42.0049 1 
-53.9984 20.7618 1 -52.181 21.3061 1 -52.2719 19.8833 1 
-51.8122 -2.47296 1 -52.9526 -1.87504 1 -51.7481 -1.36816 1 
-63.9749 -28.9534 1 -63.3513 -27.6829 1 -64.491 -27.6996 1 
-63.8674 -26.4291 1 -55.7619 21.3949 1 -55.7808 20.1839 1 
-55.9722 18.7909 1 -55.3039 17.6224 1 -65.5818 57.8805 1 
-64.4774 57.8586 1 -64.9189 56.5996 1 -62.8502 56.6289 1 
-61.8073 56.6623 1 -62.3421 57.8828 1 -82.8129 -22.8543 1 
-81.5412 -22.8188 1 -81.9317 -24.128 1 -51.2145 -8.36468 1 
-52.6634 -8.28948 1 -51.4978 -9.41653 1 -53.1422 -9.0805 1 
-54.7543 -9.32888 1 -54.3078 -7.95345 1 -61.0343 11.3578 1 
-62.2513 11.9449 1 -62.2502 10.8575 1 -41.8015 -29.5594 1 
-41.8007 -30.6311 1 -40.927 -29.9283 1 -75.8212 63.345 1 
-93.4359 -30.6247 1 -93.671 -31.7325 1 -94.2008 -30.8229 1 
-52.7317 -7.18736 1 -64.5844 8.68315 1 -65.7354 9.27238 1 
-65.7024 8.14563 1 -52.7419 -10.4438 1 -54.3541 -10.6922 1 
-43.7076 -27.65 1 -43.7842 -26.5646 1 -44.811 -27.3404 1 
-76.1375 10.6988 1 -75.1129 10.1328 1 -75.1242 11.2271 1 
-58.835 -25.3476 1 -58.2405 -23.9179 1 -59.9328 -24.9497 1 
-59.3382 -23.52 1 -67.4718 52.6197 1 -66.3883 52.3002 1 
-66.9077 53.8132 1 -56.6329 -11.863 1 -56.4013 -10.4572 1 
-58.2602 -10.9818 1 -75.1628 4.64983 1 -74.1313 4.15511 1 
-98.0465 58.9216 1 -99.0427 58.4196 1 -98.0193 57.8701 1 
-41.0306 35.4119 1 -42.0091 34.7204 1 -41.0029 34.2741 1 
-60.9711 -23.6973 1 -45.3409 19.5895 1 -46.4838 18.9307 1 
-64.6245 10.9337 1 -64.6196 12.0031 1 -65.7165 11.4886 1 
-91.8947 48.5578 1 -90.4989 48.0314 1 -91.8982 47.3672 1 
-90.5024 46.8409 1 -86.1923 -7.54143 1 -87.6565 -8.06437 1 
-77.399 9.05057 1 -77.3787 7.93415 1 -76.1844 8.48957 1 
-74.2419 55.4555 1 -71.8915 15.0898 1 -99.001 57.2162 1 
-75.3604 60.166 1 -75.8852 59.0468 1 -63.2717 4.64985 1 
-63.246 3.43908 1 -64.5785 4.23857 1 -64.5529 3.02781 1 
-67.9122 25.6768 1 -67.8867 24.5316 1 -66.7352 25.3421 1 
-90.3626 9.0877 1 -89.0633 8.63791 1 -90.3845 7.98563 1 
-89.0852 7.53585 1 -91.9316 -22.2759 1 -90.4859 -21.8905 1 
-91.9059 -21.0962 1 -78.4951 8.52645 1 -78.4748 7.41003 1 
-67.9196 7.09434 1 -66.8226 6.54279 1 -66.8627 7.6777 1 
-60.1058 -22.1527 1 -57.8819 -22.2192 1 -86.0829 56.8677 1 
-84.9893 56.7781 1 -61.7799 25.7093 1 -61.8778 26.9574 1 
-80.8374 57.8086 1 -81.985 57.8102 1 -80.2757 56.5105 1 
-81.4233 56.512 1 -46.1701 -22.4753 1 -45.0729 -22.8703 1 
-74.0045 8.56437 1 -72.9926 9.08525 1 -73.0065 7.94291 1 
-71.8881 12.9385 1 -72.9504 12.3129 1 -82.3941 63.3022 1 
-44.1691 39.937 1 -45.3081 39.2806 1 -44.1822 38.8417 1 
-80.0838 -25.1248 1 -81.3228 -25.302 1 -52.2229 -21.9293 1 
-51.3807 -23.0848 1 -53.7238 -21.5538 1 -52.8816 -22.7093 1 
-85.9814 -20.1277 1 -83.9562 -20.2275 1 -59.0825 20.1129 1 
-57.4309 19.4381 1 -59.2628 18.9766 1 -66.1853 -23.592 1 
-64.3634 -22.1561 1 -65.657 -22.1502 1 -64.4961 27.9279 1 
-64.4413 26.7418 1 -63.2637 27.4676 1 -61.397 -22.0529 1 
-56.2501 56.6153 1 -56.7202 55.3452 1 -57.3393 56.6069 1 
-62.9282 61.3142 1 -62.4276 62.3343 1 -61.8963 61.3336 1 
-61.8249 59.0868 1 -62.89 59.1083 1 -67.2335 63.3767 1 
-93.0499 -20.547 1 -87.4333 -19.6285 1 -87.8435 -18.2505 1 
-44.8537 -26.0931 1 -45.8804 -26.8689 1 -94.3748 -12.0499 1 
-94.3567 -10.9446 1 -87.4707 -20.8466 1 -84.6136 -12.7699 1 
-83.1232 -11.9701 1 -84.6622 -11.4766 1 -93.0969 4.73826 1 
-93.1209 3.61983 1 -94.3731 4.21358 1 -94.3972 3.09515 1 
-91.8717 5.37304 1 -91.841 6.41326 1 -93.0663 5.77848 1 
-44.096 -13.5952 1 -43.0136 -13.9875 1 -44.1158 -14.6634 1 
-40.9682 11.253 1 -82.396 11.2114 1 -80.9505 10.6631 1 
-66.1904 30.8585 1 -66.4842 32.1774 1 -67.3676 31.2503 1 
-89.5017 26.3245 1 -90.6636 27.2396 1 -89.3774 27.5173 1 
-89.3572 28.6355 1 -90.6004 29.402 1 -90.6434 28.3577 1 
-43.0616 27.5334 1 -41.9833 27.1228 1 -68.6426 31.3709 1 
-68.1503 30.3024 1 -58.9575 25.543 1 -58.8019 24.311 1 
-57.0888 24.9105 1 -96.8171 21.6126 1 -96.8178 20.51 1 
-53.0349 -5.59478 1 -95.6149 51.3448 1 -84.5945 -2.42704 1 
-84.5957 -3.59309 1 -83.1684 -2.99944 1 -47.4437 38.0901 1 
-47.3945 36.9859 1 -48.541 37.525 1 -86.2366 62.3709 1 
-85.6856 63.3731 1 -85.1501 62.3392 1 -87.9026 49.2008 1 
-89.3188 49.6871 1 -93.1411 2.55917 1 -57.4324 20.8587 1 
-72.9441 14.5379 1 -72.9402 15.579 1 -90.4925 23.1883 1 
-91.9814 23.7493 1 -91.9441 22.6908 1 -95.5691 -2.82194 1 
-76.4301 57.8618 1 -77.4753 57.8586 1 -76.9264 56.6618 1 
-49.8574 50.7922 1 -49.6025 52.1146 1 -48.5703 51.1547 1 
-96.7368 13.8996 1 -97.8401 13.3534 1 -46.245 48.5968 1 
-45.0181 1.0381 1 -46.1277 1.51879 1 -44.0128 1.61004 1 
-45.1224 2.09073 1 -49.3938 53.348 1 -48.1292 53.7156 1 
-48.3751 52.4132 1 -91.824 2.07537 1 -68.3427 33.5701 1 
-69.1112 32.4938 1 -69.7372 33.5479 1 -70.5057 32.4717 1 
-60.6209 -1.67358 1 -59.0398 -2.53573 1 -65.2316 -14.2637 1 
-64.3977 -12.2986 1 -66.411 -12.637 1 -68.9569 34.8195 1 
-70.4613 34.7865 1 -69.681 36.0581 1 -63.5058 -10.7975 1 
-62.3302 -12.2919 1 -64.7036 -9.44719 1 -65.5955 -10.9483 1 
-77.4049 34.7981 1 -76.9652 36.3622 1 -75.9312 35.2284 1 
-53.1711 28.1852 1 -45.1224 3.17217 1 -44.0101 2.72719 1 
-46.2347 2.53571 1 -56.0432 31.5079 1 -57.952 32.3432 1 
-56.0811 33.6376 1 -48.7862 14.3665 1 -50.0731 14.8339 1 
-48.756 13.2633 1 -50.0429 13.7307 1 -45.1665 -19.6587 1 
-45.2019 -18.5938 1 -44.0978 -19.015 1 -45.9779 63.5251 1 
-45.439 62.6265 1 -46.94 63.4557 1 -46.4011 62.557 1 
-63.1641 -14.257 1 -45.2641 -3.29611 1 -46.3953 -3.93621 1 
-50.0096 1.96926 1 -48.7788 3.35226 1 -50.0942 3.95648 1 
-66.5661 55.2422 1 -65.4954 55.3088 1 -75.1551 7.96363 1 
-87.4874 6.96501 1 -87.5102 8.04216 1 -80.8928 40.0246 1 
-78.9986 40.2501 1 -79.4495 38.6227 1 -67.0715 30.0131 1 
-50.2019 -5.61775 1 -84.5205 55.4789 1 -83.9936 54.2578 1 
-83.3146 55.3542 1 -74.9058 -31.3897 1 -79.65 62.2959 1 
-80.2116 61.2736 1 -79.0946 61.2518 1 -44.5895 -28.3304 1 
-94.5496 26.8262 1 -93.2492 26.2702 1 -55.8357 -26.5068 1 
-44.0992 -3.83262 1 -45.2304 -4.47272 1 -44.1 -4.94162 1 
-65.7669 28.3689 1 -66.8427 28.7785 1 -65.8943 29.6213 1 
-56.304 51.4024 1 -62.3317 -27.9606 1 -61.2631 -27.9692 1 
-62.9178 -29.0086 1 -61.8493 -29.0172 1 -74.7385 43.2385 1 
-73.9395 44.8342 1 -73.6297 41.561 1 -72.8307 43.1567 1 
-54.9357 51.1783 1 -52.4848 47.4529 1 -52.6716 46.2495 1 
-58.6966 49.3746 1 -59.0397 47.9313 1 -57.9674 45.8491 1 
-61.1152 52.3024 1 -61.7268 53.8212 1 -62.3215 52.2991 1 
-60.867 8.05837 1 -59.6254 8.58524 1 -62.1619 8.61237 1 
-60.9203 9.13924 1 -60.0818 52.6112 1 -60.0573 50.9252 1 
-73.0277 6.9013 1 -71.5581 41.667 1 -70.5888 40.2104 1 
-69.7155 41.7919 1 -40.9925 6.88335 1 -86.6854 63.3634 1 
-87.2874 62.3718 1 -76.3767 23.8958 1 -77.655 23.4172 1 
-76.2595 22.6872 1 -77.5377 22.2087 1 -78.5698 21.6701 1 
-78.8113 22.7367 1 -85.0846 11.5226 1 -83.5175 11.9814 1 
-79.8988 21.117 1 -80.1403 22.1836 1 -78.4954 -23.7084 1 
-78.9479 -25.0811 1 -77.7823 -25.0039 1 -78.2348 -26.3767 1 
-66.0458 59.0186 1 -67.1455 59.0362 1 -77.6114 24.5902 1 
-40.9912 2.50635 1 -40.9899 32.2326 1 -75.7661 -7.01124 1 
-75.592 -5.47183 1 -74.3481 -7.56588 1 -74.174 -6.02646 1 
-78.5624 20.508 1 -77.5304 21.0465 1 -71.62 63.3654 1 
-71.0152 62.3622 1 -70.4696 63.3624 1 -68.8444 60.2542 1 
-67.7452 60.2213 1 -68.3145 61.335 1 -87.8464 63.374 1 
-80.1958 35.4139 1 -79.7477 37.0452 1 -81.4609 36.7661 1 
-81.1628 38.3437 1 -60.6534 49.2059 1 -53.7196 39.9199 1 
-55.3182 38.3898 1 -53.0822 38.1542 1 -49.8113 -23.4824 1 
-49.8277 -22.3629 1 -80.4931 43.7017 1 -78.2892 43.7027 1 
-78.9176 42.1118 1 -95.5862 -9.32895 1 -94.4037 -8.76808 1 
-94.3926 -9.87223 1 -63.9797 45.2392 1 -65.1139 43.634 1 
-65.8933 45.4394 1 -85.7213 52.0417 1 -87.0824 52.3293 1 
-86.8595 51.0295 1 -73.2855 -30.2046 1 -72.7465 -31.4097 1 
-72.7182 -29.0232 1 -72.1792 -30.2283 1 -84.7888 52.9789 1 
-84.5268 51.6472 1 -86.7903 31.8312 1 -88.1793 31.3653 1 
-88.1968 32.3714 1 -46.1278 52.1658 1 -47.1665 52.9548 1 
-86.9331 55.7903 1 -88.3709 55.6731 1 -87.5203 54.7785 1 
-77.9674 61.2449 1 -78.5483 60.1216 1 -96.7801 51.8332 1 
-87.8428 61.3591 1 -86.792 61.3581 1 -55.2835 -21.5001 1 
-57.0268 -20.8641 1 -55.3259 -20.2746 1 -75.8089 56.6885 1 
-94.3692 7.46475 1 -95.4976 6.88917 1 -94.3656 6.38584 1 
-95.4941 5.81026 1 -90.4011 -12.6487 1 -91.8706 -13.1656 1 
-60.19 57.9101 1 -61.2448 57.8843 1 -83.0895 3.46785 1 
-84.4277 2.53213 1 -65.0322 59.0504 1 -76.7637 32.4005 1 
-75.623 31.449 1 -60.6756 19.3196 1 -60.6828 18.146 1 
-62.0106 19.9105 1 -62.0177 18.7369 1 -88.9931 -0.0241919 1 
-89.1042 -1.04646 1 -90.4008 0.436166 1 -90.5119 -0.586097 1 
-94.347 39.7252 1 -95.5126 39.2483 1 -94.3617 38.6345 1 
-95.5273 38.1576 1 -65.7351 13.6933 1 -64.6244 14.2202 1 
-66.8236 14.2231 1 -65.713 14.7501 1 -59.7349 13.0773 1 
-59.7014 14.3083 1 -58.5504 13.7081 1 -60.7126 -29.013 1 
-61.2757 -30.1622 1 -60.183 -30.2028 1 -60.7461 -31.352 1 
-89.5011 -23.7409 1 -67.6857 57.8598 1 -92.0125 52.0072 1 
-51.3659 12.0064 1 -52.5885 10.964 1 -52.9352 12.4216 1 
-46.2334 -10.4966 1 -45.1262 -10.9437 1 -44.0275 -10.3176 1 
-88.7613 63.3974 1 -89.4072 62.4637 1 -89.9304 63.4319 1 
-73.3676 -18.7238 1 -72.9246 -16.6646 1 -74.8252 -17.5851 1 
-67.886 1.76943 1 -66.8861 0.99251 1 -66.8433 2.14461 1 
-94.3804 -5.57682 1 -88.9478 61.4318 1 -88.3433 62.4058 1 
-87.4699 19.0253 1 -87.4373 20.2029 1 -89.0536 19.6286 1 
-89.0209 20.8061 1 -89.0828 1.05114 1 -54.7768 -17.8206 1 
-54.2097 -19.0401 1 -55.893 -19.0551 1 -43.9963 50.9877 1 
-44.0113 49.8176 1 -42.9476 50.4963 1 -53.7662 -20.3283 1 
-49.076 23.3113 1 -47.819 22.8161 1 -54.0712 -31.5043 1 
-53.44 -30.4349 1 -93.0706 16.6227 1 -91.809 17.2923 1 
-93.048 17.747 1 -59.4873 7.34016 1 -58.1543 7.98531 1 
-64.0202 63.3755 1 -65.0702 63.3755 1 -64.4936 62.3449 1 
-48.9337 27.5774 1 -50.2629 28.1609 1 -50.2633 27.0067 1 
-62.9956 63.3798 1 -63.469 62.3493 1 -94.1723 63.5202 1 
-48.8095 15.4284 1 -48.8666 16.5549 1 -49.9647 15.8927 1 
-50.0218 17.0193 1 -94.4721 44.0397 1 -80.1177 23.3821 1 
-57.5272 63.4125 1 -58.0564 62.352 1 -49.8837 49.5343 1 
-48.5966 49.8969 1 -97.3699 63.4547 1 -50.6212 53.0494 1 
-50.8761 51.727 1 -51.9758 -14.9918 1 -53.6205 -14.1288 1 
-53.5366 -15.7133 1 -55.1813 -14.8502 1 -72.9826 -14.77 1 
-73.6157 -12.6679 1 -71.6795 -13.1473 1 -51.2702 50.1944 1 
-79.7082 55.2191 1 -79.1517 56.5771 1 -78.5841 55.2858 1 
-64.4877 60.2056 1 -63.4242 60.2106 1 -63.9696 61.3292 1 
-60.8031 16.9475 1 -60.8672 15.8767 1 -62.0893 17.5463 1 
-62.1534 16.4755 1 -60.6495 29.1017 1 -59.0973 28.4472 1 
-60.814 30.4444 1 -59.2619 29.7899 1 -53.9103 -29.2998 1 
-54.5416 -30.3692 1 -95.5466 -12.6135 1 -96.7858 -13.1372 1 
-95.515 -13.7156 1 -46.4404 24.4354 1 -46.4356 25.4906 1 
-84.7414 -33.6453 1 -85.8317 -33.6386 1 -85.2276 -34.674 1 
-43.3372 62.5623 1 -50.1288 24.8716 1 -50.3369 24.3364 1 
-56.0457 26.9507 1 -51.8519 23.8263 1 -66.6941 62.3457 1 
-65.5807 62.3445 1 -66.185 63.3346 1 -71.5846 56.6518 1 
-72.6401 56.6547 1 -72.0909 55.4386 1 -67.6306 55.2917 1 
-73.2278 60.1842 1 -48.3966 1.34481 1 -48.3915 2.46547 1 
-47.5578 45.7456 1 -48.8577 45.1662 1 -48.7828 46.3484 1 
-67.8991 13.652 1 -66.8519 13.1218 1 -67.904 12.5764 1 
-93.0294 19.9837 1 -91.7961 20.6165 1 -91.7872 19.5449 1 
-67.7485 45.0602 1 -67.0673 47.1535 1 -45.1359 -0.129994 1 
-46.1504 0.363329 1 -68.7997 -2.66024 1 -68.002 -3.71258 1 
-67.5165 -2.54496 1 -47.5342 3.94785 1 -47.1469 3.06105 1 
-46.2158 3.6432 1 -50.9089 -21.8828 1 -60.7375 43.1707 1 
-58.5029 42.975 1 -59.6587 44.9546 1 -61.9948 28.2424 1 
-63.3807 28.7526 1 -66.8224 18.6081 1 -67.9018 17.9788 1 
-67.8718 19.0759 1 -41.7385 59.6877 1 -42.4182 58.8903 1 
-41.6086 58.5288 1 -70.3981 54.1146 1 -70.9306 52.6156 1 
-71.4862 54.1625 1 -84.0524 33.1257 1 -83.6747 34.3913 1 
-85.5132 33.8843 1 -79.6652 60.1434 1 -44.9735 52.6732 1 
-43.8441 53.246 1 -98.952 -16.3663 1 -97.8291 -15.8424 1 
-86.3003 8.61619 1 -87.6388 9.08982 1 -53.8192 43.706 1 
-55.3298 44.6065 1 -55.3688 43.0418 1 -42.2855 60.4799 1 
-40.9517 60.3996 1 -97.8796 36.0126 1 -83.2418 51.528 1 
-83.5038 52.8597 1 -83.4142 -27.8673 1 -83.8474 -29.1151 1 
-82.2254 -27.8945 1 -82.6586 -29.1423 1 -93.2468 27.3657 1 
-92.0221 27.8097 1 -92.0246 26.7142 1 -76.0139 44.6045 1 
-77.6741 45.6002 1 -99.1234 -33.1113 1 -97.9234 -34.2613 1 
-98.1513 -32.7477 1 -94.4238 -16.3936 1 -94.4438 -17.5609 1 
-93.1044 -17.0335 1 -54.6415 -32.54 1 -53.5969 -32.6301 1 
-93.1796 28.4575 1 -98.9206 -13.0903 1 -98.9703 -9.77923 1 
-81.9687 47.4775 1 -87.6038 -30.5439 1 -86.4747 -30.4391 1 
-86.9941 -31.5229 1 -82.1044 7.99991 1 -82.5235 6.98036 1 
-83.2338 7.87717 1 -43.9252 -34.8142 1 -42.7852 -34.8142 1 
-81.5754 48.9561 1 -79.9524 48.6023 1 -68.849 37.4438 1 
-67.9895 38.7866 1 -68.0931 36.0601 1 -69.9269 62.3739 1 
-98.8948 -8.76295 1 -44.1992 23.5418 1 -45.292 23.985 1 
-71.8828 34.6043 1 -72.8162 35.781 1 -71.1822 35.9147 1 
-51.1985 -10.4979 1 -51.3787 -11.6436 1 -52.9221 -11.5895 1 
-63.3429 35.4586 1 -62.8046 33.9798 1 -64.4719 34.2716 1 
-96.7832 -9.84657 1 -97.8602 -10.4067 1 -94.4462 51.9231 1 
-92.2632 25.7367 1 -93.1875 48.0029 1 -97.8722 -12.6011 1 
-97.8847 -13.6879 1 -45.2847 -15.3156 1 -44.1422 -15.7525 1 
-82.3395 13.4805 1 -82.2962 14.5955 1 -83.4933 14.1199 1 
-50.3129 54.3522 1 -93.1474 34.8328 1 -78.7191 6.26024 1 
-77.4326 6.85823 1 -44.1329 34.4811 1 -45.223 33.8277 1 
-78.8538 1.55083 1 -78.8591 2.74831 1 -77.6033 2.21162 1 
-78.1834 31.9603 1 -98.9175 -17.51 1 -73.9761 11.767 1 
-73.9648 10.6727 1 -72.9485 11.179 1 -97.8297 12.2653 1 
-82.2216 19.9193 1 -82.1943 18.7847 1 -80.7447 19.3165 1 
-72.0105 3.16697 1 -78.4789 11.7597 1 -77.3906 11.2039 1 
-78.4533 10.6674 1 -64.9218 54.1508 1 -64.396 52.8991 1 
-63.7983 54.1074 1 -97.8494 2.521 1 -96.765 1.98967 1 
-97.8354 1.4695 1 -59.5158 16.4947 1 -63.9688 59.0554 1 
-63.3986 57.9116 1 -55.3339 -2.12256 1 -54.7239 -1.05671 1 
-73.0163 2.54796 1 -71.957 2.00263 1 -96.7488 11.722 1 
-96.7382 12.8057 1 -61.8733 -33.5616 1 -61.3223 -32.4628 1 
-62.385 -32.4459 1 -61.834 -31.3471 1 -45.2589 -5.52955 1 
-44.0726 -6.05189 1 -94.48 35.3872 1 -93.1277 35.92 1 
-94.4305 36.4781 1 -93.0782 37.0109 1 -84.8918 29.9373 1 
-83.9963 31.1052 1 -82.9603 30.1237 1 -46.4821 -29.61 1 
-46.7657 -30.7594 1 -47.5492 -29.5948 1 -72.2775 -34.6066 1 
-73.2859 -34.6078 1 -72.779 -33.5799 1 -82.1067 55.3315 1 
-81.5386 53.8208 1 -82.7465 53.8435 1 -41.0008 -20.2118 1 
-41.988 -20.9013 1 -48.7543 -19.3904 1 -94.3599 5.27404 1 
-93.072 6.89028 1 -67.134 -22.0371 1 -67.2512 -23.8819 1 
-52.5326 -23.9639 1 -62.8458 46.9917 1 -62.411 49.097 1 
-64.6769 47.359 1 -64.2421 49.4643 1 -66.5254 -15.9992 1 
-68.84 -16.1673 1 -67.7048 -14.3724 1 -98.9863 37.6738 1 
-96.7944 -24.1946 1 -95.5416 37.0565 1 -95.5858 35.9933 1 
-96.8353 48.4825 1 -91.8348 14.019 1 -93.0614 13.3874 1 
-93.0785 14.4382 1 -71.1619 33.4761 1 -72.4907 33.2953 1 
-57.4206 13.0976 1 -56.047 12.8815 1 -56.6046 14.0983 1 
-46.436 32.1653 1 -46.3803 33.2333 1 -47.5868 32.6561 1 
-47.6069 14.9639 1 -96.7667 -14.2572 1 -83.2326 -5.96233 1 
-84.7555 -6.40308 1 -84.6316 -5.23778 1 -51.1817 -24.1991 1 
-91.9137 -4.42947 1 -93.1394 -3.91322 1 -93.1371 -5.04579 1 
-96.7882 35.4602 1 -94.3433 -13.152 1 -93.0967 -12.6481 1 
-87.4921 21.3102 1 -71.4486 51.3349 1 -89.0789 18.513 1 
-91.9068 49.6426 1 -90.5278 49.1349 1 -88.1954 43.3164 1 
-87.8478 44.3368 1 -86.5097 43.1449 1 -89.0346 46.0768 1 
-89.1344 44.8943 1 -87.6878 45.4439 1 -66.9024 -5.30535 1 
-68.71 -5.09587 1 -50.9814 35.5652 1 -46.3796 34.3206 1 
-61.9264 63.3201 1 -98.8634 23.7264 1 -97.8671 23.1638 1 
-97.8938 24.2101 1 -45.1618 49.1942 1 -42.0263 40.1749 1 
-41.0278 40.8764 1 -42.0107 41.2539 1 -59.1469 62.3572 1 
-51.2203 8.85465 1 -49.8845 8.37655 1 -97.8533 49.0447 1 
-97.8929 47.9468 1 -98.8739 49.6011 1 -97.846 50.1641 1 
-48.6439 11.1215 1 -49.6672 10.547 1 -48.6844 12.2193 1 
-49.7077 11.6448 1 -76.4607 37.8929 1 -75.4267 36.759 1 
-65.7841 -34.6244 1 -53.1156 4.94676 1 -50.6526 56.8813 1 
-49.9208 55.7248 1 -56.7336 8.63938 1 -58.2047 9.23931 1 
-56.9304 9.85246 1 -42.0213 35.8038 1 -43.0567 36.2169 1 
-42.0103 36.8519 1 -45.194 45.9084 1 -41.8115 54.3884 1 
-42.8489 53.8172 1 -86.2154 30.7736 1 -85.3199 31.9415 1 
-91.646 -34.6899 1 -92.2826 -33.6978 1 -91.2456 -33.6781 1 
-85.2088 -26.6356 1 -80.8832 55.2151 1 -80.3184 53.9 1 
-55.3125 61.2702 1 -54.7745 60.1379 1 -41.0151 36.4075 1 
-53.0029 -18.2695 1 -53.1225 -17.113 1 -50.0309 6.10956 1 
-50.088 5.0243 1 -48.7488 5.55499 1 -72.0115 22.5104 1 
-72.9981 22.0354 1 -71.9378 21.4516 1 -54.5856 -12.098 1 
-55.2663 -13.4863 1 -87.3786 -0.689995 1 -80.8178 17.192 1 
-82.26 17.7638 1 -80.8104 18.2956 1 -59.2018 -15.2873 1 
-57.2101 -14.339 1 -57.7083 26.2834 1 -65.6347 23.6303 1 
-65.6622 24.7591 1 -64.3721 24.3862 1 -41.0196 37.51 1 
-88.5754 60.3753 1 -64.1816 -16.4699 1 -48.7471 44.1521 1 
-74.0274 23.7024 1 -74.0536 22.6471 1 -75.1524 23.2543 1 
-82.474 33.4989 1 -87.611 10.1737 1 -87.6364 11.2777 1 
-55.3927 -3.89848 1 -56.9001 -5.31951 1 -57.3329 -3.55437 1 
-47.6704 25.9936 1 -46.4207 26.5991 1 -54.6245 32.8059 1 
-54.8142 27.7072 1 -72.1031 37.1884 1 -77.1005 -28.9431 1 
-77.7118 -27.6781 1 -78.2389 -28.9673 1 -79.7309 6.84076 1 
-79.7281 7.97632 1 -78.3239 -2.57221 1 -69.2953 -3.71728 1 
-70.093 -2.66494 1 -67.4714 34.7 1 -66.0003 34.5988 1 
-66.6077 35.9406 1 -58.6051 12.4667 1 -77.6271 -20.7417 1 
-76.258 -20.2607 1 -62.7021 -17.2918 1 -63.6447 -18.6217 1 
-79.6165 -23.6948 1 -80.465 -22.5629 1 -80.8555 -23.872 1 
-58.0625 4.27891 1 -56.501 4.86264 1 -56.2958 3.34652 1 
-43.045 14.2576 1 -41.9971 13.8436 1 -44.0808 13.6065 1 
-43.0329 13.1926 1 -72.9629 19.8868 1 -71.9161 19.3373 1 
-71.9979 20.4061 1 -55.3306 8.06386 1 -56.7826 7.44129 1 
-60.9826 14.8579 1 -62.2747 14.1974 1 -60.9935 13.6478 1 
-44.0507 12.5421 1 -59.7349 10.8381 1 -59.6457 9.72873 1 
-58.3715 10.3419 1 -41.9883 12.7277 1 -47.7349 27.0553 1 
-48.9846 26.4499 1 -77.545 3.35239 1 -75.3045 32.7733 1 
-73.9778 33.0898 1 -74.8324 34.132 1 -84.8776 -25.3254 1 
-83.693 -25.4164 1 -84.0243 -26.7266 1 -54.2798 52.5692 1 
-53.504 51.3166 1 -53.1294 52.7223 1 -85.0773 14.7022 1 
-74.2788 35.5144 1 -48.5049 -22.7113 1 -47.2773 -23.1137 1 
-69.1514 -10.5457 1 -67.3514 -11.0974 1 -68.0035 -9.21922 1 
-81.4863 25.1147 1 -81.5283 23.8321 1 -83.0311 24.5416 1 
-95.5119 11.1993 1 -96.7479 10.6572 1 -95.5087 10.0877 1 
-61.7476 -26.6542 1 -60.6128 -26.7154 1 -45.1529 -7.69158 1 
-46.2438 -8.32561 1 -46.272 -7.26486 1 -74.0571 -0.441206 1 
-75.1405 0.0271102 1 -72.9797 0.163457 1 -74.063 0.631773 1 
-78.7677 23.9097 1 -60.9451 10.2485 1 -82.9089 20.8715 1 
-66.4595 -9.59629 1 -48.7238 25.4552 1 -71.7009 32.3246 1 
-78.893 25.1796 1 -80.243 24.652 1 -57.4328 51.5578 1 
-57.8724 52.8427 1 -58.5439 51.1483 1 -58.9835 52.4332 1 
-65.8432 53.7638 1 -65.3174 52.5121 1 -63.0212 50.8132 1 
-56.6053 -27.7524 1 -40.8829 -33.1297 1 -40.8882 -32.1027 1 
-61.2637 50.922 1 -64.0729 51.1942 1 -41.0247 15.5067 1 
-95.4866 40.2782 1 -96.749 39.7392 1 -86.2528 -5.55102 1 
-86.1289 -4.38573 1 -41.0234 12.2809 1 -41.9672 11.6683 1 
-78.3395 30.5189 1 -40.9766 -11.4487 1 -41.9408 -12.2125 1 
-41.9577 -11.1257 1 -87.845 24.6818 1 -87.5703 23.5436 1 
-86.1997 24.2692 1 -96.3401 63.4681 1 -87.5202 -15.0362 1 
-87.8123 -16.0038 1 -83.1126 48.9666 1 -84.1085 50.0841 1 
-84.8851 49.1174 1 -87.9988 28.0862 1 -87.7292 27.0128 1 
-66.9426 -0.182098 1 -67.9512 0.689722 1 -84.6344 23.7328 1 
-84.6156 24.9658 1 -89.0885 22.982 1 -87.5748 22.4333 1 
-74.1985 -21.8324 1 -74.9657 -23.4708 1 -75.5639 -22.226 1 
-86.0238 19.7597 1 -70.0011 -25.4271 1 -70.5333 -26.6622 1 
-71.0348 -25.477 1 -42.6971 -32.4419 1 -43.5494 -33.0264 1 
-43.4297 -33.9917 1 -52.6308 8.47581 1 -53.8046 7.53119 1 
-52.3941 7.91003 1 -40.9887 -12.6482 1 -60.8258 4.60612 1 
-59.4077 4.85914 1 -60.7967 3.37145 1 -59.3786 3.62447 1 
-45.9829 -25.7074 1 -79.7658 31.459 1 -97.8333 40.3514 1 
-96.7534 40.8282 1 -89.3699 29.8005 1 -83.3912 46.2269 1 
-84.6277 44.8862 1 -82.7288 44.0352 1 -93.0351 18.8621 1 
-91.7962 18.4074 1 -95.5069 4.66925 1 -80.2927 50.5871 1 
-79.6802 52.1018 1 -72.0258 46.6591 1 -71.8453 44.9772 1 
-86.0867 38.1195 1 -84.4201 37.5498 1 -85.9204 39.4652 1 
-84.2539 38.8955 1 -72.4968 51.6456 1 -71.9788 52.9263 1 
-76.3422 27.53 1 -76.1314 28.8134 1 -45.2852 26.1502 1 
-60.731 47.0368 1 -88.1146 54.3704 1 -89.4931 54.7469 1 
-88.2746 52.9548 1 -89.6531 53.3314 1 -93.2281 24.1282 1 
-93.2385 25.2463 1 -90.7492 53.8892 1 -92.106 54.4093 1 
-89.5197 52.1169 1 -88.0517 51.655 1 -83.6616 59.0263 1 
-85.2618 60.1741 1 -84.1483 60.1368 1 -67.2119 -1.33359 1 
-65.9503 -0.990592 1 -43.0448 -12.8873 1 -41.9624 -13.2796 1 
-90.6158 43.335 1 -89.4634 42.6885 1 -90.6343 44.5205 1 
-89.482 43.8739 1 -67.2024 -26.6048 1 -40.9143 53.972 1 
-56.9254 -34.6438 1 -57.438 -33.5866 1 -76.0625 -26.3277 1 
-77.1867 -26.364 1 -76.7563 -24.8307 1 -44.9006 -34.7209 1 
-44.3747 -33.8532 1 -45.3501 -33.7599 1 -51.2453 -30.7472 1 
-50.8232 -31.7672 1 -62.2456 41.5912 1 -60.011 41.3956 1 
-61.3681 39.7879 1 -49.9277 -6.65942 1 -45.3111 27.2795 1 
-44.1755 26.8306 1 -54.3341 45.9181 1 -53.2177 44.655 1 
-77.1671 51.4719 1 -77.7202 50.2755 1 -76.4558 49.8802 1 
-66.8716 33.4688 1 -65.5196 33.2431 1 -67.8362 32.4031 1 
-96.772 55.1353 1 -97.8496 54.5454 1 -96.7604 54.0192 1 
-86.5246 -6.568 1 -78.3969 18.2489 1 -78.3995 19.3384 1 
-79.7267 18.8146 1 -85.9721 -13.4383 1 -87.4759 -13.8435 1 
-84.2544 6.91836 1 -56.8482 57.9085 1 -57.9374 57.9 1 
-67.8722 16.9711 1 -66.8229 17.4933 1 -56.7692 -30.2495 1 
-56.2859 -31.3815 1 -55.6467 -30.3 1 -55.1634 -31.432 1 
-77.6518 25.8581 1 -76.4193 26.3137 1 -87.6925 12.3584 1 
-86.4846 11.9528 1 -86.4284 10.8722 1 -86.173 18.5299 1 
-87.4411 17.911 1 -86.1441 17.4156 1 -80.1282 28.5273 1 
-78.7403 29.1405 1 -87.4899 16.7691 1 -79.8896 19.9841 1 
-80.7539 20.4493 1 -82.2393 16.6947 1 -52.1207 51.5772 1 
-78.3845 15.0222 1 -78.396 13.9656 1 -77.3176 15.5476 1 
-77.3291 14.4909 1 -47.2298 0.997652 1 -95.5124 2.52025 1 
-43.6858 -32.0376 1 -44.5111 -32.8644 1 -68.7395 55.3205 1 
-68.1947 54.0982 1 -90.8862 63.39 1 -92.0032 63.5239 1 
-91.535 62.5483 1 -97.9257 -25.8638 1 -99.0237 -25.2033 1 
-98.9264 -26.4449 1 -65.8509 49.0731 1 -67.9022 49.1023 1 
-70.4799 61.3265 1 -69.4253 61.3068 1 -68.8723 62.3543 1 
-53.6823 60.1719 1 -96.811 32.2329 1 -64.6235 29.1802 1 
-46.441 43.0024 1 -46.4136 44.1547 1 -65.1263 31.8712 1 
-63.7851 31.4559 1 -64.1784 32.8278 1 -50.3896 25.8663 1 
-56.4038 61.3091 1 -91.8461 1.0149 1 -91.8371 -0.0327533 1 
-94.3985 -15.3592 1 -93.1476 -15.8702 1 -93.1223 -14.8358 1 
-87.416 3.64595 1 -85.9745 3.26558 1 -87.4388 2.52795 1 
-85.9972 2.14758 1 -56.9849 62.3764 1 -90.3706 4.77357 1 
-71.0447 31.3203 1 -98.8412 8.52623 1 -66.9038 -34.5983 1 
-99.0523 -32.0208 1 -98.0837 -31.5904 1 -99.0558 -30.804 1 
-95.8917 -28.3574 1 -78.7214 5.1371 1 -78.8576 4.00133 1 
-77.5434 4.60541 1 -97.1266 -34.852 1 -55.5517 16.3479 1 
-54.0116 16.6971 1 -56.2884 15.1752 1 -54.7483 15.5244 1 
-91.8374 38.5403 1 -91.8252 39.606 1 -45.2791 38.2136 1 
-44.1591 37.7416 1 -70.4721 59.0974 1 -71.0499 57.9038 1 
-71.5738 59.0502 1 -95.6566 -24.9233 1 -94.5119 -24.4006 1 
-94.563 -25.5394 1 -94.4238 11.7613 1 -95.5129 12.2641 1 
-84.5159 -10.1387 1 -82.977 -10.6322 1 -42.0326 14.8878 1 
-42.0497 16.0084 1 -66.2935 -33.5884 1 -67.4223 -33.6014 1 
-94.3851 -6.6567 1 -67.9629 -34.6375 1 -98.9282 -4.53482 1 
-97.912 -5.06263 1 -66.2585 -31.3459 1 -66.8366 -32.4863 1 
-65.7153 -32.4479 1 -92.5851 -31.6341 1 -92.9066 -32.7473 1 
-91.961 -32.5846 1 -93.4397 -33.7158 1 -75.1237 -13.6195 1 
-75.2271 -11.894 1 -93.1488 23.1595 1 -77.7194 -19.2093 1 
-76.3503 -18.7283 1 -51.3987 48.9601 1 -94.4396 -0.112532 1 
-94.4003 -1.17031 1 -92.8609 -34.6423 1 -85.6551 -27.9638 1 
-84.5261 -27.9847 1 -86.0793 -29.1789 1 -84.9503 -29.1998 1 
-65.4924 -5.08322 1 -66.592 -3.49045 1 -68.8268 43.3587 1 
-69.684 45.0543 1 -70.5728 43.4874 1 -46.6131 -29.02 1 
-45.546 -29.0351 1 -45.7675 -28.0451 1 -96.8035 44.1032 1 
-95.565 43.5743 1 -66.1242 -2.34558 1 -64.8627 -2.00258 1 
-65.1998 -3.29106 1 -47.6963 31.6075 1 -48.8471 32.0983 1 
-47.4394 49.1647 1 -71.5683 61.3299 1 -49.1871 40.6634 1 
-47.8156 41.3203 1 -67.8772 11.4434 1 -41.0047 30.0347 1 
-42.0002 30.4277 1 -77.3181 40.9194 1 -63.4111 -0.140958 1 
-63.565 1.07015 1 -46.2683 5.69416 1 -51.7192 5.39631 1 
-52.4752 6.80096 1 -53.8716 6.35141 1 -41.0199 31.1586 1 
-42.7636 54.9258 1 -42.6946 56.0072 1 -41.7799 55.4667 1 
-71.9298 6.40242 1 -54.0574 -6.6761 1 -69.0804 -34.609 1 
-68.5189 -33.6121 1 -81.4085 58.9188 1 -78.0361 56.5628 1 
-42.0384 39.0835 1 -42.035 37.9794 1 -43.092 38.4283 1 
-51.4765 29.9136 1 -50.1177 30.4306 1 -51.4309 31.0847 1 
-87.7713 58.1311 1 -88.6181 56.9812 1 -87.4726 56.9304 1 
-43.0461 -5.41223 1 -92.1101 -24.628 1 -93.2731 -24.0445 1 
-93.3242 -25.1833 1 -88.9674 -28.4076 1 -88.6065 -27.1117 1 
-89.8727 -27.2781 1 -47.4472 44.7316 1 -58.1157 6.79613 1 
-59.4905 6.20089 1 -58.0329 5.45438 1 -53.827 53.9811 1 
-93.1582 -22.8391 1 -91.9952 -23.4226 1 -64.6162 13.1092 1 
-55.1103 56.5698 1 -54.4886 55.3131 1 -54.0648 56.6031 1 
-59.0541 -30.179 1 -57.9859 -30.1833 1 -58.4714 -28.9582 1 
-48.1957 -34.7053 1 -47.0557 -34.7053 1 -64.4911 5.33437 1 
-90.471 -5.00512 1 -91.9042 -5.52757 1 -50.2668 -30.8916 1 
-49.7102 -31.8407 1 -43.1115 30.8212 1 -71.4896 -19.0045 1 
-72.1636 -20.1732 1 -50.5403 -26.5945 1 -49.1647 -27.0262 1 
-80.2458 58.9326 1 -63.9815 -4.66653 1 -63.6889 -2.87437 1 
-70.0261 -27.8977 1 -71.1031 -27.8432 1 -70.5959 -29.0786 1 
-46.3914 15.5857 1 -45.2269 15.1229 1 -46.3558 14.4625 1 
-58.5015 -31.3834 1 -57.4334 -31.3877 1 -67.2626 -7.82819 1 
-68.755 -7.9084 1 -67.848 -6.2458 1 -69.3404 -6.32601 1 
-71.662 -31.3828 1 -72.2252 -32.4839 1 -71.1609 -32.4926 1 
-71.7241 -33.5936 1 -59.6851 -31.3532 1 -59.552 -29.0286 1 
-90.5121 62.4563 1 -47.4205 -10.0095 1 -97.3544 -33.3384 1 
-96.4561 -33.9726 1 -96.054 -34.755 1 -74.3603 31.8426 1 
-57.4371 59.0851 1 -56.3234 59.0335 1 -55.256 59.032 1 
-55.8658 60.1768 1 -80.0677 -3.26454 1 -80.0809 -1.79193 1 
-66.83 12.0232 1 -66.8325 10.9207 1 -65.7404 10.3659 1 
-69.8617 -22.2117 1 -70.3621 -24.0209 1 -71.5458 -23.9664 1 
-84.3463 -30.2333 1 -83.6861 -31.4864 1 -83.1872 -30.3682 1 
-53.5626 -2.94088 1 -81.8651 35.3119 1 -83.0658 36.2044 1 
-90.6227 51.5037 1 -91.9421 50.8531 1 -90.4882 -17.0329 1 
-91.8951 -16.4798 1 -72.9704 10.1308 1 -73.9867 9.6245 1 
-72.0353 9.63286 1 -71.8863 10.6946 1 -95.521 -14.7716 1 
-96.7726 -15.3133 1 -94.4858 -23.2594 1 -94.501 55.3565 1 
-94.4579 54.1662 1 -46.4696 17.8361 1 -45.3345 18.4822 1 
-85.3411 -32.5279 1 -84.1866 -32.5966 1 -84.7864 -31.4793 1 
-45.251 -14.2315 1 -46.3954 -13.8071 1 -46.4291 -14.8913 1 
-44.0279 -21.215 1 -43.0012 -21.6028 1 -44.0055 -22.2344 1 
-98.2034 59.9315 1 -98.2893 60.9143 1 -97.1578 59.7527 1 
-97.2437 60.7354 1 -98.866 1.98959 1 -98.9938 0.945518 1 
-95.5545 29.5937 1 -66.613 -25.3224 1 -67.7308 -25.4603 1 
-90.3451 2.55513 1 -89.0181 2.12245 1 -89.096 3.20643 1 
-63.4405 10.3192 1 -63.377 9.18334 1 -64.6103 9.8194 1 
-78.0232 63.3479 1 -48.4885 -23.8308 1 -52.661 62.3414 1 
-45.1027 -21.8393 1 -72.9835 -4.41002 1 -73.7708 -3.30111 1 
-71.9856 -3.52443 1 -72.7729 -2.41552 1 -55.7345 57.8568 1 
-54.689 57.8901 1 -53.5777 57.8677 1 -54.1447 59.0096 1 
-71.9915 26.8684 1 -61.1673 -18.9974 1 -62.1099 -20.3273 1 
-83.0167 60.1564 1 -82.4964 58.972 1 -80.8118 41.8862 1 
-96.769 0.95133 1 -97.8393 0.431164 1 -96.7317 -0.0906202 1 
-90.1364 -28.5063 1 -89.452 -29.3026 1 -97.8303 -0.711076 1 
-89.1134 16.2564 1 -89.1277 17.3712 1 -74.1511 52.6597 1 
-74.7659 51.3826 1 -73.1102 52.9418 1 -73.725 51.6647 1 
-98.8699 -0.148751 1 -98.9821 7.41077 1 -91.9705 33.0466 1 
-93.1561 33.7364 1 -99.0549 24.8493 1 -98.8643 25.9272 1 
-76.0849 18.2461 1 -77.3213 17.716 1 -76.0682 17.1657 1 
-43.1009 35.1432 1 -47.6277 -4.5513 1 -47.6337 -3.42685 1 
-48.9863 -3.90199 1 -50.2478 -2.22576 1 -97.8481 -1.79695 1 
-93.0891 -0.645343 1 -42.8997 -23.6529 1 -43.9401 -23.269 1 
-75.2134 26.8055 1 -46.6666 59.5723 1 -47.0451 58.473 1 
-46.0202 58.6545 1 -99.0192 13.8589 1 -98.8453 12.8102 1 
-49.7714 -33.7859 1 -49.1397 -32.8322 1 -48.6125 -33.7658 1 
-97.8553 22.1245 1 -99.0282 22.6029 1 -62.8963 -21.9895 1 
-63.6034 -20.6696 1 -96.7768 -20.8997 1 -95.5777 -21.5669 1 
-85.6374 -24.1923 1 -85.4186 -22.9306 1 -84.3812 -23.9443 1 
-87.8333 -28.3863 1 -95.519 0.42545 1 -78.6855 -34.6355 1 
-79.2432 -33.5795 1 -78.1582 -33.589 1 -56.0745 -29.0058 1 
-54.9693 -29.075 1 -87.7525 -1.6819 1 -86.3095 -2.17656 1 
-87.7332 -2.82418 1 -84.3515 1.42515 1 -84.4264 0.151578 1 
-82.9288 2.21568 1 -83.0036 0.942101 1 -95.8027 -27.1811 1 
-96.8599 -27.7591 1 -43.8011 54.3545 1 -41.9866 47.7856 1 
-99.0082 -5.5622 1 -63.3694 8.11218 1 -64.5481 7.55702 1 
-54.5917 -22.8367 1 -54.2427 -24.0914 1 -67.9426 -0.455181 1 
-42.8492 52.7211 1 -45.0701 51.5659 1 -43.9159 52.0733 1 
-78.6789 48.8895 1 -86.1277 -3.21967 1 -49.6051 9.38979 1 
-50.941 9.86789 1 -41.9822 -16.5928 1 -86.2082 25.4074 1 
-41.026 25.6352 1 -94.4224 -18.6876 1 -95.5632 -19.2686 1 
-42.0362 24.9419 1 -42.0133 26.0366 1 -41.0346 24.5223 1 
-87.2639 53.4757 1 -89.3787 25.2289 1 -87.8535 25.82 1 
-91.8219 21.692 1 -56.1151 54.054 1 -55.4762 52.6555 1 
-55.0234 54.0675 1 -56.605 52.8109 1 -44.7985 -30.7304 1 
-44.8336 -31.8223 1 -45.9946 -31.4846 1 -41.9418 1.91189 1 
-41.9724 0.751454 1 -43.0067 1.20631 1 -87.647 -9.23046 1 
-89.1231 -9.85619 1 -89.1325 -8.6901 1 -95.5517 21.0241 1 
-95.5969 22.0985 1 -58.5024 54.0348 1 -47.6791 -15.4775 1 
-47.7005 -14.4014 1 -48.9504 -14.9877 1 -46.37 37.5851 1 
-51.5651 33.3377 1 -53.0636 33.1008 1 -97.9025 46.8563 1 
-97.9038 45.786 1 -96.8219 46.3033 1 -47.3364 51.6242 1 
-73.9228 18.2577 1 -75.0706 17.7189 1 -73.899 17.1573 1 
-75.0468 16.6185 1 -71.1428 -30.2312 1 -70.6062 -31.4067 1 
-96.8196 45.2179 1 -40.9809 -22.3581 1 -41.9319 -23.013 1 
-86.9571 -24.2363 1 -41.9681 -21.9976 1 -71.9378 4.28534 1 
-60.0623 -27.7592 1 -77.5274 -0.361474 1 -78.8113 0.244324 1 
-78.7447 -1.05891 1 -57.2547 -29.0244 1 -57.957 -32.495 1 
-99.0283 59.4176 1 -99.0015 5.19754 1 -96.8128 22.6153 1 
-96.8247 23.6546 1 -95.5926 23.1012 1 -94.4824 27.918 1 
-95.6343 27.4432 1 -82.0104 -34.5921 1 -83.0399 -34.6625 1 
-82.5159 -33.6203 1 -80.3679 -33.5917 1 -80.8602 -34.6477 1 
-81.4462 -33.6055 1 -83.6037 -33.6338 1 -83.1032 -32.5236 1 
-52.7708 17.2904 1 -52.1452 18.7302 1 -53.386 18.1369 1 
-44.1691 27.9192 1 -45.3405 28.3769 1 -44.183 29.0391 1 
-56.0742 -8.14689 1 -46.2664 4.64252 1 -45.1164 4.2701 1 
-43.0764 28.6292 1 -70.4095 -7.44068 1 -42.9723 -22.6291 1 
-99.0367 -27.5042 1 -97.9387 -27.0147 1 -97.9764 -28.1759 1 
-40.9517 61.5496 1 -40.7345 62.5353 1 -71.073 -15.9793 1 
-69.7699 -14.3566 1 -81.5579 -29.0856 1 -43.0841 29.7167 1 
-44.1954 30.1102 1 -45.6262 59.8089 1 -44.9798 58.8911 1 
-43.7559 63.496 1 -72.9972 3.63068 1 -63.2149 22.5875 1 
-61.9333 24.3178 1 -63.2623 23.7395 1 -46.3655 60.6383 1 
-53.7075 -25.4285 1 -95.6056 24.188 1 -46.4849 31.0733 1 
-51.7599 28.7056 1 -74.9653 29.2363 1 -74.6787 30.5183 1 
-82.5674 -31.4444 1 -83.5171 63.3627 1 -82.9868 62.2992 1 
-58.5767 -12.7157 1 -60.7532 -13.4565 1 -46.48 29.9695 1 
-40.9356 -25.5425 1 -43.0147 -20.5135 1 -47.9814 -30.9115 1 
-48.5037 -31.7984 1 -61.3272 60.2084 1 -60.7525 56.6882 1 
-43.064 -18.3721 1 -69.3284 -23.9711 1 -68.919 -25.4763 1 
-65.4866 50.7822 1 -95.8785 -30.7782 1 -96.9684 -31.1117 1 
-96.9887 -30.0204 1 -98.0786 -30.3539 1 -59.5198 2.06522 1 
-59.434 0.75274 1 -60.7641 1.42303 1 -67.9411 -32.5041 1 
-75.2215 24.4787 1 -80.1667 30.0806 1 -63.3732 52.6801 1 
-89.1387 -2.1626 1 -43.828 61.6466 1 -42.6329 61.6659 1 
-90.4809 -1.7219 1 -90.5154 -2.83805 1 -98.9026 -21.9994 1 
-74.9501 -26.3554 1 -45.1346 -20.7717 1 -46.2933 -20.3448 1 
-46.2094 -21.396 1 -94.3793 -14.2269 1 -90.5171 -3.95183 1 
-87.6419 -4.99418 1 -87.5514 -3.86729 1 -89.0734 -4.35818 1 
-89.1195 -3.30489 1 -91.8706 10.7161 1 -93.0677 11.1899 1 
-91.8675 11.808 1 -99.0227 18.3052 1 -90.5978 30.4116 1 
-89.3673 30.8102 1 -90.5923 31.4417 1 -94.3278 19.4281 1 
-96.8356 29.0575 1 -90.3596 20.0613 1 -90.3854 21.1368 1 
-95.4863 17.7037 1 -94.3335 18.3064 1 -65.21 -33.5458 1 
-97.8888 44.7288 1 -86.3497 44.252 1 -61.1149 32.0199 1 
-62.5111 32.536 1 -62.2102 30.9605 1 -40.9967 47.4085 1 
-94.3646 40.758 1 -46.4825 27.7372 1 -47.6813 28.2593 1 
-88.5557 -32.6618 1 -89.0512 -33.6655 1 -87.9651 -33.6655 1 
-90.0944 -33.6804 1 -89.7382 -32.5462 1 -40.9735 8.95613 1 
-41.9562 9.41967 1 -41.9334 8.34143 1 -55.8239 -6.86954 1 
-42.9906 6.61359 1 -41.9609 6.23785 1 -41.9524 7.26865 1 
-90.6998 -32.6786 1 -41.0109 -6.18728 1 -40.8989 -28.8155 1 
-40.9532 49.5538 1 -41.0143 48.4426 1 -41.9689 4.07126 1 
-41.9592 2.96732 1 -43.0215 3.37889 1 -50.1652 45.4586 1 
-47.6934 18.3393 1 -47.7396 17.1678 1 -48.9634 17.671 1 
-87.4491 5.89729 1 -76.379 25.0457 1 -62.0148 29.6292 1 
-44.2315 20.1862 1 -44.1917 19.141 1 -43.1539 19.7718 1 
-47.7729 19.468 1 -75.1237 19.9204 1 -59.3354 31.5069 1 
-62.1375 7.47679 1 -60.7832 6.87305 1 -62.0537 6.29147 1 
-55.9141 -34.6085 1 -80.1708 63.3294 1 -79.0736 63.3321 1 
-60.1332 -16.9097 1 -44.1653 31.2296 1 -44.1433 32.3615 1 
-45.2155 -2.27274 1 -82.9123 -26.6091 1 -82.5209 -25.304 1 
-48.9885 -4.97878 1 -95.5024 7.95372 1 -96.7352 7.38279 1 
-96.7304 6.31824 1 -79.7621 -34.5784 1 -49.0032 -16.125 1 
-98.9149 45.2829 1 -43.0365 -8.57664 1 -41.9887 -8.97605 1 
-42.0022 -7.95211 1 -42.763 -28.0358 1 -42.7323 -29.1115 1 
-43.7119 -28.7824 1 -43.6812 -29.858 1 -47.9792 -27.2367 1 
-47.0059 -26.5373 1 -67.3554 -31.3891 1 -66.7537 -30.1765 1 
-66.1474 -28.9866 1 -65.0896 -28.9623 1 -63.4695 -30.1327 1 
-64.0356 -31.3219 1 -64.5409 -30.1427 1 -67.2724 -29.014 1 
-55.0221 -5.12575 1 -65.1034 -31.3362 1 -93.2764 61.7557 1 
-92.82 60.7425 1 -92.2633 61.5524 1 -91.8068 60.5392 1 
-45.1353 -1.21052 1 -44.082 -1.65941 1 -44.0199 -11.3788 1 
-43.0218 -10.7244 1 -61.7238 -10.539 1 -60.4367 -11.7226 1 
-63.3449 6.9766 1 -64.5157 6.42876 1 -63.3125 5.84833 1 
-86.8013 -28.1336 1 -93.0843 63.3764 1 -92.6231 62.5347 1 
-77.4564 60.1481 1 -88.7392 -30.5507 1 -88.3425 -29.3049 1 
-86.2725 9.70009 1 -67.9084 2.83182 1 -49.1662 21.1048 1 
-63.4407 14.7291 1 -63.3959 15.8184 1 -64.5796 15.3096 1 
-89.6382 55.9737 1 -80.6798 9.61589 1 -77.3765 10.1508 1 
-78.4391 9.61425 1 -76.1399 11.773 1 -76.1407 12.8738 1 
-77.3914 12.3047 1 -78.4471 12.8324 1 -77.3596 13.3773 1 
-79.7341 17.711 1 -75.3444 55.371 1 -76.3628 55.388 1 
-75.8703 54.106 1 -73.0761 38.4506 1 -72.3804 40.1514 1 
-71.4111 38.6948 1 -40.8808 57.1576 1 -40.8827 56.1003 1 
-41.7391 56.5423 1 -42.6131 57.0316 1 -41.6781 57.6326 1 
-50.9168 59.1552 1 -50.2522 58.0854 1 -49.1779 58.1887 1 
-49.8154 59.2196 1 -67.8757 14.8478 1 -66.8375 15.3333 1 
-67.913 15.8272 1 -47.3341 57.3372 1 -46.5182 56.4431 1 
-95.6032 -22.715 1 -95.6305 -23.782 1 -45.2582 -16.4143 1 
-76.4033 33.8696 1 -92.0026 29.9034 1 -47.6211 -17.7202 1 
-46.3735 -18.152 1 -74.12 46.5162 1 -75.4547 46.2245 1 
-75.2291 52.6759 1 -76.3782 52.7524 1 -74.7678 54.1905 1 
-98.9135 47.4532 1 -51.115 63.3763 1 -48.6334 7.74019 1 
-59.4506 33.0191 1 -58.3179 34.0257 1 -59.8164 34.7016 1 
-58.2105 35.6782 1 -44.1766 24.5835 1 -93.1305 -9.36936 1 
-93.1416 -8.26521 1 -43.0504 -4.25564 1 -44.1213 -17.9879 1 
-40.974 -0.756171 1 -54.8811 3.96478 1 -55.0863 5.4809 1 
-55.395 -27.8516 1 -83.4074 16.266 1 -83.4281 17.3351 1 
-44.9786 -23.9092 1 -82.2768 15.6779 1 -83.4739 15.2023 1 
-45.9067 61.636 1 -44.9782 61.7622 1 -53.1661 31.8086 1 
-89.4749 -34.6922 1 -56.9144 -32.4793 1 -85.3904 -30.4458 1 
-72.1973 -27.8004 1 -72.7805 -26.5023 1 -71.6404 -26.5669 1 
-66.7737 -20.3903 1 -65.2966 -20.5034 1 -71.66 -29.0767 1 
-97.8656 -14.808 1 -67.8516 21.2823 1 -46.2293 8.98186 1 
-46.2233 10.0936 1 -93.0823 39.1807 1 -45.1156 10.7342 1 
-71.9274 -0.26704 1 -71.7409 -1.44823 1 -41.017 -8.31851 1 
-67.9065 10.409 1 -98.9015 -15.3604 1 -68.1017 51.3026 1 
-66.7526 50.591 1 -67.5406 52.4335 1 -57.9101 30.8378 1 
-56.0012 30.0026 1 -57.8365 29.1208 1 -57.6238 27.8289 1 
-42.9478 2.31562 1 -44.1752 40.9955 1 -96.7332 9.55699 1 
-95.5155 9.05115 1 -48.0927 58.3148 1 -47.7197 59.4749 1 
-91.9079 -7.69663 1 -98.9965 50.6286 1 -46.4725 28.8415 1 
-45.315 29.5037 1 -95.5586 -18.117 1 -47.3631 9.50935 1 
-48.6208 10.0041 1 -48.5586 8.84691 1 -94.4223 -22.1387 1 
-91.8856 -2.24303 1 -91.9166 -1.10722 1 -79.8044 -30.2022 1 
-80.3655 -31.4142 1 -79.2687 -31.3639 1 -99.0089 -20.8588 1 
-89.0469 6.46812 1 -96.8621 26.9226 1 -96.8832 27.9887 1 
-97.7941 6.83377 1 -54.0765 8.87728 1 -97.8271 10.1394 1 
-63.3597 55.3236 1 -62.7755 53.8885 1 -50.4694 -15.5414 1 
-98.8364 6.23861 1 -48.7288 -8.37198 1 -48.7662 -7.23322 1 
-49.8691 -7.75107 1 -99.0438 33.3546 1 -97.8973 33.9136 1 
-90.4923 -8.25255 1 -91.9346 -8.77058 1 -54.8704 62.3799 1 
-46.3964 45.2959 1 -65.7135 15.859 1 -65.7101 16.9023 1 
-66.8341 16.3767 1 -50.1569 -17.9275 1 -48.9122 -17.2448 1 
-50.291 -14.3788 1 -51.7975 -13.8292 1 -64.8713 35.7857 1 
-45.3162 17.3526 1 -62.0293 36.6073 1 -79.3602 -21.9963 1 
-78.2391 -22.0099 1 -78.8803 -20.5355 1 -78.7618 -27.6658 1 
-79.3989 -26.4779 1 -79.8123 -32.5129 1 -78.6996 -32.4306 1 
-93.076 7.99641 1 -94.3933 8.49578 1 -93.1002 9.02744 1 
-68.4685 -31.3915 1 -69.0463 -32.4994 1 -79.2639 -28.995 1 
-78.7282 -30.1566 1 -75.5661 -8.49532 1 -76.9144 -9.26565 1 
-76.8726 -7.54957 1 -75.4264 -34.6044 1 -64.5801 16.4185 1 
-74.9371 38.2879 1 -74.3253 39.8602 1 -76.026 39.572 1 
-75.4143 41.1443 1 -98.9544 56.1788 1 -97.931 56.7794 1 
-49.9358 -12.2603 1 -49.8822 -11.1908 1 -81.0748 6.35754 1 
-81.0719 7.4931 1 -85.8703 7.54 1 -84.8497 8.49881 1 
-76.2164 6.30581 1 -77.4349 5.73508 1 -76.2383 7.41365 1 
-98.9772 42.0217 1 -90.4239 36.9064 1 -89.1829 36.2086 1 
-74.4906 -15.7216 1 -94.4503 28.9996 1 -95.6022 28.5248 1 
-77.4723 62.3048 1 -69.3618 63.3771 1 -73.8944 -10.8681 1 
-74.0812 -9.10651 1 -75.3793 -10.257 1 -77.0035 63.3225 1 
-91.8003 16.2083 1 -92.6027 -28.4901 1 -93.564 -27.4867 1 
-93.7529 -28.6684 1 -55.6285 55.3586 1 -52.7318 54.068 1 
-96.6473 -18.694 1 -98.8877 -2.43462 1 -90.347 6.94574 1 
-90.4166 5.88832 1 -87.433 4.75403 1 -87.9095 34.4813 1 
-89.3482 35.1131 1 -89.3886 34.0152 1 -90.427 12.3267 1 
-95.2223 63.5202 1 -61.23 33.5321 1 -83.1755 25.8799 1 
-86.043 21.99 1 -83.0163 32.1442 1 -88.0115 29.2512 1 
-86.8411 28.6652 1 -76.3348 0.440757 1 -76.3681 1.70734 1 
-77.5607 0.905113 1 -89.3849 31.8163 1 -72.296 -11.5453 1 
-87.9102 50.3833 1 -48.9302 -28.0007 1 -43.0431 -19.435 1 
-44.0659 -20.128 1 -78.0223 59.017 1 -62.4194 4.61738 0.497431 
-63.6274 5.2799 1.49743 -63.6388 5.3019 0.497431 -91.8088 37.4637 1 
-87.7442 35.5768 1 -87.6528 36.729 1 -86.7383 -22.9746 1 
-89.2426 -31.5426 1 -90.3436 -31.5444 1 -96.0385 -31.8676 1 
-52.8877 29.3931 1 -54.557 29.4672 1 -75.2084 1.18089 1 
-75.2163 2.33387 1 -70.5036 -1.58204 1 -69.5036 -1.58204 1 
-55.0193 6.66068 1 -56.4714 6.03811 1 -74.446 -4.66414 1 
-73.0092 1.32313 1 -80.8553 16.1751 1 -70.7853 -3.74745 1 
-70.1999 -5.12604 1 -71.6594 -4.80649 1 -69.1852 51.6222 1 
-70.2626 51.3455 1 -69.8533 52.8922 1 -78.4661 52.0706 1 
-77.3917 52.8285 1 -55.4794 9.4528 1 -47.3321 60.528 1 
-47.9098 61.4694 1 -78.6058 52.8596 1 -47.0825 -25.3033 1 
-53.2102 63.3829 1 -52.1352 63.324 1 -49.0483 54.7199 1 
-96.8816 -26.4366 1 -93.1327 40.2476 1 -91.8756 40.6729 1 
-95.4934 16.6219 1 -94.3406 17.2246 1 -70.7998 -6.00646 1 
-92.2527 24.6186 1 -71.9141 28.046 1 -72.1816 -5.93615 1 
-51.4287 17.6057 1 -51.4088 16.4136 1 -90.4098 1.48382 1 
-93.3837 57.4347 1 -92.2596 58.2036 1 -92.134 57.0205 1 
-84.4419 21.3589 1 -84.4731 22.564 1 -93.4634 58.5033 1 
-50.3656 -4.45496 1 -83.2031 -1.74206 1 -82.9422 -0.330087 1 
-84.3335 -1.01506 1 -92.2991 58.8847 1 -92.8074 59.7642 1 
-91.0953 58.585 1 -66.6387 60.1918 1 -91.9347 41.7073 1 
-93.1503 41.2805 1 -50.3703 18.2575 1 -83.5158 28.7269 1 
-85.0579 28.5112 1 -69.8621 55.3547 1 -69.3173 54.1324 1 
-79.9811 -5.96004 1 -79.9777 -7.51818 1 -78.4558 -6.85577 1 
-60.7741 -33.5642 1 -61.3042 -34.6328 1 -72.1054 57.9066 1 
-74.3691 -27.6584 1 -68.2705 59.0364 1 -90.7062 -23.1831 1 
-73.5179 -20.4127 1 -73.1227 -22.0411 1 -73.8033 -23.4608 1 
-95.7074 -26.0276 1 -63.9068 56.6577 1 -67.2145 61.3269 1 
-67.7941 62.3538 1 -73.4066 30.8761 1 -73.0241 32.1232 1 
-68.4762 -12.6212 1 -63.5403 -1.52322 1 -64.7335 -0.620318 1 
-94.6065 -26.8797 1 -93.4622 -26.3915 1 -86.4415 49.6683 1 
-59.6395 15.3798 1 -96.8308 -25.3322 1 -75.1372 9.02376 1 
-91.1751 61.566 1 -48.9962 -13.9038 1 -87.5882 -10.3945 1 
-55.7507 11.8254 1 -56.9665 11.0164 1 -55.5155 10.6168 1 
-47.5452 -6.66597 1 -47.493 -7.83212 1 -94.4148 12.8623 1 
-99.033 29.1445 1 -53.4055 -4.3675 1 -70.4901 37.4211 1 
-69.6582 38.8068 1 -56.6186 37.0469 1 -58.9278 37.3335 1 
-93.1955 30.525 1 -91.9971 30.9335 1 -73.4242 34.4721 1 
-58.1596 1.47629 1 -64.8325 30.5523 1 -52.7801 14.9818 1 
-51.5464 14.2381 1 -53.0792 13.5895 1 -68.1844 56.5661 1 
-68.8107 57.86 1 -77.6055 -32.4937 1 -48.7966 -11.7437 1 
-48.8502 -12.8133 1 -47.2103 -31.6368 1 -52.751 16.0983 1 
-45.1677 13.0222 1 -93.2104 44.6385 1 -91.95 45.0744 1 
-91.9533 43.9144 1 -52.4621 9.84761 1 -53.9078 10.2491 1 
-56.2517 2.10314 1 -54.9058 2.7884 1 -68.335 63.3427 1 
-77.364 19.9621 1 -87.46 40.0843 1 -87.5652 41.2087 1 
-55.514 -23.8474 1 -57.061 -23.866 1 -76.3912 -16.642 1 
-76.8115 -14.7032 1 -82.4979 -14.9672 1 -82.5446 -13.4002 1 
-76.9148 -12.9777 1 -87.4362 38.998 1 -87.4638 37.8399 1 
-94.3863 37.5412 1 -81.6241 -21.2383 1 -56.1391 -2.56856 1 
-54.9788 -25.1845 1 -79.7248 11.2597 1 -79.7132 12.2958 1 
-40.951 51.7274 1 -98.98 -7.66649 1 -97.8578 -7.16592 1 
-99.0082 -6.6122 1 -97.886 -6.11163 1 -85.1921 47.7725 1 
-86.4338 48.4858 1 -91.9179 46.2122 1 -51.5035 -18.5004 1 
-51.3354 -19.698 1 -50.0979 -19.0274 1 -52.3913 -20.7553 1 
-67.8741 -30.2266 1 -72.6176 54.178 1 -89.1918 9.68556 1 
-98.9885 -14.232 1 -44.7724 54.9556 1 -45.6528 55.6221 1 
-53.9444 21.9393 1 -71.3993 -8.67337 1 -71.7913 -7.37038 1 
-97.88 31.7738 1 -81.3601 29.462 1 -81.9156 28.0651 1 
-48.9852 61.4178 1 -75.7081 -3.66973 1 -50.9328 -33.7772 1 
-50.3747 -34.7254 1 -84.0903 -22.5581 1 -84.921 -21.1739 1 
-86.2494 -21.5463 1 -86.0787 20.867 1 -84.4776 20.2359 1 
-72.9667 -8.44264 1 -72.5748 -9.74563 1 -74.8685 -2.50799 1 
-64.9581 -26.3729 1 -96.7889 34.3927 1 -93.1685 -1.71981 1 
-94.4198 -2.22114 1 -99.1996 60.5295 1 -91.87 12.9045 1 
-95.0512 60.3674 1 -96.1149 60.5214 1 -96.9823 58.4625 1 
-96.894 57.3717 1 -94.4509 32.1085 1 -95.5823 32.7505 1 
-94.4698 33.1853 1 -94.5337 23.6276 1 -47.4173 50.4696 1 
-45.3604 30.576 1 -41.0166 46.3168 1 -95.5368 19.9191 1 
-44.1058 14.6783 1 -45.2347 14.0179 1 -41.0486 22.3709 1 
-54.5866 30.6762 1 -41.0403 21.1524 1 -42.0645 21.6077 1 
-90.5078 24.2971 1 -48.9445 -2.75228 1 -90.7791 25.1664 1 
-89.1039 24.0907 1 -50.0742 -8.98559 1 -41.9719 -1.37194 1 
-41.0223 -1.75017 1 -77.6271 -34.5879 1 -40.9927 -2.83319 1 
-65.6393 26.0027 1 -67.9122 26.8768 1 -65.7278 3.73981 1 
-65.7491 2.596 1 -66.822 3.28842 1 -66.816 4.38245 1 
-69.9552 60.2261 1 -69.3697 59.0693 1 -41.023 39.8141 1 
-40.9184 -26.6254 1 -41.8296 -26.2335 1 -62.2104 15.3548 1 
-44.1362 35.5563 1 -45.1469 6.37083 1 -44.0377 5.95487 1 
-85.6208 32.9114 1 -87.0911 32.8011 1 -44.0813 -2.72636 1 
-43.0433 -2.04566 1 -93.9398 59.6976 1 -40.9928 5.8701 1 
-46.9436 54.089 1 -40.8113 59.1537 1 -45.2929 -17.5461 1 
-42.9693 0.0899227 1 -44.0036 0.544778 1 -44.0084 -0.569906 1 
-44.1173 -16.8601 1 -43.0138 43.8876 1 -43.044 42.7723 1 
-44.1629 43.1856 1 -72.0037 13.9348 1 -72.9407 13.4216 1 
-74.3788 -34.6133 1 -58.1723 15.8565 1 -58.2342 14.785 1 
-87.2084 -29.2836 1 -97.8135 5.72055 1 -76.1601 9.59865 1 
-66.7581 24.0986 1 -72.8303 28.7873 1 -71.8674 29.133 1 
-60.6295 27.7149 1 -99.1996 61.5295 1 -61.7683 35.0109 1 
-43.0906 25.3103 1 -71.9085 8.53903 1 -68.7849 40.3884 1 
-67.9177 41.9048 1 -51.7492 38.9699 1 -50.5361 40.0508 1 
-51.4953 37.8815 1 -50.2822 38.9624 1 -46.467 16.6632 1 
-47.5941 16.0502 1 -77.7527 39.2402 1 -54.3359 -28.0764 1 
-81.3985 31.0153 1 -75.0873 18.7994 1 -98.9744 -34.4844 1 
-63.5897 30.1247 1 -51.7467 -26.4075 1 -62.2155 20.9211 1 
-63.4946 21.4727 1 -62.2073 22.07 1 -69.4512 -26.7115 1 
-68.3361 -26.6078 1 -50.2895 -3.37547 1 -89.3783 50.8453 1 
-41.0364 19.0236 1 -41.9715 -0.325866 1 -45.159 5.2782 1 
-44.009 4.90579 1 -42.9973 9.86676 1 -42.9848 8.76486 1 
-76.0926 15.0331 1 -75.0675 15.5375 1 -71.9998 16.0558 1 
-64.6803 -34.5558 1 -44.8979 63.5251 1 -61.0693 12.5083 1 
-62.2863 13.0954 1 -73.9646 -2.00495 1 -68.3137 -24.3288 1 
-67.1223 40.303 1 -64.0916 -33.5404 1 -63.5557 -34.619 1 
-57.5223 22.0471 1 -55.5633 22.8249 1 -98.9956 9.57857 1 
-52.2447 55.4347 1 -51.4872 54.2177 1 -59.0153 57.9031 1 
-59.5676 56.7003 1 -58.4896 56.6973 1 -44.0195 11.3997 1 
-42.9806 10.9907 1 -89.0311 -12.1109 1 -87.429 -12.752 1 
-88.992 -13.2638 1 -75.0623 -1.21183 1 -98.8852 32.3345 1 
-97.9046 32.8236 1 -81.496 2.76695 1 -81.6568 4.01912 1 
-96.7449 5.28547 1 -90.3849 18.9458 1 -41.9087 51.1084 1 
-65.7331 12.5377 1 -79.6669 15.5707 1 -80.8067 15.0873 1 
-79.7155 16.6585 1 -85.7267 61.2631 1 -45.2895 32.8 1 
-79.6991 10.1674 1 -95.8294 58.1659 1 -95.7153 56.9908 1 
-76.0718 16.1141 1 -81.3818 -3.92352 1 -81.3951 -2.45091 1 
-72.2343 31.1526 1 -43.0733 41.6616 1 -64.571 17.4957 1 
-65.6838 18.0867 1 -64.5724 18.6061 1 -76.5502 -30.162 1 
-75.9777 -31.3469 1 -68.9612 -30.2472 1 -68.3668 -29.0823 1 
-43.0669 40.615 1 -62.9594 -31.3263 1 -63.5291 -32.4282 1 
-75.0901 13.4387 1 -76.123 13.9195 1 -42.0672 17.0915 1 
-43.1546 20.9265 1 -46.2065 7.86579 1 -73.6876 29.6595 1 
-72.5492 30.0039 1 -41.911 49.9849 1 -69.6581 -8.7515 1 
-80.0022 -4.56518 1 -44.1485 16.8693 1 -43.0912 16.417 1 
-41.0494 16.7173 1 -88.5008 -34.6077 1 -87.3688 -34.6922 1 
-45.6589 -32.6491 1 -46.7593 -32.6193 1 -53.8036 23.3109 1 
-76.3249 5.17613 1 -70.2761 -12.0695 1 -87.5279 15.656 1 
-70.1309 -34.6248 1 -70.6275 -33.6119 1 -71.181 -34.6215 1 
-86.2731 15.2231 1 -69.5768 -33.5994 1 -51.0997 47.5472 1 
-41.9799 43.4685 1 -43.3044 58.5372 1 -44.0732 59.1419 1 
-44.211 58.2864 1 -45.2993 16.1799 1 -44.1349 15.7171 1 
-60.844 61.3238 1 -70.9503 55.4027 1 -62.9547 -33.5479 1 
-47.6993 -28.5433 1 -50.3419 -32.7944 1 -45.9806 -34.7209 1 
-70.444 56.616 1 -69.9476 57.8757 1 -86.4003 -32.6404 1 
-86.9229 -33.6569 1 -86.3486 -34.5991 1 -41.0399 38.685 1 
-54.3462 63.3458 1 -94.369 61.7508 1 -85.9097 -31.5297 1 
-76.125 19.4027 1 -96.8277 24.6974 1 -90.6158 52.6748 1 
-44.0529 -8.14764 1 -45.445 56.7883 1 -66.06 41.8008 1 
-66.8394 43.6063 1 -48.6972 38.5882 1 -52.4998 36.8752 1 
-98.9743 39.8056 1 -42.983 -9.66218 1 -97.8893 -24.7262 1 
-97.8871 -21.4738 1 -91.8825 8.55929 1 -80.6527 8.51265 1 
-79.6721 9.06412 1 -74.078 3.00958 1 -74.1546 1.87225 1 
-76.2669 -0.713025 1 -71.973 25.7961 1 -78.3792 -10.1432 1 
-80.0147 -10.8456 1 -79.8593 -9.08954 1 -89.134 -6.55939 1 
-87.9137 -6.01116 1 -89.2092 -7.63917 1 -87.9889 -7.09094 1 
-74.0964 24.9268 1 -57.7212 -9.27516 1 -75.2237 25.6286 1 
-44.0449 -7.10154 1 -45.164 -6.67482 1 -67.8648 3.93324 1 
-92.2762 -27.1778 1 -52.9174 30.6022 1 -84.6852 61.2501 1 
-84.0316 62.3287 1 -83.5535 61.2697 1 -99.0038 48.4592 1 
-73.1631 55.4349 1 -99.0134 46.3187 1 -40.9843 7.95091 1 
-88.1595 59.2462 1 -63.353 39.9657 1 -95.6008 26.3188 1 
-55.6447 39.8106 1 -53.3935 55.3999 1 -62.5916 38.401 1 
-90.4037 -11.5602 1 -86.0257 40.5896 1 -86.1708 42.0796 1 
-47.4248 8.31942 1 -77.3614 18.8725 1 -42.9698 7.64532 1 
-45.1884 11.8724 1 -41.9509 10.5666 1 -41.0072 10.1791 1 
-62.3022 -2.33094 1 -60.5421 -3.35109 1 -62.2233 -4.00845 1 
-47.5334 -12.2463 1 -46.3743 -12.7425 1 -47.5545 -13.3109 1 
-40.9981 -13.7158 1 -40.9727 -14.8058 1 -41.9464 -14.3872 1 
-89.1205 -10.9799 1 -49.8966 46.816 1 -65.6558 21.3462 1 
-64.5023 21.9902 1 -60.7946 37.9534 1 -72.9594 -1.23433 1 
-40.9822 50.5967 1 -48.6523 -9.48559 1 -48.7595 -10.6094 1 
-50.1814 -10.1094 1 -73.1219 -5.06061 1 -98.8577 17.0605 1 
-97.8559 17.7001 1 -97.8586 16.5737 1 -99.0253 16.0788 1 
-93.0703 12.2864 1 -71.9594 23.6017 1 -95.5865 34.9257 1 
-95.5676 33.8203 1 -89.1639 -5.48507 1 -65.338 -18.4556 1 
-97.0082 -28.7741 1 -97.9869 -29.3059 1 -44.1816 42.0422 1 
-45.2645 42.5185 1 -99.0472 -29.6842 1 -62.4488 5.79386 1.49743 
-63.4546 11.4335 1 -64.5102 23.133 1 -67.8943 8.2 1 
-66.8054 5.4293 1 -65.6298 5.88246 1 -59.1929 21.5108 1 
-93.1186 -11.5619 1 -91.8552 36.3715 1 -79.901 -27.807 1 
-76.6897 42.5103 1 -86.0905 -10.9186 1 -87.4988 -11.5255 1 
-86.0207 -12.145 1 -50.1956 31.6942 1 -72.1454 60.1822 1 
-72.6778 59.057 1 -77.4725 55.289 1 -76.8838 54.1821 1 
-77.9955 54.1788 1 -78.2036 37.6128 1 -76.9304 59.0435 1 
-90.4703 35.8142 1 -82.2887 12.4002 1 -44.5886 59.92 1 
-43.4806 60.4606 1 -42.9652 59.6825 1 -74.1027 26.0245 1 
-42.4948 58.1757 1 -80.9389 11.6992 1 -58.2038 2.71967 1 
-91.9791 28.854 1 -93.2031 29.5069 1 -97.8649 53.4882 1 
-45.2898 31.7268 1 -48.6749 35.3926 1 -45.2193 36.0255 1 
-46.3725 35.4432 1 -45.2894 34.974 1 -47.8816 54.9239 1 
-95.5851 -7.24899 1 -96.7463 -7.72762 1 -96.7538 -6.6485 1 
-40.9961 27.9213 1 -40.9961 -9.39193 1 -43.0497 -16.1762 1 
-43.0486 -15.0631 1 -41.9561 -15.4867 1 -74.0348 5.2506 1 
-73.0033 4.75588 1 -72.9952 5.80796 1 -68.6242 52.7531 1 
-51.0673 10.9842 1 -47.8236 21.6156 1 -51.4348 -32.7427 1 
-90.3938 17.8083 1 -76.5443 -32.4466 1 -72.9935 24.2059 1 
-79.0192 50.8742 1 -57.2579 23.4591 1 -78.5228 62.289 1 
-64.5981 -32.4341 1 -50.3368 -13.295 1 -51.7798 -12.6782 1 
-97.1538 -32.3463 1 -64.5528 20.8654 1 -80.921 -32.493 1 
-99.003 -23.0759 1 -91.0511 -26.9529 1 -53.0696 -33.6855 1 
-60.7003 21.4665 1 -49.2312 -34.6949 1 -80.413 -29.0838 1 
-86.434 29.7217 1 -71.057 60.1788 1 -44.098 45.4063 1 
-90.4157 -9.30348 1 -92.8939 -29.5651 1 -55.9737 35.2901 1 
-97.8288 39.2624 1 -43.1223 24.2151 1 -51.8022 56.7256 1 
-52.916 56.6378 1 -41.0323 14.4467 1 -81.4102 -5.24172 1 
-69.307 56.6003 1 -42.8218 -25.8519 1 -41.0096 -7.268 1 
-96.7661 17.1764 1 -46.5351 41.926 1 -95.0299 59.1395 1 
-94.7393 58.724 1 -44.3995 60.8756 1 -52.4954 -32.6488 1 
-40.8218 58.2407 1 -54.7358 37.1108 1 -47.9319 63.4106 1 
-47.4374 62.5007 1 -45.2361 57.8639 1 -94.7603 -27.7881 1 
-80.974 -30.2957 1 -95.5803 -6.16911 1 -81.4549 -31.4287 1 
-96.7744 16.0807 1 -83.0499 23.3087 1 -94.4199 -7.70813 1 
-96.7551 52.9005 1 -73.0071 25.3803 1 -60.4051 26.3561 1 
-58.873 27.0885 1 -90.3795 16.6935 1 -41.8278 -28.4221 1 
-41.8473 -27.3321 1 -95.5285 41.3829 1 -60.4953 20.4558 1 
-57.1243 12.0415 1 -73.0198 23.1505 1 -73.2336 -6.902 1 
-40.898 -31.0372 1 -41.7908 -31.6966 1 -73.9664 12.8757 1 
-41.7122 61.5096 1 -90.0117 61.4898 1 -93.9523 60.6759 1 
-72.1714 62.3681 1 -72.7246 61.3358 1 -73.7638 61.3086 1 
-47.4875 34.8413 1 -47.5599 35.9946 1 -46.3208 36.4808 1 
-93.1004 -10.4566 1 -91.8952 -10.9908 1 -94.4064 9.5932 1 
-94.4205 10.6497 1 -93.0536 10.1335 1 -95.6178 54.6791 1 
-98.8867 54.0138 1 -73.6898 54.1743 1 -93.1327 -13.723 1 
-43.079 39.5236 1 -45.2029 -12.0342 1 -44.0598 -12.455 1 
-45.2312 -13.1633 1 -43.0106 -0.985695 1 -94.5456 56.4803 1 
-94.6597 57.6554 1 -49.6123 -24.5968 1 -92.0431 -30.5745 1 
-91.4153 -31.5851 1 -63.3298 18.0163 1 -63.339 16.939 1 
-67.9024 4.97585 1 -78.371 16.0797 1 -79.6804 14.5133 1 
-73.822 -26.3721 1 -73.3014 -27.7251 1 -71.9853 24.7058 1 
-60.0774 36.2981 1 -65.539 60.1741 1 -56.5968 41.7049 1 
-63.4523 13.627 1 -63.4557 12.521 1 -41.9961 -6.87088 1 
-41.9959 -5.80966 1 -43.0224 -6.44931 1 -82.8959 -21.2737 1 
-40.9533 -27.7411 1 -43.6507 -30.9458 1 -45.711 -30.3352 1 
-65.6522 -30.1559 1 -96.7726 50.7392 1 -83.1038 -24.2404 1 
-47.4796 -8.86547 1 -44.023 3.79907 1 -62.8994 -9.04462 1 
-63.2583 19.2069 1 -64.0367 -7.89792 1 -45.25 37.1131 1 
-67.9215 27.9878 1 -71.2934 -2.44191 1 -68.2659 -23.5242 1 
-77.7653 33.329 1 -60.8931 -5.00142 1 -62.6003 -5.48986 1 
-62.1536 -0.979782 1 -79.9851 -21.1021 1 -64.3586 -6.14794 1 
-62.4924 -7.26304 1 -86.0384 23.1004 1 -96.0936 59.2935 1 
-83.3398 19.5891 1 -42.9574 51.5998 1 -80.8499 13.9724 1 
-47.9012 42.488 1 -91.8786 7.45315 1 -94.4611 34.2818 1 
-60.7851 -6.77461 1 -58.9581 -5.95119 1 -61.3551 -8.40974 1 
-59.528 -7.58632 1 -90.6022 45.6583 1 -95.661 55.8693 1 
-60.5585 24.9646 1 -46.3345 46.4226 1 -48.8533 -18.3447 1 
-72.0166 5.31218 1 -80.1665 2.08666 1 -80.1576 3.39708 1 
-48.9826 18.8767 1 -51.0704 55.5692 1 -98.9007 -19.7261 1 
-90.3972 10.1385 1 -51.5173 15.3547 1 -41.0744 -34.5344 1 
-54.4897 12.9153 1 -80.8316 12.8881 1 -54.1429 11.4577 1 
-94.4759 31.1136 1 -90.8986 56.3125 1 -90.7534 55.0857 1 
-82.5714 50.0736 1 -51.6797 32.2911 1 -89.8488 -30.5484 1 
-88.1072 -31.5358 1 -61.0797 2.23867 1 -62.3455 2.8876 1 
-62.0625 4.02038 1 -62.17 0.385366 1 -62.3239 1.59648 1 
-78.9596 26.6131 1 -73.1572 -24.9508 1 -72.1748 -25.4123 1 
-70.8926 -10.4676 1 -55.7885 28.7107 1 -85.1707 54.3919 1 
-85.6976 55.613 1 -57.3825 54.0858 1 -46.261 57.6824 1 
-91.0241 57.4956 1 -84.5994 17.8715 1 -90.7698 -24.3298 1 
-85.3185 9.40355 1 -85.2906 10.4875 1 -83.735 9.91271 1 
-90.523 -18.3277 1 -46.3092 -11.599 1 -47.4963 -11.1119 1 
-52.3865 40.7355 1 -48.7063 36.5337 1 -79.0915 34.4175 1 
-78.6433 36.0487 1 -84.842 46.3711 1 -56.2059 -22.5108 1 
-75.4478 -24.9442 1 -58.1254 18.3364 1 -59.3955 17.6932 1 
-74.4681 -24.8821 1 -62.1867 9.72161 1 -54.8809 0.0337575 1 
-53.1096 -0.784566 1 -73.9429 19.323 1 -51.2865 46.3438 1 
-85.3031 50.4786 1 -80.7499 62.31 1 -57.8705 55.4355 1 
-58.9904 55.3845 1 -54.0461 41.3407 1 -99.0078 2.99702 1 
-50.7581 -25.3865 1 -89.0995 4.30262 1 -89.1165 5.41069 1 
-94.4426 30.0177 1 -70.0728 -32.526 1 -69.5423 -31.426 1 
-67.8541 6.04509 1 -59.3908 -4.18606 1 -57.7019 -7.0633 1 
-80.5999 33.9597 1 -80.8561 32.3699 1 -79.9753 5.69098 1 
-81.6106 5.17726 1 -49.9049 37.9538 1 -78.3783 17.1964 1 
-76.7621 -10.9027 1 -60.5948 -25.1861 1 -73.7892 37.0433 1 
-78.4126 -13.8369 1 -78.5318 -12.2183 1 -48.8248 -6.14157 1 
-81.9801 -32.5411 1 -73.9211 16.1072 1 -76.018 51.3954 1 
-51.8658 52.8996 1 -41.0009 4.76029 1 -93.7722 62.5309 1 
-87.8565 42.2511 1 -91.8733 -12.077 1 -75.1265 12.3013 1 
-93.0947 -21.7184 1 -90.9022 26.262 1 -75.4454 -30.149 1 
-48.755 4.48718 1 -47.4872 5.18185 1 -41.9693 5.16478 1 
-43.008 5.57912 1 -47.4773 -19.8939 1 -47.481 10.5884 1 
-80.1475 -0.488697 1 -81.4297 -1.19353 1 -47.5221 -18.7659 1 
-77.9157 -17.452 1 -78.3359 -15.5132 1 -59.8107 11.9378 1 
-51.5098 13.1744 1 -62.9437 43.5005 1 -55.0474 14.1322 1 
-52.9398 -12.7405 1 -84.5588 -7.92564 1 -79.7904 -15.5532 1 
-80.937 -14.1613 1 -83.4336 -7.47889 1 -83.2369 -9.00145 1 
-81.6077 -8.31643 1 -79.0766 -18.7782 1 -80.6194 -19.5983 1 
-64.0779 41.8952 1 -74.8926 -19.8671 1 -54.0543 19.3054 1 
-67.9215 29.0678 1 -51.6551 -3.89958 1 -60.7864 5.73379 1 
-83.2546 27.241 1 -56.2671 0.502099 1 -97.8705 -2.89778 1 
-82.8634 37.6203 1 -82.5934 39.3012 1 -82.5959 40.7536 1 
-84.2564 40.3479 1 -47.4746 43.5793 1 -59.5472 -9.79819 1 
-69.4877 -18.3021 1 -70.6917 -16.8526 1 -90.5632 50.3455 1 
-99.0072 -3.39756 1 -81.5032 -11.7032 1 -84.6697 15.7231 1 
-68.7298 -20.7247 1 -75.2037 49.8674 1 -64.4833 55.3669 1 
-98.89 -24.1572 1 -91.9046 -9.85779 1 -91.9172 9.61008 1 
-84.8532 43.304 1 -86.2351 16.3362 1 -43.0973 26.4199 1 
-44.1746 25.6936 1 -40.7345 63.5853 1 -83.4195 47.6217 1 
-52.7103 -19.271 1 -82.2584 -19.7345 1 -83.7235 10.9462 1 
-89.2108 15.1168 1 -90.6252 42.2469 1 -83.0448 -18.1987 1 
-83.1397 -16.5082 1 -57.2748 44.3119 1 -65.1852 40.2697 1 
-60.84 -0.284926 1 -67.9319 -18.5728 1 -66.4962 -16.638 1 
-65.6622 7.01072 1 -65.6404 4.83561 1 -64.6136 1.81585 1 
-63.5291 2.3063 1 -66.0404 -6.45528 1 -68.2204 -1.46677 1 
-50.5307 41.2696 1 -68.7215 46.4448 1 -89.4112 32.9565 1 
-95.6024 -8.269 1 -83.2043 -4.64413 1 -43.8657 63.4319 1 
-44.4068 62.5332 1 -40.9216 54.982 1 -83.3124 18.4545 1 
-45.437 60.7645 1 -41.0117 26.767 1 -54.8654 1.6348 1 
-68.9033 -27.889 1 -69.4782 -29.0753 1 -47.1658 1.95356 1 
-87.5167 -32.5394 1 -97.0456 62.5573 1 -98.9873 55.0472 1 
-98.9444 63.2656 1 -98.5699 62.3547 1 -97.6597 61.7395 1 
-42.7412 -31.3406 1 -63.2737 20.3139 1 -64.5878 19.7131 1 
-75.1642 22.15 1 -76.2713 21.583 1 -96.7962 33.3027 1 
-60.1978 -32.4534 1 -79.1944 53.9666 1 -66.108 61.2973 1 
-65.0209 61.2977 1 -59.6007 54.2128 1 -97.9172 55.6604 1 
-43.0933 15.3085 1 -44.5937 -29.4628 1 -43.0185 -7.52311 1 
-91.912 -3.31569 1 -41.9773 -10.069 1 -48.7815 -29.0266 1 
-78.4976 -8.57185 1 -98.9143 -10.9619 1 -62.4935 -34.5632 1 
-93.8832 -34.7079 1 -95.0569 -34.7359 1 -65.711 19.1275 1 
-65.7144 20.2492 1 -42.7061 -30.2487 1 -98.8894 36.5725 1 
-96.8397 56.2502 1 -72.0034 0.877136 1 -90.3702 22.1896 1 
-89.0058 21.8589 1 -93.113 -2.84056 1 -44.1485 36.6577 1 
-77.314 16.5992 1 -58.5214 59.0605 1 -81.4035 63.3462 1 
-46.9431 61.5797 1 -45.325 25.034 1 -42.9704 4.49144 1 
-43.102 37.2928 1 -65.7186 -8.20526 1 -53.3451 -26.6845 1 
-40.9892 13.4125 1 -97.8659 -11.5226 1 -79.5096 33.0488 1 
-58.4473 11.4416 1 -43.0061 12.0773 1 -87.6044 30.3077 1 
-42.9558 -11.7802 1 -72.9845 20.9661 1 -81.4068 -6.79987 1 
-41.0056 -10.4614 1 -79.8955 -12.4643 1 -74.4633 48.659 1 
-73.6312 49.9251 1 -98.8834 40.8614 1 -62.3923 60.23 1 
-88.1743 33.4301 1 -61.8649 45.2843 1 -50.0063 12.6669 1 
-84.4502 19.1013 1 -82.5198 5.83467 1 -85.9357 -1.18466 1 
-76.1049 20.4985 1 -80.0214 4.53284 1 -84.4016 41.8379 1 
-84.5189 63.3317 1 -86.8263 33.8523 1 -90.6186 32.582 1 
-90.624 -34.6227 1 -47.5352 13.8652 1 -70.0593 -30.2541 1 
-54.4733 -26.5087 1 -95.5265 -33.8565 1 -81.7631 -10.0725 1 
-62.4183 4.65044 1.49743 -82.2772 42.5691 1 -86.5654 27.6233 1 
-93.1068 38.0875 1 -40.9924 3.62658 1 -40.9749 1.52115 1 
-46.3287 -19.28 1 -46.4505 -33.7301 1 -91.023 -25.6114 1 
-92.2371 -26.1667 1 -96.7743 -5.52874 1 -62.3168 55.357 1 
-84.9728 16.8792 1 -45.1205 8.54353 1 -98.8509 4.20585 1 
-99.0541 27.0037 1 -96.6296 61.5532 1 -67.7995 -27.801 1 
-61.6126 -16.0878 1 -79.6621 13.429 1 -90.9204 -30.5891 1 
-41.0116 -21.3239 1 -41.0422 17.9398 1 -46.7608 55.337 1 
-97.8852 -20.3505 1 -97.8535 51.2581 1 -47.5255 -33.7145 1 
-90.4063 -10.4365 1 -41.0408 33.3095 1 -42.792 -26.9462 1 
-89.2329 59.3274 1 -45.4275 20.6565 1 -50.1701 32.8036 1 
-48.0527 -32.7809 1 -82.0388 -30.2185 1 -96.2555 -32.9806 1 
-76.5754 -27.629 1 -43.0497 -17.2767 1 -46.8537 -27.5684 1 
-62.4076 -30.2022 1 -96.7749 -19.7764 1 -98.976 -11.9951 1 
-52.109 -25.1514 1 -62.0231 5.14805 1 -85.9029 53.1881 1 
-86.2848 54.6011 1 -60.1643 -34.5657 1 -84.1482 -34.6057 1 
-62.38 5.74504 0.497431 
CELLS 6002 66022
10 348 347 192 335 2497 8644 8643 8627 8630 5069 
10 343 200 201 196 8345 2343 8344 8645 8609 8608 
10 338 194 202 345 4792 8605 8646 8633 8647 8327 
10 332 189 350 208 5222 8649 8624 8648 8595 8221 
10 345 194 346 337 8647 8650 2495 8634 4984 8631 
10 350 190 189 333 8651 2330 8649 8623 5191 5192 
10 330 187 331 352 5298 5270 2478 8620 8652 8619 
10 334 191 335 348 5098 5070 2482 8628 8653 8627 
10 204 203 194 346 2346 8614 8604 8310 8311 8650 
10 346 194 345 203 8650 8647 2495 8311 8614 8326 
10 332 208 351 188 8648 8219 8621 5223 8594 8654 
10 189 208 207 350 8595 2350 8596 8649 8221 8222 
10 211 354 353 186 8346 2503 8205 8589 8655 8656 
10 202 194 338 195 8605 4792 8646 8606 2335 4791 
10 334 349 333 190 8625 8626 2481 5099 8657 5191 
10 208 209 351 188 2351 8218 8219 8594 8593 8654 
10 198 8 9 199 8613 2507 8658 8612 2341 8642 
10 345 202 203 194 8327 2345 8326 8647 8605 8614 
10 186 329 12 14 5318 5319 2326 8588 8659 2325 
10 186 354 329 14 8655 8616 5318 8588 8347 8659 
10 354 15 329 14 2504 8615 8616 8347 2508 8659 
10 15 12 13 329 2779 2510 2475 8615 5319 2476 
10 15 12 329 14 2779 5319 8615 2508 2325 8659 
10 354 186 329 353 8655 5318 8616 2503 8656 8618 
10 193 346 194 337 8660 8650 2334 4985 8631 4984 
10 195 201 339 344 8607 8662 4774 8661 8340 8635 
10 193 336 346 337 5063 8632 8660 4985 2484 8631 
10 186 330 329 353 5299 2477 5318 8656 8617 8618 
10 349 348 191 334 2498 8653 8663 8625 8628 5098 
10 336 193 347 192 5063 8664 8629 5064 2333 8644 
10 353 187 330 352 8665 5298 8617 2502 8652 8620 
10 11 8 9 198 8133 2507 2490 7975 8613 8658 
10 332 351 331 188 8621 8622 2479 5223 8654 5269 
10 209 187 331 188 8592 5270 8666 8593 2328 5269 
10 187 209 331 352 8592 8666 5270 8652 8215 8619 
10 351 209 331 188 8218 8666 8622 8654 8593 5269 
10 353 187 352 210 8665 8652 2502 8206 8591 8214 
10 352 209 331 351 8215 8666 8619 2501 8218 8622 
10 341 197 342 340 5321 8667 8639 2488 4764 8640 
10 200 197 342 199 8610 8667 8349 2342 8611 8350 
10 340 200 342 343 8668 8349 8640 8637 8345 2492 
10 198 197 199 342 2338 8611 8612 8669 8667 8350 
10 198 342 9 341 8669 2491 8658 5322 8639 8641 
10 798 1709 965 799 8670 8671 4396 3902 8672 4397 
10 209 187 210 352 8592 8591 2352 8215 8652 8214 
10 198 341 197 342 5322 5321 2338 8669 8639 8667 
10 193 204 347 205 8603 8308 8664 8602 2347 8307 
10 340 200 343 196 8668 8345 8637 4765 8609 8645 
10 340 200 197 342 8668 8610 4764 8640 8349 8667 
10 195 202 344 338 8606 8339 8661 4791 8646 8636 
10 345 338 194 337 8633 4792 8647 8634 2485 4984 
10 80 1279 1278 366 8673 5543 8674 2598 8675 8676 
10 202 345 344 338 8327 2494 8339 8646 8633 8636 
10 1686 1845 942 1846 7241 8678 8677 7245 7246 8679 
10 343 201 344 339 8344 8340 2493 8638 8662 8635 
10 192 347 348 205 8644 2497 8643 8601 8307 8282 
10 191 192 348 205 2332 8643 8653 8600 8601 8282 
10 211 186 353 210 8589 8656 8205 2353 8590 8206 
10 11 8 198 10 8133 8613 7975 2509 2340 2339 
10 353 187 210 186 8665 8591 8206 8656 2327 8590 
10 353 187 186 330 8665 2327 8656 8617 5298 5299 
10 350 190 207 189 8651 8597 8222 8649 2330 8596 
10 334 191 349 190 5098 8663 8625 5099 2331 8657 
10 534 1449 535 1275 8680 8682 3108 8681 6054 8683 
10 192 191 348 335 2332 8653 8643 5069 5070 8627 
10 350 190 333 349 8651 5191 8623 2499 8657 8626 
10 346 193 347 336 8660 8664 2496 8632 5063 8629 
10 195 338 344 339 4791 8636 8661 4774 2486 8635 
10 189 332 188 208 5222 5223 2329 8595 8648 8594 
10 202 195 344 201 8606 8661 8339 2344 8607 8340 
10 347 193 346 204 8664 8660 2496 8308 8603 8310 
10 193 347 192 205 8664 8644 2333 8602 8307 8601 
10 343 340 196 339 8637 4765 8645 8638 2487 4773 
10 339 201 195 196 8662 8607 4774 4773 8608 2336 
10 362 534 535 1275 3104 3108 3106 8684 8681 8683 
10 191 348 349 206 8653 2498 8663 8599 8281 8225 
10 1190 1958 1957 2075 8685 7595 8686 8687 7992 7993 
10 191 206 349 190 8599 8225 8663 2331 8598 8657 
10 193 204 194 346 8603 8604 2334 8660 8310 8650 
10 201 343 196 339 8344 8645 8608 8662 8638 4773 
10 9 342 198 199 2491 8669 8658 8642 8350 8612 
10 189 332 350 333 5222 8624 8649 5192 2480 8623 
10 208 332 351 350 8648 8621 8219 8221 8624 2500 
10 11 198 9 341 7975 8658 2490 2489 5322 8641 
10 340 200 196 197 8668 8609 4765 4764 8610 2337 
10 354 211 14 186 8346 2354 8347 8655 8589 8588 
10 1958 1190 1191 2075 8685 5117 8688 7992 8687 8689 
10 497 187 188 331 2992 2328 2991 8690 5270 5269 
10 332 1412 188 331 5942 8691 5223 2479 5941 5269 
10 350 190 349 207 8651 8657 2499 8222 8597 8224 
10 206 191 348 205 8599 8653 8281 2348 8600 8282 
10 206 349 190 207 8225 8657 8598 2349 8224 8597 
10 336 347 335 192 8629 8630 2483 5064 8644 5069 
10 1619 705 1450 1620 8692 8693 6564 6569 8694 6568 
10 1284 229 1285 372 5556 5560 5561 8695 8696 8697 
10 1980 1841 1842 938 7663 7234 7662 8698 8699 8700 
10 1264 1174 1173 2126 5463 5055 5462 8701 8702 8703 
10 230 87 373 372 8571 2619 8704 8705 2617 2621 
10 1243 1203 2086 1972 5422 8708 8706 8707 8709 8010 
10 866 1880 1902 804 8710 7415 8711 4108 8712 8713 
10 545 1458 1459 1285 8714 6085 8715 8716 6080 6084 
10 1203 1971 2086 1972 8717 8011 8708 8709 7637 8010 
10 1458 545 1459 714 8714 8715 6085 8718 3648 8719 
10 1739 555 764 1470 8720 3797 8721 6932 8722 8723 
10 1660 1493 1494 744 6686 6188 6685 8724 8725 8726 
10 972 1881 1721 809 8727 7347 8728 4416 8729 8730 
10 374 231 1287 232 8731 5566 8732 8733 2375 5565 
10 431 1518 1343 603 8734 6256 8735 3308 8736 8737 
10 242 98 1297 241 8450 8738 5596 2386 8449 5597 
10 1861 1702 958 791 7289 8741 8739 8740 8742 4375 
10 1506 1332 590 1505 6223 8744 8743 6224 6219 8745 
10 395 567 1308 566 3201 8747 8746 3199 3203 8748 
10 464 1377 181 323 8749 8751 2895 8750 5838 8433 
10 1183 2116 1184 2066 8752 8754 5096 8753 8112 8755 
10 1678 1517 1679 768 6739 6742 6743 8756 8757 8758 
10 2083 1265 2097 2082 8759 8760 8183 7978 8761 8297 
10 2083 1178 1265 2082 8762 5465 8759 7978 8763 8761 
10 2083 1265 1179 1242 8759 5466 8764 8765 5467 5300 
10 703 1616 870 1618 8766 8768 4117 8767 6563 8769 
10 682 1430 1431 1599 8770 5998 8771 8772 6497 6498 
10 2083 1265 1242 2097 8759 5467 8765 8183 8760 8773 
10 2036 1238 2117 1184 8774 8776 8114 8775 5349 8777 
10 381 95 1293 1294 2643 8780 8778 8779 8781 5588 
10 1216 1155 2143 2102 5432 8784 8782 8783 8785 8322 
10 1220 2145 1237 2141 8786 8788 5493 8787 8313 8789 
10 95 1293 1294 238 8780 5588 8781 8535 5583 5587 
10 708 1621 874 1622 8790 8792 4130 8791 6575 8793 
10 1103 1861 1862 958 8794 7294 8795 4824 8739 8796 
10 264 121 406 120 8495 2720 8797 8494 2258 2719 
10 121 264 406 1320 8495 8797 2720 8798 5666 8799 
10 1493 743 744 1660 8800 3739 8725 6686 8801 8724 
10 2004 1106 1105 2005 8802 4834 8803 7738 8804 8805 
10 1291 235 377 1290 5578 8807 8806 5579 5574 8808 
10 574 575 1490 740 3227 8810 8809 3725 3726 8811 
10 1103 1861 958 957 8794 8739 4824 4823 8812 4377 
10 580 745 746 1495 3741 3745 3743 8813 8814 8815 
10 569 734 735 1484 3708 3712 3710 8816 8817 8818 
10 120 406 1319 405 2719 8820 8819 2717 2721 8821 
10 1683 772 1521 1522 8822 8823 6754 6753 8824 6269 
10 1463 1289 548 1462 6096 8826 8825 6097 6092 8827 
10 1093 1993 1851 947 8828 7698 8829 4793 8830 8831 
10 1157 1001 998 1920 4994 4502 4993 8832 8833 8834 
10 275 1330 131 417 5695 8836 8516 8835 8837 2752 
10 365 1278 537 538 8838 8839 3113 3115 8840 3117 
10 923 754 753 1670 4273 3769 4272 8841 8842 8843 
10 1826 1825 922 1074 7189 8846 8844 8845 8847 4733 
10 1330 588 1329 416 8848 8850 5697 8849 3264 8851 
10 1848 1847 1688 944 7252 7247 7251 8852 8853 8854 
10 2073 1026 2125 2064 8855 8856 8153 7984 8857 8154 
10 497 1412 498 690 8858 8859 2996 3568 8860 3567 
10 1221 2122 1246 2143 8861 8863 5214 8862 8332 8864 
10 864 1612 997 1774 8865 8867 4492 8866 7031 8868 
10 861 1594 698 691 8869 8870 4084 4083 8871 3602 
10 567 568 1309 1483 3206 8874 8872 8873 8875 6154 
10 1103 1861 957 2002 8794 8812 4823 8876 7728 8877 
10 1768 767 766 601 8878 3806 8879 8880 3804 3803 
10 444 1357 303 1356 8881 5778 8882 8883 5779 5774 
10 600 851 1514 599 4050 8885 8884 3300 4049 8886 
10 530 1771 531 1445 8887 8889 3096 8888 7017 8890 
10 1894 1133 987 1895 8891 4912 8892 7392 8893 8894 
10 781 948 782 1692 4345 4346 3851 8895 8896 8897 
10 1731 820 982 819 8898 4446 8899 8900 3961 4445 
10 600 1515 1514 1770 8901 6248 8884 8902 7014 7015 
10 429 1342 288 1341 8903 5733 8904 8905 5734 5729 
10 1103 1861 2002 1862 8794 7728 8876 8795 7294 7729 
10 1159 1012 1896 1181 5000 8907 8906 5086 5084 8908 
10 1306 393 564 392 8909 3193 8910 8911 2682 3192 
10 598 492 1578 1406 3490 8914 8912 8913 8915 6437 
10 741 1491 1490 1657 8916 6179 8917 8918 6676 6677 
10 1478 563 1305 1479 8919 8920 6138 6143 8921 6142 
10 440 1353 299 1352 8922 5766 8923 8924 5767 5762 
10 985 1892 822 984 8925 8926 4454 4456 8927 4452 
10 1570 655 1571 1732 8928 8929 6418 6898 8930 6897 
10 1881 809 1017 1875 8729 4553 8931 7349 8932 8933 
10 1350 610 438 1525 8934 3329 8935 6277 8936 8937 
10 622 1698 1537 1536 8938 6798 8939 8940 6799 6314 
10 1535 1697 621 1536 6796 8942 8941 6311 6795 8943 
10 839 1513 1677 1612 8944 6736 8945 8946 6543 7026 
10 1881 1716 809 1875 7348 8947 8729 7349 7333 8932 
10 2032 2019 1123 1884 7776 8949 8948 7569 7775 8950 
10 563 1478 1305 1304 8919 6138 8920 8951 6139 5622 
10 1698 954 788 1858 8952 4364 8953 7281 8954 8955 
10 1702 792 1703 958 8956 8957 6815 8741 4376 8958 
10 116 259 1315 260 8485 5651 8959 8486 2404 5650 
10 1884 1124 1885 2019 8960 8961 7362 7775 8962 7774 
10 895 1641 725 894 8963 8964 4188 4190 8965 4186 
10 124 268 267 1323 8502 2412 8501 8966 5674 5675 
10 880 1036 881 1788 4619 4620 4152 8967 8968 8969 
10 1044 1933 1879 1895 8970 7516 8971 8972 7660 7523 
10 177 319 1373 320 8425 5826 8973 8426 2465 5825 
10 2145 1262 1237 2084 8974 5452 8788 8312 8975 8976 
10 110 396 111 254 2689 2690 2248 8474 8977 8475 
10 1852 948 1995 1994 8978 8979 7705 7701 8980 7706 
10 178 1374 320 461 8981 5829 8427 2886 8982 8983 
10 1847 1848 1990 944 7252 7689 7690 8853 8852 8984 
10 404 118 403 1317 2713 2711 2715 8985 8986 8987 
10 1683 1843 773 1684 7236 8989 8988 6758 7235 8990 
10 462 1375 321 1374 8991 5832 8992 8993 5833 5828 
10 644 809 1559 643 3927 8995 8994 3435 3926 8996 
10 1386 48 473 47 8997 2922 8998 8999 2183 2921 
10 1317 404 575 403 8985 3226 9000 8987 2715 3225 
10 827 1738 826 887 9001 9002 3983 4530 9003 4558 
10 1397 484 654 483 9004 3464 9005 9006 2956 3463 
10 1847 943 777 944 9007 4331 9008 8853 4335 4333 
10 455 1368 172 314 9009 9011 2868 9010 5811 8415 
10 760 759 929 1675 3787 4290 4291 9012 9013 9014 
10 1056 1240 1956 1955 5293 9017 9015 9016 9018 7589 
10 1249 2002 1101 2001 9019 9021 5336 9020 7727 9022 
10 1507 1333 591 1506 6226 9024 9023 6227 6222 9025 
10 732 1482 566 1481 9026 9028 3701 9027 6152 9029 
10 1730 1731 819 1569 6896 8900 9030 6891 6895 9031 
10 1044 2029 1933 1895 9032 7921 8970 8972 7804 7660 
10 758 593 592 1508 3780 3281 3779 9033 9034 9035 
10 588 754 1503 753 3767 9037 9036 3765 3769 9038 
10 1045 1046 1928 2029 4650 9041 9039 9040 9042 8032 
10 1696 785 1855 1695 9043 9044 7271 6794 9045 7272 
10 1716 1717 808 1875 6857 9047 9046 7333 7334 9048 
10 349 1432 518 1431 5999 9050 9049 5997 6001 9051 
10 1387 48 22 474 9052 2524 5867 9053 2924 9054 
10 800 1871 967 801 9055 9056 4402 3908 9057 4403 
10 969 1872 1937 1873 9058 7535 9059 9060 7327 7534 
10 1100 954 1099 2000 4814 4812 4816 9061 9062 9063 
10 1264 1256 2111 1173 5484 9065 9064 5462 5400 9066 
10 503 1418 194 504 9067 9068 3009 3014 9069 3013 
10 2024 2025 2113 1129 7794 8099 8100 9070 9071 9072 
10 1409 496 1511 1410 9073 9074 6237 5937 9075 6238 
10 1260 1258 1259 2146 5410 5411 5412 9076 9077 9078 
10 965 1111 2009 1110 4847 9080 9079 4845 4849 9081 
10 1441 1408 15 14 6027 5931 6026 9082 9083 2508 
10 1199 2056 1948 1967 9084 7881 9085 9086 8008 8169 
10 1121 974 1120 1835 4875 4873 4877 9087 9088 9089 
10 442 1355 443 159 9090 9091 2833 2829 9092 2831 
10 1388 475 645 474 9093 3437 9094 9095 2929 3436 
10 468 1381 1382 16 9096 6025 9097 9098 6024 5854 
10 494 1408 14 12 9099 9083 2985 2984 9100 2325 
10 765 699 676 1638 4100 3604 3801 9101 9102 9103 
10 1507 1674 1673 757 6728 6729 6724 9104 9105 9106 
10 734 1650 1651 1484 9107 6660 9108 8817 6655 6659 
10 589 1504 755 1505 9109 9111 3770 9110 6221 9112 
10 12 15 13 1408 2779 2475 2510 9100 5931 5932 
10 1432 519 207 518 9113 3056 9114 9050 3057 3052 
10 116 402 117 260 2707 2708 2254 8486 9115 8487 
10 402 116 1315 260 2707 8959 9116 9115 8486 5650 
10 204 347 1429 346 8308 5991 9117 8310 2496 5990 
10 1870 967 1871 2011 9118 9056 7321 7755 9119 7754 
10 586 585 1327 414 3260 9121 9120 3258 3256 9122 
10 24 50 476 1389 2528 2930 9123 5873 9124 9125 
10 1671 756 755 1505 9126 3775 9127 6718 9128 9112 
10 1148 2013 867 1877 9129 9131 4959 9130 7761 9132 
10 356 596 1269 355 3566 9134 9133 2570 3419 9135 
10 202 345 1427 344 8327 5985 9136 8339 2494 5984 
10 1727 1885 1726 978 7360 7361 6884 9137 9138 9139 
10 807 1014 1923 1745 4545 9142 9140 9141 9143 7475 
10 1951 2046 1186 2067 7853 9145 9144 8123 8134 9146 
10 1850 946 1690 1691 9147 9148 7257 7256 9149 6779 
10 409 1322 408 580 9150 9151 2730 3241 9152 3240 
10 169 453 170 312 2861 2862 2308 8410 9153 8411 
10 685 1434 1602 1433 9154 6507 9155 9156 6007 6506 
10 1319 577 1492 1318 9157 9158 6180 5664 9159 6181 
10 127 413 128 271 2740 2741 2265 8508 9160 8509 
10 413 127 1326 271 2740 9162 9161 9160 8508 5683 
10 1647 1804 1803 900 7122 7123 7118 9163 9164 9165 
10 1797 935 1981 1839 9166 9167 7664 7225 9168 7665 
10 1397 484 32 1398 9004 9169 5897 5902 9170 5901 
10 1047 1046 1800 894 4653 9172 9171 4651 4649 9173 
10 1048 1800 2066 1799 9174 7915 9175 9176 7111 7914 
10 1102 2002 1250 1103 9177 9178 5339 4825 8876 5340 
10 894 1641 1928 1800 8965 7499 9179 9173 7110 7498 
10 1082 1135 933 2039 4919 4917 4755 9180 9181 9182 
10 1447 702 1767 1446 9183 9184 7002 6049 9185 7003 
10 1617 1771 701 1832 7016 9187 9186 7483 7484 9188 
10 748 1665 918 749 9189 9190 4257 3754 9191 4258 
10 1041 2059 1153 1010 9192 9193 4972 4635 9194 4973 
10 2023 1224 2134 1127 9195 9197 8217 9196 5225 9198 
10 2111 1264 2126 2124 9064 8701 8175 8305 9199 8257 
10 939 772 1843 773 4318 9201 9200 4319 3824 8989 
10 877 1625 878 711 9202 9203 4143 4139 9204 4141 
10 2083 1179 1117 1242 8764 5267 9205 8765 5300 5297 
10 1278 365 537 1277 8838 3113 8839 5540 9206 9207 
10 547 375 1288 548 3143 9209 9208 3147 3145 9210 
10 1451 1278 537 1277 6059 8839 9211 6060 5540 9207 
10 772 1683 1843 773 8822 7236 9201 3824 8988 8989 
10 1452 708 1621 707 9212 8790 6570 9213 3631 9214 
10 708 1452 538 707 9212 9215 3629 3631 9213 3627 
10 967 1112 2011 966 4851 9216 9119 4404 4850 9217 
10 1302 246 388 1301 5612 9219 9218 5613 5608 9220 
10 545 1460 546 1286 9221 9223 3141 9222 6087 9224 
10 1988 1845 942 1088 7684 8678 9225 9226 9227 4776 
10 442 1355 615 443 9090 9228 3343 2833 9091 3344 
10 1463 1290 376 1289 6095 9230 9229 6096 5576 9231 
10 1918 1168 2055 1919 9232 9233 7876 7464 9234 7877 
10 719 550 549 1464 3663 3153 3662 9235 9236 9237 
10 1992 1091 2130 1991 9238 9239 8189 7697 9240 8190 
10 1643 897 1798 896 9241 9243 7105 9242 4196 9244 
10 1146 1091 2130 1092 5326 9239 9245 5171 4789 9246 
10 1088 2098 2128 1043 9247 8320 9248 5323 9249 9250 
10 91 235 234 1290 8580 2378 8579 9251 5574 5575 
10 376 1290 1463 549 9230 6095 9229 3148 9252 9253 
10 1641 895 725 1642 8963 4188 8964 6633 9254 9255 
10 1666 919 920 1822 9256 4265 9257 7175 9258 9259 
10 1595 679 1427 692 9260 9262 6486 9261 3576 9263 
10 389 561 1302 560 3183 9265 9264 3181 3185 9266 
10 561 1476 1302 560 9267 6133 9265 3185 9268 9266 
10 1652 1808 1651 905 7133 7134 6663 9269 9270 9271 
10 1485 1311 1312 570 6160 5643 6159 9272 9273 9274 
10 1713 1551 1552 637 6844 6359 6843 9275 9276 9277 
10 615 616 443 1530 3348 3346 3344 9278 9279 9280 
10 398 399 1312 570 2700 9282 9281 3210 3211 9274 
10 411 125 269 126 2734 8504 9283 2735 2263 8505 
10 1977 1205 1976 1077 9284 9286 7652 9285 5158 9287 
10 1049 897 896 1798 4658 4196 4657 9288 9243 9244 
10 1049 896 1799 1798 4657 9290 9289 9288 9244 7108 
10 1324 411 582 410 9291 3247 9292 9293 2736 3246 
10 1498 583 582 1324 9294 3251 9295 6199 9296 9292 
10 1491 741 1490 575 8916 8917 6179 9297 3728 8810 
10 591 756 757 1506 3774 3778 3776 9025 9298 9299 
10 866 858 1880 804 4107 9300 8710 4108 4081 8712 
10 1674 759 928 758 9301 4288 9302 9303 3784 4287 
10 1194 1267 2051 1961 5481 9306 9304 9305 9307 8001 
10 508 507 1593 674 3026 9309 9308 3523 3524 9310 
10 1506 1672 757 1673 6721 9311 9299 6725 6726 9106 
10 2074 1092 1146 2130 9312 5171 9313 8236 9246 9245 
10 1158 2037 1164 1257 9314 9315 5022 5401 9316 5443 
10 149 433 292 1345 2801 9318 8370 9317 9319 5741 
10 699 998 848 1765 4493 4494 4063 9320 9321 9322 
10 725 1474 559 724 9323 9324 3680 3682 9325 3678 
10 433 605 1345 432 3314 9326 9319 2803 3313 9327 
10 1060 908 1812 1061 4691 9329 9328 4695 4693 9330 
10 1300 558 1299 386 9331 9333 5607 9332 3174 9334 
10 464 1377 637 465 8749 9335 3409 2899 9336 3410 
10 604 1518 769 1519 9337 9339 3811 9338 6260 9340 
10 1544 1706 795 630 6823 9343 9341 9342 9344 3889 
10 1328 586 1327 414 9345 9120 5691 9346 3258 9122 
10 80 1279 366 81 8673 8675 2598 2217 9347 2599 
10 523 688 522 1436 3560 3561 3069 9348 9349 9350 
10 1814 910 1813 1657 9351 9352 7153 7152 9353 7148 
10 604 1344 1519 432 9354 6259 9338 3311 9355 9356 
10 781 1691 615 780 9357 9358 3846 3848 9359 3844 
10 1062 1061 1813 909 4698 9361 9360 4696 4694 9362 
10 1794 886 885 1633 9363 4167 9364 7095 9365 9366 
10 1647 730 731 900 9367 3700 9368 9163 4203 4204 
10 1962 1062 1194 1961 9369 5125 9370 7607 9371 9305 
10 1632 717 1462 718 9372 9374 6604 9373 3661 9375 
10 124 409 410 1323 2729 2733 2731 8966 9376 9377 
10 1146 1092 2074 1166 5171 9312 9313 5030 5170 9378 
10 1190 1154 2075 1189 5437 9379 8687 5114 5353 9380 
10 1073 1825 921 1824 9381 9383 4730 9382 7186 9384 
10 1073 921 1072 1824 4730 4728 4732 9382 9384 9385 
10 1357 617 445 1532 9386 3350 9387 6298 9388 9389 
10 935 1680 936 769 9390 9391 4311 4307 9392 4309 
10 781 616 615 1530 3847 3348 3846 9393 9279 9278 
10 627 455 454 1367 3380 2869 3379 9394 9395 9396 
10 125 411 269 1324 2734 9283 8504 9397 9291 5677 
10 1713 1872 1712 802 7322 7323 6845 9398 9399 9400 
10 1980 1841 1085 1983 7663 9402 9401 7918 7668 9403 
10 439 611 1351 438 3332 9405 9404 2821 3331 9406 
10 976 2032 1123 1884 9407 8948 4881 9408 7569 8950 
10 2092 1265 2082 2097 9409 8761 8264 8044 8760 8297 
10 50 24 476 51 2528 9123 2930 2186 2529 2931 
10 572 400 1314 401 3216 9411 9410 3217 2706 9412 
10 1744 553 1582 1769 9413 9414 6935 7011 9415 7010 
10 1390 1562 1389 476 6389 6390 5878 9416 9417 9125 
10 483 653 1569 1396 3461 9420 9418 9419 9421 6411 
10 499 189 1413 498 2998 9423 9422 2999 2994 9424 
10 940 1987 1087 941 9425 9426 4770 4326 9427 4772 
10 1992 1091 1092 2130 9238 4789 9428 8189 9239 9246 
10 279 135 421 1334 8524 2764 9429 5707 9430 9431 
10 1977 1828 1829 1077 7651 7198 7650 9285 9432 9433 
10 1447 702 703 1767 9183 3616 9434 7002 9184 9435 
10 129 272 1328 273 8511 5690 9436 8512 2417 5689 
10 1696 785 786 952 9043 3863 9437 9438 4357 4358 
10 1346 434 150 293 9439 2804 9440 5744 9441 8372 
10 805 1717 808 642 9442 9047 3925 3918 9443 3923 
10 1446 533 702 532 9444 3612 9185 9445 3102 3611 
10 605 770 771 1520 3814 3818 3816 9446 9447 9448 
10 688 523 1605 1436 3560 9450 9449 9349 9348 6515 
10 974 1882 975 1723 9451 9453 4426 9452 7352 9454 
10 1704 794 960 793 9455 4382 9456 9457 3887 4381 
10 1086 1980 938 1085 9458 8698 4766 4768 9401 4763 
10 1163 1093 1994 1094 5313 9460 9459 5327 4798 9461 
10 1104 1210 2003 1103 5177 9463 9462 4828 5176 9464 
10 814 1726 1884 977 9465 7357 9466 4430 9467 9468 
10 2072 1163 1994 2038 9469 9459 8049 7941 9470 8194 
10 2039 1135 2038 2131 9181 9471 7832 8298 9472 8279 
10 712 1625 878 1626 9473 9203 4142 9474 6587 9475 
10 879 880 713 1627 4149 4147 4145 9476 9477 9478 
10 2027 1229 1228 1131 9479 5241 9480 9481 5239 5237 
10 2005 2099 1107 2006 8052 9483 9482 7741 8051 9484 
10 2006 1213 2100 2099 9485 9486 8054 8051 9487 8055 
10 1907 1749 833 1750 7427 9489 9488 7428 6954 9490 
10 467 1379 1380 326 9491 5848 9492 9493 5843 5847 
10 222 365 80 1278 9494 2596 8556 5539 8838 8674 
10 662 1739 764 1578 9495 8721 3799 9496 6918 9497 
10 1107 2099 2005 1106 9483 8052 9482 4837 9498 8804 
10 1213 1106 2099 1107 5184 9498 9487 5185 4837 9483 
10 670 1590 1418 504 9499 6470 9500 3511 9501 9069 
10 2006 1213 1214 2100 9485 5189 9502 8054 9486 9503 
10 638 1553 1552 1714 9504 6362 9505 9506 6846 6847 
10 853 1597 680 681 9507 9508 4057 4056 9509 3541 
10 1121 1122 1882 2016 4880 9512 9510 9511 9513 7767 
10 1033 1939 1940 1785 9514 7542 9515 9516 7538 7541 
10 2101 2100 1118 2139 8058 9518 9517 8255 8256 9519 
10 2074 1992 1092 2130 8278 9428 9312 8236 8189 9246 
10 692 512 1594 691 3574 9521 9520 3575 3570 8871 
10 424 138 423 1337 2773 2771 2775 9522 9523 9524 
10 437 154 296 1350 2814 8379 9525 9526 9527 5757 
10 1122 2032 1882 2016 9528 7812 9512 9513 7813 7767 
10 1531 1693 1692 782 6784 6785 6780 9529 9530 8897 
10 1589 1588 669 1417 6469 9532 9531 6467 6465 9533 
10 926 1672 925 1828 9534 9536 4283 9535 7193 9537 
10 1187 1951 1052 1186 9538 9539 5105 5107 9144 5103 
10 842 1757 1756 1596 9540 6974 9541 9542 6972 6970 
10 1621 1782 874 1622 7059 9543 8792 6575 7058 8793 
10 517 206 348 205 3049 8281 9544 3050 2348 8282 
10 138 281 423 1337 8529 9545 2771 9523 5717 9524 
10 1451 538 707 537 9546 3627 9547 9211 3117 3626 
10 1753 672 673 1592 9548 3522 9549 6962 9550 9551 
10 187 1410 1411 496 9552 5940 9553 2988 9075 9554 
10 583 411 582 1324 3249 3247 3251 9296 9291 9292 
10 1811 907 1059 1810 9555 4688 9556 7144 9557 9558 
10 893 1742 1928 894 9559 7500 9560 4187 9561 9179 
10 1016 842 1757 1756 4551 9540 9562 9563 9541 6974 
10 195 1419 505 504 9564 9565 3016 3012 9566 3017 
10 2032 1122 2122 2016 9528 9567 8140 7813 9513 8138 
10 2122 1122 1246 2016 9567 5211 8863 8138 9513 9568 
10 268 125 269 1324 8503 8504 2413 5678 9397 5677 
10 1122 1121 1246 2016 4880 5210 5211 9513 9511 9568 
10 869 703 1767 1616 4115 9435 9569 9570 8766 7005 
10 1744 862 553 1769 9571 4087 9413 7011 9572 9415 
10 704 871 1619 1618 4120 9575 9573 9574 9576 6566 
10 1712 802 801 636 9400 3911 9577 9578 3909 3907 
10 1286 545 1459 1285 9222 8715 6083 5564 8716 6084 
10 679 514 1428 1427 3534 9580 9579 9262 9581 5989 
10 204 347 516 1429 8308 9582 3047 9117 5991 9583 
10 433 149 432 1345 2801 2799 2803 9319 9317 9327 
10 76 220 219 1275 8551 2363 8550 9584 5529 5530 
10 607 1522 773 608 9585 9586 3822 3324 9587 3823 
10 1130 1892 1131 984 9588 9589 4907 4903 8927 4905 
10 1113 2104 1218 2012 9590 9592 5203 9591 8150 9593 
10 1183 2116 2063 2115 8752 8204 9594 9595 8226 8166 
10 1903 992 2038 1904 9596 9597 7828 7420 9598 7829 
10 1124 2019 1222 2020 8962 9600 5216 9599 7779 9601 
10 664 1511 1582 1769 9602 6448 9603 9604 7009 7010 
10 1122 1221 2032 2122 5212 9605 9528 9567 8861 8140 
10 1630 882 1790 1629 9606 9607 7082 6599 9608 7083 
10 543 371 1284 544 3131 9610 9609 3135 3133 9611 
10 1627 1458 713 1457 6588 9612 9478 6589 6082 9613 
10 226 83 84 369 8563 2220 8564 9614 2607 2608 
10 725 1641 724 894 8964 9615 3682 4186 8965 4185 
10 1183 1047 2063 2066 5092 9616 9594 8753 9617 7916 
10 553 664 1582 1769 3496 9603 9414 9415 9604 7010 
10 803 638 1552 1714 3913 9505 9618 9619 9506 6847 
10 728 563 1478 729 3690 8919 9620 3694 3692 9621 
10 1046 2063 1800 1928 9622 7907 9172 9041 7908 7498 
10 1238 2123 1266 1185 9623 9624 5477 5288 9625 5474 
10 1652 1485 736 735 6662 9628 9626 9627 9629 3715 
10 906 1652 1653 736 9630 6666 9631 4221 9626 9632 
10 1546 1372 1547 632 6339 6343 6344 9633 9634 9635 
10 862 664 553 1769 4091 3496 4087 9572 9604 9415 
10 165 448 307 164 2847 9636 8401 2303 2846 8400 
10 2037 2050 1913 1164 7863 7861 7825 9315 9637 9638 
10 525 1579 1614 1439 9639 6550 9640 9641 6440 6549 
10 1819 1067 916 1068 9642 4714 9643 9644 4717 4715 
10 1068 917 916 1820 4716 4256 4715 9645 9646 9647 
10 440 1353 613 441 8922 9648 3337 2827 9649 3338 
10 1408 525 1439 12 9650 9641 6020 9100 3074 9651 
10 970 1795 1923 2074 9652 7477 9653 9654 7948 7949 
10 13 1408 1439 12 5932 6020 6021 2510 9100 9651 
10 578 1320 406 1319 9655 8799 3234 9656 5667 8820 
10 1212 2004 1106 1105 9657 8802 5182 5181 8803 4834 
10 1507 591 592 757 9023 3278 9658 9104 3776 3777 
10 1188 2096 1239 1152 9659 9660 5367 5445 9661 5277 
10 1684 1685 1844 940 6761 7238 7239 9662 9663 9664 
10 1273 360 218 1274 9665 9666 5523 5528 9667 5527 
10 1507 591 757 1506 9023 3776 9104 6227 9025 9299 
10 1078 1977 1829 1077 9668 7650 9669 4747 9285 9433 
10 1652 1651 735 905 6663 9670 9627 9269 9271 4218 
10 1903 2072 2038 1163 7940 7941 7828 9671 9469 9470 
10 736 1652 735 905 9626 9627 3715 4219 9269 4218 
10 517 1430 348 1431 9672 5994 9544 9673 5998 5996 
10 1817 1661 914 1660 7160 9675 9674 7161 6690 9676 
10 567 1482 1308 566 9677 6151 8747 3203 9028 8748 
10 707 1620 706 873 9678 9679 3628 4127 9680 4126 
10 1984 1947 1840 934 7900 7826 7672 9681 9682 9683 
10 575 1317 403 1316 9000 8987 3225 9684 5658 9685 
10 1680 1518 769 1679 6745 9339 9392 6746 6741 9686 
10 1701 1539 625 790 6808 9689 9687 9688 9690 3874 
10 1040 990 1900 934 4856 9692 9691 4857 4471 9693 
10 1651 904 735 905 9694 4216 9670 9271 4220 4218 
10 1606 640 494 1512 9695 3423 9696 6520 9697 9698 
10 828 1006 867 1877 4514 4515 4109 9699 9700 9132 
10 2140 2060 1005 2030 8253 9702 9701 8254 7894 9703 
10 640 829 1512 1766 3986 9705 9697 9704 9706 6999 
10 1005 860 2060 1015 4512 9707 9702 4547 4548 9708 
10 860 1005 2060 1926 4512 9702 9707 9709 9710 7893 
10 1878 857 1934 1776 9711 9712 7518 7341 9713 7519 
10 1991 1091 2130 2129 9240 9239 8190 8187 9714 8232 
10 703 869 1767 702 4115 9569 9435 3616 4114 9184 
10 624 1700 790 1539 9715 9717 3873 9716 6804 9690 
10 1144 891 2034 1043 4947 9719 9718 4976 4639 9720 
10 1854 951 1855 1096 9721 9723 7273 9722 4803 9724 
10 1711 634 1710 1549 9725 9726 6839 6838 9727 6834 
10 379 236 378 1292 9728 9730 2639 9729 5581 9731 
10 1005 2060 2140 1015 9702 8253 9701 4547 9708 9732 
10 792 627 1703 793 3880 9733 8957 3884 3882 9734 
10 956 1101 2002 1859 4818 9021 9735 9736 9737 7726 
10 877 1786 878 1625 9738 9739 4143 9202 7071 9203 
10 679 1427 1428 1596 9262 5989 9579 9740 6488 6489 
10 1005 2030 2060 1926 9703 7894 9702 9710 7807 7893 
10 957 1861 958 791 8812 8739 4377 4373 8740 4375 
10 1958 1810 1959 1059 7593 7597 7598 9741 9558 9742 
10 2105 1161 1024 1021 9743 5023 9744 9745 5010 4585 
10 525 495 1439 12 3077 9746 9641 3074 2987 9651 
10 2004 2005 1105 1864 7738 8805 8803 7733 7737 9747 
10 869 1025 870 1780 4587 4588 4119 9748 9749 9750 
10 654 653 819 1569 3465 3956 3957 9751 9420 9031 
10 363 1276 535 536 9752 9753 3107 3109 9754 3111 
10 1553 638 1715 1714 9504 9755 6850 6846 9506 6851 
10 1495 1496 1662 746 6194 6691 6692 8815 9756 9757 
10 973 974 1835 1120 4423 9088 9758 4872 4873 9089 
10 627 1542 793 628 9759 9760 3882 3384 9761 3883 
10 1511 495 1409 1579 9762 9763 6237 6539 9764 6441 
10 2083 1178 2082 1945 8762 8763 7978 7977 9765 7974 
10 1883 814 813 1725 9766 3943 9767 7354 9768 9769 
10 2138 2078 1142 1244 8249 9772 9770 9771 9773 5307 
10 2083 1178 1945 1179 8762 9765 7977 8764 5076 9774 
10 1242 1981 2097 1983 9775 8043 8773 9776 7670 8042 
10 1265 1177 2082 1178 5479 9777 8761 5465 5073 8763 
10 1265 2081 2079 2082 9778 8283 9779 8761 7973 8263 
10 1943 1788 1035 1942 7550 9781 9780 7551 7546 9782 
10 994 1751 1908 834 9783 7431 9784 4483 9785 9786 
10 1036 1177 1943 1035 5066 9788 9787 4621 5065 9780 
10 2111 1264 1173 2126 9064 5462 9066 8175 8701 8703 
10 679 514 1427 513 3534 9581 9262 3535 3042 9789 
10 1119 2078 1921 2077 9790 7962 9791 9792 7963 7960 
10 167 450 309 166 2853 9793 8405 2305 2852 8404 
10 74 360 1273 359 2580 9665 9794 2578 2582 9795 
10 847 1603 1763 846 9796 6991 9797 4038 9798 9799 
10 846 1007 1763 1000 4516 9800 9799 4498 4519 9801 
10 1267 1960 2050 1961 9802 7999 9803 9307 7604 7998 
10 1007 1918 1763 1000 9804 7460 9800 4519 9805 9801 
10 1130 983 2025 1891 4902 9808 9806 9807 9809 7792 
10 1625 1456 711 1455 6582 9810 9204 6583 6076 9811 
10 1918 1168 1000 1007 9232 5035 9805 9804 5036 4519 
10 847 1764 1763 1603 9812 6995 9797 9796 6993 6991 
10 452 169 168 311 2859 2307 2858 9813 8409 8408 
10 155 439 1351 438 2819 9404 9814 2817 2821 9406 
10 864 1779 841 1610 9815 9817 4102 9816 7050 9818 
10 1007 1762 846 1763 9819 9820 4516 9800 6992 9799 
10 367 224 1280 82 9821 5545 9822 2602 8560 9823 
10 541 1454 1455 1281 9824 6073 9825 9826 6068 6072 
10 217 74 1273 359 8546 9794 5524 9827 2578 9795 
10 888 2061 1021 1116 9828 9829 4575 4863 9830 4862 
10 1161 2105 1116 1021 9743 9831 5011 5010 9745 4862 
10 1265 2081 2082 1177 9778 7973 8761 5479 9832 9777 
10 1086 2094 1041 1087 9833 9834 5041 4771 9835 5168 
10 1872 1113 2012 1871 9836 9591 7757 7324 9837 7758 
10 1220 1251 2137 1024 5346 9839 9838 5208 5345 9840 
10 564 730 1479 729 3695 9842 9841 3693 3697 9843 
10 2107 1254 2049 2093 9844 9845 8081 8084 9846 8031 
10 1231 2068 1979 1978 9847 8116 9848 9849 8172 7658 
10 653 818 1730 1568 3954 9852 9850 9851 9853 6892 
10 1025 2068 1231 1234 9854 9847 5260 5263 9855 5266 
10 1201 1069 1970 1070 5144 9857 9856 5145 4723 9858 
10 767 1678 1768 1900 9859 7008 8878 9860 7406 7407 
10 869 1927 868 1147 9861 9862 4116 4955 9863 4954 
10 1276 536 1277 1450 9754 9864 5537 6057 9865 6056 
10 1427 679 513 692 9262 3535 9789 9263 3576 3573 
10 1507 1508 592 1334 6230 9035 9658 6225 6229 9866 
10 359 1446 532 360 9867 9445 3097 2582 9868 3098 
10 1218 1246 2108 1217 5365 9870 9869 5204 5436 9871 
10 707 1620 873 1621 9678 9680 4127 9214 6572 9872 
10 1487 737 1486 571 9873 9875 6167 9874 3716 9876 
10 897 1801 1644 1798 9877 7113 9878 9243 7114 7104 
10 1628 1458 714 1627 6592 8718 9879 6593 6588 9880 
10 1154 2045 2075 1189 9881 7953 9379 5353 9882 9380 
10 712 1456 1625 1626 9883 6582 9473 9474 6586 6587 
10 1720 765 676 1638 9884 3801 9885 7024 9101 9103 
10 1904 831 762 1746 9886 3994 9887 7418 9888 9889 
10 1055 1807 903 1806 9890 9892 4676 9891 7132 9893 
10 1502 752 1501 586 9894 9896 6212 9895 3761 9897 
10 668 501 1416 1587 3506 9900 9898 9899 9901 6462 
10 991 890 1906 1145 4475 9903 9902 4948 4949 9904 
10 813 1724 1563 647 9905 6873 9906 3938 9907 9908 
10 1933 2029 1044 1045 7921 9032 8970 9909 9040 4647 
10 1455 1625 1624 711 6583 6584 6579 9811 9204 9910 
10 928 1674 758 927 9302 9303 4287 4289 9911 4285 
10 1097 1236 1998 1208 5430 9913 9912 5173 5396 9914 
10 796 1706 1545 630 9915 6822 9916 3891 9344 9917 
10 73 358 1272 216 2575 9919 9918 8544 9920 5521 
10 2112 2118 1255 2144 8321 9922 9921 8330 8331 9923 
10 507 341 1422 1421 9924 5971 9925 9926 5969 5973 
10 732 566 731 1481 3701 3699 3703 9027 9029 9927 
10 359 1445 1446 1272 9928 6046 9867 9929 6042 6045 
10 1964 1064 1816 1065 9930 9932 7611 9931 4707 9933 
10 903 1807 1055 1056 9892 9890 4676 4678 9934 4680 
10 2103 1216 1217 2108 9935 5201 9936 8285 9937 9871 
10 602 1517 603 430 9938 9939 3309 3305 9940 3307 
10 2104 1218 2108 1217 9592 9869 8173 9941 5204 9871 
10 946 1850 947 1691 9147 9942 4344 9149 7256 9943 
10 1559 644 1560 1721 8994 9944 6385 6865 9945 6864 
10 741 1658 911 742 9946 9947 4236 3733 9948 4237 
10 2122 1246 2108 2016 8863 9870 8139 8138 9568 8085 
10 1909 994 1908 2043 9949 9784 7435 7843 9950 7842 
10 370 228 227 1283 9951 2371 9952 9953 5553 5554 
10 1848 1991 944 945 7693 9955 8852 9954 9956 4338 
10 1825 1073 922 1074 9381 4731 8846 8847 4735 4733 
10 371 228 1283 1284 9957 5553 9958 9610 5557 5558 
10 356 70 214 71 2568 8539 9959 2569 2207 8540 
10 950 1095 1854 1853 4800 9962 9960 9961 9963 7270 
10 754 1504 1503 1670 9964 6218 9037 8842 6715 6716 
10 1168 1918 1000 1919 9232 9805 5035 9234 7464 9965 
10 231 230 373 1286 2374 8704 9966 5562 5563 9967 
10 935 1984 1840 934 9968 7672 9969 4308 9681 9683 
10 69 213 212 1268 8537 2356 8536 9970 5509 5510 
10 1947 1984 1040 934 7900 9972 9971 9682 9681 4857 
10 2008 1110 2102 1215 9973 9975 8060 9974 5194 9976 
10 2118 2018 2031 1151 8122 7939 8121 9977 9978 9979 
10 1984 1040 934 1117 9972 4857 9681 9980 4995 4865 
10 935 1984 934 1117 9968 9681 4308 4866 9980 4865 
10 871 1619 1897 872 9575 7397 9981 4125 9982 9983 
10 543 1456 1457 1283 9984 6079 9985 9986 6074 6078 
10 1905 762 830 1747 9987 3991 9988 7421 9989 9990 
10 1284 543 1457 1283 9609 9985 6077 5558 9986 6078 
10 370 228 1283 371 9951 5553 9953 2615 9957 9958 
10 1836 859 1833 1008 9991 9993 7217 9992 4521 9994 
10 644 1721 810 1560 9945 9995 3929 9944 6864 9996 
10 653 483 1569 654 3461 9418 9420 3465 3463 9751 
10 1478 1304 562 1477 6139 9998 9997 6140 6135 9999 
10 946 780 779 1690 4340 3845 4339 9148 10000 10001 
10 488 1401 1402 36 10002 5914 10003 10004 5909 5913 
10 1293 95 381 380 8780 2643 8778 10005 2641 2646 
10 946 1992 1092 1850 10006 9428 4788 9147 7695 10007 
10 2070 1146 2130 2074 10008 9245 8235 7947 9313 8236 
10 1850 1993 1992 1092 7699 7700 7695 10007 10009 9428 
10 369 1282 370 84 10010 10011 2612 2608 10012 2610 
10 875 1623 1622 1783 10013 6578 10014 10015 7061 7062 
10 957 2002 956 1102 8877 9735 4374 4821 9177 4820 
10 2002 1101 956 1102 9021 4818 9735 9177 4822 4820 
10 877 1786 1625 1785 9738 7071 9202 10016 7072 7067 
10 1452 539 708 538 10017 3630 9212 9215 3120 3629 
10 957 2002 1860 956 8877 7725 10018 4374 9735 10019 
10 1681 936 1841 1797 10020 10021 7230 7102 10022 7231 
10 1416 336 192 502 5954 5064 10023 10024 10025 3007 
10 743 912 1660 1659 4240 10027 8801 10026 10028 6687 
10 1232 1254 1175 2093 5382 5454 5455 10029 9846 10030 
10 1540 1702 1701 791 6811 6812 6807 10031 8742 10032 
10 1423 1581 526 1442 6445 10034 10033 6032 6444 10035 
10 1859 1860 789 1700 7288 10037 10036 7283 7287 10038 
10 1700 624 790 789 9715 3873 9717 10038 3871 3875 
10 1113 2104 2012 2011 9590 8150 9591 10039 8065 7759 
10 1083 2079 1153 1230 10040 10041 5018 5246 10042 5245 
10 1718 862 1769 664 10043 9572 7052 10044 4091 9604 
10 1414 499 190 333 10045 2997 10046 5947 10047 5191 
10 1338 1468 426 1339 6110 10049 10048 5725 6109 10050 
10 1784 2057 1783 1031 7882 7883 7066 10051 10052 10053 
10 1080 1203 2109 2086 5459 10056 10054 10055 8708 8208 
10 1276 1449 535 1450 6053 8682 9753 6057 6058 10057 
10 767 1768 1516 601 8878 7006 10058 3804 8880 10059 
10 1302 389 247 1303 9264 10060 5611 5616 10061 5615 
10 1192 1060 1059 1959 5119 4692 5118 10062 10063 9742 
10 1980 2092 1235 2095 8028 10065 10064 8038 8161 10066 
10 693 426 142 1338 3586 2781 3581 10067 10048 10068 
10 1518 1517 1343 603 6257 6252 6256 8736 9939 8737 
10 413 585 414 1327 3255 3256 2745 10069 9121 9122 
10 1234 1025 2064 1026 5263 10071 10070 5264 4591 8857 
10 1735 985 1734 823 10072 10074 6908 10073 4455 10075 
10 653 1568 1569 1396 9851 6412 9420 9421 6407 6411 
10 1663 1662 746 916 6696 9757 10076 10077 10078 4251 
10 2138 2145 1251 2137 8334 10080 10079 8247 8336 9839 
10 96 68 382 1295 2647 3071 2648 10081 10082 10083 
10 726 1476 1475 1642 10084 6134 10085 10086 6631 6632 
10 474 644 1560 1387 3434 9944 10087 9053 10088 6384 
10 747 1663 746 916 10089 10076 3748 4252 10077 4251 
10 248 105 249 1304 8463 8464 2393 5618 10090 5617 
10 107 250 106 392 8467 8466 2244 2678 10091 2677 
10 1170 1220 1237 2141 5426 5493 5284 10092 8787 8789 
10 1575 825 824 659 10093 3976 10094 10095 3974 3972 
10 2069 1158 1180 1257 10096 5081 10097 10098 5401 5402 
10 43 17 16 469 2514 2151 2513 2910 10099 10100 
10 2125 1170 1237 2141 10101 5284 10102 8268 10092 8789 
10 989 1766 804 1902 10103 10105 4466 10104 7413 8713 
10 1280 367 82 368 9822 2602 9823 10106 2606 2604 
10 1306 107 393 392 10107 2680 8909 8911 2678 2682 
10 1691 1529 615 780 6778 10108 9358 9359 10109 3844 
10 1639 528 806 829 10110 3919 10111 10112 3987 4088 
10 1108 2006 1214 2007 10113 9502 5188 10114 7744 10115 
10 1777 858 850 696 10116 4072 10117 10118 4073 4047 
10 563 564 392 1305 3194 3192 3190 8920 10119 10120 
10 758 1507 592 757 10121 9658 3779 3781 9104 3777 
10 1662 915 746 916 10122 4249 9757 10078 4253 4251 
10 627 1542 1703 793 9759 6813 9733 3882 9760 9734 
10 1918 1762 1007 1763 7459 9819 9804 7460 6992 9800 
10 756 1672 757 1506 10123 9311 3778 9298 6721 9299 
10 1304 391 562 390 10124 3187 9998 10125 2676 3186 
10 1328 1502 1501 586 6211 6212 6207 9345 9895 9897 
10 798 633 632 1547 3898 3399 3897 10126 10127 9635 
10 703 1447 1767 1616 9434 7002 9435 8766 6558 7005 
10 1207 1160 1261 2051 5166 5469 5473 10128 10129 10130 
10 1947 1793 1900 1040 7561 7564 7827 9971 10131 9691 
10 919 750 1666 920 4261 10132 9256 4265 4263 9257 
10 1042 1016 1756 865 5025 9563 10133 4638 4552 10134 
10 1524 1686 610 1525 6763 10136 10135 6278 6762 8936 
10 1740 1012 1011 698 10137 4537 10138 10139 4538 4536 
10 1720 765 1638 1899 9884 9101 7024 7404 10140 7403 
10 103 246 1302 247 8459 5612 10141 8460 2391 5611 
10 681 1429 680 515 10142 10143 3541 3540 10144 3536 
10 1315 402 260 1316 9116 9115 5650 5655 10145 5654 
10 2054 2053 1162 1917 7875 10147 10146 7873 7871 10148 
10 343 200 342 1425 8345 8349 2492 5979 10149 5978 
10 1013 853 1758 931 4541 10151 10150 4542 4296 10152 
10 536 1276 535 1450 9754 9753 3111 9865 6057 10057 
10 1034 1786 1941 1787 10153 7544 10154 10155 7075 7543 
10 1311 398 569 397 10156 3208 10157 10158 2697 3207 
10 1905 762 933 830 9987 4302 10159 9988 3991 4301 
10 1457 712 713 1626 10160 3646 9613 6585 9474 10161 
10 1211 2013 1210 1148 10162 10163 5180 5375 9129 5398 
10 1425 200 342 511 10149 8349 5978 10164 3031 10165 
10 574 402 1315 1316 3222 9116 10166 10167 10145 5655 
10 477 648 1391 1563 3445 10170 10168 10169 10171 6392 
10 1704 1542 1543 628 6817 6332 6816 10172 9761 10173 
10 750 1500 1667 751 10174 6707 10175 3760 10176 10177 
10 1969 1141 2109 2014 10178 10179 8158 8110 10180 8090 
10 1715 805 1557 1775 10181 10182 7012 7040 10183 7033 
10 30 57 1396 482 2541 10185 5895 10184 2949 10186 
10 870 1026 1901 1780 4589 10188 10187 9750 10189 7411 
10 1375 462 179 463 8991 2889 10190 10191 2893 2891 
10 1870 967 2011 966 9118 9119 7755 10192 4404 9217 
10 736 737 1486 1653 3718 9875 10193 9632 10194 6665 
10 1223 1124 2020 1125 5218 9599 10195 5219 4889 10196 
10 1218 1113 2012 1114 5203 9591 9593 5268 5169 10197 
10 2081 1254 2120 1176 10198 10200 7981 10199 5434 10201 
10 972 1881 809 1017 8727 8729 4416 4554 8931 4553 
10 2140 1167 2085 2030 10202 10203 8262 8254 10204 7986 
10 129 272 414 1328 8511 10205 2744 9436 5690 9346 
10 2100 1214 1118 1213 9503 5435 9518 9486 5189 5256 
10 386 558 1299 557 3174 9333 9334 3172 3176 10206 
10 585 586 1327 1501 3260 9120 9121 10207 9897 6208 
10 1500 585 1327 1501 10208 9121 6204 6209 10207 6208 
10 1047 1183 2063 1046 5092 9594 9616 4653 5091 9622 
10 1333 591 1506 1332 9024 9025 6222 5706 10209 6223 
10 910 1656 1657 740 10210 6678 9353 4233 10211 10212 
10 1639 528 1512 1611 10110 10213 6623 6622 10214 6537 
10 2041 2136 1145 2040 8230 10216 10215 7838 8229 10217 
10 776 1687 1686 1846 10218 6767 10219 10220 7244 7245 
10 950 1854 951 784 9960 9721 4356 4352 10221 4354 
10 1304 562 1477 1303 9998 9999 6135 5619 10222 6136 
10 1982 1150 1187 1239 10223 5343 10224 10225 5276 5413 
10 2012 1113 1149 1114 9591 4990 10226 10197 5169 4963 
10 901 732 731 1648 4207 3703 4206 10227 10228 10229 
10 586 1328 1327 1501 9345 5691 9120 9897 6207 6208 
10 226 1282 84 227 5551 10012 8564 2370 5550 8565 
10 1500 585 1326 1327 10208 10230 6205 6204 9121 5688 
10 728 1478 1477 1644 9620 6140 10231 10232 6637 6638 
10 1964 1816 1965 1065 7611 7615 7616 9931 9933 10233 
10 2057 2111 1173 2126 8131 9066 10234 8174 8175 8703 
10 1815 1964 1064 1816 7612 9930 10235 7159 7611 9932 
10 1672 926 1673 1829 9534 10236 6726 7197 10237 7196 
10 1975 1075 1076 1204 10238 4741 10239 10240 5155 5156 
10 1828 1827 1076 1976 7195 10242 10241 7647 7648 10243 
10 694 1581 526 663 10244 10034 3584 3583 10245 3492 
10 926 1672 1673 757 9534 6726 10236 4282 9311 9106 
10 1088 1988 1987 2128 9226 7685 10246 9248 8186 8184 
10 776 1686 775 942 10219 10247 3833 4328 8677 4327 
10 1284 371 86 372 9610 2614 10248 8695 2618 2616 
10 1672 926 756 757 9534 4281 10123 9311 4282 3778 
10 122 407 408 1321 2723 2727 2725 10249 10250 10251 
10 1517 1679 768 603 6742 8758 8757 9939 10252 3808 
10 435 151 434 1347 2807 2805 2809 10253 10254 10255 
10 373 545 1285 372 3137 8716 10256 2621 3136 8697 
10 1099 1999 2000 1857 10257 7721 9063 10258 7716 7720 
10 230 373 1285 372 8704 10256 5559 8705 2621 8697 
10 591 1333 419 1332 9024 10259 3273 10209 5706 10260 
10 134 420 1333 419 2761 10262 10261 2759 2763 10259 
10 1856 952 1098 1855 10263 4808 10264 7276 10265 10266 
10 857 1003 1934 1776 4506 10267 9712 9713 10268 7519 
10 602 1517 768 603 9938 8757 3807 3309 9939 3808 
10 54 479 27 53 2940 10269 2535 2189 2939 2534 
10 1249 2001 1101 1248 9020 9022 5336 5338 10270 5332 
10 1632 1793 885 1633 7092 10272 10271 6608 7091 9366 
10 2043 1134 1908 2042 10273 10274 7842 7844 10275 7840 
10 437 609 1349 436 3326 10277 10276 2815 3325 10278 
10 770 604 769 1519 3813 3811 3815 10279 9338 9340 
10 429 428 601 1341 2791 3301 3302 8905 10280 10281 
10 1201 1969 2109 1970 10282 8158 10283 9856 7631 8170 
10 39 1405 1404 491 5922 5923 5918 10284 10285 10286 
10 1894 1133 986 987 8891 4911 10287 8892 4912 4462 
10 871 1897 1901 2073 9981 7412 10288 10289 7945 7946 
10 547 1287 1461 1288 10290 6090 10291 9208 5570 6089 
10 437 153 436 1349 2813 2811 2815 10276 10292 10278 
10 1111 2103 1110 1216 10293 10294 4849 5197 9935 5196 
10 1100 1858 1101 955 10295 10296 4819 4815 10297 4817 
10 283 6 7 212 8443 2506 2428 5508 8533 2355 
10 1434 209 351 520 10298 8218 6005 10299 3058 10300 
10 1214 2101 1118 1215 10301 9517 5435 5195 10302 5387 
10 1806 1955 1055 1807 7585 10303 9891 7132 7584 9890 
10 1916 1115 2053 1917 10304 10305 7870 7458 10306 7871 
10 1155 2142 2102 1215 10307 8342 8785 5386 10308 9976 
10 1795 970 2070 2074 9652 10309 7930 7948 9654 7947 
10 497 1583 553 1582 10310 10312 3160 10311 6451 9414 
10 436 153 152 295 2811 2291 2810 10313 8377 8376 
10 1445 359 532 531 9928 3097 10314 8890 3095 3099 
10 2140 1005 1015 1081 9701 4547 9732 10315 4752 4753 
10 937 1841 936 1085 10316 10021 4314 4761 9402 4760 
10 1435 686 1434 1603 10317 10318 6010 6510 10319 6509 
10 1080 2015 2086 2109 10320 8209 10055 10054 8091 8208 
10 1060 1960 1061 1812 10321 10322 4695 9328 7599 9330 
10 2047 1211 1019 1006 10323 5006 10324 10325 5005 4569 
10 1849 1689 1690 779 7254 6776 7253 10326 10327 10001 
10 2098 2127 2034 1043 8180 8181 8126 9249 10328 9720 
10 1091 1146 2130 2129 5326 9245 9239 9714 10329 8232 
10 829 1639 971 806 10112 10330 4414 4088 10111 4415 
10 820 983 821 1732 4448 4449 3964 10331 10332 10333 
10 1924 1016 1912 1756 10334 10335 7480 7479 9563 7442 
10 1612 1018 839 997 10336 4563 8946 8867 4564 4491 
10 1904 831 992 762 9886 4477 9598 9887 3994 4476 
10 1581 1423 526 509 6445 10033 10034 10337 10338 3078 
10 640 1755 696 804 10339 10340 3590 3916 10341 3915 
10 2041 991 1906 1145 10342 9902 7836 10215 4948 9904 
10 1227 2113 1129 1226 10343 9072 5233 5235 10344 5231 
10 2140 2135 2110 1081 8329 8212 8335 10315 10345 10346 
10 1130 2026 1228 1131 10347 10348 5236 4907 10349 5237 
10 1910 1139 2044 2033 10350 10351 7846 7814 10352 7943 
10 1359 619 447 1534 10353 3356 10354 6304 10355 10356 
10 1122 1121 1882 975 4880 9510 9512 4878 4876 9453 
10 519 208 1433 350 3055 10359 10357 10358 8221 6002 
10 2043 1209 1136 1134 10360 5261 10361 10273 5262 4924 
10 890 1748 832 1906 10362 10363 4174 9903 7424 10364 
10 619 620 447 1534 3360 3358 3356 10355 10365 10356 
10 993 1907 1908 2042 10366 7432 10367 10368 7839 7840 
10 1359 1534 447 1360 6304 10356 10354 5788 6303 10369 
10 945 1689 1849 779 10370 7254 10371 4337 10327 10326 
10 1740 1594 698 861 6922 8870 10139 10372 8869 4084 
10 695 1720 1611 1776 10373 6863 10374 10375 7035 7036 
10 1894 1132 1893 986 10376 10377 7389 10287 4909 10378 
10 1039 1945 2083 1946 10379 7977 10380 10381 7560 7976 
10 1962 1194 1261 2051 9370 5448 10382 8000 9304 10130 
10 857 695 806 1776 4070 3920 4085 9713 10375 10383 
10 120 264 1319 406 8494 5662 8819 2719 8797 8820 
10 1871 968 801 1712 10384 4405 9057 7319 10385 9577 
10 1023 1837 1005 763 10386 10387 4581 4580 10388 4511 
10 1920 1165 1919 2056 10389 10390 7467 7880 10391 7879 
10 1489 1315 573 1488 6172 10393 10392 6173 6168 10394 
10 1883 976 975 813 10395 4429 10396 9767 4427 4425 
10 1705 629 795 794 10397 3888 10398 10399 3886 3890 
10 1513 510 678 1424 10400 3533 10401 6242 10402 10403 
10 1764 1000 1763 1919 10404 9801 6995 7463 9965 7462 
10 833 1907 1750 1908 9488 7428 9490 10405 7432 7430 
10 1168 1918 2055 2054 9232 7876 9233 10406 7874 7878 
10 860 1837 763 1005 10407 10388 4076 4512 10387 4511 
10 946 1992 1850 1849 10006 7695 9147 10408 7696 7258 
10 1000 1918 1763 1919 9805 7460 9801 9965 7464 7462 
10 528 1441 1512 1611 10409 6239 10213 10214 6536 6537 
10 1001 1764 1919 1000 10410 7463 10411 4501 10404 9965 
10 1944 1178 1943 1037 10412 10414 7554 10413 5071 10415 
10 1786 1940 1033 1941 7540 9515 10416 7544 7545 10417 
10 1942 2081 2120 1176 7970 7981 7979 10418 10199 10201 
10 974 1722 1835 1723 10419 7213 9088 9452 6872 7212 
10 328 468 1381 184 10420 9096 5849 8441 2906 10421 
10 1177 2081 1942 1176 9832 7970 10422 5067 10199 10418 
10 2120 1942 1176 1941 7979 10418 10201 7980 7548 10423 
10 162 446 163 305 2840 2841 2301 8396 10424 8397 
10 1168 1000 1165 1919 5035 5027 5037 9234 9965 10390 
10 587 1502 1328 586 10425 6211 10426 3263 9895 9345 
10 528 640 1512 494 3424 9697 10213 3087 3423 9698 
10 1953 1982 1187 1239 8071 10224 10427 10428 10225 5413 
10 164 448 1360 447 2846 10430 10429 2844 2848 10369 
10 699 765 1899 1638 4100 10140 10431 9102 9101 7403 
10 175 459 1371 458 2879 10433 10432 2877 2881 10434 
10 1067 1966 1066 1198 10435 10436 4713 5137 10437 5136 
10 1606 640 1766 1755 9695 9704 7000 6967 10339 7048 
10 70 213 69 355 8538 8537 2206 2567 10438 2566 
10 1049 1799 1048 2036 9289 9176 4659 10439 7822 10440 
10 1170 1234 1206 2091 5265 5423 5498 10441 10442 10443 
10 1968 1819 1068 1967 7624 9644 10444 7625 7620 10445 
10 508 198 1422 507 3025 10447 10446 3026 3021 9925 
10 1198 1966 2055 2056 10437 8006 10448 10449 8009 7902 
10 1817 1966 1965 1066 7618 7619 7614 10450 10436 10451 
10 2112 2024 2113 1128 8097 8100 8101 10452 10453 10454 
10 1064 1964 1197 1065 9930 10455 5133 4707 9931 5134 
10 2021 1887 2022 980 7780 7784 7785 10456 10457 10458 
10 1555 468 1382 469 10459 9097 6369 10460 3085 10461 
10 1999 1209 1099 2133 10462 5174 10257 8202 10463 10464 
10 459 175 1371 318 2879 10432 10433 10465 8422 5819 
10 995 1753 996 1910 10466 10468 4562 10467 7437 10469 
10 803 1713 1552 637 10470 6843 9618 3912 9275 9277 
10 765 699 1899 1002 4100 10431 10140 4503 4504 10471 
10 1170 2125 2091 2141 10101 8223 10441 10092 8268 8266 
10 415 587 416 1329 3261 3262 2751 10472 10473 8851 
10 917 1069 1820 1068 4718 10474 9646 4716 4720 9645 
10 1355 615 443 1530 9228 3344 9091 6292 9278 9280 
10 1205 1220 2141 2089 5425 8787 10475 10476 10477 8318 
10 912 742 911 1659 4239 4237 4241 10028 10478 10479 
10 736 1485 1486 570 9628 6164 10193 3713 9272 10480 
10 2125 1026 2073 1027 8856 8855 8153 10481 4594 10482 
10 1264 1256 1244 2124 5484 5506 5507 9199 10483 10484 
10 1243 1973 2087 1169 10485 8012 10486 5302 10487 10488 
10 1173 1031 2058 2057 5051 10490 10489 10234 10052 7887 
10 1765 688 1638 1605 10491 10492 7023 6997 9449 6620 
10 1689 1528 1690 779 6771 6775 6776 10327 10493 10001 
10 1265 2081 1177 1230 9778 9832 5479 5478 10494 5464 
10 868 1979 1831 1079 10495 7656 10496 5024 10497 10498 
10 745 1661 1662 1495 10499 6693 10500 8814 6688 6692 
10 928 1674 1831 1675 9302 7203 10501 10502 6732 7202 
10 1830 1979 1978 1079 7657 7658 7653 10503 10497 10504 
10 703 1447 1448 533 9434 6052 10505 3614 10506 10507 
10 1442 508 1422 1580 10508 10446 6030 6443 10509 6442 
10 459 1546 1372 1371 10510 6339 10511 10433 6340 5824 
10 1826 924 1827 1075 10512 10514 7192 10513 4737 10515 
10 1979 1830 1831 1079 7657 7204 7656 10497 10503 10498 
10 1885 1727 1886 978 7360 7364 7365 9138 9137 10516 
10 288 145 1341 287 8362 10517 5729 2433 8361 5730 
10 475 50 23 1389 2928 2527 10518 10519 9124 5874 
10 982 983 1890 1129 4450 10521 10520 4899 4900 10522 
10 17 469 470 1383 10099 2914 10523 5856 10524 10525 
10 1883 814 976 813 9766 4428 10395 9767 3943 4427 
10 1716 1559 643 1558 6853 8996 10526 6854 6382 10527 
10 2017 1083 1153 1010 10528 5018 10529 10530 4756 4973 
10 1106 960 1105 2005 4832 4830 4834 8804 10531 8805 
10 1689 613 1528 779 10532 10533 6771 10327 3840 10493 
10 2092 1242 1085 1235 10534 5244 10535 10065 5404 5405 
10 1171 2035 2121 2084 10536 8136 10537 10538 7983 8135 
10 696 1606 525 1614 10539 10541 3589 10540 6553 9640 
10 594 422 593 1335 3282 3280 3284 10542 10543 10544 
10 1951 1982 1187 1952 8124 10224 9538 7577 8163 10545 
10 1761 1762 1004 1917 6989 10547 10546 7456 7457 10548 
10 1115 1917 1162 2053 10306 10148 5013 10305 7871 10147 
10 1238 1049 2036 1950 5289 10439 8774 10549 10550 7823 
10 2069 1958 1191 2075 7995 8688 10551 7952 7992 8689 
10 715 882 1630 1629 4153 9606 10552 10553 9608 6599 
10 292 149 1345 291 8370 9317 5741 2437 8369 5742 
10 789 1860 1859 956 10037 7288 10036 4369 10019 9736 
10 334 1414 500 190 5948 10555 10554 5099 10046 3001 
10 1000 1001 1165 1919 4501 5026 5027 9965 10411 10390 
10 1561 811 1560 645 10556 10558 6388 10557 3932 10559 
10 970 1166 1146 2074 5029 5030 4952 9654 9378 9313 
10 848 1764 1604 1765 10560 6994 10561 9322 6998 6996 
10 1961 1960 1061 1193 7604 10322 10562 10563 10564 5122 
10 1964 1064 1196 1963 9930 5131 10565 7613 10566 10567 
10 998 699 1796 1765 4493 10569 10568 9321 9320 7100 
10 1412 497 498 188 8858 2996 8859 8691 2991 2995 
10 1064 1196 1963 1063 5131 10567 10566 4704 5130 10570 
10 1007 1004 1917 1162 4518 10548 10571 5014 5012 10148 
10 1819 1068 916 1820 9644 4715 9643 7171 9645 9647 
10 1918 2054 1162 1917 7874 10146 10572 7461 7873 10148 
10 1916 1115 2052 2053 10304 10573 7868 7870 10305 7872 
10 195 1419 338 339 9564 5962 4791 4774 5963 2486 
10 2083 1039 1946 1984 10380 10381 7976 8046 10574 8148 
10 1022 1760 1759 843 10575 6983 10576 4577 10577 10578 
10 1861 957 790 791 8812 4372 10579 8740 4373 3878 
10 1311 1485 569 570 6160 10580 10157 9273 9272 3212 
10 871 870 1901 1618 4122 10187 10288 9576 8769 7410 
10 1555 554 469 1383 10581 3163 10460 6376 10582 10524 
10 1784 877 1785 1939 10583 10016 7069 7539 10584 7538 
10 1975 1826 1827 1075 7645 7192 7644 10238 10513 10515 
10 72 215 357 1271 8542 10586 2572 10585 5518 10587 
10 385 99 1298 243 2656 10590 10588 10589 8452 5599 
10 1355 1529 615 1530 6288 10108 9228 6292 6293 9278 
10 2093 2120 1175 2126 8301 10591 10030 8258 8143 10592 
10 540 1280 1281 368 10593 5549 10594 3122 10106 10595 
10 1462 547 1288 548 10596 9208 6093 8827 3147 9210 
10 1174 1264 1175 2126 5463 5487 5058 8702 8701 10592 
10 554 470 469 1383 3420 2914 3163 10582 10525 10524 
10 470 469 17 44 2914 10099 10523 2912 2911 2515 
10 1498 583 1324 1325 9294 9296 6199 6198 10597 5682 
10 1718 664 1511 1579 10044 9602 6859 6858 10598 6539 
10 1682 1520 771 1681 6751 9448 10599 6752 6747 10600 
10 1981 935 1984 1839 9167 9968 7673 7665 9168 7671 
10 597 1614 1741 696 10601 6924 10602 3601 10540 10603 
10 946 1992 1849 945 10006 7696 10408 4341 10604 10371 
10 374 1287 546 547 8732 10605 3140 3142 10290 3144 
10 904 1650 734 903 10606 9107 4215 4217 10607 4213 
10 564 563 729 1479 3194 3692 3693 9841 8921 9843 
10 1476 726 727 1643 10084 3688 10608 6635 10609 10610 
10 1957 1057 1189 1956 10611 5111 10612 7592 10613 10614 
10 1287 373 546 1286 10615 3139 10605 5567 9967 9224 
10 546 373 1287 374 3139 10615 10605 3140 2624 8732 
10 1652 1808 905 1809 7133 9270 9269 7137 7138 10616 
10 528 1441 494 1512 10409 10617 3087 10213 6239 9698 
10 1025 870 1780 1026 4588 9750 9749 4591 4589 10189 
10 1284 86 229 372 10248 8569 5556 8695 2616 8696 
10 86 87 229 372 2223 8570 8569 2616 2617 8696 
10 400 115 1314 401 2702 10618 9411 2706 2704 9412 
10 28 54 1393 27 2536 10619 5885 2162 2535 5886 
10 382 97 240 1296 2649 8447 10620 10621 10622 5594 
10 1739 1467 555 1470 6931 10623 8720 6932 6115 8722 
10 1042 1011 861 1754 4637 4535 4636 10624 10625 10626 
10 2125 1027 1237 1170 10481 5282 10102 10101 5044 5284 
10 756 1672 1506 1505 10123 6721 9298 9128 6722 6224 
10 41 68 42 1407 2563 2564 2176 5928 10627 5927 
10 2131 1082 1247 2040 10628 5357 10629 8280 10630 10631 
10 921 1825 922 1668 9383 8846 4271 10632 7185 10633 
10 1684 1522 1523 608 6757 6272 6756 10634 9587 10635 
10 1454 1623 1453 709 6576 6577 6070 10636 10637 10638 
10 557 723 1472 722 3674 10640 10639 3672 3676 10641 
10 1308 1482 1481 566 6151 6152 6147 8748 9028 9029 
10 739 574 573 1489 3723 3224 3722 10642 10643 10392 
10 1185 1266 2067 2123 5474 10645 10644 9625 9624 8144 
10 1359 446 1358 305 10646 10647 5785 5784 10424 5780 
10 479 54 1393 480 2940 10619 10648 2944 2942 10649 
10 1480 1647 731 1481 6647 9368 10650 6149 6646 9927 
10 54 28 1393 480 2536 5885 10619 2942 10651 10649 
10 525 1408 494 12 9650 9099 3075 3074 9100 2984 
10 395 109 394 1308 2686 2684 2688 8746 10652 10653 
10 650 479 1565 1393 3451 10656 10654 10655 10648 6398 
10 662 1577 1405 491 10657 6434 10658 3487 10659 10285 
10 1368 455 1367 314 9009 9395 5812 5811 9010 5807 
10 662 492 491 1405 3488 2980 3487 10658 10660 10285 
10 2018 1233 1140 1151 10661 5258 10662 9978 5259 5009 
10 1661 1660 1494 744 6690 6685 6689 10663 8724 8726 
10 2144 1227 1226 2113 10664 5235 10665 8293 10343 10344 
10 402 574 403 1316 3222 3223 2712 10145 10167 9685 
10 2083 1117 1981 1242 9205 10666 8045 8765 5297 9775 
10 568 734 1483 733 3707 10667 8875 3705 3709 10668 
10 492 66 491 1405 2978 2976 2980 10660 10669 10285 
10 986 1736 824 1735 10670 10672 4458 10671 6911 10673 
10 131 1330 275 274 8836 5695 8516 8515 5696 2419 
10 1581 694 526 1613 10244 3584 10034 6546 10674 10675 
10 1232 1119 2077 2124 5252 9792 10676 10677 10678 8151 
10 855 1775 1715 1714 10679 7040 10680 10681 7328 6851 
10 336 193 192 502 5063 2333 5064 10025 3006 3007 
10 589 1504 1330 588 9109 6217 10682 3269 10683 8848 
10 1999 1099 2000 2133 10257 9063 7721 8202 10464 8201 
10 1442 675 1580 1613 10684 10685 6443 6545 10686 6551 
10 943 1687 1846 1847 10687 7244 10688 9007 7248 7249 
10 664 495 1511 1579 3494 9762 9602 10598 9764 6539 
10 1680 935 1679 769 9390 10689 6746 9392 4307 9686 
10 1442 1581 526 1613 6444 10034 10035 6545 6546 10675 
10 367 539 540 1280 3119 3123 3121 9822 10690 10593 
10 1414 499 500 190 10045 3002 10555 10046 2997 3001 
10 939 772 938 1842 4318 4316 4320 10691 10692 8700 
10 193 336 337 1417 5063 2484 4985 10693 5956 5957 
10 440 156 439 1352 2822 2820 2824 8924 10694 10695 
10 2105 1024 2137 2071 9744 9840 8243 8076 10696 8244 
10 674 1773 1778 1593 10697 7046 10698 9310 7027 7045 
10 156 440 299 1352 2822 8923 8384 10694 8924 5762 
10 1698 1858 788 1699 7281 8955 8953 6803 7280 10699 
10 1100 2001 2133 1248 10700 8246 10701 5331 10270 10702 
10 1101 2002 1249 1102 9021 9019 5336 4822 9177 5337 
10 439 156 155 298 2820 2294 2819 10703 8383 8382 
10 1515 600 1340 428 8901 10705 6247 10704 3299 10706 
10 870 871 1901 1026 4122 10288 10187 4589 4590 10188 
10 201 202 513 344 2344 3037 3038 8340 8339 10707 
10 1212 2004 2099 1106 9657 8191 10708 5182 8802 9498 
10 28 55 1394 480 2537 10709 5889 10651 2943 10710 
10 704 1619 1449 1618 9573 6565 10711 9574 6566 6561 
10 706 873 1620 872 4126 9680 9679 4124 4128 10712 
10 202 1427 513 344 9136 9789 3037 8339 5984 10707 
10 1240 1056 1055 1955 5293 4680 5292 9018 9016 10303 
10 1348 435 436 608 10713 2812 10714 10715 3322 3323 
10 1990 1847 1090 1989 7690 10717 10716 7691 7686 10718 
10 1617 1927 701 702 7496 10720 9186 10719 10721 3613 
10 1368 1542 628 1543 6327 9761 10722 6331 6332 10173 
10 509 1581 663 526 10337 10245 3491 3078 10034 3492 
10 892 723 722 1637 4180 3676 4179 10723 10724 10725 
10 1737 1895 988 1879 7390 10727 10726 7521 7523 10728 
10 12 15 1408 14 2779 5931 9100 2325 2508 9083 
10 1841 936 1681 937 10021 10020 7230 10316 4314 10729 
10 462 178 1374 321 2888 8981 8993 8992 8428 5828 
10 1909 1136 1910 995 10730 10732 7438 10731 4922 10467 
10 1306 564 1479 1305 8910 9841 6141 5625 10119 6142 
10 1791 1945 1039 1946 7555 10379 10733 7559 7560 10381 
10 1742 723 892 1637 10734 4180 10735 6929 10724 10723 
10 1588 668 1416 1587 10736 9898 6464 6466 9899 6462 
10 883 1630 1791 1631 10737 7086 10738 10739 6602 7085 
10 1562 1561 812 1723 6391 10741 10740 6870 6871 10742 
10 46 19 18 471 2519 2153 2517 2916 10743 10744 
10 1753 672 1592 1591 9548 9550 6962 6961 10745 6478 
10 1804 1647 1648 901 7122 6651 7121 10746 10747 10227 
10 1717 642 1558 643 9443 10749 6855 10748 3432 10527 
10 600 1515 1340 1514 8901 6247 10705 8884 6248 6243 
10 439 1526 1352 1351 10750 6279 10695 9404 6280 5764 
10 2134 2112 1255 1224 8220 9921 10751 9197 10752 5440 
10 969 1937 1017 1873 9059 10753 4936 9060 7534 10754 
10 704 1449 705 535 10711 10755 3622 3618 8682 3620 
10 694 675 1613 1719 3595 10686 10674 10756 10757 6861 
10 1887 1729 980 817 7366 10759 10457 10758 10760 4439 
10 704 534 1449 535 3617 8680 10711 3618 3108 8682 
10 653 483 482 1396 3461 2953 3460 9421 9419 10186 
10 1694 1533 1695 784 6786 6790 6791 10761 10762 10763 
10 1562 646 812 1561 10764 3935 10740 6391 10765 10741 
10 763 1636 663 1743 10766 10768 3794 10767 7025 10769 
10 1568 652 1395 482 10770 10772 6408 10771 3458 10773 
10 1562 1724 812 647 6874 10775 10740 10774 9907 3936 
10 1271 358 216 1272 10776 9920 5517 5522 9919 5521 
10 1706 796 962 795 9915 4388 10777 9343 3893 4387 
10 68 382 1407 493 3071 10778 10627 2982 3086 10779 
10 41 68 1407 493 2563 10627 5928 10780 2982 10779 
10 695 1720 1609 1611 10373 6862 10781 10374 6863 6541 
10 715 1460 716 546 10782 10783 3655 3651 9223 3653 
10 716 1460 1461 546 10783 6091 10784 3653 9223 10785 
10 1724 1562 812 1723 6874 10740 10775 6875 6870 10742 
10 1018 1874 1612 1898 10786 7332 10336 10787 7402 7399 
10 502 503 669 1417 3011 3508 3509 10788 10789 9533 
10 1418 503 1417 1589 9067 10789 5961 6468 10790 6467 
10 1126 2134 1127 2022 10791 9198 4895 10792 8207 10793 
10 1735 1573 658 823 6907 10795 10794 10073 10796 3969 
10 503 1589 669 1417 10790 9531 3508 10789 6467 9533 
10 590 589 755 1505 3272 3770 3771 8745 9110 9112 
10 336 193 502 1417 5063 3006 10025 5956 10693 10788 
10 1104 1210 1211 2003 5177 5180 5178 9462 9463 10797 
10 2015 1080 2086 1116 10320 10055 8209 10798 4864 10799 
10 1830 1674 927 1673 7199 9911 10800 7200 6729 10801 
10 895 1799 896 1642 10802 9290 4193 9254 7107 10803 
10 1377 323 324 181 5838 2469 5837 8751 8433 8434 
10 514 515 680 1428 3045 3536 3537 9580 10804 10805 
10 203 346 515 1428 8311 10807 3044 10806 5988 10804 
10 591 756 1506 590 3774 9298 9025 3275 3773 8743 
10 561 1476 1477 1303 9267 6137 10808 10809 6132 6136 
10 345 203 1428 346 8326 10806 5987 2495 8311 5988 
10 514 203 515 1428 3040 3044 3045 9580 10806 10804 
10 723 1742 1473 1637 10734 6928 10810 10724 6929 6618 
10 759 1509 1508 1675 10811 6233 10812 9013 6730 6731 
10 1693 783 782 617 10813 3854 9530 10814 3852 3850 
10 1702 792 958 791 8956 4376 8741 8742 3881 4375 
10 488 1401 658 1574 10002 10816 3476 10815 6426 10817 
10 1573 1735 1734 823 6907 6908 6903 10796 10073 10075 
10 1652 1485 1486 736 6662 6164 6661 9626 9628 10193 
10 797 1547 1708 798 10818 6828 10819 3899 10126 10820 
10 1550 635 463 636 10821 3404 10822 10823 3408 3406 
10 772 1683 773 1522 8822 8988 3824 8824 6753 9586 
10 1440 424 425 1444 10824 2778 10825 6040 10826 10827 
10 1177 1036 1943 1037 5066 9787 9788 5068 4624 10415 
10 112 255 397 1311 8477 10829 2693 10828 5639 10158 
10 1498 1324 582 1497 6199 9292 9295 6200 6195 10830 
10 1885 978 1886 1125 9138 10516 7365 10831 4887 10832 
10 904 1056 1057 1808 4679 4683 4681 10833 10834 10835 
10 538 1278 537 1451 8840 8839 3117 9546 6059 9211 
10 1750 670 1751 1589 10836 10837 6957 6953 10838 6955 
10 78 79 221 364 2215 8554 8587 2592 2593 10839 
10 567 568 1483 733 3206 8875 8873 3704 3705 10668 
10 1113 968 1871 1872 4854 10384 9837 9836 10840 7324 
10 375 1289 1288 548 10841 5573 9209 3145 8826 9210 
10 1712 1550 636 801 6841 10823 9578 9577 10842 3907 
10 1246 1216 2143 2108 5431 8782 8864 9870 9937 8286 
10 697 1469 527 1438 10843 10845 3598 10844 6112 10846 
10 1630 716 1631 883 10847 10848 6602 10737 4156 10739 
10 1462 717 1631 1461 9374 10849 6600 6094 10850 6601 
10 523 211 1436 522 3068 10851 9348 3069 3064 9350 
10 1221 2122 2135 2110 8861 8213 10852 10853 8211 8212 
10 1739 764 1578 1470 8721 9497 6918 6932 8723 6627 
10 534 704 1448 703 3617 10855 10854 3615 3619 10505 
10 79 222 365 80 8555 9494 2595 2216 8556 2596 
10 1220 1161 1024 2137 5209 5023 5208 9838 10856 9840 
10 569 397 568 1310 3207 3205 3209 10857 10858 10859 
10 1738 988 1737 826 10860 10726 6917 9002 4464 10861 
10 1452 538 707 1451 9215 3627 9213 6064 9546 9547 
10 397 396 568 1310 2694 3204 3205 10858 10862 10859 
10 1814 1815 1963 1063 7156 7608 7609 10863 10864 10570 
10 1938 1030 2058 1172 10865 10867 7889 10866 5048 10868 
10 111 396 1310 254 2690 10862 10869 8475 8977 5636 
10 704 1619 705 1449 9573 8692 3622 10711 6565 10755 
10 111 255 1310 397 8476 5635 10869 2692 10829 10858 
10 400 114 258 115 2701 8482 10870 2702 2252 8483 
10 398 1311 569 570 10156 10157 3208 3210 9273 3212 
10 919 1665 1666 749 10871 6705 9256 4260 9191 10872 
10 266 123 1322 408 8499 10874 5672 10873 2726 9151 
10 844 1601 1761 1600 10875 6985 10876 10877 6505 6984 
10 1524 437 1350 610 10878 9526 6273 10135 3328 8934 
10 959 1704 1703 1863 10879 6818 10880 10881 7295 7296 
10 1920 998 1796 1765 8834 10568 7489 7466 9321 7100 
10 958 1104 1862 1103 4826 10882 8796 4824 4828 8795 
10 1401 1573 658 1574 6422 10795 10816 6426 6427 10817 
10 1309 396 1310 568 10883 10862 5637 8874 3204 10859 
10 734 1650 1483 733 9107 6656 10667 3709 10884 10668 
10 868 1927 1831 1979 9862 7659 10496 10495 7917 7656 
10 464 1551 636 637 10885 10886 3407 3409 9276 3411 
10 477 648 1563 647 3445 10171 10169 3443 3447 9908 
10 1979 1231 1978 1079 9848 9849 7658 10497 5248 10504 
10 1436 688 1604 1605 9349 10887 6513 6515 9449 6517 
10 928 868 1831 1079 4980 10496 10501 4749 5024 10498 
10 1465 1634 720 1635 6609 10889 10888 6613 6614 10890 
10 1025 1026 1780 2064 4591 10189 9749 10071 8857 7910 
10 261 117 403 1316 8488 2710 10891 5653 10892 9685 
10 472 642 1385 471 3428 10894 10893 2920 3427 10895 
10 1882 974 1835 1723 9451 9088 7353 7352 9452 7212 
10 407 121 1320 265 2722 8798 10896 10897 8496 5665 
10 1123 1221 1222 2110 5213 5217 5215 10898 10853 10899 
10 1300 558 559 1474 9331 3179 10900 6127 10901 9324 
10 2028 1133 1182 1132 10902 5090 10903 10904 4913 5242 
10 1737 1895 1736 988 7390 7391 6914 10726 10727 10905 
10 734 1484 568 1483 8817 10906 3707 10667 6158 8875 
10 33 1399 1398 485 5904 5905 5900 10907 10908 10909 
10 217 74 359 73 8546 2578 9827 8545 2210 2577 
10 1722 811 810 1560 10910 3934 10911 6868 10558 9996 
10 703 1447 1616 1448 9434 6558 8766 10505 6052 6557 
10 1055 1188 1954 1054 5109 10913 10912 4677 5108 10914 
10 1240 1159 2045 2080 5403 10917 10915 10916 10918 8069 
10 103 389 1302 388 2668 9264 10141 2666 2670 9218 
10 1467 556 555 384 10919 3170 10623 10920 3168 3167 
10 391 563 1304 562 3189 8951 10124 3187 3191 9998 
10 1341 1515 601 1516 6246 10921 10281 6250 6251 10059 
10 1518 431 1343 1344 8734 8735 6256 6255 10922 5740 
10 252 109 1308 394 8471 10652 5630 10923 2684 10653 
10 1590 834 671 670 10924 4001 10925 9499 4002 3516 
10 1476 726 1643 1642 10084 10609 6635 6631 10086 6636 
10 1302 389 560 388 9264 3181 9266 9218 2670 3180 
10 1949 1218 2012 1114 10926 9593 7895 10927 5268 10197 
10 508 11 1442 1422 10928 6031 10508 10446 5972 6030 
10 429 1342 1341 1516 8903 5734 8905 10929 6249 6250 
10 602 1678 1516 767 10930 6740 10931 3805 9859 10058 
10 2145 1237 2121 2084 8788 10932 8303 8312 8976 8135 
10 1953 1188 2096 1239 10933 9659 8072 10428 5367 9660 
10 1857 1098 1999 1856 10934 10935 7716 7279 10264 7717 
10 1374 461 1373 320 8982 10936 5830 5829 8983 5825 
10 1199 1198 2056 1967 5140 10449 9084 9086 10937 8008 
10 158 301 300 1354 8388 2446 8387 10938 5768 5769 
10 725 1474 1475 559 9323 6131 10939 3680 9324 10940 
10 1077 1205 1976 1076 5158 9286 9287 4744 5157 10243 
10 158 442 1354 441 2828 10941 10938 2826 2830 10942 
10 442 158 1354 301 2828 10938 10941 10943 8388 5768 
10 868 1927 1979 1147 9862 7917 10495 4954 9863 10944 
10 1966 1067 1818 1967 10435 10945 7617 7622 10946 7621 
10 913 1660 914 744 10947 9676 4247 4243 8724 4245 
10 895 726 725 1642 4189 3685 4188 9254 10086 9255 
10 1038 1790 1945 1791 10948 7556 10949 10950 7087 7555 
10 1790 1038 1945 1944 10948 10949 7556 7552 10951 7557 
10 1554 641 1555 1557 10952 10953 6368 6852 10954 6530 
10 452 453 1365 625 2863 10956 10955 3373 3374 10957 
10 1265 2092 1235 1242 9409 10065 5499 5467 10534 5404 
10 1051 1951 1052 1802 10958 9539 4668 10959 7574 10960 
10 1493 578 1494 744 10961 10962 6188 8725 3737 8726 
10 1943 1037 1789 1944 10415 10963 7549 7554 10413 7553 
10 798 1708 964 1868 10820 10965 4394 10964 7311 10966 
10 774 1684 608 773 10967 10634 3825 3827 8990 3823 
10 1089 1988 1088 2098 10968 9226 4780 10969 8048 9247 
10 418 419 1332 590 2760 10260 10970 3270 3271 8744 
10 419 591 1332 590 3273 10209 10260 3271 3275 8744 
10 1988 1845 1846 942 7684 7246 7683 9225 8678 8679 
10 1331 418 1332 590 10971 10970 5703 10972 3270 8744 
10 1678 767 768 934 9859 3809 8756 10973 4304 4305 
10 1515 428 1340 1341 10704 10706 6247 6246 10280 5731 
10 1797 935 1839 1680 9166 9168 7225 7103 9390 7223 
10 684 1432 1600 683 10974 6501 10975 3550 10976 10977 
10 1729 1568 652 1567 6888 10770 10978 6889 6409 10979 
10 418 1331 589 590 10971 10980 3268 3270 10972 3272 
10 578 1320 1493 1494 9655 6183 10961 10962 6187 6188 
10 180 464 323 1376 2894 8750 8432 10981 10982 5834 
10 1894 1133 2029 2028 8891 10983 7805 7801 10902 7806 
10 464 180 463 1376 2894 2892 2896 10982 10981 10984 
10 200 343 201 512 8345 8344 2343 3035 10985 3034 
10 975 1724 812 1723 10986 10775 4424 9454 6875 10742 
10 840 1012 1018 1677 4539 4977 4565 10987 10988 10989 
10 811 1722 1723 1561 10910 6872 10990 10556 6867 6871 
10 1722 974 811 1723 10419 4421 10910 6872 9452 10990 
10 1562 646 1389 476 10764 10991 6390 9417 3440 9125 
10 1388 475 23 1389 9093 10518 5870 5875 10519 5874 
10 424 138 1337 282 2773 9523 9522 10992 8530 5716 
10 114 257 113 399 8481 8480 2251 2699 10993 2698 
10 1320 1321 1494 579 5670 6186 6187 10994 10995 10996 
10 1135 992 2038 1163 4918 9597 9471 5015 5016 9470 
10 1496 747 746 581 10997 3748 9756 10998 3746 3744 
10 63 488 36 62 2967 10004 2553 2198 2966 2552 
10 61 35 1400 487 2550 5906 10999 2963 11000 11001 
10 1399 486 34 1400 11002 11003 5903 5908 11004 5907 
10 1401 1573 1400 487 6422 6423 5911 11005 11006 11001 
10 1995 1247 2131 1094 11007 10629 8196 11008 5394 11009 
10 613 778 1527 612 3838 11011 11010 3339 3837 11012 
10 2065 2100 1213 2099 8306 9486 11013 8157 8055 9487 
10 1551 464 1376 1377 10885 10982 6355 6354 8749 5839 
10 428 1515 601 1341 10704 10921 3301 10280 6246 10281 
10 1700 789 1699 1538 10038 11014 6806 6805 11015 6801 
10 1353 440 613 1527 8922 3337 9648 6282 11016 11010 
10 968 1872 1712 1871 10840 7323 10385 10384 7324 7319 
10 849 763 663 1743 4044 3794 4043 11017 10767 10769 
10 1551 1550 1376 636 6356 6351 6355 10886 10823 11018 
10 242 1298 1297 384 5600 5601 5596 11019 11020 11021 
10 141 1338 284 1294 11022 5721 8354 11023 5722 5589 
10 2085 2118 2031 1167 8234 8121 7987 10203 11024 11025 
10 985 1892 1734 822 8925 7381 10074 4454 8926 11026 
10 1352 1526 612 1527 6279 11028 11027 6283 6284 11012 
10 1401 488 658 487 10002 3476 10816 11005 2968 3475 
10 720 1465 1635 856 10888 6613 10890 4089 11029 11030 
10 1293 94 238 95 11031 8586 5583 8780 2231 8535 
10 1679 769 768 603 9686 3812 8758 10252 3810 3808 
10 512 200 1425 511 3035 10149 11032 3036 3031 10164 
10 1745 807 690 1744 9141 3921 11033 6939 11034 11035 
10 551 1465 720 856 11036 10888 3666 4068 11029 4089 
10 1273 217 359 1272 5524 9827 9795 5525 5520 9929 
10 1876 1949 2012 1114 7568 7895 7896 11037 10927 10197 
10 1321 1495 1494 579 6190 6191 6186 10995 11038 10996 
10 946 1850 1690 1849 9147 7257 9148 10408 7258 7253 
10 776 1687 943 777 10218 10687 4330 3836 11039 4331 
10 1605 688 1604 1765 9449 10887 6517 6997 10491 6996 
10 1091 944 1990 1991 4784 8984 11040 9240 9955 7694 
10 1638 1605 676 1609 6620 11041 9103 6621 6554 11042 
10 657 1573 658 487 11043 10795 3477 3473 11006 3475 
10 219 76 1275 361 8550 9584 5530 11044 2584 11045 
10 1155 2142 1118 1015 10307 11046 5007 4983 11047 4868 
10 704 1449 1448 1618 10711 6055 10855 9574 6561 6562 
10 703 869 870 1616 4115 4119 4117 8766 9570 8768 
10 1687 943 777 1847 10687 4331 11039 7248 9007 9008 
10 1687 1847 777 1688 7248 9008 11039 6770 7247 11048 
10 1377 465 181 324 9336 2897 8751 5837 11049 8434 
10 1375 635 463 1550 11050 3404 10191 6352 10821 10822 
10 805 1717 642 1556 9442 9443 3918 11051 6856 11052 
10 545 1458 544 714 8714 11053 3138 3648 8718 3647 
10 1625 1786 878 1626 7071 9739 9203 6587 7070 9475 
10 1628 880 1627 714 11054 9477 6593 9879 4148 9880 
10 462 461 634 1374 2890 3400 3401 8993 8982 11055 
10 1126 979 2021 980 4890 11057 11056 4891 4441 10456 
10 2120 1033 1941 1176 11058 10417 7980 10201 5059 10423 
10 2140 1167 2030 1005 10202 10204 8254 9701 5032 9703 
10 1238 2036 2117 1950 8774 8114 8776 10549 7823 8113 
10 1396 1568 1395 482 6407 6408 5896 10186 10771 10773 
10 1216 1246 1217 2108 5431 5436 5201 9937 9870 9871 
10 1628 880 1788 1627 11054 8967 7076 6593 9477 7077 
10 598 1470 383 1296 11059 11061 3294 11060 6114 11062 
10 2083 1178 1179 1265 8762 5076 8764 8759 5465 5466 
10 1931 996 867 837 11063 4490 11064 11065 4488 4110 
10 1566 1394 480 1393 6401 10710 11066 6402 5890 10649 
10 686 847 1603 687 4037 9796 10319 3559 4036 11067 
10 28 1394 1393 480 5889 5890 5885 10651 10710 10649 
10 699 998 1796 1002 4493 10568 10569 4504 4561 11068 
10 1176 1035 1941 1942 5062 11069 10423 10418 9782 7548 
10 1055 1806 1805 1954 9891 7129 11070 10912 7581 7582 
10 716 1630 1631 1461 10847 6602 10848 10784 6597 6601 
10 1709 798 1708 1547 8670 10820 6833 6832 10126 6828 
10 380 1293 1466 1338 10005 6104 11071 11072 6531 6533 
10 1806 902 1055 1805 11073 4675 9891 7129 11074 11070 
10 101 244 1300 245 8455 5606 11075 8456 2389 5605 
10 1889 1731 1890 982 7372 7376 7377 11076 8899 10520 
10 635 1711 800 801 11077 11078 3904 3906 11079 3908 
10 562 728 1477 727 3689 10231 9999 3687 3691 11080 
10 1804 901 1648 1805 10746 10227 7121 7126 11081 7125 
10 1053 1953 1239 1054 11082 10428 5290 4674 11083 5291 
10 1804 1953 1054 1805 7579 11083 11084 7126 7578 11085 
10 908 739 1655 909 4228 11087 11086 4232 4230 11088 
10 120 263 405 1319 8493 11089 2717 8819 5663 8821 
10 917 1069 918 1821 4718 4719 4259 11090 11091 11092 
10 1493 743 1659 1492 8800 10026 6682 6185 11093 6683 
10 1324 582 1497 1323 9292 10830 6195 5679 11094 6196 
10 912 913 1660 1816 4244 10947 10027 11095 11096 7157 
10 577 576 742 1492 3233 3731 3732 9158 11097 11098 
10 479 1392 1565 1393 11099 6399 10656 10648 5887 6398 
10 1332 1331 590 1505 5703 10972 8744 6219 6220 8745 
10 275 1331 1330 417 5699 5700 5695 8835 11100 8837 
10 1942 1177 1176 1035 10422 5067 10418 9782 5065 5062 
10 1204 1205 1076 1976 5159 5157 5156 11101 9286 10243 
10 2 239 3 42 8442 2383 2149 2512 5590 2177 
10 850 859 1833 1741 4075 9993 11102 11103 11104 7208 
10 1344 431 148 432 10922 2796 11105 9355 2800 2798 
10 587 752 753 1502 3762 3766 3764 10425 9894 11106 
10 1178 1944 2082 1945 10412 7971 8763 9765 7557 7974 
10 2138 2078 1244 2124 8249 9773 9771 8269 8238 10484 
10 1689 1848 778 945 7250 11108 11107 10370 9954 4336 
10 660 490 489 1403 3482 2974 3481 11109 11110 11111 
10 1403 490 1404 1576 11110 11112 5920 6432 11113 6431 
10 308 1361 449 1362 5789 11115 11114 5793 5794 11116 
10 1212 2065 1213 2099 11117 11013 5186 10708 8157 9487 
10 450 1537 1363 1362 11118 6312 11119 11120 6313 5797 
10 805 1717 1556 1775 9442 6856 11051 10183 7053 7032 
10 490 661 491 1404 3484 3485 2977 11112 11121 10286 
10 178 462 179 321 2888 2889 2317 8428 8992 8429 
10 173 456 315 172 2871 11122 8417 2311 2870 8416 
10 2092 1980 1085 1983 8028 9401 10535 8029 7918 9403 
10 1529 1691 1690 780 6778 6779 6774 10109 9359 10000 
10 1379 467 183 326 9491 2903 11123 5843 9493 8438 
10 688 1605 676 1638 9449 11041 3596 10492 6620 9103 
10 147 431 290 1343 2795 11125 8366 11124 8735 5735 
10 1364 451 452 624 11126 2860 11127 11128 3370 3371 
10 1797 1841 1983 1085 7231 7668 7669 11129 9402 9403 
10 1693 783 1853 949 10813 11131 7266 11130 4349 11132 
10 1980 2092 1085 1235 8028 10535 9401 10064 10065 5405 
10 1331 589 590 1505 10980 3272 10972 6220 9110 8745 
10 1058 1958 1191 1059 11133 8688 5115 4689 9741 5116 
10 589 1331 1504 1505 10980 6216 9109 9110 6220 6221 
10 1254 2081 1230 1176 10198 10494 5393 5434 10199 5433 
10 848 847 1604 1764 4041 11134 10561 10560 9812 6994 
10 1718 862 664 859 10043 4091 10044 11135 4111 4092 
10 616 1531 617 444 11136 11137 3351 3347 11138 3349 
10 948 1852 782 1692 8978 11139 4346 8896 7263 8897 
10 1531 444 1357 617 11138 8881 6294 11137 3349 9386 
10 1601 685 1602 1433 11140 9155 6508 6504 9156 6506 
10 859 891 1833 1008 4176 11141 9993 4521 4560 9994 
10 1751 994 1752 835 9783 11143 6960 11142 4482 11144 
10 475 1388 49 474 9093 11145 2927 2929 9095 2925 
10 77 363 221 1276 2589 11147 8553 11146 9752 5532 
10 1155 1221 2143 2135 5312 8862 8784 11148 10852 8348 
10 696 1606 1614 1755 10539 6553 10540 10340 6967 6968 
10 1388 22 49 474 5871 2525 11145 9095 9054 2925 
10 22 1388 49 23 5871 11145 2525 2157 5870 2526 
10 1992 1091 1991 945 9238 9240 7697 10604 4785 9956 
10 611 1526 1351 1525 11149 6280 9405 11150 6281 6276 
10 959 792 958 1703 4378 4376 4380 10880 8957 8958 
10 1702 792 1541 1703 8956 11151 6810 6815 8957 6814 
10 1388 475 49 23 9093 2927 11145 5870 10518 2526 
10 1132 985 1131 1893 4908 4906 4910 10377 11152 11153 
10 1808 1957 1956 1057 7591 7592 7587 10835 10611 10613 
10 959 1704 1863 960 10879 7295 10881 4383 9456 11154 
10 572 1487 1313 571 11155 6166 11156 3218 9874 11157 
10 132 275 131 417 8517 8516 2269 2753 8835 2752 
10 2134 1126 2021 2022 10791 11056 8088 8207 10792 7785 
10 740 741 1490 1657 3730 8917 8811 10212 8918 6677 
10 33 1399 485 60 5904 10908 10907 2547 11158 2958 
10 965 798 964 1868 4396 4394 4398 11159 10964 10966 
10 1399 486 485 60 11002 2962 10908 11158 2960 2958 
10 132 275 1331 276 8517 5699 11160 8518 2420 5698 
10 457 1544 1370 1369 11161 6333 11162 11163 6334 5818 
10 1715 805 1775 855 10181 10183 7040 10680 4066 10679 
10 2045 1957 1189 1956 7990 10612 9882 7991 7592 10614 
10 486 1399 34 60 11002 5903 11003 2960 11158 2548 
10 2098 1988 1088 2128 8048 9226 9247 8320 8186 9248 
10 466 1553 639 1554 11164 11166 3415 11165 6365 11167 
10 1463 376 549 548 9229 3148 9253 8825 3146 3150 
10 1399 33 34 60 5904 2168 5903 11158 2547 2548 
10 638 855 1715 1714 4067 10680 9755 9506 10681 6851 
10 932 803 969 1873 4298 4409 4410 11168 11169 9060 
10 1566 1727 1565 650 6882 6883 6403 11170 11171 10654 
10 1727 978 1726 815 9137 9139 6884 11172 4433 11173 
10 814 649 1564 1726 3942 11175 11174 9465 11176 6880 
10 816 1727 650 815 11177 11171 3947 3949 11172 3945 
10 1212 2065 2099 2047 11117 8157 10708 11178 7911 8156 
10 649 1564 1726 1565 11175 6880 11176 11179 6400 6879 
10 649 814 815 1726 3942 3946 3944 11176 9465 11173 
10 529 530 1270 1607 3093 11182 11180 11181 11183 6522 
10 1702 792 626 1541 8956 3879 11184 6810 11151 11185 
10 1216 1155 2102 1215 5432 8785 8783 5198 5386 9976 
10 631 630 1545 458 3393 9917 11186 3391 3389 11187 
10 1015 1936 2060 2139 11188 7892 9708 11189 8251 8252 
10 1590 671 835 1591 10925 4005 11190 6475 11191 11192 
10 824 1736 986 987 10672 10670 4458 4460 11193 4462 
10 1270 71 215 357 11194 8541 5514 11195 2571 10586 
10 1451 536 1277 537 11196 9864 6060 9211 3114 9207 
10 1044 987 1895 988 4914 8894 8972 4644 4465 10727 
10 1575 825 1576 1737 10093 11197 6433 6913 11198 6912 
10 1960 1060 1192 1959 10321 5119 11199 7601 10063 10062 
10 507 341 1421 197 9924 5969 9926 3022 5321 11200 
10 1093 948 1851 1994 4794 11201 8829 9460 8980 7702 
10 668 1748 667 1587 11202 11203 3507 9899 6947 11204 
10 877 1786 1785 1033 9738 7072 10016 4610 10416 9516 
10 1786 1034 1033 878 10153 4615 10416 9739 4613 4611 
10 1927 1832 701 868 7497 9188 10720 9862 11205 4112 
10 2037 1913 1158 1164 7825 11206 9314 9315 9638 5022 
10 853 1757 1758 931 11207 6977 10151 4296 11208 10152 
10 853 1598 854 1758 11209 11210 4061 10151 6976 11211 
10 1759 1013 854 1758 11212 4543 11213 6980 10150 11211 
10 1916 1115 1917 1004 10304 10306 7458 11214 4860 10548 
10 1597 853 1758 1598 9507 10151 6975 6496 11209 6976 
10 874 1781 873 1029 11215 11216 4131 4599 11217 4598 
10 1834 2078 1921 971 7961 7962 7471 11218 11219 11220 
10 1056 1808 1956 1057 10834 7587 9015 4683 10835 10613 
10 286 144 1340 427 8359 11222 5727 11221 2784 11223 
10 1514 1339 1340 427 6244 5728 6243 11224 11225 11223 
10 1463 1632 1462 718 6603 6604 6097 11226 9373 9375 
10 718 1632 885 1633 9373 10271 4162 11227 6608 9366 
10 719 549 718 1633 3662 3660 3664 11228 11229 11227 
10 1808 1056 1956 1807 10834 9015 7587 7135 9934 7588 
10 501 191 335 1415 3004 5070 11230 11231 11232 5951 
10 1634 886 1770 1794 11233 11234 7097 7094 9363 7330 
10 558 1473 1299 557 11235 6124 9333 3176 11236 10206 
10 1463 1632 718 1633 6603 9373 11226 6607 6608 11227 
10 1709 633 799 798 11237 3900 8672 8670 3898 3902 
10 1878 1720 857 1776 7340 11238 9711 7341 7035 9713 
10 917 1821 1664 1820 11090 7173 11239 9646 7174 7169 
10 1709 1869 799 1710 7314 11240 8672 6836 7313 11241 
10 1256 2138 1262 1244 11242 11243 5451 5506 9771 5502 
10 398 112 397 1311 2695 2693 2697 10156 10828 10158 
10 1938 2035 1781 1029 7820 7818 7537 11244 11245 11217 
10 2058 1031 1173 1030 10490 5051 10489 10867 4606 5050 
10 913 743 1660 744 4242 8801 10947 4243 3739 8724 
10 580 745 1495 579 3741 8814 8813 3242 3740 11038 
10 1782 1938 1781 1029 7536 7537 7060 11246 11244 11217 
10 1035 1788 1943 1036 9781 7550 9780 4621 8968 9787 
10 547 716 1461 546 3654 10784 10291 3144 3653 10785 
10 1462 547 1461 1288 10596 10291 6094 6093 9208 6089 
10 1287 1460 546 1461 6086 9223 10605 6090 6091 10785 
10 1672 926 925 756 9534 4283 9536 10123 4281 4279 
10 133 277 276 1332 8520 2421 8519 11247 5701 5702 
10 376 90 234 91 2628 8578 11248 2629 2227 8579 
10 954 1698 1857 1858 8952 7277 11249 8954 7281 7282 
10 547 1287 546 1461 10290 10605 3144 10291 6090 10785 
10 891 2034 889 1838 9719 11251 4178 11250 7816 11252 
10 2034 2048 889 1838 7932 11253 11251 7816 7858 11252 
10 600 1514 1340 427 8884 6243 10705 3298 11224 11223 
10 615 1529 614 780 10108 11254 3345 3844 10109 3843 
10 1990 944 1091 1090 8984 4784 11040 10716 4782 4786 
10 729 730 1479 1646 3697 9842 9843 11255 11256 6644 
10 627 1542 455 1367 9759 11257 3380 9394 6328 9395 
10 1374 1548 634 1549 6345 11258 11055 6349 6350 9727 
10 2142 1155 2102 2143 10307 8785 8342 8341 8784 8322 
10 312 1366 170 313 5805 11259 8411 2458 5804 8412 
10 2001 1248 2033 2044 10270 11260 8176 8237 11261 7943 
10 1722 811 973 810 10910 4419 11262 10911 3934 4418 
10 635 1711 801 1550 11077 11079 3906 10821 6837 10842 
10 809 972 810 1721 4416 4417 3931 8730 8728 9995 
10 2052 1115 1252 2053 10573 5350 11263 7872 10305 11264 
10 1713 1551 802 1712 6844 11265 9398 6845 6840 9400 
10 2052 1160 1261 1252 11266 5469 11267 11263 5351 5447 
10 551 552 379 1292 3159 3157 3155 11268 11269 9729 
10 2127 1089 1043 2098 11270 5083 10328 8180 10969 9249 
10 65 490 38 64 2973 11271 2557 2200 2972 2556 
10 2116 2036 2117 1184 8111 8114 8115 8754 8775 8777 
10 475 1388 1561 1389 9093 6387 11272 10519 5875 6386 
10 1735 824 658 1574 10673 3971 10794 6906 11273 10817 
10 818 981 1888 980 4442 11275 11274 4440 4444 11276 
10 1223 1222 2119 2020 5220 11278 11277 10195 9601 8127 
10 109 252 108 394 8471 8470 2246 2684 10923 2683 
10 1729 818 980 817 11279 4440 10759 10760 3955 4439 
10 562 1304 390 1303 9998 10125 3186 10222 5619 11280 
10 332 189 188 498 5222 2329 5223 11281 2994 2995 
10 1819 1067 1068 1967 9642 4717 9644 7620 10946 10445 
10 1697 787 786 621 11282 3866 11283 8942 3864 3862 
10 1502 752 1668 1501 9894 11284 6709 6212 9896 6710 
10 1535 1696 786 1697 6792 9437 11285 6796 6797 11283 
10 8 510 527 9 3030 3083 3081 2507 11286 11287 
10 1370 457 1369 316 11162 11163 5818 5817 11288 5813 
10 508 11 1422 198 10928 5972 10446 3025 7975 10447 
10 503 1418 1417 337 9067 5961 10789 11289 5959 5957 
10 1243 1080 2086 1203 5352 10055 8706 5422 5459 8708 
10 104 248 247 1303 8462 2392 8461 11290 5614 5615 
10 1174 1940 1175 1032 11291 11292 5058 5054 11293 5056 
10 1904 1746 762 1747 7418 9889 9887 7419 6945 9989 
10 1170 1205 1220 2141 5427 5425 5426 10092 10475 8787 
10 891 1144 2062 1008 4947 11295 11294 4560 4946 11296 
10 1146 970 2070 1008 4952 10309 10008 4953 4522 11297 
10 1539 1364 1365 452 6319 5803 6318 11298 11127 10955 
10 772 607 1521 1522 3820 11299 8823 8824 9585 6269 
10 391 105 390 1304 2674 2672 2676 10124 10090 10125 
10 1476 561 1302 1303 9267 9265 6133 6132 10809 5616 
10 1839 935 1679 1680 9168 10689 7224 7223 9390 6746 
10 573 572 1488 1314 3221 11301 10394 11300 9410 6169 
10 1634 719 1464 720 11302 9235 6610 10889 3667 11303 
10 1647 1803 1646 900 7118 7119 6648 9163 9165 11304 
10 778 1848 944 945 11108 8852 4334 4336 9954 4338 
10 1630 715 1629 1460 10552 10553 6599 6598 10782 6594 
10 134 420 278 1333 2761 11305 8522 10261 10262 5704 
10 439 1526 612 1352 10750 11028 3334 10695 6279 11027 
10 778 1688 612 777 11306 11307 3837 3839 11048 3835 
10 545 715 546 1460 3650 3651 3141 9221 10782 9223 
10 561 726 1476 560 3684 10084 9267 3185 3683 9268 
10 1476 1302 560 1475 6133 9266 9268 6134 6129 11308 
10 440 1353 1352 1527 8922 5767 8924 11016 6282 6283 
10 1697 1856 953 1857 7274 11310 11309 7278 7279 11311 
10 723 558 1473 724 3675 11235 10810 3679 3677 11312 
10 1806 902 1649 903 11073 11313 7128 9893 4214 11314 
10 255 112 397 111 8477 2693 10829 8476 2249 2692 
10 1733 1572 656 1571 6900 11316 11315 6901 6421 11317 
10 101 387 102 245 2662 2663 2239 8456 11318 8457 
10 1958 1058 1810 1059 11133 11319 7593 9741 4689 9558 
10 1322 1496 581 1323 6193 10998 11320 5676 6192 11321 
10 1313 400 258 1314 11322 10870 5644 5649 9411 5648 
10 613 1353 1527 1528 9648 6282 11010 10533 6286 6287 
10 1999 1209 2133 2132 10462 10463 8202 8199 11323 8277 
10 402 1315 401 573 9116 11324 2709 3220 10393 3219 
10 879 1034 1035 1787 4614 4618 4616 11325 10155 11326 
10 1110 2008 2009 1868 9973 7750 9081 11327 7745 7749 
10 114 400 258 1313 2701 10870 8482 11328 11322 5644 
10 961 1865 1864 2005 11329 7303 11330 11331 7736 7737 
10 127 270 412 1326 8507 11332 2738 9162 5684 11333 
10 1803 899 1646 900 11334 11335 7119 9165 4205 11304 
10 547 374 1288 375 3142 11336 9208 3143 2627 9209 
10 1520 770 771 1681 9447 3818 9448 6747 11337 10600 
10 1586 501 1415 500 11338 11231 6459 11339 3005 11340 
10 965 2010 1869 2009 11341 7752 11342 9079 7753 7748 
10 1110 1868 1109 2008 11327 11343 4846 9973 7745 11344 
10 858 1755 696 1777 11345 10340 4073 10116 7038 10118 
10 783 1693 1532 617 10813 6783 11346 3852 10814 9388 
10 332 189 1413 333 5222 9423 5944 2480 5192 5945 
10 270 127 412 126 8507 2738 11332 8506 2264 2737 
10 824 1735 658 823 10673 10794 3971 3973 10073 3969 
10 858 1929 1880 1777 11347 7522 9300 10116 7505 7346 
10 1227 2026 2025 2114 11348 7797 11349 11350 8102 8103 
10 1891 983 821 984 9809 4449 11351 11352 4453 4451 
10 1647 730 900 1646 9367 4203 9163 6648 11256 11304 
10 1399 485 656 1571 10908 3469 11353 6416 11354 11317 
10 1880 1755 1902 804 7345 7414 7415 8712 10341 8713 
10 121 407 122 265 2722 2723 2259 8496 10897 8497 
10 737 1487 1654 738 9873 6668 11355 3721 11356 11357 
10 1033 1939 1785 877 9514 7538 9516 4610 10584 10016 
10 1572 1399 656 1571 6420 11353 11316 6421 6416 11317 
10 651 1566 1394 480 11358 6401 11359 3454 11066 10710 
10 1732 1733 821 1571 6902 11360 10333 6897 6901 11361 
10 1779 930 1935 1774 11362 11363 7526 7051 11364 7527 
10 32 1397 31 58 5897 5898 2166 2544 11365 2543 
10 501 1586 667 500 11338 11366 3502 3005 11339 3503 
10 1834 1003 2071 1142 11367 11369 7935 11368 4940 11370 
10 281 137 423 1336 8528 2770 9545 5713 11371 11372 
10 730 899 900 1646 4201 4205 4203 11256 11335 11304 
10 853 842 1757 931 4058 9540 11207 4296 4297 11208 
10 1590 834 1751 835 10924 9785 6956 11190 4006 11142 
10 1108 1867 1866 2007 11373 7309 11374 10114 7742 7743 
10 2134 1126 1127 1224 10791 4895 9198 9197 5224 5225 
10 501 1416 192 502 9900 10023 3003 3008 10024 3007 
10 835 671 672 1591 4005 3519 4004 11192 11191 10745 
10 1013 853 854 1758 4541 4061 4543 10150 10151 11211 
10 1240 2045 1956 2080 10915 7991 9017 10916 8069 7988 
10 1924 2069 1912 1180 7926 7927 7480 11375 10097 11376 
10 1959 1191 1257 2069 11377 5416 11378 7994 10551 10098 
10 1595 1754 1756 865 6965 6971 6969 11379 11380 10134 
10 679 842 865 1596 4024 4106 4103 9740 9542 11381 
10 679 1595 865 692 9260 11379 4103 3576 9261 4104 
10 274 131 1330 416 8515 8836 5696 11382 2750 8849 
10 921 1825 1668 1824 9383 7185 10632 9384 7186 7181 
10 921 1823 1072 1824 11383 11384 4728 9384 7183 9385 
10 2118 1233 1151 1255 11385 5259 9977 9922 5380 5381 
10 1496 747 581 1497 10997 3746 10998 6197 11386 11387 
10 77 220 1276 221 8552 5533 11146 8553 2364 5532 
10 536 364 1277 537 3110 11388 9864 3114 3112 9207 
10 501 668 667 1587 3506 3507 3502 9901 9899 11204 
10 1944 1038 1945 1178 10951 10949 7557 10412 5072 9765 
10 1586 501 667 1587 11338 3502 11366 6463 9901 11204 
10 1280 82 225 368 9823 8561 5544 10106 2604 11389 
10 1020 930 2018 1779 4571 11392 11390 11391 11362 7773 
10 222 79 365 1277 8555 2595 9494 5535 11393 9206 
10 741 1658 1657 911 9946 6681 8918 4236 9947 11394 
10 721 1738 1640 1739 11395 7342 11396 11397 6920 7022 
10 1038 882 1790 1791 4625 9607 10948 10950 11398 7087 
10 1039 1945 1791 1038 10379 7555 10733 4630 10949 10950 
10 1133 1894 986 1132 8891 10287 4911 4913 10376 4909 
10 290 1344 148 291 5739 11105 8367 2436 5738 8368 
10 571 737 1486 736 3716 9875 9876 3714 3718 10193 
10 1946 1792 1039 1791 7558 11399 10381 7559 7090 10733 
10 560 1302 388 1475 9266 9218 3180 11308 6129 11400 
10 110 396 254 1309 2689 8977 8474 11401 10883 5632 
10 1386 48 21 1387 8997 2523 5864 5869 9052 5868 
10 906 1810 1653 1809 11402 7140 9631 11403 7141 7136 
10 1058 1958 1957 1190 11133 7595 11404 5113 8685 8686 
10 534 703 1448 533 3615 10505 10854 3105 3614 10507 
10 1071 1971 1823 1822 11405 7632 11406 11407 7633 7180 
10 716 717 1631 883 3658 10849 10848 4156 4157 10739 
10 1240 1159 1189 2045 5403 5354 5368 10915 10917 9882 
10 610 611 438 1525 3333 3331 3329 8936 11150 8937 
10 908 1812 1061 909 9329 9330 4693 4232 11408 4694 
10 213 355 356 1269 10438 2570 11409 5512 9135 9133 
10 1838 891 1833 850 11250 11141 7501 11410 4177 11102 
10 1518 1680 769 1519 6745 9392 9339 6260 6744 9340 
10 1058 1190 1957 1057 5113 8686 11404 4686 5112 10611 
10 734 1484 1651 735 8817 6659 9108 3712 8818 9670 
10 1920 1157 1165 2056 8832 5028 10389 7880 11411 10391 
10 1850 1993 947 1851 7699 8830 9942 7261 7698 8831 
10 1066 1965 1065 1241 10451 10233 4710 5294 11412 5296 
10 910 741 1657 911 4234 8918 9353 4238 4236 11394 
10 1080 1141 2014 2109 4979 10180 11413 10054 10179 8090 
10 1069 1968 1068 1200 11414 10444 4720 5142 11415 5141 
10 1608 840 1677 698 11416 10987 6737 11417 4020 11418 
10 1199 1157 2056 1198 5317 11411 9084 5140 5376 10449 
10 1157 1165 2056 1198 5028 10391 11411 5376 5377 10449 
10 1069 1821 1970 1070 11091 7630 9857 4723 11419 9858 
10 644 1559 1560 1387 8994 6385 9944 10088 6380 6384 
10 2018 1922 2031 1151 7772 7810 7939 9978 11420 9979 
10 1231 1078 1978 1079 5247 11421 9849 5248 4978 10504 
10 808 932 1017 1875 4524 4566 4555 9048 11422 8933 
10 1375 462 635 1549 8991 3403 11050 6348 11423 11424 
10 705 706 1450 1620 3625 11425 8693 8694 9679 6568 
10 1753 672 1591 2147 9548 10745 6961 11426 11427 11428 
10 1667 921 1668 1824 11429 10632 6711 7182 9384 7181 
10 133 418 419 1332 2756 2760 2758 11247 10970 10260 
10 1128 2024 2113 1129 10453 8100 10454 4901 9070 9072 
10 1823 1971 1072 1972 7632 11430 11384 7636 7637 11431 
10 1045 1133 1182 2029 5087 5090 5088 9040 10983 11432 
10 490 660 661 1576 3482 3486 3484 11113 11433 11434 
10 598 1471 1470 1296 11435 6119 11059 11060 6116 6114 
10 1090 2129 1144 1091 11436 11437 5324 4786 9714 5325 
10 2101 2142 2139 1118 8296 8273 8255 9517 11046 9519 
10 1608 840 698 678 11416 4020 11417 11438 4017 3603 
10 1102 2002 1249 1250 9177 9019 5337 5339 9178 5342 
10 1594 1608 698 691 6540 11417 8870 8871 11439 3602 
10 1134 993 1908 2042 4916 10367 10274 10275 10368 7840 
10 8 1423 509 10 11440 10338 3027 2340 11441 3028 
10 994 1751 1752 1909 9783 6960 11143 9949 7433 7434 
10 1209 1136 1248 2044 5261 5333 5330 11442 11443 11261 
10 697 1469 1438 1610 10843 6112 10844 11444 6534 6535 
10 1090 2129 1091 1990 11436 9714 4786 10716 8188 11040 
10 1884 1124 2019 1123 8960 8962 7775 8950 4886 8949 
10 2133 1209 1248 2044 10463 5330 10702 8242 11442 11261 
10 510 511 678 1424 3033 3532 3533 10402 11445 10403 
10 954 1100 1858 2000 4814 10295 8954 9062 9061 7719 
10 1100 1099 1209 2133 4816 5174 5175 10701 10464 10463 
10 1115 1916 2052 1160 10304 7868 10573 5002 11446 11266 
10 1469 509 663 689 11447 3491 11448 11449 3564 3565 
10 1174 1939 1031 2057 11450 11452 5053 11451 7884 10052 
10 1408 1606 494 1512 6518 9696 9099 6240 6520 9698 
10 1027 2035 1171 1028 11453 10536 5281 4597 11454 5045 
10 2043 1134 2042 2132 10273 10275 7844 8240 11455 8239 
10 550 1465 1291 1464 11456 6102 11457 9236 6103 6098 
10 1027 2035 1028 2073 11453 11454 4597 10482 7944 11458 
10 974 1722 811 973 10419 10910 4421 4423 11262 4419 
10 1942 1788 1035 1787 7546 9781 9782 7547 7078 11326 
10 1872 1713 969 802 7322 11459 9058 9399 9398 4408 
10 233 90 1289 375 8577 11461 5572 11460 2626 10841 
10 990 1793 885 1040 11462 10272 4586 4856 10131 4632 
10 385 1298 384 556 10588 11020 2658 3169 11463 3168 
10 722 723 1472 1637 3676 10640 10641 10725 10724 6619 
10 870 1616 1780 1618 8768 7055 9750 8769 6563 7054 
10 1713 803 969 802 10470 4409 11459 9398 3914 4408 
10 1650 1806 1649 903 7127 7128 6657 10607 9893 11314 
10 1130 983 1129 2025 4902 4900 4904 9806 9808 9071 
10 1669 752 922 1668 11464 4269 11465 6714 11284 10633 
10 983 1891 821 1732 9809 11351 4449 10332 7379 10333 
10 1287 374 232 1288 8732 8733 5565 5570 11336 5569 
10 1310 1309 568 1483 5637 8874 10859 6153 6154 8875 
10 576 1491 742 1492 11466 11467 3731 11097 6182 11098 
10 1256 1264 2111 2124 5484 9064 9065 10483 9199 8305 
10 1743 689 1469 663 11468 11449 6934 10769 3565 11448 
10 1663 1496 747 746 6695 10997 10089 10076 9756 3748 
10 915 1661 745 914 11469 10499 4248 4250 9675 4246 
10 1887 1729 1888 980 7366 7370 7371 10457 10759 11276 
10 484 1397 32 58 9004 5897 9169 2954 11365 2544 
10 354 211 1436 523 8346 10851 6012 11470 3068 9348 
10 1743 689 1615 1469 11468 11471 7043 6934 11449 6555 
10 926 1828 925 1077 9535 9537 4283 4743 9432 4742 
10 1095 1995 1996 1853 11472 7709 11473 9963 7704 7708 
10 783 950 1853 949 4351 9961 11131 4349 4353 11132 
10 904 1650 903 1807 10606 10607 4217 11474 7131 9892 
10 1676 760 700 929 11475 4540 11476 11477 4291 4570 
10 2054 1168 1241 2055 10406 5385 11478 7878 9233 11479 
10 761 1676 760 700 11480 11475 3791 4099 11476 4540 
10 959 1863 1105 960 10881 11481 4829 4383 11154 4830 
10 1181 1188 2096 2080 5444 9659 11482 11483 11484 8074 
10 1159 1896 2045 2080 8906 7848 10917 10918 7968 8069 
10 761 1771 1607 1676 11485 7018 11486 11480 7504 7220 
10 653 1568 1396 482 9851 6407 9421 3460 10771 10186 
10 1057 1056 1189 1956 4683 5110 5111 10613 9015 10614 
10 1240 1056 1956 1189 5293 9015 9017 5368 5110 10614 
10 761 1771 1676 700 11485 7504 11480 4099 11487 11476 
10 1636 1581 663 1743 6617 10245 10768 7025 6933 10769 
10 542 541 711 1455 3129 3638 3639 11488 9825 9811 
10 923 1669 753 922 11489 11490 4272 4274 11465 4270 
10 1995 1095 949 1853 11472 4799 11491 7704 9963 11132 
10 1669 752 753 922 11464 3766 11490 11465 4269 4270 
10 1141 1199 1948 1200 5316 9085 11492 5428 5143 11493 
10 572 737 1487 571 3717 9873 11155 3218 3716 9874 
10 1784 877 1939 876 10583 10584 7539 11494 4140 11495 
10 1009 1874 1930 1774 11496 7508 11497 11498 7331 7507 
10 477 1390 1391 25 11499 5881 10168 11500 5876 5880 
10 875 708 1622 709 4132 8791 10014 4133 3634 11501 
10 1731 1889 1730 819 7372 7373 6896 8900 11502 9030 
10 710 541 1455 711 3636 9825 11503 3640 3638 9811 
10 1221 1122 1246 2122 5212 5211 5214 8861 9567 8863 
10 893 1045 1928 1933 4646 9039 9560 11504 9909 7517 
10 1225 2112 1128 2023 11505 10452 5228 11506 8098 11507 
10 1467 1298 1472 556 6107 6121 6122 10919 11463 11508 
10 1119 2078 1244 1142 9790 9773 5306 4942 9772 5307 
10 712 879 713 1626 4144 4145 3646 9474 11509 10161 
10 541 369 1281 1282 3125 11511 9826 11510 10010 5552 
10 1991 945 1849 1992 9956 10371 7692 7697 10604 7696 
10 695 1609 524 1611 10781 11512 3587 10374 6541 11513 
10 1837 2031 1005 2030 7809 11514 10387 7808 7811 9703 
10 675 1773 674 1580 11515 10697 3594 10685 7028 11516 
10 1093 1993 1994 1851 8828 7703 9460 8829 7698 7702 
10 721 556 1640 722 3670 11517 11396 3673 3671 11518 
10 503 1418 337 194 9067 5959 11289 3009 9068 4984 
10 1231 1078 1206 1978 5247 5161 5250 9849 11421 11519 
10 890 1905 933 830 11520 10159 4303 4175 9988 4301 
10 2145 2125 1237 2141 8302 10102 8788 8313 8268 8789 
10 1467 556 1472 1640 10919 11508 6122 6625 11517 6624 
10 1650 1806 903 1807 7127 9893 10607 7131 7132 9892 
10 1298 557 1299 1472 11521 10206 5604 6121 10639 6120 
10 842 679 680 1596 4024 3538 4023 9542 9740 11522 
10 358 530 1271 357 3092 11523 10776 2576 3091 10587 
10 1708 1867 964 1868 7307 11524 10965 7311 7312 10966 
10 2046 1951 1051 1802 7853 10958 11525 7850 7574 10959 
10 556 557 1472 722 3173 10639 11508 3671 3672 10641 
10 2026 2027 1228 1131 7800 9480 10348 10349 9481 5237 
10 1016 1924 1912 1180 10334 7480 10335 5078 11375 11376 
10 1143 2136 2042 2132 11526 8233 11527 11528 8270 8239 
10 794 1705 1864 961 10399 7298 11529 4384 11530 11330 
10 1656 1489 1490 740 6674 6176 6673 10211 11531 8811 
10 1909 1136 2044 1910 10730 11443 7845 7438 10732 7846 
10 268 125 1324 410 8503 9397 5678 11532 2732 9293 
10 1211 2004 2003 2047 11533 7735 10797 10323 8192 8120 
10 829 1766 989 1921 9706 10103 4467 11534 7469 11535 
10 778 1688 777 944 11306 11048 3839 4334 8854 4333 
10 2142 1155 1118 1215 10307 5007 11046 10308 5386 5387 
10 1011 1740 861 1754 10138 10372 4535 10625 6966 10626 
10 1041 2048 1010 889 11536 11537 4635 4634 11253 4532 
10 410 409 581 1323 2733 3243 3244 9377 9376 11321 
10 1665 748 918 1664 9189 4257 9190 6702 11538 11539 
10 1161 2105 1024 2137 9743 9744 5023 10856 8243 9840 
10 806 695 1611 1776 3920 10374 11540 10383 10375 7036 
10 530 529 1270 357 3093 11180 11182 3091 3090 11195 
10 778 1848 1688 944 11108 7251 11306 4334 8852 8854 
10 1078 1977 1978 1829 9668 7655 11421 9669 7650 7654 
10 1137 996 867 1931 4926 4490 4925 11541 11063 11064 
10 1282 227 1283 370 5550 5554 5555 10011 9952 9953 
10 1579 525 1614 597 9639 9640 6550 11542 3292 10601 
10 1997 1247 1096 1208 11543 5329 11544 11545 5369 5172 
10 1232 1119 2124 1244 5252 10678 10677 5305 5306 10484 
10 877 710 1624 711 4138 11547 11546 4139 3640 9910 
10 474 1388 1560 645 9095 6383 10087 3436 9094 10559 
10 638 1553 639 466 9504 11166 3418 3413 11164 3415 
10 1885 1124 2020 2019 8961 9599 7778 7774 8962 7779 
10 1716 1717 643 808 6857 10748 10526 9046 9047 3924 
10 1570 655 1398 1571 8928 11548 6413 6418 8929 6417 
10 2019 1123 1222 2110 8949 5215 9600 8092 10898 10899 
10 1155 2142 2135 2143 10307 8328 11148 8784 8341 8348 
10 1108 963 1866 1867 4839 11549 11374 11373 11550 7309 
10 1209 2043 2044 2133 10360 7847 11442 10463 8241 8242 
10 642 805 1556 641 3918 11051 11052 3429 3917 11551 
10 1247 1997 1996 2040 11543 7712 11552 10631 8197 8198 
10 1696 785 1695 1534 9043 9045 6794 6793 11553 6789 
10 2131 1247 1996 2040 10629 11552 8195 8280 10631 8198 
10 754 924 1671 1670 4275 11555 11554 8842 11556 6720 
10 1999 1209 2132 1236 10462 11323 8199 11557 5285 11558 
10 1539 624 625 790 9716 3375 9689 9690 3873 3874 
10 1100 954 1858 955 4814 8954 10295 4815 4368 10297 
10 1139 1137 1249 2033 4933 5373 5374 10352 11559 11560 
10 578 743 744 1493 3735 3739 3737 10961 8800 8725 
10 226 83 1281 225 8563 11561 5547 2369 8562 5548 
10 1007 1762 845 846 9819 11562 4517 4516 9820 4035 
10 695 1720 676 1609 10373 9885 3588 10781 6862 11042 
10 1388 474 1560 1387 9095 10087 6383 5872 9053 6384 
10 1825 1973 1074 1974 7638 11563 8847 7642 7643 11564 
10 334 1414 190 333 5948 10046 5099 2481 5947 5191 
10 1777 1755 696 1614 7038 10340 10118 7039 6968 10540 
10 1949 2016 1120 1835 7769 11566 11565 7567 7768 9089 
10 2144 2118 1233 2106 8331 11385 11567 8343 8203 11568 
10 1039 1945 1038 1179 10379 10949 4630 5075 9774 5074 
10 1238 1260 1266 2117 5439 5485 5477 8776 11569 11570 
10 1233 2018 1140 2106 10661 10662 5258 11568 8078 11571 
10 2114 1227 2144 2113 11350 10664 8292 8104 10343 8293 
10 1973 1243 1972 1073 10485 8707 7640 11572 5301 11573 
10 1500 1667 751 1501 6707 10177 10176 6209 6706 11574 
10 2027 2026 1228 2115 7800 10348 9480 8105 8106 11575 
10 906 1652 905 1809 9630 9269 4223 11403 7137 10616 
10 1211 2013 1148 2047 10162 9129 5375 10323 7856 11576 
10 1779 930 2018 1935 11362 11392 7773 7526 11363 7936 
10 1992 1091 945 1092 9238 4785 10604 9428 4789 4787 
10 1949 1876 1835 1120 7568 7337 7567 11565 11577 9089 
10 1913 1914 1758 1013 7449 7447 7445 11578 11579 10150 
10 1606 640 1512 1766 9695 9697 6520 7000 9704 6999 
10 652 1568 1395 1567 10770 6408 10772 10979 6409 6404 
10 965 1110 2009 1868 4845 9081 9079 11159 11327 7749 
10 646 475 645 1561 3439 3437 3441 10765 11272 10557 
10 429 1342 146 288 8903 11580 2790 8904 5733 8363 
10 475 50 49 23 2928 2185 2927 10518 2527 2526 
10 1742 893 1928 1933 9559 9560 7500 7514 11504 7517 
10 1720 695 857 1776 10373 4070 11238 7035 10375 9713 
10 860 1837 1005 1926 10407 10387 4512 9709 7491 9710 
10 393 394 251 1307 2685 11583 11581 11582 11584 5627 
10 961 1705 1864 1865 11530 7298 11330 11329 7302 7303 
10 1914 1759 1758 1013 7448 6980 7447 11579 11212 10150 
10 2090 1977 2091 1206 8022 8026 8027 11585 11586 10443 
10 1619 872 1620 1897 9982 10712 6569 7397 9983 7396 
10 924 1671 925 755 11555 11587 4280 4276 9127 4278 
10 924 754 1671 755 4275 11554 11555 4276 3772 9127 
10 561 389 1303 390 3183 10061 10809 3184 2673 11280 
10 2078 1834 1142 971 7961 11368 9772 11219 11218 4939 
10 389 561 1303 1302 3183 10809 10061 9264 9265 5616 
10 204 516 515 1429 3047 3048 3043 9117 9583 10144 
10 1111 2010 1112 966 11588 11589 4852 4848 11590 4850 
10 1113 2104 2011 1112 9590 8065 10039 4855 11591 9216 
10 1892 2026 1130 1131 7795 10347 9588 9589 10349 4907 
10 651 816 1566 650 3948 11592 11358 3456 3947 11170 
10 104 389 390 1303 2669 2673 2671 11290 10061 11280 
10 648 813 1563 647 3939 9906 10171 3447 3938 9908 
10 1031 1783 1030 2058 10053 11593 4606 10490 7885 10867 
10 1881 1937 1875 1017 7888 7533 7349 8931 10753 8933 
10 1960 1060 1811 1812 10321 11594 7600 7599 9328 7147 
10 248 104 390 1303 8462 2671 11595 5614 11290 11280 
10 1515 1768 1770 766 7007 7013 7014 11596 8879 11597 
10 684 844 683 1600 4027 4028 3550 10975 10877 10977 
10 600 1515 1770 766 8901 7014 8902 3802 11596 11597 
10 1093 1993 2072 1994 8828 8050 11598 9460 7703 8049 
10 656 655 821 1571 3471 3962 3963 11317 8929 11361 
10 221 363 77 78 11147 2589 8553 8587 2590 2214 
10 222 365 1278 1277 9494 8838 5539 5535 9206 5540 
10 849 1922 1743 1615 11599 7472 11017 11600 7473 7043 
10 655 1732 821 1571 8930 10333 3962 8929 6897 11361 
10 910 1062 1813 909 4697 9360 9352 4235 4696 9362 
10 411 1324 1325 269 9291 5682 11601 9283 5677 5681 
10 428 600 1340 427 3299 10705 10706 2788 3298 11223 
10 998 2014 1141 1948 11602 10180 4938 11603 7764 11492 
10 1632 717 1631 1462 9372 10849 6605 6604 9374 6600 
10 550 1291 1290 1464 11457 5579 11604 9236 6098 6099 
10 90 376 1289 375 2628 9231 11461 2626 2630 10841 
10 717 547 716 1461 3656 3654 3658 10850 10291 10784 
10 485 655 656 1571 3467 3471 3469 11354 8929 11317 
10 697 864 1612 839 4098 8865 11605 4016 4097 8946 
10 99 385 100 243 2656 2657 2237 8452 10589 8453 
10 1009 864 997 1774 4526 4492 4525 11498 8866 8868 
10 1386 472 20 47 11606 11607 5865 8999 2919 2521 
10 472 1386 20 1385 11606 5865 11607 10893 5866 5861 
10 1641 1474 1475 725 6630 6131 6629 8964 9323 10939 
10 1610 697 841 864 11444 4021 9818 9816 4098 4102 
10 2028 2063 1229 1182 8165 11609 11608 10903 11610 5348 
10 1965 2054 1197 1241 8070 11612 11611 11412 11478 5359 
10 741 576 1491 742 3729 11466 8916 3733 3731 11467 
10 1779 1020 1615 1922 11391 11613 7049 7502 11614 7473 
10 121 407 1320 406 2722 10896 8798 2720 2724 8799 
10 1513 839 697 1612 8944 4016 11615 6543 8946 11605 
10 1726 1885 1884 977 7361 7362 7357 9467 11616 9468 
10 121 264 1320 265 8495 5666 8798 8496 2409 5665 
10 1964 2054 1197 1965 8164 11612 10455 7616 8070 11611 
10 1821 1069 918 1070 11091 4719 11092 11419 4723 4721 
10 1821 917 1664 918 11090 11239 7173 11092 4259 11539 
10 413 585 1326 584 3255 10230 9161 3253 3257 11617 
10 1649 1482 1483 733 6653 6155 6652 11618 11619 10668 
10 1726 978 977 815 9139 4435 9467 11173 4433 4431 
10 424 1440 139 282 10824 11620 2774 10992 6023 8531 
10 1656 1812 1655 909 7145 7146 6675 11621 11408 11088 
10 1330 1504 1503 588 6217 6218 6213 8848 10683 9036 
10 596 1443 1269 1444 11622 6037 9134 11623 6041 6038 
10 1337 595 1336 423 11624 11625 5718 9524 3285 11372 
10 1498 583 1499 749 9294 11627 6203 11626 3752 11628 
10 1661 745 1494 1495 10499 11629 6689 6688 8814 6191 
10 1678 934 768 1840 10973 4305 8756 7227 9683 11630 
10 611 1526 777 612 11149 11631 3834 3336 11028 3835 
10 1320 407 1321 579 10896 10250 5670 10994 3237 10995 
10 149 432 1345 291 2799 9327 9317 8369 11632 5742 
10 1344 432 148 291 9355 2798 11105 5738 11632 8368 
10 2002 1249 2033 2001 9019 11560 8033 7727 9020 8176 
10 1493 578 577 1319 10961 3236 11633 6184 9656 9157 
10 791 1701 625 790 10032 9687 3876 3878 9688 3874 
10 1533 1695 784 619 6790 10763 10762 11634 11635 3856 
10 432 1344 1345 291 9355 5743 9327 11632 5738 5742 
10 443 160 159 302 2832 2298 2831 11636 8391 8390 
10 2127 1144 2034 1043 11637 9718 8181 10328 4976 9720 
10 160 443 1356 302 2832 11639 11638 8391 11636 5775 
10 1817 1661 1818 914 7160 7164 7165 9674 9675 11640 
10 1885 978 977 1726 9138 4435 11616 7361 9139 9467 
10 756 1506 590 1505 9298 8743 3773 9128 6224 8745 
10 847 686 1603 846 4037 10319 9796 4038 4033 9798 
10 959 1104 1862 958 4827 10882 11641 4380 4826 8796 
10 1661 915 1818 914 11469 11642 7164 9675 4250 11640 
10 655 485 1398 1571 3467 10909 11548 8929 11354 6417 
10 1067 1066 1818 914 4713 11643 10945 4711 4709 11640 
10 961 1865 2005 1107 11329 7736 11331 4835 11644 9482 
10 1817 1966 1066 1818 7618 10436 10450 7165 7617 11643 
10 46 472 47 20 2918 2919 2182 2520 11607 2521 
10 1661 915 1662 1818 11469 10122 6693 7164 11642 7163 
10 813 1724 812 975 9905 10775 3940 4425 10986 4424 
10 454 1366 1367 313 11645 5809 9396 11646 5804 5808 
10 59 33 32 1398 2546 2167 2545 11647 5900 5901 
10 1130 983 1891 984 4902 9809 9807 4903 4453 11352 
10 314 171 1367 313 8414 11648 5807 2459 8413 5808 
10 187 330 1411 1410 5298 5938 9553 9552 5936 5940 
10 496 664 1582 553 3493 9603 11649 3161 3496 9414 
10 330 187 186 1410 5298 2327 5299 5936 9552 11650 
10 454 171 170 313 2865 2309 2864 11646 8413 8412 
10 1410 330 329 186 5936 2477 5935 11650 5299 5318 
10 1421 341 340 197 5969 2488 5968 11200 5321 4764 
10 171 454 1367 313 2865 9396 11648 8413 11646 5808 
10 673 506 507 1592 3521 3023 3520 9551 11651 11652 
10 1421 506 1420 1592 11653 11654 5970 6477 11651 6476 
10 541 1454 540 710 9824 11655 3126 3636 11656 3635 
10 151 435 152 294 2807 2808 2290 8374 11657 8375 
10 182 465 1378 324 2898 11659 11658 8435 11049 5841 
10 668 1748 830 667 11202 11660 3989 3507 11203 3990 
10 609 1524 610 437 11661 10135 3330 3326 10878 3328 
10 1350 1525 438 1351 6277 8937 8935 5761 6276 9406 
10 622 1537 788 623 8939 11662 3867 3369 11663 3868 
10 215 71 1270 214 8541 11194 5514 2358 8540 5515 
10 1201 2109 1202 1970 10283 11664 5149 9856 8170 11665 
10 1507 1674 758 1508 6728 9303 10121 6230 6727 9033 
10 627 626 1541 454 3381 11185 11666 3379 3377 11667 
10 761 1443 1676 1607 11668 7037 11480 11486 6523 7220 
10 622 1698 788 1537 8938 8953 3867 8939 6798 11662 
10 450 167 309 1363 2853 8405 9793 11119 11669 5796 
10 990 767 1768 1900 4470 8878 11670 9692 9860 7407 
10 549 1463 1464 1290 9253 6100 9237 9252 6095 6099 
10 143 426 285 142 2782 11671 8357 2281 2781 8356 
10 1542 627 1541 1367 9759 11666 6329 6328 9394 6324 
10 1710 1548 634 799 6835 11258 9726 11241 11672 3901 
10 453 1540 625 626 11673 11674 3374 3376 11675 3378 
10 1548 633 634 799 11676 3402 11258 11672 3900 3901 
10 605 606 1346 1520 3318 11678 11677 9446 11679 6261 
10 347 1430 205 516 5993 11680 8307 9582 11681 3046 
10 483 1397 31 1396 9006 5898 11682 9419 5899 5894 
10 1905 1082 1906 890 11683 11684 7426 11520 4754 9903 
10 1311 569 1484 1310 10157 8816 6156 5640 10857 6157 
10 1737 825 826 988 11198 3979 10861 10726 4463 4464 
10 987 825 1736 988 4461 11685 11193 4465 4463 10905 
10 1313 400 571 399 11322 3214 11157 11686 2703 3213 
10 1597 842 680 1596 11687 4023 9508 6493 9542 11522 
10 91 376 377 1290 2629 2633 2631 9251 9230 8808 
10 1412 497 1411 1583 8858 11688 5943 6450 10310 6449 
10 1672 756 1671 1505 10123 9126 6723 6722 9128 6718 
10 523 354 14 1437 11470 8347 3067 11689 6014 11690 
10 1718 862 859 1836 10043 4111 11135 7214 11691 9991 
10 1409 496 495 1511 9073 2990 9763 6237 9074 9762 
10 1447 702 1446 533 9183 9185 6049 10506 3612 9444 
10 1440 140 425 139 11692 2777 10825 11620 2277 2776 
10 1929 858 1838 1777 11347 11693 7506 7505 10116 7221 
10 829 1639 1512 1766 10112 6623 9705 9706 7001 6999 
10 891 2062 1833 1008 11294 7903 11141 4560 11296 9994 
10 442 441 614 1354 2830 3340 3341 10941 10942 11694 
10 1242 2083 2097 1981 8765 8183 8773 9775 8045 8043 
10 1597 1596 680 1428 6493 11522 9508 6491 6489 10805 
10 345 514 1427 1428 11695 9581 5985 5987 9580 5989 
10 989 1119 2077 1138 4870 9792 11696 4928 4929 11697 
10 1857 1098 1856 953 10934 10264 7279 11311 4809 11310 
10 2002 1859 1860 956 7726 7288 7725 9735 9736 10019 
10 1985 1087 939 1986 11698 4769 11699 7679 11700 11701 
10 1694 783 784 950 11702 3857 10761 11703 4351 4352 
10 346 1429 515 1428 5990 10144 10807 5988 5992 10804 
10 1024 1003 2071 1934 4584 11369 10696 11704 10267 7934 
10 483 57 31 58 2951 2542 11682 2952 2193 2543 
10 973 972 1721 810 4420 8728 11705 4418 4417 9995 
10 57 483 31 1396 2951 11682 2542 10185 9419 5894 
10 792 1702 626 791 8956 11184 3879 3881 8742 3877 
10 998 2014 1002 1141 11602 11706 4561 4938 10180 4937 
10 1432 684 1600 1601 10974 10975 6501 6503 11707 6505 
10 68 2 42 96 2204 2512 2564 2647 2233 11708 
10 859 1718 1741 597 11135 6926 11104 4074 11709 10602 
10 1881 972 1937 1017 8727 11710 7888 8931 4554 10753 
10 1746 852 1584 1745 11711 11712 6940 6942 11713 6938 
10 325 182 1378 324 8436 11658 5840 2470 8435 5841 
10 1887 979 2021 1886 11714 11057 7780 7368 11715 7781 
10 1104 959 1862 1863 4827 11641 10882 11716 10881 7297 
10 496 1410 1411 1582 9075 5940 9554 11649 6446 6447 
10 83 369 1281 368 2607 11511 11561 2605 2609 10595 
10 226 369 1282 1281 9614 10010 5551 5547 11511 5552 
10 1830 1078 1978 1829 11717 11421 7653 7201 9669 7654 
10 225 83 1281 368 8562 11561 5548 11389 2605 10595 
10 2025 1227 2113 1129 11349 10343 8099 9071 5233 9072 
10 83 226 1281 369 8563 5547 11561 2607 9614 11511 
10 96 239 42 1295 8445 5590 11708 10081 5592 5719 
10 484 59 58 32 2955 2194 2954 9169 2545 2544 
10 1357 444 161 445 8881 2835 11718 9387 2839 2837 
10 827 1738 887 721 9001 9003 4530 4295 11395 4168 
10 1540 453 1365 1366 11673 10956 6322 6321 11719 5806 
10 506 1421 507 1592 11653 9926 3023 11651 6477 11652 
10 1699 789 623 1538 11014 3870 11720 6801 11015 11721 
10 1418 338 337 194 5960 2485 5959 9068 4792 4984 
10 68 96 42 1295 2647 11708 2564 10082 10081 5719 
10 621 1361 1536 449 11722 6310 8943 3362 11115 11723 
10 1599 682 843 683 8772 4026 11724 11725 3547 4025 
10 517 206 518 1431 3049 3053 3054 9673 11726 9051 
10 479 1392 27 53 11099 5882 10269 2939 11727 2534 
10 551 378 1292 379 3154 9731 11268 3155 2639 9729 
10 379 236 1292 237 9728 5581 9729 11728 2380 5580 
10 1907 832 833 1749 11729 4000 9488 7427 11730 9489 
10 503 670 669 1589 3512 3513 3508 10790 10838 9531 
10 1181 1159 1240 2080 5086 5403 5468 11483 10918 10916 
10 697 677 1438 527 3597 11731 10844 3598 3531 10846 
10 1059 907 1811 1060 4688 9555 9556 4692 4690 11594 
10 1125 2021 1886 2020 11732 7781 10832 10196 7782 7777 
10 1392 26 27 53 5883 2161 5882 11727 2533 2534 
10 1902 989 2077 1138 10104 11696 7957 11733 4928 11697 
10 479 1392 53 478 11099 11727 2939 2941 11734 2937 
10 1392 26 53 478 5883 2533 11727 11734 11735 2937 
10 1927 1617 701 1832 7496 9186 10720 7497 7483 9188 
10 400 572 1314 1313 3216 9410 9411 11322 11156 5649 
10 1927 1617 1767 702 7496 7004 7495 10721 10719 9184 
10 448 164 1360 307 2846 10429 10430 9636 8400 5786 
10 1014 1166 2072 1163 5253 11737 11736 5017 5271 9469 
10 1315 259 401 1314 5651 11738 11324 5652 5647 9412 
10 233 1289 1288 375 5572 5573 5568 11460 10841 9209 
10 884 1040 1792 1039 4631 11740 11739 4629 4633 11399 
10 1628 715 1629 881 11741 10553 6596 11742 4151 11743 
10 620 1535 621 448 11744 8941 3363 3359 11745 3361 
10 259 115 1314 258 8484 10618 5647 2403 8483 5648 
10 1892 2026 1891 1130 7795 7796 7383 9588 10347 9807 
10 1801 1950 1798 1050 7571 7572 7114 11746 11747 11748 
10 115 259 1314 401 8484 5647 10618 2704 11738 9412 
10 1225 1128 1127 2023 5228 4898 5227 11506 11507 9196 
10 697 839 1513 677 4016 8944 11615 3597 4015 11749 
10 572 573 401 1314 3221 3219 3217 9410 11300 9412 
10 126 270 1325 412 8506 5680 11750 2737 11332 11751 
10 1026 2064 1901 1780 8857 7909 10188 10189 7910 7411 
10 1487 1313 571 1486 6166 11157 9874 6167 6162 9876 
10 503 193 337 1417 3010 4985 11289 10789 10693 5957 
10 1911 1159 2045 1154 11752 10917 7849 11753 5001 9881 
10 571 399 570 1312 3213 3211 3215 11754 9282 9274 
10 1067 1199 1068 1967 5138 5139 4717 10946 9086 10445 
10 1064 1815 1816 912 10235 7159 9932 4703 11755 11095 
10 1342 429 146 430 8903 2790 11580 11756 2794 2792 
10 1619 705 1620 872 8692 8694 6569 9982 4123 10712 
10 1588 668 669 502 10736 3510 9532 11757 3505 3509 
10 1915 1916 999 1160 7455 11760 11758 11759 11446 5003 
10 959 1704 960 793 10879 9456 4383 4379 9457 4381 
10 1759 1022 854 1013 10576 4578 11213 11212 4981 4543 
10 1828 926 1829 1077 9535 10237 7198 9432 4743 9433 
10 1446 1447 360 1273 6049 11761 9868 6044 6048 9665 
10 776 611 610 1525 3832 3333 3831 11762 11150 8936 
10 696 1606 1755 640 10539 6967 10340 3590 9695 10339 
10 1913 1013 1758 931 11578 10150 7445 11763 4542 10152 
10 281 138 423 137 8529 2771 9545 8528 2275 2770 
10 2061 2015 2086 1116 7897 8209 8216 9830 10798 10799 
10 595 1337 1336 1510 11624 5718 11625 11764 6234 6235 
10 1509 595 1336 1510 11765 11625 6231 6236 11764 6235 
10 683 1599 1600 843 11725 6502 10977 4025 11724 11766 
10 1247 1135 2131 1094 5358 9472 10629 5394 5395 11009 
10 1874 1898 1152 2096 7402 11768 11767 8041 8068 9661 
10 785 1696 1855 952 9043 7271 9044 4357 9438 10265 
10 328 468 184 185 10420 2906 8441 8353 2907 2323 
10 1111 965 2010 966 4847 11341 11588 4848 4401 11590 
10 1229 2028 1182 1132 11608 10903 5348 5240 10904 5242 
10 494 1441 524 14 10617 11769 3072 2985 9082 3073 
10 1720 1638 676 1609 7024 9103 9885 6862 6621 11042 
10 1691 946 1690 780 9149 9148 6779 9359 4340 10000 
10 1346 606 434 1347 11678 3317 9439 5749 11770 10255 
10 1436 523 1605 1437 9348 9450 6515 6016 11689 6516 
10 1586 666 1414 1585 11771 11772 6458 6460 11773 6456 
10 1408 1441 494 14 6027 10617 9099 9083 9082 2985 
10 1144 2127 2034 2062 11637 8181 9718 11295 8261 7905 
10 1119 2078 2077 2124 9790 7963 9792 10678 8238 8151 
10 646 475 1561 1389 3439 11272 10765 10991 10519 6386 
10 655 820 1570 654 3960 11774 8928 3468 3959 11775 
10 1729 818 817 652 11279 3955 10760 10978 3953 3951 
10 1887 980 1888 2022 10457 11276 7371 7784 10458 7783 
10 651 816 1728 1566 3948 11777 11776 11358 11592 6886 
10 59 33 485 60 2546 10907 2957 2195 2547 2958 
10 607 435 434 1347 3320 2809 3319 11778 10253 10255 
10 1564 649 648 478 11175 3450 11779 11780 3448 3446 
10 1727 816 978 815 11177 4434 9137 11172 3949 4433 
10 435 1348 294 1347 10713 5751 11657 10253 5752 5747 
10 1599 1760 1600 843 6981 6982 6502 11724 10577 11766 
10 682 1599 854 1598 8772 11782 4059 11781 6499 11210 
10 1957 2045 1189 2075 7990 9882 10612 7993 7953 9380 
10 1532 1357 1358 445 6298 5782 6297 9389 9387 11783 
10 1401 35 487 1400 5910 11000 11005 5911 5906 11001 
10 616 444 443 1356 3347 2836 3346 11784 8883 11639 
10 507 341 197 198 9924 5321 3022 3021 5322 2338 
10 1290 1291 550 377 5579 11457 11604 8808 8806 3151 
10 787 1698 954 788 11785 8952 4363 3869 8953 4364 
10 334 1414 1415 500 5948 5952 5950 10554 10555 11340 
10 486 61 1400 487 2961 10999 11004 2965 2963 11001 
10 1605 523 676 1609 9450 3529 11041 6554 11786 11042 
10 1441 14 1437 524 9082 11690 6034 11769 3073 11787 
10 431 147 430 1343 2795 2793 2797 8735 11124 11788 
10 1837 1023 849 763 10386 4579 11789 10388 4580 4044 
10 1874 1009 997 1774 11496 4525 11790 7331 11498 8868 
10 1532 618 445 1358 11791 3352 9389 6297 11792 11783 
10 162 446 305 1358 2840 10424 8396 11793 10647 5780 
10 1403 490 489 64 11110 2974 11111 11794 2972 2970 
10 490 1403 38 64 11110 5915 11271 2972 11794 2556 
10 37 1403 489 64 5916 11111 11795 2555 11794 2970 
10 1403 37 38 64 5916 2172 5915 11794 2555 2556 
10 1909 2043 2044 1136 7843 7847 7845 10730 10361 11443 
10 1557 1383 1384 641 6373 5860 6372 10954 11796 11797 
10 261 118 403 117 8489 2711 10891 8488 2255 2710 
10 858 1777 850 1838 10116 10117 4072 11693 7221 11410 
10 586 752 1501 751 3761 9896 9897 3759 3763 11574 
10 1850 946 947 1092 9147 4344 9942 10007 4788 4790 
10 1166 1993 2072 1093 11798 8050 11737 5314 8828 11598 
10 497 496 1411 1582 2993 9554 11688 10311 11649 6447 
10 1594 1595 861 1754 6487 11799 8869 6964 6965 10626 
10 1005 2031 1837 1023 11514 7809 10387 4581 11800 10386 
10 1568 653 652 482 9851 3462 10770 10771 3460 3458 
10 1815 1064 1963 1063 10235 10566 7608 10864 4704 10570 
10 1962 1814 1963 1063 7605 7609 7610 11801 10863 10570 
10 1663 1819 1662 916 7166 7167 6696 10077 9643 10078 
10 481 56 29 1395 2946 2539 11802 11803 11804 5892 
10 1194 1962 1261 1195 9370 10382 5448 5129 11805 5446 
10 1220 2145 2141 2137 8786 8313 8787 9838 8336 8337 
10 1441 1609 524 1437 6529 11512 11769 6034 6528 11787 
10 481 55 1394 29 2945 10709 11806 11802 2538 5888 
10 1861 1702 791 1701 7289 8742 8740 7290 6812 10032 
10 935 1084 1981 1117 4758 11807 9167 4866 4867 10666 
10 1517 430 1343 603 9940 11788 6252 9939 3307 8737 
10 880 1628 881 714 11054 11742 4152 4148 9879 4150 
10 1346 606 605 433 11678 3318 11677 11808 3316 3314 
10 496 497 553 1582 2993 3160 3161 11649 10311 9414 
10 1468 599 1635 856 11809 11811 6615 11810 4079 11030 
10 1947 1040 1900 934 9971 9691 7827 9682 4857 9693 
10 534 362 361 1275 3104 2588 3103 8681 8684 11045 
10 1694 618 1533 784 11812 11813 6786 10761 3855 10762 
10 1289 376 234 1290 9231 11248 5571 5576 9230 5575 
10 55 481 56 29 2945 2946 2191 2538 11802 2539 
10 781 1691 1692 1530 9357 6782 8895 9393 6777 6781 
10 1531 1693 782 617 6784 9530 9529 11137 10814 3850 
10 1773 674 1580 1593 10697 11516 7028 7027 9310 6481 
10 544 545 372 1285 3138 3136 3134 11814 8716 8697 
10 1031 875 1783 876 4604 10015 10053 4605 4137 11815 
10 1392 1564 1391 478 6395 6396 5884 11734 11780 11816 
10 648 1564 1391 1563 11779 6396 10170 10171 6397 6392 
10 1082 1905 933 890 11683 10159 4755 4754 11520 4303 
10 68 41 67 493 2563 2562 2203 2982 10780 2981 
10 1775 805 932 855 10183 4300 11817 10679 4066 4299 
10 472 642 1558 1385 3428 10749 11818 10893 10894 6378 
10 470 45 18 471 2913 2518 11819 2917 2915 10744 
10 45 46 18 471 2181 2517 2518 2915 2916 10744 
10 875 1623 876 709 10013 11820 4137 4133 10637 4135 
10 1623 710 876 709 11821 4136 11820 10637 3637 4135 
10 1625 877 1624 711 9202 11546 6584 9204 4139 9910 
10 1167 2118 1151 1255 11024 9977 5038 5388 9922 5381 
10 488 659 489 1402 3478 3479 2971 10003 11822 11823 
10 63 488 1402 36 2967 10003 11824 2553 10004 5913 
10 825 1575 1736 1737 10093 6909 11685 11198 6913 6914 
10 1471 598 1578 1406 11435 8912 6548 6547 8913 6437 
10 435 1348 152 294 10713 11825 2808 11657 5751 8375 
10 233 1288 89 375 5568 11826 8576 11460 9209 2625 
10 783 1693 782 949 10813 9530 3854 4349 11130 4348 
10 596 356 1269 529 3566 9133 9134 3593 3089 11827 
10 719 550 1464 720 3663 9236 9235 3667 3665 11303 
10 1916 1761 1004 1917 7454 10546 11214 7458 7456 10548 
10 1575 659 1574 1402 10095 11828 6430 6429 11822 6425 
10 684 1601 845 844 11707 11829 4031 4027 10875 4032 
10 191 334 500 190 5098 10554 3000 2331 5099 3001 
10 580 408 579 1321 3240 3238 3242 11830 10251 10995 
10 1830 928 1831 1079 11831 10501 7204 10503 4749 10498 
10 1544 629 457 630 11832 3386 11161 9342 3390 3388 
10 851 600 1514 1770 4050 8884 8885 11833 8902 7015 
10 1784 1623 876 1783 7065 11820 11494 7066 7061 11815 
10 946 1992 945 1092 10006 10604 4341 4788 9428 4787 
10 1623 875 876 1783 10013 4137 11820 7061 10015 11815 
10 359 1446 360 1273 9867 9868 2582 9795 6044 9665 
10 1738 988 826 887 10860 4464 9002 9003 4573 4558 
10 1784 1031 876 1939 10051 4605 11494 7539 11452 11495 
10 2049 2093 1138 2077 8031 11835 11834 7958 8030 11697 
10 939 1843 940 773 9200 11836 4323 4319 8989 4321 
10 1088 2128 1987 1087 9248 8184 10246 4777 11837 9426 
10 2072 1093 1994 1163 11598 9460 8049 9469 5313 9459 
10 129 415 130 273 2746 2747 2267 8512 11838 8513 
10 457 1544 630 1370 11161 9342 3388 11162 6333 11839 
10 200 343 512 1425 8345 10985 3035 10149 5979 11032 
10 1298 385 243 1299 10588 10589 5599 5604 11840 5603 
10 387 1300 386 558 11841 9332 2664 3175 9331 3174 
10 558 1300 1299 1473 9331 5607 9333 11235 6123 6124 
10 1595 692 861 865 9261 4082 11799 11379 4104 4105 
10 2052 1916 1915 1160 7868 7455 7867 11266 11446 11759 
10 1416 501 1415 1587 9900 11231 5955 6462 9901 6461 
10 1654 1810 907 1811 7139 9557 11842 7143 7144 9555 
10 1016 1158 1912 931 4998 11843 10335 4550 4997 11844 
10 698 1608 678 691 11417 11438 3603 3602 11439 3572 
10 569 1484 1310 568 8816 6157 10857 3209 10906 10859 
10 1608 1513 678 1424 6527 10401 11438 6525 6242 10403 
10 1425 1608 691 511 6526 11439 11845 10164 11846 3571 
10 1830 928 1079 927 11831 4749 10503 10800 4289 4748 
10 1918 1762 1917 1007 7459 7457 7461 9804 9819 10571 
10 2127 1144 2129 2062 11637 11437 8227 8261 11295 8250 
10 1609 523 524 1437 11786 3084 11512 6528 11689 11787 
10 512 1425 691 511 11032 11845 3570 3036 10164 3571 
10 840 1608 1513 678 11416 6527 11847 4017 11438 10401 
10 1436 211 353 522 10851 8205 6011 9350 3064 11848 
10 1590 1419 1418 504 6471 5964 6470 9501 9566 9069 
10 2019 1124 1222 1123 8962 5216 9600 8949 4886 5215 
10 1935 2076 1930 1156 7954 7955 7528 11849 11850 11851 
10 1053 1803 1052 1952 11852 11854 4671 11853 7576 11855 
10 970 1146 2070 2074 4952 10008 10309 9654 9313 7947 
10 1435 686 1603 687 10317 10319 6510 11856 3559 11067 
10 266 1322 1321 408 5672 5673 5668 10873 9151 10251 
10 2100 2065 1118 2139 8306 11857 9518 8256 8265 9519 
10 776 1686 610 775 10219 10136 3831 3833 10247 3829 
10 891 1144 2034 2062 4947 9718 9719 11294 11295 7905 
10 123 266 122 408 8499 8498 2260 2726 10873 2725 
10 1603 847 1604 687 9796 11134 6514 11067 4036 11858 
10 629 1705 1543 794 10397 6820 11859 3886 10399 11860 
10 1421 506 340 1420 11653 11861 5968 5970 11654 5966 
10 1640 721 722 887 11396 3673 11518 11862 4168 4169 
10 407 1320 1321 265 10896 5670 10250 10897 5665 5669 
10 1989 2127 1090 1990 8179 11863 10718 7691 8182 10716 
10 76 362 1275 361 2586 8684 9584 2584 2588 11045 
10 360 533 361 1274 3100 3101 2585 9667 11864 11865 
10 1256 2138 1244 2124 11242 9771 5506 10483 8269 10484 
10 1669 753 1503 1670 11490 9038 6712 6717 8843 6716 
10 534 1275 1274 1448 8681 5531 11866 10854 6050 6051 
10 360 1447 1446 533 11761 6049 9868 3100 10506 9444 
10 842 1016 865 1756 4551 4552 4106 9541 9563 10134 
10 681 516 1429 515 3539 9583 10142 3540 3048 10144 
10 475 1388 645 1561 9093 9094 3437 11272 6387 10557 
10 277 134 1333 419 8521 10261 5705 11867 2759 10259 
10 134 277 133 419 8521 8520 2271 2759 11867 2758 
10 1782 875 1622 1783 11868 10014 7058 7063 10015 7062 
10 418 133 276 1332 2756 8519 11869 10970 11247 5702 
10 1683 772 1843 1842 8822 9201 7236 7232 10692 7237 
10 166 308 1362 309 8403 5793 11870 8404 2454 5792 
10 1980 1086 1235 1085 9458 5274 10064 9401 4768 5405 
10 532 1617 1446 1445 11871 6559 9445 10314 6560 6046 
10 532 1617 701 702 11871 9186 3609 3611 10719 3613 
10 2017 866 1083 1010 11872 4757 10528 10530 4549 4756 
10 550 1465 1464 720 11456 6103 9236 3665 10888 11303 
10 444 1531 1357 1356 11138 6294 8881 8883 6295 5779 
10 1496 580 746 1495 11873 3743 9756 6194 8813 8815 
10 2059 2094 1041 2095 8117 9834 9192 8291 8039 11874 
10 664 1718 859 597 10044 11135 4092 3495 11709 4074 
10 1412 332 188 498 5942 5223 8691 8859 11281 2995 
10 543 712 713 1457 3642 3646 3644 9985 10160 9613 
10 714 1458 544 713 8718 11053 3647 3649 9612 3645 
10 1458 714 1627 713 8718 9880 6588 9612 3649 9478 
10 1792 884 1039 883 11739 4629 11399 11875 4161 4628 
10 858 866 1880 1010 4107 8710 9300 4533 4549 11876 
10 156 439 1352 298 2820 10695 10694 8383 10703 5763 
10 897 1801 1050 898 9877 11746 4660 4199 11877 4661 
10 1169 1204 1074 1974 5273 5415 5154 11878 11879 11564 
10 97 241 240 1296 8448 2385 8447 10622 5593 5594 
10 787 1697 953 1857 11282 11309 4361 11880 7278 11311 
10 717 716 1631 1461 3658 10848 10849 10850 10784 6601 
10 1601 844 1761 845 10875 10876 6985 11829 4032 11881 
10 622 1536 1362 449 8940 6309 11882 3364 11723 11116 
10 620 1696 785 786 11883 9043 3859 3861 9437 3863 
10 976 1122 1123 2032 4879 4883 4881 9407 9528 8948 
10 448 165 1361 449 2847 11885 11884 2851 2849 11115 
10 828 838 1877 1719 4093 11887 9699 11886 11888 7339 
10 1724 813 1563 1725 9905 9906 6873 6878 9769 6877 
10 1707 963 797 1708 11889 4391 11890 6830 11891 10819 
10 176 319 1372 460 8424 5822 11892 2882 11893 11894 
10 1801 1051 1050 898 11895 4665 11746 11877 4663 4661 
10 459 176 1372 460 2880 11892 10511 2884 2882 11894 
10 1905 1748 1747 830 7422 6948 7421 9988 11660 9990 
10 1981 935 1797 1084 9167 9166 7664 11807 4758 11896 
10 1412 1584 498 690 6452 11897 8859 8860 11898 3567 
10 1539 1700 790 1701 6804 9717 9690 6808 6809 9688 
10 382 96 1295 240 2648 10081 10083 10620 8446 5591 
10 1639 806 1611 1776 10111 11540 6622 7042 10383 7036 
10 332 1412 1413 498 5942 5946 5944 11281 8859 9424 
10 1929 858 1880 1010 11347 9300 7522 11899 4533 11876 
10 1438 9 510 1424 6018 11286 11900 6019 5976 10402 
10 510 9 1438 527 11286 6018 11900 3083 11287 10846 
10 363 78 221 364 2590 8587 11147 2594 2592 10839 
10 968 1113 1871 967 4854 9837 10384 4407 4853 9056 
10 866 2017 1880 1010 11872 7770 8710 4549 10530 11876 
10 2017 1929 1880 1010 7771 7522 7770 10530 11899 11876 
10 430 1342 1343 289 11756 5737 11788 11901 5732 5736 
10 437 1350 610 438 9526 8934 3328 2818 8935 3329 
10 1865 962 1866 1107 11902 11903 7306 11644 4836 11904 
10 697 1610 841 689 11444 9818 4021 3600 11905 4022 
10 1799 1643 1798 896 7106 7105 7108 9290 9242 9244 
10 119 263 1318 405 8492 5659 11906 2716 11089 11907 
10 906 1058 1059 1810 4685 4689 4687 11402 11319 9558 
10 119 404 1318 262 2714 11908 11906 8491 11909 5660 
10 739 1656 909 740 11910 11621 4230 3727 10211 4231 
10 200 199 342 511 2342 8350 8349 3031 3032 10165 
10 717 547 1462 548 3656 10596 9374 3657 3147 8827 
10 352 209 521 210 8215 3062 11911 8214 2352 3061 
10 2105 1024 2071 1934 9744 10696 8076 8075 11704 7934 
10 1804 1647 901 900 7122 10747 10746 9164 9163 4208 
10 1500 1326 584 1499 6205 11617 11912 6206 6201 11913 
10 1053 1804 901 900 11914 10746 4670 4669 9164 4208 
10 1222 1081 2119 2110 5492 11915 11278 10899 10346 8129 
10 1628 1458 1459 714 6592 6085 6591 9879 8718 8719 
10 1297 384 555 383 11021 3167 11916 11917 2655 3166 
10 606 772 1521 771 3819 8823 11918 3817 3821 11919 
10 98 241 383 1297 8449 11920 2651 8738 5597 11917 
10 1815 912 1659 1816 11755 10028 7154 7159 11095 7158 
10 672 835 1591 2147 4004 11192 10745 11427 11921 11428 
10 759 1674 928 1675 9301 9302 4288 9013 6732 10502 
10 1414 1586 1415 500 6458 6459 5952 10555 11339 11340 
10 1750 670 1589 669 10836 10838 6953 11922 3513 9531 
10 690 1584 1745 1583 11898 6938 11033 11923 6454 6937 
10 195 1419 504 338 9564 9566 3012 4791 5962 11924 
10 1493 1319 577 1492 6184 9157 11633 6185 6180 9158 
10 505 1419 1420 1591 9565 5967 11925 11926 6473 6474 
10 204 347 205 516 8308 8307 2347 3047 9582 3046 
10 668 1748 832 830 11202 10363 3996 3989 11660 3997 
10 1599 1759 854 1598 6979 11213 11782 6499 6978 11210 
10 891 2034 1838 1833 9719 7816 11250 11141 7817 7501 
10 1014 1903 2072 1923 11927 7940 11736 9142 7476 7942 
10 1478 728 1645 1644 9620 11928 6641 6637 10232 6642 
10 576 741 1491 575 3729 8916 11466 3230 3728 9297 
10 741 1491 1658 742 8916 6680 9946 3733 11467 9948 
10 743 912 1659 742 4240 10028 10026 3736 4239 10478 
10 1832 1927 1831 868 7497 7659 7207 11205 9862 10496 
10 536 706 1450 705 3623 11425 9865 3621 3625 8693 
10 847 1001 1764 848 4500 10410 9812 4041 4499 10560 
10 1667 921 920 751 11429 4268 11929 10177 4266 4264 
10 88 374 89 232 2622 2623 2225 8574 8733 8575 
10 88 231 374 232 8573 8731 2622 8574 2375 8733 
10 1733 1891 821 984 7378 11351 11360 11930 11352 4451 
10 1959 1059 1191 1958 9742 5116 11377 7598 9741 8688 
10 137 281 280 1336 8528 2425 8527 11371 5713 5714 
10 417 131 416 1330 2752 2750 2754 8837 8836 8849 
10 750 1667 920 751 10175 11929 4263 3760 10177 4264 
10 99 242 1298 243 8451 5600 10590 8452 2387 5599 
10 400 572 1313 571 3216 11156 11322 3214 3218 11157 
10 2138 1251 2071 2137 10079 11931 8248 8247 9839 8244 
10 2046 1185 1950 1050 11932 11934 7852 11933 5100 11747 
10 1847 943 1090 1989 9007 4781 10717 7686 11935 10718 
10 539 708 709 1453 3630 3634 3632 11936 11937 10638 
10 588 1330 1329 1503 8848 5697 8850 9036 6213 6214 
10 1781 872 1028 1897 11938 4595 11939 7398 9983 11940 
10 1003 1024 1021 1934 4584 4585 4583 10267 11704 11941 
10 1465 1634 1464 720 6609 6610 6103 10888 10889 11303 
10 706 536 1450 1451 3623 9865 11425 11942 11196 6061 
10 1823 1667 920 1666 7178 11929 11943 7179 6708 9257 
10 1267 2050 1207 2051 9803 11944 5490 9306 7866 10128 
10 387 101 1300 245 2662 11075 11841 11318 8456 5605 
10 856 693 1466 1468 4078 11946 11945 11810 11947 6532 
10 1024 2105 1021 1934 9744 9745 4585 11704 8075 11941 
10 687 1436 522 688 11948 9350 3557 3562 9349 3561 
10 251 394 393 108 11583 2685 11581 8469 2683 2681 
10 987 1894 1895 1736 8892 7392 8894 11193 7387 7391 
10 426 1339 599 427 10050 11949 3296 2785 11225 3297 
10 1914 2050 1164 1913 7862 9637 11950 7449 7861 9638 
10 1137 996 1931 1139 4926 11063 11541 4933 4930 11951 
10 917 1663 1664 747 11952 6699 11239 4254 10089 11953 
10 1598 1759 854 1758 6978 11213 11210 6976 6980 11211 
10 437 154 1350 438 2814 9527 9526 2818 2816 8935 
10 580 1322 408 1321 9152 9151 3240 11830 5673 10251 
10 279 1335 1334 421 5711 5712 5707 9429 11954 9431 
10 759 1674 1508 758 9301 6727 10812 3784 9303 9033 
10 72 215 71 357 8542 8541 2208 2572 10586 2571 
10 1337 424 595 423 9522 3286 11624 9524 2775 3285 
10 1331 418 276 1332 10971 11869 5698 5703 10970 5702 
10 611 1687 1526 1525 11955 6765 11149 11150 6766 6281 
10 132 418 133 276 2755 2756 2270 8518 11869 8519 
10 418 132 1331 276 2755 11160 10971 11869 8518 5698 
10 1913 1757 1912 931 7444 7443 7446 11763 11208 11844 
10 1845 941 942 1088 11956 4329 8678 9227 4775 4776 
10 1685 609 1524 775 11957 11661 6759 11958 3828 11959 
10 1685 1524 1686 775 6759 6763 6764 11958 11959 10247 
10 622 621 1536 449 3366 8943 8940 3364 3362 11723 
10 165 308 1361 449 8402 5789 11885 2849 11114 11115 
10 990 1793 1794 885 11462 7096 11960 4586 10272 9364 
10 622 1537 1362 1536 8939 6313 11882 8940 6314 6309 
10 605 433 1345 1346 3314 9319 9326 11677 11808 5746 
10 1535 1361 1536 621 6306 6310 6311 8941 11722 8943 
10 450 1363 309 1362 11119 5796 9793 11120 5797 5792 
10 450 622 1362 449 3365 11882 11120 2854 3364 11116 
10 2069 1158 1912 1180 10096 11843 7927 10097 5081 11376 
10 1537 622 1362 450 8939 11882 6313 11118 3365 11120 
10 1480 565 1306 1307 11961 11962 6145 6144 11963 5628 
10 299 1353 157 300 5766 11964 8385 2445 5765 8386 
10 1372 459 460 632 10511 2884 11894 9634 3394 3395 
10 316 1370 174 317 5817 11965 8419 2462 5816 8420 
10 633 1547 1373 460 10127 6342 11966 3397 11967 11968 
10 14 523 1437 524 3067 11689 11690 3073 3084 11787 
10 692 512 513 1426 3574 3039 3573 11969 11970 11971 
10 461 633 1373 460 3398 11966 10936 2887 3397 11968 
10 1441 15 1437 14 6026 6015 6034 9082 2508 11690 
10 1705 1544 1706 795 6819 6823 6824 10398 9341 9343 
10 638 803 855 1714 3913 4080 4067 9506 9619 10681 
10 629 1544 795 630 11832 9341 3888 3390 9342 3889 
10 1089 1988 942 1088 10968 9225 4778 4780 9226 4776 
10 1031 1939 1174 1032 11452 11450 5053 4609 11972 5054 
10 206 349 1431 348 8225 5997 11726 8281 2498 5996 
10 2008 1110 1215 1109 9973 5194 9974 11344 4846 5193 
10 1366 454 170 313 11645 2864 11259 5804 11646 8412 
10 1855 1856 1998 1098 7276 7713 7714 10266 10264 11973 
10 781 948 1692 1851 4345 8896 8895 11974 11201 7259 
10 1588 668 502 1416 10736 3505 11757 6464 9898 10024 
10 473 472 1558 1386 2923 11818 11975 8998 11606 6377 
10 642 1717 1558 1556 9443 6855 10749 11052 6856 6379 
10 1815 1658 1659 911 7155 6684 7154 11976 9947 10479 
10 484 655 1570 654 3466 8928 11977 3464 3468 11775 
10 1435 686 687 521 10317 3559 11856 11978 3554 3558 
10 1687 611 777 776 11955 3834 11039 10218 3832 3836 
10 1097 1236 1098 1998 5430 5334 4810 9912 9913 11973 
10 235 91 377 1290 8580 2631 8807 5574 9251 8808 
10 1287 374 1288 547 8732 11336 5570 10290 3142 9208 
10 2035 1027 1171 2121 11453 5281 10536 8136 11979 10537 
10 1254 2120 1176 1175 10200 10201 5434 5454 10591 5061 
10 1166 2072 2074 1923 11737 8210 9378 11980 7942 7949 
10 829 1766 804 989 9706 10105 3988 4467 10103 4466 
10 1698 787 954 1857 11785 4363 8952 7277 11880 11249 
10 363 1276 1277 221 9752 5537 11981 11147 5532 5536 
10 363 536 364 1277 3109 3110 2594 11981 9864 11388 
10 363 221 1277 364 11147 5536 11981 2594 10839 11388 
10 649 479 478 1392 3449 2941 3448 11982 11099 11734 
10 1867 1108 1109 2007 11373 4843 11983 7742 10114 11984 
10 963 1867 1109 964 11550 11983 4841 4395 11524 4842 
10 484 1397 1570 1398 9004 6414 11977 9170 5902 6413 
10 90 233 89 375 8577 8576 2226 2626 11460 2625 
10 89 1288 233 232 11826 5568 8576 8575 5569 2376 
10 1295 382 1296 1471 10083 10621 5595 6117 11985 6116 
10 1463 376 548 1289 9229 3146 8825 6096 9231 8826 
10 690 1584 498 665 11898 11897 3567 3569 11986 3498 
10 486 1399 656 1572 11002 11353 3470 11987 6420 11316 
10 1300 244 386 1299 5606 11988 9332 5607 5602 9334 
10 1044 887 988 1879 4642 4573 4644 8971 11989 10728 
10 48 473 474 1387 2922 2926 2924 9052 11990 9053 
10 852 1903 1745 1746 11991 7416 11713 11711 7417 6942 
10 558 723 1473 557 3675 10810 11235 3176 3674 11236 
10 44 17 470 18 2515 10523 2912 2516 2152 11819 
10 46 20 1385 472 2520 5861 11992 2918 11607 10893 
10 822 1733 821 984 11993 11360 3967 4452 11930 4451 
10 569 734 1484 568 3708 8817 8816 3209 3707 10906 
10 396 111 1310 397 2690 10869 10862 2694 2692 10858 
10 1309 396 254 1310 10883 8977 5632 5637 10862 5636 
10 257 114 258 1313 8481 8482 2402 5645 11328 5644 
10 848 688 1604 687 4039 10887 10561 4040 3562 11858 
10 281 138 282 1337 8529 8530 2426 5717 9523 5716 
10 1968 1969 1948 1200 7628 8109 8168 11415 11994 11493 
10 266 122 408 1321 8498 2725 10873 5668 10249 10251 
10 1883 1724 975 1882 7355 10986 10396 7356 7351 9453 
10 1724 1883 975 813 7355 10396 10986 9905 9767 4425 
10 2079 1265 2082 2092 9779 8761 8263 8160 9409 8264 
10 523 1609 524 676 11786 11512 3084 3529 11042 3528 
10 1222 2019 2119 2020 9600 8128 11278 9601 7779 8127 
10 226 369 84 1282 9614 2608 8564 5551 10010 10012 
10 767 1678 1516 1768 9859 6740 10058 8878 7008 7006 
10 539 540 1453 709 3123 11995 11936 3632 3633 10638 
10 1660 1661 914 744 6690 9675 9676 8724 10663 4245 
10 528 1441 524 494 10409 11769 3088 3087 10617 3072 
10 770 605 1519 1520 3814 11996 10279 9447 9446 6263 
10 1609 1441 524 1611 6529 11769 11512 6541 6536 11513 
10 1609 695 524 676 10781 3587 11512 11042 3588 3528 
10 687 1436 688 1604 11948 9349 3562 11858 6513 10887 
10 899 1051 1052 1802 4664 4668 4666 11997 10959 10960 
10 404 119 1318 405 2714 11906 11908 2718 2716 11907 
10 827 1738 721 1739 9001 11395 4295 11998 6920 11397 
10 687 1436 1604 1435 11948 6513 11858 11856 6013 6512 
10 373 230 1285 1286 8704 5559 10256 9967 5563 5564 
10 2048 2034 889 1043 7932 11251 11253 11999 9720 4640 
10 1331 418 589 417 10971 3268 10980 11100 2757 3267 
10 585 1500 1326 584 10208 6205 10230 3257 11912 11617 
10 415 587 1328 586 3261 10426 12000 3259 3263 9345 
10 769 1518 603 1679 9339 8736 3810 9686 6741 10252 
10 1518 431 604 603 8734 3310 9337 8736 3308 3312 
10 677 840 1513 678 4018 11847 11749 3599 4017 10401 
10 1518 604 769 603 9337 3811 9339 8736 3312 3810 
10 145 429 146 288 2789 2790 2284 8362 8904 8363 
10 404 118 262 119 2713 8490 11909 2714 2256 8491 
10 442 1529 1355 1354 12001 6288 9090 10941 6289 5773 
10 1502 587 1328 1329 10425 10426 6211 6210 10473 5694 
10 1529 442 614 1354 12001 3341 11254 6289 10941 11694 
10 440 156 299 157 2822 8384 8923 2823 2295 8385 
10 1355 442 1354 301 9090 10941 5773 5772 10943 5768 
10 430 147 146 289 2793 2285 2792 11901 8365 8364 
10 1632 884 1792 1631 12002 11739 7088 6605 12003 7089 
10 415 129 1328 273 2746 9436 12000 11838 8512 5689 
10 511 1608 678 1424 11846 11438 3532 11445 6525 10403 
10 446 1359 163 305 10646 12004 2841 10424 5784 8397 
10 2048 2098 2034 1043 8125 8126 7932 11999 9249 9720 
10 1150 1874 997 1152 12005 11790 4965 4970 11767 4969 
10 1548 1710 634 1549 6835 9726 11258 6350 6834 9727 
10 1784 877 876 1624 10583 4140 11494 7064 11546 12006 
10 1705 629 1544 795 10397 11832 6819 10398 3888 9341 
10 626 1540 625 791 11675 11674 3378 3877 10031 3876 
10 1454 710 1455 1624 11656 11503 6073 6580 11547 6579 
10 453 1540 1365 625 11673 6322 10956 3374 11674 10957 
10 637 638 465 1552 3414 3412 3410 9277 9505 12007 
10 1018 1874 1898 1152 10786 7402 10787 4971 11767 11768 
10 457 173 1369 316 2873 12008 11163 11288 8418 5813 
10 1465 1466 1635 856 6106 6612 6613 11029 11945 11030 
10 963 1108 1109 1867 4839 4843 4841 11550 11373 11983 
10 464 1377 323 1376 8749 5838 8750 10982 5839 5834 
10 404 576 405 1318 3228 3229 2718 11908 12009 11907 
10 772 1683 1682 1842 8822 6755 12010 10692 7232 7233 
10 637 1551 636 802 9276 10886 3411 3910 11265 3909 
10 1443 595 761 1510 12011 3788 11668 6628 11764 12012 
10 802 1551 636 1712 11265 10886 3909 9400 6840 9578 
10 1466 693 856 552 11946 4078 11945 12013 3582 4069 
10 1744 807 1923 1745 11034 9140 7474 6939 9141 7475 
10 22 48 1387 21 2524 9052 5867 2156 2523 5868 
10 1386 473 1387 1559 8998 11990 5869 6381 12014 6380 
10 427 1339 143 426 11225 12015 2783 2785 10050 2782 
10 1282 541 1455 1281 11510 9825 6071 5552 9826 6072 
10 22 48 49 474 2524 2184 2525 9054 2924 2925 
10 2128 2048 1041 1043 8338 11536 12016 9250 11999 4641 
10 2098 2048 2128 1043 8125 8338 8320 9249 11999 9250 
10 1344 431 1343 290 10922 8735 5740 5739 11125 5735 
10 92 378 1291 377 2634 12018 12017 2632 2636 8806 
10 237 94 379 93 8585 2638 11728 8584 2230 2637 
10 1647 901 731 1648 10747 4206 9368 6651 10227 10229 
10 1770 851 1635 1514 11833 12019 7029 7015 8885 6738 
10 33 59 485 1398 2546 2957 10907 5900 11647 10909 
10 556 1467 555 721 10919 10623 3170 3670 12020 3669 
10 822 1733 1572 656 11993 6900 12021 3965 11315 11316 
10 342 1425 511 1424 5978 10164 10165 5977 5980 11445 
10 566 565 731 1481 3200 3698 3699 9029 12022 9927 
10 657 486 656 1572 3472 3470 3474 12023 11987 11316 
10 1311 398 1312 570 10156 9281 5643 9273 3210 9274 
10 1491 576 575 1317 11466 3230 9297 6178 12024 9000 
10 1168 1165 1241 2055 5037 5384 5385 9233 12025 11479 
10 1399 486 656 485 11002 3470 11353 10908 2962 3469 
10 730 1480 1647 731 12026 6647 9367 3700 10650 9368 
10 1410 187 186 496 9552 2327 11650 9075 2988 2989 
10 187 497 1411 331 2992 11688 9553 5270 8690 5939 
10 730 565 1480 731 3696 11961 12026 3700 3698 10650 
10 1335 593 1508 1334 10544 9034 6228 5712 12027 6229 
10 687 1436 1435 522 11948 6013 11856 3557 9350 12028 
10 123 266 1322 267 8499 5672 10874 8500 2411 5671 
10 1507 1506 757 1673 6227 9299 9104 6724 6725 9106 
10 1342 430 146 289 11756 2792 11580 5732 11901 8364 
10 1517 1342 1343 430 6253 5737 6252 9940 11756 11788 
10 1678 602 1517 768 10930 9938 6739 8756 3807 8757 
10 1902 989 1921 2077 10104 11535 7470 7957 11696 7960 
10 507 341 198 1422 9924 5322 3021 9925 5971 10447 
10 1421 506 507 197 11653 3023 9926 11200 3018 3022 
10 862 1795 1008 1836 12029 12030 4520 11691 7216 9992 
10 1815 1814 911 1063 7156 12031 11976 10864 10863 4700 
10 1658 1815 1814 911 7155 7156 7151 9947 11976 12031 
10 1686 1524 610 775 6763 10135 10136 10247 11959 3829 
10 682 517 1431 1430 3542 9673 8771 8770 9672 5998 
10 792 627 1541 1703 3880 11666 11151 8957 9733 6814 
10 1110 965 964 1868 4845 4398 4844 11327 11159 10966 
10 466 1553 1379 1378 11164 6360 12032 12033 6361 5845 
10 642 1717 808 643 9443 9047 3923 3432 10748 3924 
10 499 666 1414 500 3500 11772 10045 3002 3499 10555 
10 970 1795 1008 862 9652 12030 4522 4413 12029 4520 
10 587 588 1503 753 3266 9036 12034 3764 3765 9038 
10 1015 2142 1118 2139 11047 11046 4868 11189 8273 9519 
10 979 1126 2021 1125 4890 11056 11057 4888 4892 11732 
10 1904 831 1746 1903 9886 9888 7418 7420 12035 7417 
10 1139 1136 2044 1248 4932 11443 10351 5360 5333 11261 
10 2136 2041 1145 1143 8230 10215 10216 11526 12036 4951 
10 1804 901 1805 1054 10746 11081 7126 11084 4672 11085 
10 686 521 1434 520 3554 12037 10318 3555 3063 10299 
10 827 721 764 1739 4295 3798 3982 11998 11397 8721 
10 1020 1779 1615 841 11391 7049 11613 4572 9817 12038 
10 1380 184 1381 467 12039 10421 5851 9492 2904 12040 
10 662 827 764 1739 3981 3982 3799 9495 11998 8721 
10 861 1595 865 1754 11799 11379 4105 10626 6965 11380 
10 530 1271 1270 1607 11523 5519 11182 11183 6521 6522 
10 516 1430 681 1429 11681 12041 3539 9583 5995 10142 
10 141 1338 1294 381 11022 5722 11023 2645 12042 8779 
10 540 1454 1453 709 11655 6070 11995 3633 10636 10638 
10 1445 359 531 358 9928 3095 8890 12043 2579 3094 
10 761 596 1443 529 3789 11622 11668 3790 3593 12044 
10 224 367 1280 1279 9821 9822 5545 5541 12045 5546 
10 1941 1035 1176 1034 11069 5062 10423 10154 4618 5060 
10 884 717 1632 718 4159 9372 12002 4160 3661 9373 
10 1452 539 538 1279 10017 3120 9215 6062 12046 12047 
10 1284 544 372 1285 9611 3134 8695 5561 11814 8697 
10 2142 2101 1215 1118 8296 10302 10308 11046 9517 5387 
10 1685 1845 775 1686 7242 12048 11958 6764 7241 10247 
10 379 236 237 93 9728 2380 11728 2637 8583 8584 
10 710 1454 709 1623 11656 10636 3637 11821 6576 10637 
10 941 1685 1845 775 12049 7242 11956 4325 11958 12048 
10 1650 1649 1483 733 6657 6652 6656 10884 11618 10668 
10 774 1685 941 775 12050 12049 4324 3830 11958 4325 
10 1645 728 729 898 11928 3694 12051 12052 4197 4198 
10 1487 1654 738 1488 6668 11357 11356 6170 6667 12053 
10 1697 1535 621 786 6796 8941 8942 11283 11285 3862 
10 257 114 1313 399 8481 11328 5645 10993 2699 11686 
10 123 409 1322 408 2728 9150 10874 2726 2730 9151 
10 739 738 1655 1488 3724 12055 11087 12054 12053 6671 
10 748 917 918 1664 4255 4259 4257 11538 11239 11539 
10 886 719 1634 720 4165 11302 11233 4166 3667 10889 
10 1535 620 621 786 11744 3363 8941 11285 3861 3862 
10 759 594 593 1508 3783 3284 3782 10812 12056 9034 
10 136 422 1335 421 2767 10543 12057 2765 2769 11954 
10 1304 248 390 1303 5618 11595 10125 5619 5614 11280 
10 1804 1053 901 1054 11914 4670 10746 11084 4674 4672 
10 875 1782 1030 1783 11868 12058 4602 10015 7063 11593 
10 899 1803 1646 1802 11334 7119 11335 11997 7120 7115 
10 1643 897 727 1644 9241 4194 10610 6639 9878 12059 
10 1348 607 1522 1347 12060 9585 6267 5752 11778 6268 
10 1707 631 1546 797 12061 12062 6825 11890 3894 12063 
10 402 574 1315 573 3222 10166 9116 3220 3224 10393 
10 797 1547 798 632 10818 10126 3899 3895 9635 3897 
10 631 1546 797 632 12062 12063 3894 3396 9633 3895 
10 875 1782 874 1030 11868 9543 4134 4602 12058 4601 
10 1782 1029 874 1030 11246 4599 9543 12058 4603 4601 
10 1540 1539 625 1701 6323 9689 11674 6807 6808 9687 
10 1366 453 454 626 11719 2866 11645 12064 3376 3377 
10 809 1716 643 808 8947 10526 3926 3928 9046 3924 
10 413 1326 412 584 9161 11333 2742 3253 11617 3252 
10 1938 1030 1172 1029 10865 5048 10866 11244 4603 5047 
10 583 1498 1499 1325 9294 6203 11627 10597 6198 6202 
10 319 177 1373 460 8425 8973 5826 11893 2883 11968 
10 180 464 181 323 2894 2895 2319 8432 8750 8433 
10 411 126 1325 412 2735 11750 11601 2739 2737 11751 
10 595 1509 760 1510 11765 12065 3786 11764 6236 12066 
10 968 1113 1149 1872 4854 4990 4991 10840 9836 12067 
10 662 827 1577 661 3981 12068 10657 3489 3980 12069 
10 932 969 1017 1873 4410 4936 4566 11168 9060 10754 
10 1577 662 661 491 10657 3489 12069 10659 3487 3485 
10 5 1294 141 284 5586 11023 8351 2429 5589 8354 
10 1520 606 1521 771 11679 11918 6266 9448 3817 11919 
10 1188 1181 1240 2080 5444 5468 5366 11484 11483 10916 
10 666 762 1747 667 3793 9989 12070 3504 3792 12071 
10 1520 1346 1521 606 6261 6265 6266 11679 11678 11918 
10 2030 2085 2031 1167 7986 7987 7811 10204 10203 11025 
10 296 153 1349 295 8378 10292 5753 2441 8377 5754 
10 1838 891 850 889 11250 4177 11410 11252 4178 4172 
10 1427 692 513 1426 9263 3573 9789 5986 11969 11971 
10 1590 834 835 671 10924 4006 11190 10925 4001 4005 
10 340 1420 196 339 5966 12072 4765 2487 5965 4773 
10 1760 1022 1915 999 10575 12074 7451 12073 4576 11758 
10 1610 697 1612 1438 11444 11605 6544 6535 10844 6542 
10 320 1374 178 321 5829 8981 8427 2466 5828 8428 
10 294 151 1347 293 8374 10254 5747 2439 8373 5748 
10 606 1346 1521 1347 11678 6265 11918 11770 5749 6264 
10 2048 2059 1041 1010 7959 9192 11536 11537 9194 4635 
10 1889 981 1730 819 12075 12076 7373 11502 4443 9030 
10 210 352 1435 521 8214 6008 12077 3061 11911 11978 
10 1441 1408 494 1512 6027 9099 10617 6239 6240 9698 
10 981 1889 982 819 12075 11076 4447 4443 11502 4445 
10 871 704 1619 705 4120 9573 9575 4121 3622 8692 
10 1852 1693 782 1692 7262 9530 11139 7263 6785 8897 
10 356 355 213 70 2570 10438 11409 2568 2567 8538 
10 1704 794 793 628 9455 3887 9457 10172 3885 3883 
10 164 307 306 1360 8400 2452 8399 10429 5786 5787 
10 530 1445 358 1271 8888 12043 3092 11523 6043 10776 
10 2048 1929 1010 889 7857 11899 11537 11253 12078 4532 
10 374 231 373 1287 8731 9966 2624 8732 5566 10615 
10 435 1348 436 152 10713 10714 2812 2808 11825 2810 
10 1456 542 711 1455 12079 3639 9810 6076 11488 9811 
10 2059 2095 1041 1153 8291 11874 9192 9193 12080 4972 
10 1749 668 669 1588 12081 3510 12082 6950 10736 9532 
10 173 457 1369 456 2873 11163 12008 2871 2875 12083 
10 1368 628 456 1543 10722 3383 12084 6331 10173 12085 
10 890 991 1906 832 4475 9902 9903 4174 4474 10364 
10 1964 1064 1197 1196 9930 5133 10455 10565 5131 5135 
10 668 1749 1748 1587 12081 6951 11202 9899 6949 6947 
10 1229 2027 1228 2115 9479 9480 5241 12086 8105 11575 
10 393 107 251 108 2680 8468 11581 2681 2245 8469 
10 563 1478 729 1479 8919 9621 3692 8921 6143 9843 
10 1748 1749 832 1906 6951 11730 10363 7424 7425 10364 
10 1379 466 325 183 12032 12087 5844 11123 2901 8437 
10 1554 641 554 1555 10952 3585 12088 6368 10953 10581 
10 1715 641 1554 1557 12089 10952 6849 7012 10954 6852 
10 849 1020 1615 841 4582 11613 11600 4045 4572 12038 
10 2036 1049 1184 1048 10439 5097 8775 10440 4659 5095 
10 1727 1726 1565 815 6884 6879 6883 11172 11173 12090 
10 1333 1507 591 592 6226 9023 9024 12091 9658 3278 
10 1564 649 1392 1565 11175 11982 6395 6400 11179 6399 
10 589 754 1504 588 3768 9964 9109 3269 3767 10683 
10 1333 277 419 1332 5705 11867 10259 5706 5701 10260 
10 55 481 1394 480 2945 11806 10709 2943 2947 10710 
10 849 841 1615 689 4045 12038 11600 4042 4022 11471 
10 1020 930 1779 841 4571 11362 11391 4572 4294 9817 
10 1132 1893 1131 2027 10377 11153 4910 12092 7798 9481 
10 479 650 480 1393 3451 3452 2944 10648 10655 10649 
10 492 662 1578 1405 3488 9496 8914 10660 10658 6438 
10 2046 1185 1186 2067 11932 5104 9145 8134 10644 9146 
10 39 66 1405 491 2559 10669 5922 10284 2976 10285 
10 882 1038 883 1791 4625 4626 4158 11398 10950 10738 
10 1284 371 372 544 9610 2618 8695 9611 3133 3134 
10 2093 1232 1138 2077 10029 5251 11835 8030 10676 11697 
10 66 39 65 491 2559 2558 2201 2976 10284 2975 
10 1951 1051 1052 1186 10958 4668 9539 9144 5102 5103 
10 661 1577 1404 1576 12069 6435 11121 11434 6436 6431 
10 1857 1098 953 1099 10934 4809 11311 10258 4813 4811 
10 1951 1187 1052 1952 9538 5105 9539 7577 10545 11855 
10 1187 1053 1052 1952 5106 4671 5105 10545 11853 11855 
10 1865 1706 962 795 7301 10777 11902 12093 9343 4387 
10 789 624 623 1538 3871 3372 3870 11015 12094 11721 
10 1551 1377 1552 637 6354 6358 6359 9276 9335 9277 
10 1166 970 1014 1923 5029 4546 5253 11980 9653 9142 
10 1705 794 1864 1704 10399 11529 7298 6821 9455 7299 
10 1745 1584 690 852 6938 11898 11033 11713 11712 4053 
10 1064 1815 911 1063 10235 11976 4702 4704 10864 4700 
10 805 1557 1556 641 10182 6374 11051 3917 10954 11551 
10 645 644 810 1560 3438 3929 3930 10559 9944 9996 
10 26 52 53 478 2532 2188 2533 11735 2936 2937 
10 1546 459 1372 632 10510 10511 6339 9633 3394 9634 
10 1861 791 790 1701 8740 3878 10579 7290 10032 9688 
10 844 683 1600 843 4028 10977 10877 4029 4025 11766 
10 305 1359 163 306 5784 12004 8397 2451 5783 8398 
10 1743 689 663 849 11468 3565 10769 11017 4042 4043 
10 2028 1229 2115 2027 11608 12086 8167 7803 9479 8105 
10 1936 860 2060 1926 12095 9707 7892 7532 9709 7893 
10 985 1892 1893 1734 8925 7386 11152 10074 7381 7385 
10 666 1746 1585 1747 12096 6941 11773 12070 6945 6943 
10 607 772 1521 606 3820 8823 11299 3321 3819 11918 
10 1533 618 1532 1358 11813 11791 6302 6301 11792 6297 
10 1936 1772 860 1926 7531 12097 12095 7532 7529 9709 
10 1685 774 1684 1523 12050 10967 6761 6760 12098 6756 
10 1929 2048 1838 889 7857 7858 7506 12078 11253 11252 
10 186 1410 1409 329 11650 5937 12099 5318 5935 5934 
10 838 828 1877 1006 4093 9699 11887 4513 4514 9700 
10 1423 8 509 527 11440 3027 10338 12100 3081 3082 
10 1423 10 526 509 11441 3079 10033 10338 3028 3078 
10 1469 1423 1581 509 6111 6445 6552 11447 10338 10337 
10 1126 1223 2020 1125 5221 10195 12101 4892 5219 10196 
10 1168 1918 1162 1007 9232 10572 5355 5036 9804 5014 
10 765 1720 1878 1899 9884 7340 12102 10140 7404 7405 
10 1925 838 1772 1719 12103 12104 7486 7485 11888 7021 
10 1430 517 348 205 9672 9544 5994 11680 3050 8282 
10 1442 675 1613 526 10684 10686 6545 10035 3526 10675 
10 675 1773 1719 828 11515 7034 10757 3984 12105 11886 
10 1012 1740 1896 1677 10137 7394 8907 10988 6923 7393 
10 1227 2026 2114 1228 11348 8102 11350 5238 10348 12106 
10 860 694 1772 863 4077 12107 12097 4096 4094 12108 
10 694 838 1772 863 4013 12104 12107 4094 4095 12108 
10 1966 1066 1198 1241 10436 5136 10437 12109 5294 5295 
10 1781 872 1897 1620 11938 9983 7398 7057 10712 7396 
10 1964 1965 1197 1065 7616 11611 10455 9931 10233 5134 
10 369 541 1281 368 3125 9826 11511 2609 3124 10595 
10 2057 1031 1174 1173 10052 5053 11451 10234 5051 5055 
10 1454 1280 540 1453 6069 10593 11655 6070 6065 11995 
10 874 1781 1029 1782 11215 11217 4599 9543 7060 11246 
10 1768 1515 601 766 7007 10921 8880 8879 11596 3803 
10 373 545 546 1286 3137 3141 3139 9967 9222 9224 
10 431 1344 604 432 10922 9354 3310 2800 9355 3311 
10 1793 990 1900 1040 11462 9692 7564 10131 4856 9691 
10 1443 595 1510 1444 12011 11764 6628 6041 12110 6538 
10 1168 2054 1197 1253 10406 11612 5424 5364 12111 5421 
10 715 1630 716 1460 10552 10847 3655 10782 6598 10783 
10 1238 1049 1950 1050 5289 10550 10549 5287 4662 11747 
10 429 1342 1516 602 8903 6249 10929 3304 12112 10931 
10 1678 1840 768 1679 7227 11630 8756 6743 7226 8758 
10 1022 1207 1915 1160 5163 12113 12074 5004 5166 11759 
10 772 1682 938 1842 12010 12114 4316 10692 7233 8700 
10 1654 737 907 1653 11355 4224 11842 6669 10194 12115 
10 862 807 1744 553 4086 11034 9571 4087 3922 9413 
10 873 1621 874 707 9872 8792 4131 4127 9214 4129 
10 584 750 1499 749 3755 12116 11913 3753 3757 11628 
10 874 1781 1782 1621 11215 7060 9543 8792 7056 7059 
10 1060 1960 1193 1061 10321 10564 5121 4695 10322 5122 
10 1799 895 896 1048 10802 4193 9290 9176 4654 4655 
10 1621 708 874 707 8790 4130 8792 9214 3631 4129 
10 1333 420 591 419 10262 3274 9024 10259 2763 3273 
10 1950 1049 1798 1050 10550 9288 7572 11747 4662 11748 
10 1925 1936 863 1019 7530 12119 12117 12118 12120 4567 
10 510 8 199 9 3030 2341 3029 11286 2507 8642 
10 1623 875 1622 709 10013 10014 6578 10637 4133 11501 
10 677 510 1438 527 3530 11900 11731 3531 3083 10846 
10 1630 882 883 1791 9606 4158 10737 7086 11398 10738 
10 1654 1810 1653 907 7139 7140 6669 11842 9557 12115 
10 1146 2070 2130 2129 10008 8235 9245 10329 8245 8232 
10 1810 906 1653 907 11402 9631 7140 9557 4226 12115 
10 886 719 885 1633 4165 4163 4167 9365 11228 9366 
10 1006 1148 867 1877 4958 4959 4515 9700 9130 9132 
10 167 310 309 1363 8406 2455 8405 11669 5795 5796 
10 505 671 1591 672 3514 11191 11926 3518 3519 10745 
10 1326 270 412 1325 5684 11332 11333 5685 5680 11751 
10 565 1480 731 1481 11961 10650 3698 12022 6149 9927 
10 750 919 1666 749 4261 9256 10132 3757 4260 10872 
10 1700 1859 1699 789 7283 7284 6806 10038 10036 11014 
10 1793 1794 885 1633 7096 9364 10272 7091 7095 9366 
10 1828 925 1076 1827 9537 4740 10241 7195 12121 10242 
10 783 1694 1532 1693 11702 6787 11346 10813 6788 6783 
10 759 594 1509 760 3783 12122 10811 3787 3785 12065 
10 1828 1077 1076 925 9432 4744 10241 9537 4742 4740 
10 1669 1826 1825 922 7188 7189 7184 11465 8844 8846 
10 925 924 1076 1827 4280 4739 4740 12121 10514 10242 
10 761 1443 1510 1676 11668 6628 12012 11480 7037 6733 
10 594 1509 760 595 12122 12065 3785 3287 11765 3786 
10 1165 1198 2055 2056 5377 10448 12025 10391 10449 7902 
10 1583 497 1411 1582 10310 11688 6449 6451 10311 6447 
10 1665 1821 1664 918 7172 7173 6702 9190 11092 11539 
10 970 1795 862 807 9652 12029 4413 4412 12123 4086 
10 979 2021 1886 1125 11057 7781 11715 4888 11732 10832 
10 1885 1125 1886 2020 10831 10832 7365 7778 10196 7777 
10 770 1680 936 1681 12124 9391 4310 11337 6749 10020 
10 726 1643 1642 896 10609 6636 10086 4191 9242 10803 
10 895 726 1642 896 4189 10086 9254 4193 4191 10803 
10 1643 726 727 896 10609 3688 10610 9242 4191 4192 
10 965 2010 966 1869 11341 11590 4401 11342 7752 12125 
10 772 1682 771 938 12010 10599 3821 4316 12114 4315 
10 682 1430 681 516 8770 12041 3544 3543 11681 3539 
10 201 344 513 1426 8340 10707 3038 12126 5982 11971 
10 1740 1896 1911 1011 7394 7441 7439 10138 12127 12128 
10 1852 1995 949 1853 7705 11491 12129 7267 7704 11132 
10 950 1694 1853 1854 11703 7265 9961 9960 7269 7270 
10 1852 948 782 949 8978 4346 11139 12129 4350 4348 
10 1339 286 1340 427 5723 5727 5728 11225 11221 11223 
10 737 1654 907 738 11355 11842 4224 3721 11357 4225 
10 1491 1317 575 1490 6178 9000 9297 6179 6174 8810 
10 1638 699 1796 1899 9102 10569 7101 7403 10431 7493 
10 1500 750 1499 584 10174 12116 6206 11912 3755 11913 
10 143 286 427 144 8358 11221 2783 2282 8359 2784 
10 1099 954 953 1857 4812 4365 4811 10258 11249 11311 
10 1702 958 1703 1862 8741 8958 6815 7293 8796 7292 
10 959 958 1862 1703 4380 8796 11641 10880 8958 7292 
10 884 1793 1792 1040 12130 7093 11739 4631 10131 11740 
10 2083 1039 1984 1117 10380 10574 8046 9205 5077 9980 
10 1841 1797 936 1085 7231 10022 10021 9402 11129 4760 
10 1792 883 1791 1631 11875 10738 7090 7089 10739 7085 
10 246 102 388 1301 8458 2665 9219 5608 12131 9220 
10 908 1812 1655 1811 9329 7146 11086 12132 7147 7142 
10 1803 899 1052 1802 11334 4666 11854 7120 11997 10960 
10 968 1872 969 802 10840 9058 4411 4406 9399 4408 
10 1095 1854 1996 1096 9962 7707 11473 4804 9722 12133 
10 328 468 185 16 10420 2907 8353 5852 9098 12134 
10 2136 1997 1998 1208 8228 7715 8231 12135 11545 9914 
10 2050 1914 1164 1207 7862 11950 9637 11944 12136 5165 
10 1236 2136 1208 1143 12137 12135 5396 5279 11526 5397 
10 858 1755 1777 1880 11345 7038 10116 9300 7345 7346 
10 583 748 749 1498 3750 3754 3752 9294 12138 11626 
10 1784 2057 1031 1939 7882 10052 10051 7539 7884 11452 
10 1997 1247 1996 1096 11543 11552 7712 11544 5329 12133 
10 761 1443 1607 529 11668 6523 11486 3790 12044 11181 
10 1124 1885 978 977 8961 9138 4885 4884 11616 4435 
10 1445 530 1607 1271 8888 11183 6524 6043 11523 6521 
10 1247 1095 1996 1096 5328 11473 11552 5329 4804 12133 
10 868 1832 929 1831 11205 12139 4529 10496 7207 12140 
10 1234 2125 2091 1170 12141 8223 10442 5265 10101 10441 
10 1674 759 1508 1675 9301 10812 6727 6732 9013 6731 
10 976 814 1884 977 4428 9466 9408 4432 4430 9468 
10 1090 2127 1989 1089 11863 8179 10718 4783 11270 12142 
10 1038 1179 1945 1178 5074 9774 10949 5072 5076 9765 
10 1884 1124 1123 977 8960 4886 8950 9468 4884 4882 
10 1884 1124 977 1885 8960 4884 9468 7362 8961 11616 
10 2131 1082 2040 2039 10628 10630 8280 8298 9180 7835 
10 697 1513 1612 1438 11615 6543 11605 10844 6241 6542 
10 1095 950 1854 1096 4800 9960 9962 4804 4802 9722 
10 660 661 1576 826 3486 11434 11433 3977 3978 12143 
10 43 1 0 185 2511 2148 2178 2909 8352 2324 
10 1550 1375 1376 463 6352 5836 6351 10822 10191 10984 
10 660 1575 1576 1403 12144 6433 11433 11109 6428 6432 
10 996 836 1778 1753 4489 12146 12145 10468 12147 7047 
10 616 1531 782 617 11136 9529 3849 3351 11137 3850 
10 1773 1931 837 1778 7509 11065 12148 7046 7661 12149 
10 1778 836 996 837 12146 4489 12145 12149 4012 4488 
10 1931 996 837 1778 11063 4488 11065 7661 12145 12149 
10 1711 634 1549 635 9725 9727 6838 11077 3405 11424 
10 761 1771 700 530 11485 11487 4099 4048 8887 3606 
10 1676 760 929 1675 11475 4291 11477 6735 9012 9014 
10 1920 848 998 1765 12150 4494 8834 7466 9322 9321 
10 1132 1229 2027 1131 5240 9479 12092 4910 5239 9481 
10 981 2023 1888 2022 12151 7787 11275 12152 7788 7783 
10 657 822 1572 656 3966 12021 12023 3474 3965 11316 
10 699 688 1765 848 3605 10491 9320 4063 4039 9322 
10 1982 1953 2096 1239 8071 8072 8040 10225 10428 9660 
10 2043 1209 2044 1136 10360 11442 7847 10361 5261 11443 
10 635 1375 1549 1550 11050 6348 11424 10821 6352 6353 
10 1002 2014 1796 1899 11706 7762 11068 10471 7763 7493 
10 864 1779 1610 1774 9815 7050 9816 8866 7051 7030 
10 1484 1485 1651 735 6161 6658 6659 8818 9629 9670 
10 699 1638 1796 1765 9102 7101 10569 9320 7023 7100 
10 1023 849 1020 1922 4579 4582 4957 12153 11599 11614 
10 1222 2019 2110 2119 9600 8092 10899 11278 8128 8129 
10 858 1929 889 1010 11347 12078 4173 4533 11899 4532 
10 890 1905 1748 1906 11520 7422 10362 9903 7426 7424 
10 1154 1159 2045 1189 5001 10917 9881 5353 5354 9882 
10 697 677 1513 1438 3597 11749 11615 10844 11731 6241 
10 1513 510 1424 1438 10400 10402 6242 6241 11900 6019 
10 1832 1676 929 1675 7205 11477 12139 7206 6735 9014 
10 1619 871 705 872 9575 4121 8692 9982 4125 4123 
10 1781 872 1620 873 11938 10712 7057 11216 4128 9680 
10 1144 2070 2062 1008 12154 7931 11295 4946 11297 11296 
10 1781 872 873 1028 11938 4128 11216 11939 4595 4596 
10 2035 1781 1028 1897 7818 11939 11454 7819 7398 11940 
10 1025 869 1932 1780 4587 12156 12155 9749 9748 7511 
10 1038 1790 1037 1944 10948 12157 4627 10951 7552 10413 
10 851 886 1634 720 4523 11233 12158 4472 4166 10889 
10 882 1630 1790 1791 9606 7082 9607 11398 7086 7087 
10 1836 1718 1833 859 7214 7209 7217 9991 11135 9993 
10 1643 897 1644 1798 9241 9878 6639 7105 9243 7104 
10 1573 1735 658 1574 6907 10794 10795 6427 6906 10817 
10 1144 1146 2070 1008 5008 10008 12154 4946 4953 11297 
10 328 468 16 1381 10420 9098 5852 5849 9096 6024 
10 1234 2125 1170 1026 12141 10101 5265 5264 8856 5043 
10 869 1616 1932 1780 9570 7512 12156 9748 7055 7511 
10 1832 1676 700 929 7205 11476 12159 12139 11477 4570 
10 1971 1071 1072 1203 11405 4729 11430 8717 5150 5151 
10 1814 910 911 1063 9351 4238 12031 10863 4699 4700 
10 2125 1027 1170 1026 10481 5044 10101 8856 4594 5043 
10 1964 1196 2053 1963 10565 12160 8004 7613 10567 8005 
10 1988 1845 1088 1987 7684 9227 9226 7685 7680 10246 
10 1033 1939 877 1032 9514 10584 4610 4612 11972 4608 
10 1985 1087 1986 2094 11698 11700 7679 8036 9835 8035 
10 1944 1038 1178 1037 10951 5072 10412 10413 4627 5071 
10 1178 1177 1943 1037 5073 9788 10414 5071 5068 10415 
10 191 501 335 192 3004 11230 5070 2332 3003 5069 
10 1966 1965 1241 2055 7619 11412 12109 8006 8007 11479 
10 2128 1041 1087 1043 12016 5168 11837 9250 4641 5167 
10 455 1368 456 172 9009 12084 2872 2868 9011 2870 
10 2006 1213 2099 1107 9485 9487 8051 9484 5185 9483 
10 893 1742 892 1933 9559 10735 4184 11504 7514 12161 
10 858 1755 1880 804 11345 7345 9300 4081 10341 8712 
10 1748 1749 668 832 6951 12081 11202 10363 11730 3996 
10 948 781 947 1851 4345 4343 4347 11201 11974 8831 
10 1742 893 892 723 9559 4184 10735 10734 4182 4180 
10 1863 1104 2003 1862 11716 9462 7730 7297 10882 7731 
10 860 1772 1936 863 12097 7531 12095 4096 12108 12119 
10 2006 1213 1107 1214 9485 5185 9484 9502 5189 5187 
10 1696 952 1856 1855 9438 10263 7275 7271 10265 7276 
10 910 1656 909 1813 10210 11621 4235 9352 7149 9362 
10 1854 950 951 1096 9960 4356 9721 9722 4802 4803 
10 1430 347 205 348 5993 8307 11680 5994 2497 8282 
10 842 1597 853 1757 11687 9507 4058 9540 6973 11207 
10 561 726 727 1476 3684 3688 3686 9267 10084 10608 
10 1891 1733 821 1732 7378 11360 11351 7379 6902 10333 
10 1858 1100 2001 2000 10295 10700 7723 7719 9061 7724 
10 1922 1023 2031 1151 12153 11800 7810 11420 4968 9979 
10 1959 1263 1960 2037 12162 12163 7601 7997 12164 7996 
10 895 1047 1800 894 4652 9171 12165 4190 4651 9173 
10 470 554 641 1383 3420 3585 3425 10525 10582 11796 
10 1986 2094 1087 2128 8035 9835 11700 8185 8309 11837 
10 989 866 1902 804 4557 8711 10104 4466 4108 8713 
10 1707 796 962 1706 12166 4388 12167 6827 9915 10777 
10 1859 2002 2001 1101 7726 7727 7722 9737 9021 9022 
10 996 1753 1931 1910 10468 7525 11063 10469 7437 7524 
10 1022 1759 854 843 10576 11213 4578 4577 10578 4062 
10 1985 1087 2094 1086 11698 9835 8036 12168 4771 9833 
10 1707 963 1867 1866 11889 11550 7308 7304 11549 7309 
10 963 1707 962 1866 11889 12167 4392 11549 7304 11903 
10 940 1987 941 1844 9425 9427 4326 9664 7681 12169 
10 1766 989 1921 1902 10103 11535 7469 7413 10104 7470 
10 1906 1145 2040 2041 9904 10217 7834 7836 10215 7838 
10 1740 1608 1677 698 6921 6737 6923 10139 11417 11418 
10 1243 1973 1169 1073 10485 10487 5302 5301 11572 5153 
10 1024 1251 2137 2071 5345 9839 9840 10696 11931 8244 
10 2145 1251 2137 1220 10080 9839 8336 8786 5346 9838 
10 1878 888 1021 857 12170 4575 12171 9711 4170 4574 
10 2090 1205 1977 1206 12172 9284 8022 11585 5162 11586 
10 1759 1599 854 843 6979 11782 11213 10578 11724 4062 
10 1812 1960 1061 1961 7599 10322 9330 7603 7604 10562 
10 696 1777 1741 850 10118 7041 10603 4047 10117 11103 
10 1120 1218 2108 1949 5280 9869 12173 11565 10926 8086 
10 864 1779 1774 930 9815 7051 8866 4293 11362 11364 
10 737 572 1487 738 3717 11155 9873 3721 3719 11356 
10 754 589 1504 755 3768 9109 9964 3772 3770 9111 
10 2024 1128 982 1129 10453 4897 12174 9070 4901 4899 
10 1246 1121 1120 2016 5210 4877 5320 9568 9511 11566 
10 1949 2016 2108 1120 7769 8085 8086 11565 11566 12173 
10 1320 578 579 1494 9655 3239 10994 6187 10962 10996 
10 754 1504 1671 755 9964 6719 11554 3772 9111 9127 
10 1166 1093 2072 1163 5314 11598 11737 5271 5313 9469 
10 1949 1218 1114 1120 10926 5268 10927 11565 5280 4874 
10 756 1672 1671 925 10123 6723 9126 4279 9536 11587 
10 1672 1828 1671 925 7193 7194 6723 9536 9537 11587 
10 1847 1990 1090 944 7690 10716 10717 8853 8984 4782 
10 1892 1733 984 1891 7382 11930 8927 7383 7378 11352 
10 1733 1892 984 822 7382 8927 11930 11993 8926 4452 
10 1797 935 1680 936 9166 9390 7103 10022 4311 9391 
10 2039 992 933 1904 12175 4478 9182 7830 9598 12176 
10 1410 1511 1582 496 6238 6448 6446 9075 9074 11649 
10 2140 1167 1005 1081 10202 5032 9701 10315 5033 4752 
10 1738 1737 1576 826 6917 6912 6916 9002 10861 12143 
10 1128 981 2023 1889 4896 12151 11507 12177 12075 7786 
10 833 1751 834 1908 12178 9785 4003 10405 7431 9786 
10 842 1596 1756 865 9542 6970 9541 4106 11381 10134 
10 2013 1210 1250 2003 10163 5341 12179 8119 9463 12180 
10 1601 684 685 1433 11707 3553 11140 6504 12181 9156 
10 202 345 203 514 8327 8326 2345 3041 11695 3040 
10 2025 983 1129 1890 9808 4900 9071 7793 10521 10522 
10 1960 1192 1193 1263 11199 5123 10564 12163 5457 5458 
10 1084 1797 1983 1085 11896 7669 12182 4762 11129 9403 
10 1348 607 1347 435 12060 11778 5752 10713 3320 10253 
10 1242 2092 1085 1983 10534 10535 5244 9776 8029 9403 
10 147 430 1343 289 2793 11788 11124 8365 11901 5736 
10 1729 818 1730 1888 11279 9852 6893 7370 11274 7369 
10 1133 2028 1182 2029 10902 10903 5090 10983 7806 11432 
10 1133 1894 2029 1895 8891 7805 10983 8893 7392 7804 
10 1084 1242 1085 1983 5243 5244 4762 12182 9776 9403 
10 1132 2028 1893 2027 10904 7802 10377 12092 7803 7798 
10 1231 1234 2091 1206 5266 10442 12183 5250 5423 10443 
10 593 421 592 1334 3279 3277 3281 12027 9431 9866 
10 1939 1031 876 1032 11452 4605 11495 11972 4609 4607 
10 1733 822 821 656 11993 3967 11360 11315 3965 3963 
10 1141 1080 2014 1002 4979 11413 10180 4937 4751 11706 
10 1276 362 535 1275 12184 3106 9753 5534 8684 8683 
10 1440 424 139 425 10824 2774 11620 10825 2778 2776 
10 370 228 371 85 9951 9957 2615 2611 8567 2613 
10 1337 424 1440 1444 9522 10824 6035 6375 10826 6040 
10 820 1731 1732 1570 8898 6899 10331 11774 6894 6898 
10 538 539 366 1279 3120 3118 3116 12047 12046 8675 
10 539 1452 708 1453 10017 9212 3630 11936 6067 11937 
10 946 1691 947 780 9149 9943 4344 4340 9359 4342 
10 142 693 1338 381 3581 10067 10068 2780 3580 12042 
10 1174 1940 1939 2126 11291 7542 11450 8702 8141 8142 
10 1790 881 1789 1629 12185 12186 7084 7083 11743 7079 
10 1691 781 947 780 9357 4343 9943 9359 3848 4342 
10 1980 1086 1985 2095 9458 12168 7676 8038 12187 8037 
10 2078 1119 971 1142 9790 4871 11219 9772 4942 4939 
10 1889 2024 982 1890 7790 12174 11076 7377 7789 10520 
10 1476 726 1475 560 10084 10085 6134 9268 3683 11308 
10 1480 730 1646 1479 12026 11256 6643 6146 9842 6644 
10 1799 896 1049 1048 9290 4657 9289 9176 4655 4659 
10 792 959 793 1703 4378 4379 3884 8957 10880 9734 
10 1475 1302 388 1301 6129 9218 11400 6130 5613 9220 
10 1136 1139 2044 1910 4932 10351 11443 10732 10350 7846 
10 560 726 1475 725 3683 10085 11308 3681 3685 10939 
10 1139 996 1931 1910 4930 11063 11951 10350 10469 7524 
10 398 1311 1312 256 10156 5643 9281 12188 5638 5642 
10 571 736 1486 570 3714 10193 9876 3215 3713 10480 
10 969 1937 1149 1017 9059 12189 4964 4936 10753 4961 
10 968 1872 1149 969 10840 12067 4991 4411 9058 4964 
10 1775 932 1875 1873 11817 11422 7487 7482 11168 7488 
10 257 1313 1312 399 5645 5646 5641 10993 11686 9282 
10 1808 904 1651 905 10833 9694 7134 9270 4220 9271 
10 1057 1058 905 1809 4686 4684 4682 12190 12191 10616 
10 803 1713 969 1873 10470 11459 4409 11169 7326 9060 
10 653 818 1568 652 3954 9853 9851 3462 3953 10770 
10 1889 981 1888 1730 12075 11275 7374 7373 12076 7369 
10 748 582 747 1497 3749 3747 3751 12192 10830 11386 
10 1729 818 1888 980 11279 11274 7370 10759 4440 11276 
10 481 651 1567 1394 3455 12194 12193 11806 11359 6405 
10 1909 994 1136 995 9949 4923 10730 10731 4487 4922 
10 941 1088 1987 1087 4775 10246 9427 4772 4777 9426 
10 195 1419 339 505 9564 5963 4774 3016 9565 12195 
10 1134 1143 993 2042 4945 4943 4916 10275 11527 10368 
10 1751 994 1908 1909 9783 9784 7431 7433 9949 7435 
10 1925 838 1019 863 12103 4568 12118 12117 4095 4567 
10 1905 762 1747 1904 9987 9989 7421 7423 9887 7419 
10 1925 2047 1019 1006 7855 10324 12118 12196 10325 4569 
10 1832 701 929 700 9188 4528 12139 12159 3610 4570 
10 2065 1212 1213 1019 11117 5186 11013 12197 5414 5257 
10 432 149 148 291 2799 2287 2798 11632 8369 8368 
10 1033 2120 1175 1176 11058 10591 5057 5059 10201 5061 
10 1840 935 768 1679 9969 4306 11630 7226 10689 8758 
10 431 1518 604 1344 8734 9337 3310 10922 6255 9354 
10 838 1925 1019 1006 12103 12118 4568 4513 12196 4569 
10 433 149 292 150 2801 8370 9318 2802 2288 8371 
10 2015 1080 888 1002 10320 4750 12198 12199 4751 4531 
10 1211 1212 2047 1019 5183 11178 10323 5006 5414 10324 
10 1212 2065 2047 1019 11117 7911 11178 5414 12197 10324 
10 1042 1154 1924 1180 4974 12201 12200 5079 5080 11375 
10 940 1987 1844 1986 9425 7681 9664 12202 7682 7677 
10 1761 844 999 1004 10876 4495 12203 10546 4509 4510 
10 618 1533 784 619 11813 10762 3855 3357 11634 3856 
10 946 945 1849 779 4341 10371 10408 4339 4337 10326 
10 1935 930 1140 1156 11363 4934 12204 11849 4987 4988 
10 1207 1914 1164 1013 12136 11950 5165 5164 11579 5020 
10 1194 1961 1061 1193 9305 10562 5124 5126 10563 5122 
10 1368 1543 456 1369 6331 12085 12084 5815 6330 12083 
10 631 1546 632 459 12062 9633 3396 3392 10510 3394 
10 1935 2018 2106 1140 7936 8078 8079 12204 10662 11571 
10 629 794 1543 628 3886 11860 11859 3387 3885 10173 
10 1542 1704 793 628 6817 9457 9760 9761 10172 3883 
10 803 1713 1873 1714 10470 7326 11169 9619 6848 7325 
10 2061 888 1021 1878 9828 4575 9829 7898 12170 12171 
10 1883 976 2032 975 10395 9407 7570 10396 4429 12205 
10 1639 1834 971 806 7211 11218 10330 10111 12206 4415 
10 796 1707 1545 1706 12166 6826 9916 9915 6827 6822 
10 1245 1156 2106 1140 5310 12208 12207 5308 4988 11571 
10 1937 1873 1875 1017 7534 7488 7533 10753 10754 8933 
10 1873 932 1875 1017 11168 11422 7488 10754 4566 8933 
10 794 961 1864 960 4384 11330 11529 4382 4386 12209 
10 1562 646 476 647 10764 3440 9417 10774 3444 3442 
10 873 1029 1781 1028 4598 11217 11216 4596 4600 11939 
10 838 675 1719 828 4014 10757 11888 4093 3984 11886 
10 44 470 45 18 2912 2913 2180 2516 11819 2518 
10 1403 37 489 1402 5916 11795 11111 5917 5912 11823 
10 1573 657 1400 487 11043 12210 6423 11006 3473 11001 
10 1733 656 821 1571 11315 3963 11360 6901 11317 11361 
10 1029 2035 1781 1028 11245 7818 11217 4600 11454 11939 
10 824 659 658 1574 3972 3480 3971 11273 11828 10817 
10 1744 690 1583 553 11035 11923 6936 9413 3578 10312 
10 683 1599 1431 1600 11725 6498 12211 10977 6502 6500 
10 1156 1935 2106 1140 11849 8079 12208 4988 12204 11571 
10 1938 2035 1171 2084 7820 10536 12212 7982 7983 10538 
10 1792 1947 1946 1039 7562 7563 7558 11399 12213 10381 
10 1795 807 1744 862 12123 11034 7099 12029 4086 9571 
10 1773 837 674 1778 12148 4010 10697 7046 12149 10698 
10 838 694 1772 1719 4013 12107 12104 11888 10756 7021 
10 1040 1947 1792 1039 9971 7562 11740 4633 12213 11399 
10 451 167 310 168 2855 8406 12214 2856 2306 8407 
10 1023 1837 849 1922 10386 11789 4579 12153 7494 11599 
10 1837 849 1743 763 11789 11017 7219 10388 4044 10767 
10 1669 1502 1503 753 6713 6215 6712 11490 11106 9038 
10 521 209 1434 520 3062 10298 12037 3063 3058 10299 
10 352 209 1434 521 8215 10298 6006 11911 3062 12037 
10 1432 349 207 350 5999 8224 9114 6000 2499 8222 
10 352 209 351 1434 8215 8218 2501 6006 10298 6005 
10 358 73 1272 359 2575 9918 9919 2579 2577 9929 
10 1045 893 1928 1046 4646 9560 9039 4650 4648 9041 
10 530 761 1607 529 4048 11486 11183 3093 3790 11181 
10 71 356 357 1270 2569 2573 2571 11194 12215 11195 
10 81 224 367 82 8559 9821 2601 2218 8560 2602 
10 851 600 1770 766 4050 8902 11833 4051 3802 11597 
10 1048 1800 1799 895 9174 7111 9176 4654 12165 10802 
10 1047 1183 1184 2066 5092 5096 5094 9617 8753 8755 
10 1467 721 1640 1739 12020 11396 6625 6931 11397 7022 
10 660 825 1576 1575 3975 11197 11433 12144 10093 6433 
10 1947 1984 1946 1039 7900 8148 7563 12213 10574 10381 
10 1652 906 905 736 9630 4223 9269 9626 4221 4219 
10 101 244 386 1300 8455 11988 2660 11075 5606 9332 
10 1047 2063 1800 1046 9616 7907 9171 4653 9622 9172 
10 1808 904 905 1057 10833 4220 9270 10835 4681 4682 
10 1075 1975 1974 1204 10238 7646 12216 5155 10240 11879 
10 1478 728 1477 562 9620 10231 6140 9997 3689 9999 
10 563 728 1478 562 3690 9620 8919 3191 3689 9997 
10 252 108 394 251 8470 2683 10923 2396 8469 11583 
10 1984 1947 1040 1039 7900 9971 9972 10574 12213 4633 
10 1051 2046 1801 1050 11525 7851 11895 4665 11933 11746 
10 1812 908 1655 909 9329 11086 7146 11408 4232 11088 
10 1645 1801 1644 898 7112 7113 6642 12052 11877 12217 
10 1487 572 1314 1488 11155 9410 6165 6170 11301 6169 
10 263 119 1318 262 8492 11906 5659 2407 8491 5660 
10 897 1049 1050 1798 4658 4662 4660 9243 9288 11748 
10 728 1645 1644 898 11928 6642 10232 4197 12052 12217 
10 681 682 854 1598 3544 4059 4060 12218 11781 11210 
10 1641 1742 724 894 6930 12219 9615 8965 9561 4185 
10 1663 917 916 747 11952 4256 10077 10089 4254 4252 
10 852 1903 1746 831 11991 7417 11711 4055 12035 9888 
10 1819 915 1662 916 12220 10122 7167 9643 4253 10078 
10 1663 917 1820 916 11952 9646 7170 10077 4256 9647 
10 852 1903 831 1014 11991 12035 4055 4544 11927 4921 
10 970 1166 2074 1923 5029 9378 9654 9653 11980 7949 
10 132 418 1331 417 2755 10971 11160 2753 2757 11100 
10 940 1987 1986 1087 9425 7682 12202 4770 9426 11700 
10 1020 2018 1140 1151 11390 10662 4935 4967 9978 5009 
10 1979 1231 1079 1147 9848 5248 10497 10944 5249 5031 
10 613 440 612 1527 3337 3335 3339 11010 11016 11012 
10 2068 1025 1932 1780 9854 12155 7923 7922 9749 7511 
10 2068 1025 1780 2064 9854 9749 7922 7924 10071 7910 
10 448 1535 1361 1360 11745 6306 11884 10430 6307 5791 
10 868 1979 1079 1147 10495 10497 5024 4954 10944 5031 
10 443 1355 1356 302 9091 5776 11639 11636 5771 5775 
10 576 577 405 1318 3233 3231 3229 12009 9159 11907 
10 842 1597 1757 1596 11687 6973 9540 9542 6493 6972 
10 1939 877 1032 876 10584 4608 11972 11495 4140 4607 
10 1713 1551 637 802 6844 9276 9275 9398 11265 3910 
10 1090 2129 1990 2127 11436 8188 10716 11863 8227 8182 
10 475 646 476 1389 3439 3440 2932 10519 10991 9125 
10 796 1706 630 795 9915 9344 3891 3893 9343 3889 
10 1089 1144 1090 2127 5082 5324 4783 11270 11637 11863 
10 1267 1194 1193 1961 5481 5126 5480 9307 9305 10563 
10 1731 654 819 1569 12221 3957 8900 6895 9751 9031 
10 1960 1060 1193 1192 10321 5121 10564 11199 5119 5123 
10 1991 1091 944 945 9240 4784 9955 9956 4785 4338 
10 1848 1991 1990 944 7693 7694 7689 8852 9955 8984 
10 1020 1922 2018 1151 11614 7772 11390 4967 11420 9978 
10 789 1859 1699 955 10036 7284 11014 4367 12222 12223 
10 987 1133 1044 1895 4912 4996 4914 8894 8893 8972 
10 1100 1858 2001 1101 10295 7723 10700 4819 10296 9022 
10 631 796 1545 630 3892 9916 11186 3393 3891 9917 
10 1859 1858 1699 955 7285 7280 7284 12222 10297 12223 
10 789 1859 955 956 10036 12222 4367 4369 9736 4371 
10 451 450 623 1363 2857 3367 3368 12224 11119 12225 
10 789 1699 788 955 11014 10699 3872 4367 12223 4366 
10 1973 1073 1824 1825 11572 9382 7639 7638 9381 7186 
10 800 1870 966 967 12226 10192 4400 4402 9118 4404 
10 1856 1697 953 786 7274 11309 11310 12227 11283 4360 
10 1869 965 799 966 11342 4397 11240 12125 4401 4399 
10 1012 1181 1898 1896 5084 12229 12228 8907 8908 7401 
10 1012 1896 1898 1677 8907 7401 12228 10988 7393 7400 
10 750 1667 1666 920 10175 6708 10132 4263 11929 9257 
10 800 1870 799 966 12226 12230 3905 4400 10192 4399 
10 2144 2146 2106 1259 8316 8325 8343 12231 9078 12232 
10 2144 1233 1226 1259 11567 5460 10665 12231 5494 5495 
10 840 1608 1677 1513 11416 6737 10987 11847 6527 6736 
10 1020 1023 1922 1151 4957 12153 11614 4967 4968 11420 
10 699 1002 1796 1899 4504 11068 10569 10431 10471 7493 
10 921 1825 1073 922 9383 9381 4730 4271 8846 4731 
10 1726 814 815 977 9465 3946 11173 9467 4430 4431 
10 1621 1452 707 1451 6570 9213 9214 6571 6064 9547 
10 707 1620 1621 1451 9678 6572 9214 9547 6567 6571 
10 814 1564 1725 1726 11174 6876 9768 9465 6880 6881 
10 1984 935 1981 1117 9968 9167 7673 9980 4866 10666 
10 1984 2083 1117 1981 8046 9205 9980 7673 8045 10666 
10 1117 1084 1981 1242 4867 11807 10666 5297 5243 9775 
10 2054 1168 1162 1253 10406 5355 10146 12111 5364 5361 
10 1999 1236 1098 1099 11557 5334 10935 10257 5335 4813 
10 1907 833 993 1908 9488 4480 10366 7432 10405 10367 
10 563 1478 1304 562 8919 6139 8951 3191 9997 9998 
10 572 1487 738 1488 11155 11356 3719 11301 6170 12053 
10 739 1489 1488 1655 10642 6173 12054 11087 6670 6671 
10 1489 739 1656 1655 10642 11910 6674 6670 11087 6675 
10 1237 1171 2121 2084 5283 10537 10932 8976 10538 8135 
10 748 917 1664 747 4255 11239 11538 3751 4254 11953 
10 1496 1663 747 1497 6695 10089 10997 6197 6694 11386 
10 1999 1209 1236 1099 10462 5285 11557 10257 5174 5335 
10 993 994 1908 834 4484 9784 10367 4479 4483 9786 
10 1203 1971 2109 2086 8717 8171 10056 8708 8011 8208 
10 1907 833 991 993 9488 4473 12233 10366 4480 4481 
10 928 868 929 1831 4980 4529 4292 10501 10496 12140 
10 1771 701 700 531 9187 3610 11487 8889 3608 3607 
10 1997 1097 1998 1208 12234 9912 7715 11545 5173 9914 
10 1858 954 2000 1857 8954 9062 7719 7282 11249 7720 
10 1674 758 927 757 9303 4285 9911 9105 3781 4284 
10 2079 2017 2107 1083 7965 8082 8083 10040 10528 12235 
10 1247 1997 2040 1208 11543 8197 10631 5369 11545 12236 
10 1082 1145 1208 2040 4950 5383 5370 10630 10217 12236 
10 989 1119 1921 2077 4870 9791 11535 11696 9792 7960 
10 778 1689 1527 1688 11107 6772 11011 11306 6773 6768 
10 1214 2008 1215 1109 12237 9974 5195 5190 11344 5193 
10 1233 2118 2018 2106 11385 8122 10661 11568 8203 8078 
10 1214 1108 2007 1109 5188 10114 10115 5190 4843 11984 
10 1951 1187 2067 1186 9538 12238 8123 9144 5107 9146 
10 1245 1260 2146 2117 5505 9076 12239 12240 11569 8324 
10 1699 1858 788 955 7280 8955 10699 12223 10297 4366 
10 1982 2067 1219 1930 7920 12242 12241 7666 7919 12243 
10 1540 1702 626 1541 6811 11184 11675 6326 6810 11185 
10 1359 446 163 447 10646 2841 12004 10354 2845 2843 
10 1359 1533 619 1534 6300 11634 10353 6304 6305 10355 
10 1259 1258 2114 2146 5411 12245 12244 9078 9077 8315 
10 635 462 634 1549 3403 3401 3405 11424 11423 9727 
10 1254 2107 2049 1083 9844 8081 9845 5371 12235 12246 
10 2107 2017 2049 1083 8082 7938 8081 12235 10528 12246 
10 1709 633 1548 799 11237 11676 6831 8672 3900 11672 
10 2144 2118 1255 1233 8331 9922 9923 11567 11385 5380 
10 1225 2112 1255 1226 11505 9921 5441 5232 12247 5461 
10 2008 1867 1109 2007 7746 11983 11344 7747 7742 11984 
10 1233 2118 1151 2018 11385 9977 5259 10661 8122 9978 
10 2131 1995 1094 2038 8196 11008 11009 8279 8193 12248 
10 1439 1409 12 495 6028 12249 9651 9746 9763 2987 
10 1289 1462 1288 548 6092 6093 5573 8826 8827 9210 
10 2131 1135 2038 1094 9472 9471 8279 11009 5395 12248 
10 1135 1163 2038 1094 5015 9470 9471 5395 5327 12248 
10 1960 1267 1193 1961 9802 5480 10564 7604 9307 10563 
10 2004 1212 1211 1105 9657 5183 11533 8803 5181 5179 
10 1306 107 392 250 10107 2678 8911 5624 8467 10091 
10 659 488 658 1574 3478 3476 3480 11828 10815 10817 
10 2008 1214 2007 1109 12237 10115 7747 11344 5190 11984 
10 484 1397 654 1570 9004 9005 3464 11977 6414 11775 
10 1081 2140 2119 2110 10315 8271 11915 10346 8335 8129 
10 2063 1183 1229 1182 9594 5406 11609 11610 5093 5348 
10 1957 1190 1189 1057 8686 5114 10612 10611 5112 5111 
10 842 1016 1757 931 4551 9562 9540 4297 4550 11208 
10 1104 1211 2004 2003 5178 11533 12250 9462 10797 7735 
10 987 1894 1736 986 8892 7387 11193 4462 10287 10670 
10 1080 2015 2014 1002 10320 7937 11413 4751 12199 11706 
10 1738 721 1640 887 11395 11396 7342 9003 4168 11862 
10 952 1856 953 786 10263 11310 4362 4358 12227 4360 
10 948 1995 1094 949 8979 11008 4796 4350 11491 4797 
10 994 1909 1752 995 9949 7434 11143 4487 10731 12251 
10 1157 1920 998 1948 8832 8834 4993 12252 7565 11603 
10 198 11 1422 341 7975 5972 10447 5322 2489 5971 
10 1764 1001 1919 1920 10410 10411 7463 7465 8833 7467 
10 1441 528 524 1611 10409 3088 11769 6536 10214 11513 
10 1201 1969 1200 1141 10282 11994 5146 5255 10178 5428 
10 1925 838 1877 1006 12103 11887 7503 12196 4513 9700 
10 1638 688 1765 699 10492 10491 7023 9102 3605 9320 
10 743 577 742 1492 3734 3732 3736 11093 9158 11098 
10 1940 1786 1033 1785 7540 10416 9515 7541 7072 9516 
10 1148 1211 2047 1006 5375 10323 11576 4958 5005 10325 
10 2004 1211 1104 1105 11533 5178 12250 8803 5179 4831 
10 1137 2013 1931 867 12253 7760 11541 4925 9131 11064 
10 110 396 1309 395 2689 10883 11401 2687 2691 12254 
10 1553 466 1379 1554 11164 12032 6360 6365 11165 6364 
10 1080 2015 888 1116 10320 12198 4750 4864 10798 4863 
10 2101 2008 2102 1215 8056 8060 8061 10302 9974 9976 
10 1172 2058 1173 1030 10868 10489 5052 5048 10867 5050 
10 1243 2087 2086 1116 10486 8014 8706 5303 12255 10799 
10 1597 842 853 680 11687 4058 9507 9508 4023 4057 
10 1161 2087 2088 1169 12256 8017 12257 5039 10488 12258 
10 1841 937 1682 938 10316 12259 7229 8699 4317 12114 
10 1110 1216 2102 1215 5196 8783 9975 5194 5198 9976 
10 1843 1684 940 773 7235 9662 11836 8989 8990 4321 
10 943 776 942 1846 4330 4328 4332 10688 10220 8679 
10 863 1936 1118 1019 12119 12260 4869 4567 12120 5019 
10 2111 2057 1173 2058 8131 10234 9066 8094 7887 10489 
10 2116 1183 2063 2066 8752 9594 8204 8112 8753 7916 
10 1650 904 734 1651 10606 4215 9107 6660 9694 9108 
10 1485 569 735 1484 10580 3710 9629 6161 8816 8818 
10 811 645 810 1560 3932 3930 3934 10558 10559 9996 
10 1018 1181 1152 1898 5085 5286 4971 10787 12229 11768 
10 2134 2085 1224 1255 8299 12261 9197 10751 12262 5440 
10 871 704 870 1618 4120 4118 4122 9576 9574 8769 
10 1199 1157 1948 2056 5317 12252 9085 9084 11411 7881 
10 2052 1115 1160 1252 10573 5002 11266 11263 5350 5351 
10 1830 1078 1829 927 11717 9669 7201 10800 4746 12263 
10 2112 1225 1255 1224 11505 5441 9921 10752 5229 5440 
10 1167 2118 2031 1151 11024 8121 11025 5038 9977 9979 
10 2068 1231 2091 1978 9847 12183 8178 8172 9849 8025 
10 1977 1205 1077 1206 9284 5158 9285 11586 5162 5160 
10 2138 2145 2084 1262 8334 8312 8333 11243 8974 8975 
10 2073 1026 2064 1901 8855 8857 7984 7946 10188 7909 
10 253 110 1309 395 8473 11401 5633 12264 2687 12254 
10 1089 2127 1989 2098 11270 8179 12142 10969 8180 8047 
10 772 1683 1521 1682 8822 6754 8823 12010 6755 6750 
10 1048 1800 895 1047 9174 12165 4654 4656 9171 4652 
10 1680 1797 936 1681 7103 10022 9391 6749 7102 10020 
10 1128 981 1127 2023 4896 4894 4898 11507 12151 9196 
10 772 1682 1521 771 12010 6750 8823 3821 10599 11919 
10 303 160 1356 302 8392 11638 5774 2448 8391 5775 
10 2063 1047 1800 2066 9616 9171 7907 7916 9617 7915 
10 781 1691 947 1851 9357 9943 4343 11974 7260 8831 
10 1994 1163 1094 2038 9459 5327 9461 8194 9470 12248 
10 1997 1854 1855 1096 7711 7273 7710 11544 9722 9724 
10 627 1542 628 455 9759 9761 3384 3380 11257 3382 
10 455 1542 628 1368 11257 9761 3382 9009 6327 10722 
10 2112 2144 1255 1226 8330 9923 9921 12247 10665 5461 
10 2135 1221 2110 1081 10852 10853 8212 10345 5311 10346 
10 2112 2134 1255 2118 8220 10751 9921 8321 8300 9922 
10 2085 1167 1224 1255 10203 5496 12261 12262 5388 5440 
10 679 1595 1427 1596 9260 6486 9262 9740 6490 6488 
10 2085 2118 1167 1255 8234 11024 10203 12262 9922 5388 
10 2116 2036 1184 2066 8111 8775 8754 8112 7933 8755 
10 2085 2134 2118 1255 8299 8300 8234 12262 10751 9922 
10 1245 1233 1140 2106 5309 5258 5308 12207 11568 11571 
10 1185 2067 1219 1186 10644 12242 5470 5104 9146 5471 
10 2069 2037 1912 1158 7928 7824 7927 10096 9314 11843 
10 2067 1187 1219 1186 12238 5344 12242 9146 5107 5471 
10 508 11 198 10 10928 7975 3025 3024 2509 2339 
10 979 1887 2021 980 11714 7780 11057 4441 10457 10456 
10 978 979 1886 1125 4438 11715 10516 4887 4888 10832 
10 1221 2032 2122 2110 9605 8140 8861 10853 8093 8211 
10 818 1729 1730 1568 11279 6893 9852 9853 6888 6892 
10 2076 2123 2067 1266 8147 8144 7956 12265 9624 10645 
10 1962 2052 1261 1195 8003 11267 10382 11805 12266 5446 
10 1223 2134 1126 2020 12267 10791 5221 10195 8089 12101 
10 1262 1172 1171 2084 5450 5049 5449 8975 12268 10538 
10 1188 1181 2096 1152 5444 11482 9659 5445 5286 9661 
10 221 79 1277 364 8554 11393 5536 10839 2593 11388 
10 1740 1594 861 1754 6922 8869 10372 6966 6964 10626 
10 1896 1159 1911 1011 8906 11752 7441 12127 4999 12128 
10 1743 689 849 1615 11468 4042 11017 7043 11471 11600 
10 222 79 1277 221 8555 11393 5535 2365 8554 5536 
10 890 1082 1906 1145 4754 11684 9903 4949 4950 9904 
10 1786 879 878 1626 12269 4146 9739 7070 11509 9475 
10 743 1493 577 1492 8800 11633 3734 11093 6185 9158 
10 1232 1119 1138 2077 5252 4929 5251 10676 9792 11697 
10 732 567 566 1482 3702 3203 3701 9026 9677 9028 
10 1812 1961 1061 1813 7603 10562 9330 7150 7602 9361 
10 89 374 375 1288 2623 2627 2625 11826 11336 9209 
10 374 89 232 1288 2623 8575 8733 11336 11826 5569 
10 1254 2049 1138 1083 9845 11834 5372 5371 12246 4989 
10 2049 1254 1138 2093 9845 5372 11834 8031 9846 11835 
10 385 100 1299 386 2657 12270 11840 2661 2659 9334 
10 1014 807 852 1745 4545 4054 4544 9143 9141 11713 
10 100 385 1299 243 2657 11840 12270 8453 10589 5603 
10 100 244 1299 386 8454 5602 12270 2659 11988 9334 
10 1694 783 1853 1693 11702 11131 7265 6788 10813 7266 
10 1841 937 938 1085 10316 4317 8699 9402 4761 4763 
10 1579 495 1439 525 9764 9746 6440 9639 3077 9641 
10 244 100 1299 243 8454 12270 5602 2388 8453 5603 
10 2081 1254 2107 2120 10198 9844 8284 7981 10200 8304 
10 84 1282 370 227 10012 10011 2610 8565 5550 9952 
10 1254 1232 1138 2093 5382 5251 5372 9846 10029 11835 
10 1804 1053 1803 900 11914 11852 7123 9164 4669 9165 
10 719 549 1633 1464 3662 11229 11228 9235 9237 6606 
10 143 1339 427 286 12015 11225 2783 8358 5723 11221 
10 1951 1982 2067 1187 8124 7920 8123 9538 10224 12238 
10 1982 1953 1187 1952 8071 10427 10224 8163 7580 10545 
10 1876 1949 1114 1120 7568 10927 11037 11577 11565 4874 
10 118 404 262 1317 2713 11909 8490 8986 8985 5656 
10 242 99 384 98 8451 2654 11019 8450 2236 2653 
10 1645 899 1646 1802 12271 11335 6645 7116 11997 7115 
10 879 712 878 1626 4144 4142 4146 11509 9474 9475 
10 908 1654 907 1811 12272 11842 4229 12132 7143 9555 
10 567 1309 1482 1483 8872 6150 9677 8873 6154 6155 
10 1484 1310 568 1483 6157 10859 10906 6158 6153 8875 
10 1254 2120 1175 2093 10200 10591 5454 9846 8301 10030 
10 739 908 1655 738 4228 11086 11087 3724 4227 12055 
10 1058 906 1809 1810 4685 11403 12191 11319 11402 7141 
10 1003 1834 1934 1776 11367 7520 10267 10268 7210 7519 
10 1071 1971 1072 1823 11405 11430 4729 11406 7632 11384 
10 2012 1872 1937 1149 7757 7535 7925 10226 12067 12189 
10 2089 1205 1204 1976 10476 5159 12273 8021 9286 11101 
10 1113 1872 2012 1149 9836 7757 9591 4990 12067 10226 
10 126 411 1325 269 2735 11601 11750 8505 9283 5681 
10 1062 1962 1195 1063 9369 11805 5127 4701 11801 5128 
10 1267 1207 1261 2051 5490 5473 5482 9306 10128 10130 
10 1962 1963 1195 1063 7610 12274 11805 11801 10570 5128 
10 1933 1742 892 1637 7514 10735 12161 7515 6929 10723 
10 1039 1945 1179 2083 10379 9774 5075 10380 7977 8764 
10 1194 1267 1261 2051 5481 5482 5448 9304 9306 10130 
10 1506 591 590 1332 9025 3275 8743 6223 10209 8744 
10 2089 1220 2141 2137 10477 8787 8318 8323 9838 8337 
10 834 1751 833 670 9785 12178 4003 4002 10837 3998 
10 1297 555 1470 383 11916 8722 6113 11917 3166 11061 
10 1251 2145 1237 1220 10080 8788 5497 5346 8786 5493 
10 2145 1251 1237 1262 10080 5497 8788 8974 5503 5452 
10 2131 1082 2039 1135 10628 9180 8298 9472 4919 9181 
10 1528 613 441 614 10533 3338 12275 12276 3342 3340 
10 1722 974 1835 973 10419 9088 7213 11262 4423 9758 
10 1046 2063 1928 2029 9622 7908 9041 9042 8073 8032 
10 4 95 381 1294 2232 2643 2644 12277 8781 8779 
10 1529 442 615 614 12001 3343 10108 11254 3341 3345 
10 2090 1170 1206 2091 12278 5498 11585 8027 10441 10443 
10 1170 2090 1206 1205 12278 11585 5498 5427 12172 5162 
10 858 1838 850 889 11693 11410 4072 4173 11252 4172 
10 2010 2103 1217 2104 8062 9936 12279 8066 8067 9941 
10 1999 1236 2132 1998 11557 11558 8199 7718 9913 8200 
10 1267 1960 1193 1263 9802 10564 5480 5483 12163 5458 
10 1641 895 1800 894 8963 12165 7110 8965 4190 9173 
10 1260 1245 1266 2117 5505 5489 5485 11569 12240 11570 
10 1183 1258 2115 1229 5407 12280 9595 5406 5409 12086 
10 1904 831 1903 992 9886 12035 7420 9598 4477 9596 
10 1995 1994 1094 2038 7706 9461 11008 8193 8194 12248 
10 1993 1166 2072 2074 11798 11737 8050 8276 9378 8210 
10 992 1135 2038 2039 4918 9471 9597 12175 9181 7832 
10 1995 948 1094 1994 8979 4796 11008 7706 8980 9461 
10 1412 497 188 331 8858 2991 8691 5941 8690 5269 
10 2037 1960 2050 1263 7996 7999 7863 12164 12163 12281 
10 1960 1267 2050 1263 9802 9803 7999 12163 5483 12281 
10 1959 1263 2037 1257 12162 12164 7997 11378 5456 9316 
10 1111 2103 1217 2010 10293 9936 5199 11588 8062 12279 
10 1962 1062 1813 1814 9369 9360 7606 7605 12282 7153 
10 1003 1834 1776 806 11367 7210 10268 4505 12206 10383 
10 1720 695 676 765 10373 3588 9885 9884 3800 3801 
10 2015 2061 888 1116 7897 9828 12198 10798 9830 4863 
10 1975 1826 1075 1974 7645 10513 10238 7646 7641 12216 
10 992 1903 2038 1163 9596 7828 9597 5016 9671 9470 
10 1295 382 240 1296 10083 10620 5591 5595 10621 5594 
10 1112 2010 1217 2104 11589 12279 5200 11591 8066 9941 
10 1073 1973 1074 1825 11572 11563 4735 9381 7638 8847 
10 1075 1826 923 1074 10513 12283 4736 4738 8845 4734 
10 1993 1850 947 1092 7699 9942 8830 10009 10007 4790 
10 241 97 383 1296 8448 2650 11920 5593 10622 11062 
10 1453 708 709 1622 11937 3634 10638 6573 8791 11501 
10 1388 22 474 1387 5871 9054 9095 5872 5867 9053 
10 1111 2010 1217 1112 11588 12279 5199 4852 11589 5200 
10 1033 1034 1941 1176 4615 10154 10417 5059 5060 10423 
10 1895 1044 988 1879 8972 4644 10727 7523 8971 10728 
10 785 1695 619 784 9045 11635 3858 3860 10763 3856 
10 63 37 489 64 2554 11795 2969 2199 2555 2970 
10 1091 1144 1146 2129 5325 5008 5326 9714 11437 10329 
10 484 655 485 1398 3466 3467 2959 9170 11548 10909 
10 655 484 1570 1398 3466 11977 8928 11548 9170 6413 
10 1718 859 1741 1833 11135 11104 6926 7209 9993 7208 
10 2090 1205 2141 2089 12172 10475 8267 8024 10476 8318 
10 1073 1973 1824 1972 11572 7639 9382 11573 7640 7635 
10 59 484 485 1398 2955 2959 2957 11647 9170 10909 
10 484 59 32 1398 2955 2545 9169 9170 11647 5901 
10 1229 2028 1132 2027 11608 10904 5240 9479 7803 12092 
10 1409 496 1410 186 9073 9075 5937 12099 2989 11650 
10 1742 1641 1928 894 6930 7499 7500 9561 8965 9179 
10 2116 1258 1183 1184 12284 5407 8752 8754 5408 5096 
10 1260 2116 2146 2117 12285 8317 9076 11569 8115 8324 
10 1986 940 1843 1844 12202 11836 7678 7677 9664 7240 
10 1265 2079 1235 2092 9779 12286 5499 9409 8160 10065 
10 1682 937 771 938 12259 4313 10599 12114 4317 4315 
10 1086 2094 1985 2095 9833 8036 12168 12187 8039 8037 
10 1086 1980 1235 2095 9458 10064 5274 12187 8038 10066 
10 2049 866 1138 1083 12287 4927 11834 12246 4757 4989 
10 1931 1773 867 1877 7509 12288 11064 7510 7338 9132 
10 1606 525 1614 1439 10541 9640 6553 6519 9641 6549 
10 13 329 12 1409 2476 5319 2510 5933 5934 12249 
10 12 1409 1439 13 12249 6028 9651 2510 5933 6021 
10 1640 1738 887 1879 7342 9003 11862 7343 7344 11989 
10 1432 683 1431 1600 10976 12211 6001 6501 10977 6500 
10 2103 2104 2108 1217 8067 8173 8285 9936 9941 9871 
10 178 462 1374 461 2888 8993 8981 2886 2890 8982 
10 329 186 12 1409 5318 2326 5319 5934 12099 12249 
10 1223 2085 1081 1167 12289 12290 5392 5391 10203 5033 
10 186 495 12 1409 2986 2987 2326 12099 9763 12249 
10 1590 505 1591 1419 12291 11926 6475 6471 9565 6473 
10 505 506 1591 1420 3020 12292 11926 11925 11654 6474 
10 1740 1011 861 698 10138 4535 10372 10139 4536 4084 
10 673 1592 1593 1778 9551 6482 12293 12294 7044 7045 
10 1590 505 671 1591 12291 3514 10925 6475 11926 11191 
10 981 1128 982 1889 4896 4897 4447 12075 12177 11076 
10 1893 1892 1131 2027 7386 9589 11153 7798 7799 9481 
10 50 24 23 1389 2528 2158 2527 9124 5873 5874 
10 340 506 196 1420 11861 3019 4765 5966 11654 12072 
10 555 598 1470 383 3295 11059 8722 3166 3294 11061 
10 2112 2144 1226 2113 8330 10665 12247 8101 8293 10344 
10 206 517 348 1431 3049 9544 8281 11726 9673 5996 
10 985 1892 1131 1893 8925 9589 4906 11152 7386 11153 
10 2112 1128 2113 1226 10452 10454 8101 12247 5230 10344 
10 694 1636 1772 1613 12295 7020 12107 10674 6616 7019 
10 2112 1225 1128 1226 11505 5228 10452 12247 5232 5230 
10 255 112 256 1311 8477 8478 2400 5639 10828 5638 
10 1053 1953 1187 1239 11082 10427 5106 5290 10428 5413 
10 1442 675 526 508 10684 3526 10035 10508 3527 3080 
10 1423 11 1442 10 5974 6031 6032 11441 2509 12296 
10 1280 539 540 1453 10690 3123 10593 6065 11936 11995 
10 938 1980 1985 1842 8698 7676 12297 8700 7662 7675 
10 1188 1953 2096 1954 10933 8072 9659 10913 7583 8162 
10 1892 985 1131 984 8925 4906 9589 8927 4456 4905 
10 367 81 366 1279 2601 2599 2603 12045 9347 8675 
10 2003 1210 1250 1103 9463 5341 12180 9464 5176 5340 
10 693 552 1466 380 3582 12013 11946 3579 3158 11071 
10 937 1682 771 1681 12259 10599 4313 10729 6752 10600 
10 719 1634 1464 1633 11302 6610 9235 11228 6611 6606 
10 376 91 234 1290 2629 8579 11248 9230 9251 5575 
10 583 584 1499 749 3254 11913 11627 3752 3753 11628 
10 1232 1264 2124 2093 5486 9199 10677 10029 12298 8152 
10 235 92 1291 377 8581 12017 5578 8807 2632 8806 
10 376 549 377 1290 3148 3149 2633 9230 9252 8808 
10 1236 1143 1134 2132 5279 4945 5278 11558 11528 11455 
10 1608 511 678 691 11846 3532 11438 11439 3571 3572 
10 1308 395 566 394 8746 3199 8748 10653 2688 3198 
10 1753 996 1931 1778 10468 11063 7525 7047 12145 7661 
10 1137 2013 1148 1250 12253 9129 4960 5379 12179 5378 
10 1856 1999 1998 1098 7717 7718 7713 10264 10935 11973 
10 2001 1249 2033 1248 9020 11560 8176 10270 5338 11260 
10 1742 723 1473 724 10734 10810 6928 12219 3679 11312 
10 1233 2144 2106 1259 11567 8343 11568 5494 12231 12232 
10 2146 1245 2106 1259 12239 12207 8325 9078 5504 12232 
10 1298 557 1472 556 11521 10639 6121 11463 3173 11508 
10 2114 2144 1259 2146 8292 12231 12244 8315 8316 9078 
10 919 1071 1822 1070 4724 11407 9258 4722 4726 12299 
10 264 120 1319 263 8494 8819 5662 2408 8493 5663 
10 2114 1258 1259 1227 12245 5411 12244 11350 5500 5501 
10 263 120 405 119 8493 2717 11089 8492 2257 2716 
10 1480 1306 564 1479 6145 8910 12300 6146 6141 9841 
10 1652 736 1486 1653 9626 10193 6661 6666 9632 6665 
10 743 578 577 1493 3735 3236 3734 8800 10961 11633 
10 1194 1062 1061 1961 5125 4698 5124 9305 9371 10562 
10 1502 752 753 1669 9894 3766 11106 6713 11464 11490 
10 2114 1227 1259 2144 11350 5501 12244 8292 10664 12231 
10 1825 1669 922 1668 7184 11465 8846 7185 6714 10633 
10 587 752 1502 586 3762 9894 10425 3263 3761 9895 
10 1058 1958 1810 1809 11133 7593 11319 12191 7594 7141 
10 2142 2101 2102 1215 8296 8061 8342 10308 10302 9976 
10 1150 1982 1152 1239 10223 12301 4970 5276 10225 5277 
10 816 1727 1566 650 11177 6882 11592 3947 11171 11170 
10 1473 723 1472 557 10810 10640 6125 11236 3674 10639 
10 1654 908 907 738 12272 4229 11842 11357 4227 4225 
10 1735 1894 1893 986 7388 7389 7384 10671 10287 10378 
10 1055 902 1054 1805 4675 4673 4677 11070 11074 11085 
10 356 529 357 1270 3089 3090 2573 12215 11180 11195 
10 356 1269 529 1270 9133 11827 3089 12215 5516 11180 
10 529 1443 1607 1270 12044 6523 11181 11180 6036 6522 
10 2113 1128 1129 1226 10454 4901 9072 10344 5230 5231 
10 125 411 1324 410 2734 9291 9397 2732 2736 9293 
10 268 124 410 1323 8502 2731 11532 5674 8966 9377 
10 1324 268 410 1323 5678 11532 9293 5679 5674 9377 
10 594 759 1509 1508 3783 10811 12122 12056 10812 6233 
10 594 1335 593 1508 10542 10544 3284 12056 6228 9034 
10 750 1500 1499 1666 10174 6206 12116 10132 6703 6704 
10 594 1509 1335 1508 12122 6232 10542 12056 6233 6228 
10 1269 1443 529 1270 6037 12044 11827 5516 6036 11180 
10 379 236 93 378 9728 8583 2637 2639 9730 2635 
10 237 1292 380 1293 5580 12303 12302 5584 5585 10005 
10 1339 426 599 1468 10050 3296 11949 6109 10049 11809 
10 358 72 357 1271 2574 2572 2576 10776 10585 10587 
10 2013 1210 1148 1250 10163 5398 9129 12179 5341 5378 
10 428 144 1340 287 2786 11222 10706 12304 8360 5726 
10 1196 1253 2053 1252 5420 12305 12160 5419 5363 11264 
10 2003 2002 1862 1103 7732 7729 7731 9464 8876 8795 
10 565 730 1480 564 3696 12026 11961 3197 3695 12300 
10 605 604 1519 432 3315 9338 11996 3313 3311 9356 
10 393 1306 1307 251 8909 5628 11582 11581 5623 5627 
10 1722 973 1721 810 11262 11705 6869 10911 4418 9995 
10 1115 1253 1252 2053 5362 5363 5350 10305 12305 11264 
10 626 1366 1541 454 12064 6325 11185 3377 11645 11667 
10 541 540 1281 368 3126 10594 9826 3124 3122 10595 
10 541 1454 1281 540 9824 6068 9826 3126 11655 10594 
10 599 1339 1468 1514 11949 6109 11809 8886 6244 6245 
10 1691 781 1692 1851 9357 8895 6782 7260 11974 7259 
10 923 1826 922 1074 12283 8844 4274 4734 8845 4733 
10 965 1709 1868 1869 8671 7310 11159 11342 7314 7315 
10 1529 1691 615 1530 6778 9358 10108 6293 6777 9278 
10 154 297 296 1350 8380 2442 8379 9527 5756 5757 
10 1465 552 551 1292 12306 3159 11036 6101 11269 11268 
10 380 1292 237 379 12303 5580 12302 2642 9729 11728 
10 791 1540 625 1701 10031 11674 3876 10032 6807 9687 
10 1691 781 615 1530 9357 3846 9358 6777 9393 9278 
10 948 1852 1692 1851 8978 7263 8896 11201 7264 7259 
10 441 1353 300 157 9649 5765 12307 2825 11964 8386 
10 552 380 379 1292 3158 2642 3157 11269 12303 9729 
10 1542 1704 1703 793 6817 6818 6813 9760 9457 9734 
10 995 1753 1910 1752 10466 7437 10467 12251 6963 7436 
10 1353 440 157 441 8922 2823 11964 9649 2827 2825 
10 2002 2013 2033 1250 8034 7901 8033 9178 12179 12308 
10 1148 2013 1877 2047 9129 7761 9130 11576 7856 7854 
10 1711 634 635 800 9725 3405 11077 11078 3903 3904 
10 1887 979 1728 817 11714 12309 7367 10758 4437 12310 
10 1706 1544 1545 630 6823 6338 6822 9344 9342 9917 
10 1293 380 1466 1292 10005 11071 6104 5585 12303 6105 
10 981 980 1127 2022 4444 4893 4894 12152 10458 10793 
10 1385 20 46 19 5861 2520 11992 5862 2154 2519 
10 380 552 1466 1292 3158 12013 11071 12303 11269 6105 
10 393 565 394 1307 3195 3196 2685 11582 11963 11584 
10 2052 1195 1252 1261 12266 5418 11263 11267 5446 5447 
10 1700 1860 790 1701 7287 12311 9717 6809 7286 9688 
10 1377 1552 465 1378 6358 12007 9336 5842 6357 11659 
10 1445 359 358 1272 9928 2579 12043 6042 9929 9919 
10 359 1446 1273 1272 9867 6044 9795 9929 6045 5525 
10 1377 464 181 465 8749 2895 8751 9336 2899 2897 
10 1883 814 1725 1884 9766 9768 7354 7359 9466 7358 
10 1724 1883 813 1725 7355 9767 9905 6878 7354 9769 
10 1883 814 1884 976 9766 9466 7359 10395 4428 9408 
10 1713 803 1552 1714 10470 9618 6843 6848 9619 6847 
10 1721 1722 810 1560 6869 10911 9995 6864 6868 9996 
10 1018 1874 1152 997 10786 11767 4971 4564 11790 4969 
10 1284 1458 544 1285 6081 11053 9611 5561 6080 11814 
10 1253 1115 1162 2053 5362 5013 5361 12305 10305 10147 
10 1124 1885 2020 1125 8961 7778 9599 4889 10831 10196 
10 573 1315 401 1314 10393 11324 3219 11300 5652 9412 
10 2021 1126 2020 1125 11056 12101 7782 11732 4892 10196 
10 37 63 1402 36 2554 11824 5912 2171 2553 5913 
10 659 1575 489 1402 10095 12312 3479 11822 6429 11823 
10 213 69 355 1268 8537 2566 10438 5509 9970 12313 
10 37 63 489 1402 2554 2969 11795 5912 11824 11823 
10 136 422 137 280 2767 2768 2274 8526 12314 8527 
10 365 79 364 1277 2595 2593 2597 9206 11393 11388 
10 6 140 69 212 2278 2565 2205 8533 12315 8536 
10 63 488 489 1402 2967 2971 2969 11824 10003 11823 
10 424 596 425 1444 3288 3289 2778 10826 11623 10827 
10 1315 573 1488 1314 10393 10394 6168 5652 11300 6169 
10 140 355 1268 425 3070 12313 12316 2777 3165 12317 
10 1715 805 855 641 10181 4066 10680 12089 3917 4065 
10 1716 809 1559 1721 8947 8995 6853 6866 8730 6865 
10 969 1872 1149 1937 9058 12067 4964 9059 7535 12189 
10 1555 468 467 1381 10459 2908 12318 6366 9096 12040 
10 652 481 1395 482 3457 11803 10772 3458 2950 10773 
10 1731 820 819 654 8898 3961 8900 12221 3959 3957 
10 666 1746 665 1585 12096 12319 3501 11773 6941 12320 
10 2010 1870 966 1869 7751 10192 11590 7752 7318 12125 
10 665 1746 666 831 12319 12096 3501 3993 9888 3992 
10 2134 2023 1127 2022 8217 9196 9198 8207 7788 10793 
10 690 1584 665 852 11898 11986 3569 4053 11712 4052 
10 1446 1445 359 532 6046 9928 9867 9445 10314 3097 
10 501 1416 335 192 9900 5953 11230 3003 10023 5069 
10 1603 686 1602 846 10319 12321 6511 9798 4033 12322 
10 515 1429 680 1428 10144 10143 3536 10804 5992 10805 
10 584 1326 412 1325 11617 11333 3252 12323 5685 11751 
10 1429 1597 680 1428 6492 9508 10143 5992 6491 10805 
10 24 1390 1389 476 5877 5878 5873 9123 9416 9125 
10 477 1390 476 647 11499 9416 2935 3443 12324 3442 
10 1562 1390 1563 647 6389 6393 6394 10774 12324 9908 
10 1596 679 680 1428 9740 3538 11522 6489 9579 10805 
10 679 514 680 1428 3534 3537 3538 9579 9580 10805 
10 215 1271 1270 357 5518 5519 5514 10586 10587 11195 
10 1573 1401 658 487 6422 10816 10795 11006 11005 3475 
10 358 72 216 73 2574 8543 9920 2575 2209 8544 
10 1326 584 1499 1325 11617 11913 6201 5685 12323 6202 
10 1003 1024 2071 1142 4584 10696 11369 4940 4941 11370 
10 420 134 278 135 2761 8522 11305 2762 2272 8523 
10 224 81 367 1279 8559 2601 9821 5541 9347 12045 
10 2138 2078 2071 1142 8249 7964 8248 9770 9772 11370 
10 356 71 214 1270 2569 8540 9959 12215 11194 5515 
10 1251 2138 2071 1142 10079 8248 11931 5347 9770 11370 
10 270 126 1325 269 8506 11750 5680 2414 8505 5681 
10 871 872 1897 2073 4125 9983 9981 10289 12325 7945 
10 367 1280 540 368 9822 10593 3121 2606 10106 3122 
10 1282 542 370 1283 12326 3128 10011 5555 12327 9953 
10 1028 2035 1897 2073 11454 7819 11940 11458 7944 7945 
10 225 1280 368 1281 5544 10106 11389 5548 5549 10595 
10 94 380 95 1293 2640 2641 2231 11031 10005 8780 
10 871 1026 2073 1901 4590 8855 10289 10288 10188 7946 
10 92 235 1291 236 8581 5578 12017 8582 2379 5577 
10 715 882 1629 881 4153 9608 10553 4151 4155 11743 
10 378 1291 1292 236 12018 5582 9731 9730 5577 5581 
10 1036 1788 1943 1789 8968 7550 9787 12328 7081 7549 
10 1788 1036 881 1789 8968 4620 8969 7081 12328 12186 
10 559 558 1300 387 3179 9331 10900 3177 3175 11841 
10 1024 1251 2071 1142 5345 11931 10696 4941 5347 11370 
10 229 230 1285 372 2373 5559 5560 8696 8705 8697 
10 545 1460 1286 1459 9221 6087 9222 8715 6088 6083 
10 1803 1951 1052 1952 7573 9539 11854 7576 7577 11855 
10 1298 557 556 385 11521 3173 11463 10588 3171 3169 
10 1473 1299 557 1472 6124 10206 11236 6125 6120 10639 
10 1814 1658 911 1657 7151 9947 12031 7152 6681 11394 
10 1640 722 1472 1637 11518 10641 6624 6626 10725 6619 
10 2045 1240 1956 1189 10915 9017 7991 9882 5368 10614 
10 137 422 423 1336 2768 2772 2770 11371 12329 11372 
10 422 137 280 1336 2768 8527 12314 12329 11371 5714 
10 1348 607 608 1522 12060 3324 10715 6267 9585 9587 
10 904 1808 1651 1807 10833 7134 9694 11474 7135 7130 
10 915 1067 916 1819 4712 4714 4253 12220 9642 9643 
10 606 607 434 1347 3321 3319 3317 11770 11778 10255 
10 607 606 1521 1347 3321 11918 11299 11778 11770 6264 
10 122 266 265 1321 8498 2410 8497 10249 5668 5669 
10 1066 1817 1818 914 10450 7165 11643 4709 9674 11640 
10 1768 1515 1516 601 7007 6251 7006 8880 10921 10059 
10 1522 607 1521 1347 9585 11299 6269 6268 11778 6264 
10 420 1333 591 592 10262 9024 3274 3276 12091 3278 
10 2079 2059 1153 2095 7966 9193 10041 8159 8291 12080 
10 542 543 370 1283 3132 3130 3128 12327 9986 9953 
10 1357 444 303 161 8881 8882 5778 11718 2835 8393 
10 1355 443 159 302 9091 2831 9092 5771 11636 8390 
10 607 772 773 1522 3820 3824 3822 9585 8824 9586 
10 1533 446 1358 1359 12330 10647 6301 6300 10646 5785 
10 1695 785 619 1534 9045 3858 11635 6789 11553 10355 
10 1456 543 542 1283 9984 3132 12079 6074 9986 12327 
10 1522 1684 773 608 6757 8990 9586 9587 10634 3823 
10 1738 988 887 1879 10860 4573 9003 7344 10728 11989 
10 1540 1366 1541 626 6321 6325 6326 11675 12064 11185 
10 618 446 445 1358 3353 2842 3352 11792 10647 11783 
10 1843 940 1986 939 11836 12202 7678 9200 4323 11701 
10 453 1540 626 1366 11673 11675 3376 11719 6321 12064 
10 809 644 1559 1721 3927 8994 8995 8730 9945 6865 
10 618 1533 446 1358 11813 12330 3353 11792 6301 10647 
10 638 855 639 1715 4067 4064 3418 9755 10680 12331 
10 618 783 1532 617 3853 11346 11791 3354 3852 9388 
10 1544 629 1369 457 11832 12332 6334 11161 3386 11163 
10 1137 1249 2033 1250 5373 11560 11559 5379 5342 12308 
10 629 1543 1369 456 11859 6330 12332 3385 12085 12083 
10 193 503 337 194 3010 11289 4985 2334 3009 4984 
10 1236 2136 2132 1998 12137 8270 11558 9913 8231 8200 
10 629 1544 1369 1543 11832 6334 12332 11859 6335 6330 
10 902 1649 1648 1805 11313 6654 12333 11074 7124 7125 
10 644 809 810 1721 3927 3931 3929 9945 8730 9995 
10 141 1338 381 142 11022 12042 2645 2280 10068 2780 
10 141 1338 142 284 11022 10068 2280 8354 5721 8355 
10 1588 502 669 1417 11757 3509 9532 6465 10788 9533 
10 796 1707 962 963 12166 12167 4388 4390 11889 4392 
10 497 1412 690 1583 8858 8860 3568 10310 6450 11923 
10 1271 530 1270 357 11523 11182 5519 10587 3091 11195 
10 1379 325 326 183 5844 2471 5843 11123 8437 8438 
10 962 1108 1866 1107 4838 11374 11903 4836 4840 11904 
10 1370 457 316 174 11162 11288 5817 11965 2874 8419 
10 756 590 755 1505 3773 3771 3775 9128 8745 9112 
10 704 703 870 1618 3619 4117 4118 9574 8767 8769 
10 631 1707 1545 796 12061 6826 11186 3892 12166 9916 
10 748 1498 582 1497 12138 9295 3749 12192 6200 10830 
10 1456 712 1625 711 9883 9473 6582 9810 3643 9204 
10 630 1370 1545 458 11839 6337 9917 3389 12334 11187 
10 1282 1456 542 1283 6075 12079 12326 5555 6074 12327 
10 1707 631 1545 1546 12061 11186 6826 6825 12062 6341 
10 5 4 141 1294 2505 2279 8351 5586 12277 11023 
10 94 237 380 1293 8585 12302 2640 11031 5584 10005 
10 1717 1716 643 1558 6857 10526 10748 6855 6854 10527 
10 1634 851 720 1635 12158 4472 10889 6614 12019 10890 
10 599 851 1635 856 4049 12019 11811 4079 4101 11030 
10 1558 642 472 643 10749 3428 11818 10527 3432 3430 
10 932 1717 805 1775 12335 9442 4300 11817 7053 10183 
10 1009 930 1935 1156 4527 11363 12336 4986 4987 11849 
10 4 381 141 1294 2644 2645 2279 12277 8779 11023 
10 809 1716 1559 643 8947 6853 8995 3926 10526 8996 
10 1293 381 1294 1338 8778 8779 5588 6531 12042 5722 
10 574 1489 1315 573 10643 6172 10166 3224 10392 10393 
10 250 106 392 1305 8466 2677 10091 5620 12337 10120 
10 52 26 1391 478 2532 5879 12338 2936 11735 11816 
10 912 1660 1659 1816 10027 6687 10028 11095 7157 7158 
10 26 52 1391 25 2532 12338 5879 2160 2531 5880 
10 651 481 1567 652 3455 12193 12194 3459 3457 10979 
10 106 250 249 1305 8466 2394 8465 12337 5620 5621 
10 492 67 40 1406 2979 2561 12339 8915 12340 5925 
10 2017 2079 1153 1083 7965 10041 10529 10528 10040 5018 
10 2059 2079 1153 2017 7966 10041 9193 7890 7965 10529 
10 574 575 403 1316 3227 3225 3223 10167 9684 9685 
10 575 574 1490 1316 3227 8809 8810 9684 10167 6175 
10 193 503 502 1417 3010 3011 3006 10693 10789 10788 
10 1588 1416 502 1417 6464 10024 11757 6465 5958 10788 
10 424 1337 1440 282 9522 6035 10824 10992 5716 6023 
10 1838 850 1833 1741 11410 11102 7501 7222 11103 7208 
10 231 88 374 373 8573 2622 8731 9966 2620 2624 
10 144 428 1340 427 2786 10706 11222 2784 2788 11223 
10 670 503 1418 1589 3512 9067 9500 10838 10790 6468 
10 1590 670 1418 1589 9499 9500 6470 6472 10838 6468 
10 117 402 403 1316 2708 2712 2710 10892 10145 9685 
10 522 521 1435 687 3066 11978 12028 3557 3558 11856 
10 499 1585 665 1413 12341 12320 3497 9422 6455 12342 
10 462 1374 634 1549 8993 11055 3401 11423 6349 9727 
10 783 1694 1853 950 11702 7265 11131 4351 11703 9961 
10 1760 1022 999 843 10575 4576 12073 10577 4577 4496 
10 1762 1601 1761 845 6987 6985 6989 11562 11829 11881 
10 1162 2053 2054 1253 10147 7875 10146 5361 12305 12111 
10 457 629 1369 456 3386 12332 11163 2875 3385 12083 
10 376 1289 375 548 9231 10841 2630 3146 8826 3145 
10 1585 1584 665 1413 6457 11986 12320 6455 6453 12342 
10 639 466 1554 467 3415 11165 11167 3416 2905 12343 
10 499 498 1413 665 2999 9424 9422 3497 3498 12342 
10 19 46 1385 471 2519 11992 5862 10743 2916 10895 
10 1380 184 467 326 12039 2904 9492 5847 8439 9493 
10 338 1419 504 1418 5962 9566 11924 5960 5964 9069 
10 1416 336 502 1417 5954 10025 10024 5958 5956 10788 
10 1430 517 205 516 9672 3050 11680 11681 3051 3046 
10 692 1595 861 1594 9261 11799 4082 9520 6487 8869 
10 498 1584 1413 665 11897 6453 9424 3498 11986 12342 
10 613 1689 1527 778 10532 6772 11010 3838 11107 11011 
10 501 1586 1415 1587 11338 6459 11231 9901 6463 6461 
10 140 6 283 212 2278 8443 8444 12315 8533 5508 
10 1174 2057 1173 2126 11451 10234 5055 8702 8174 8703 
10 1440 140 1268 425 11692 12316 6033 10825 2777 12317 
10 360 1447 533 1274 11761 10506 3100 9667 6047 11864 
10 1031 2057 1783 2058 10052 7883 10053 10490 7887 7885 
10 1009 1935 1930 1156 12336 7528 11497 4986 11849 11851 
10 1927 869 702 1767 9861 4114 10721 7495 9569 9184 
10 1783 1782 1030 2058 7063 12058 11593 7885 7886 10867 
10 82 83 225 368 2219 8562 8561 2604 2605 11389 
10 1938 1030 1029 1782 10865 4603 11244 7536 12058 11246 
10 884 1632 885 718 12002 10271 4164 4160 9373 4162 
10 370 228 85 227 9951 8567 2611 9952 2371 8566 
10 402 117 260 1316 2708 8487 9115 10145 10892 5654 
10 11 8 1423 9 8133 11440 5974 2490 2507 5975 
10 94 237 379 380 8585 11728 2638 2640 12302 2642 
10 426 1468 1338 693 10049 6110 10048 3586 11947 10067 
10 599 1339 1514 427 11949 6244 8886 3297 11225 11224 
10 990 1768 1794 1900 11670 7329 11960 9692 7407 7492 
10 1515 600 601 766 8901 3303 10921 11596 3802 3803 
10 732 1482 1481 1648 9026 6152 9027 10228 6649 6650 
10 732 731 1648 1481 3703 10229 10228 9027 9927 6650 
10 1309 567 1308 395 8872 8747 5634 12254 3201 8746 
10 1480 730 1479 564 12026 9842 6146 12300 3695 9841 
10 732 902 1648 901 4209 12333 10228 4207 4211 10227 
10 901 902 1648 1805 4211 12333 10227 11081 11074 7125 
10 272 128 414 1327 8510 2743 10205 5686 12344 9122 
10 1320 578 1493 1319 9655 10961 6183 5667 9656 6184 
10 128 272 271 1327 8510 2416 8509 12344 5686 5687 
10 417 589 1330 588 3267 10682 8837 3265 3269 8848 
10 2054 1168 1197 1241 10406 5424 11612 11478 5385 5359 
10 1665 919 918 749 10871 4262 9190 9191 4260 4258 
10 1962 1062 1814 1063 9369 12282 7605 11801 4701 10863 
10 594 422 1335 1336 3282 10543 10542 12345 12329 5715 
10 199 342 1424 9 8350 5977 12346 8642 2491 5976 
10 1330 417 588 416 8837 3265 8848 8849 2754 3264 
10 1959 1263 1257 1192 12162 5456 11378 10062 5457 5417 
10 1817 913 1065 1816 12347 4706 12348 7162 11096 9933 
10 1504 754 1671 1670 9964 11554 6719 6715 8842 6720 
10 902 732 1648 1649 4209 10228 12333 11313 12349 6654 
10 1685 609 774 1523 11957 3826 12050 6760 12350 12098 
10 1435 352 210 353 6008 8214 12077 6009 2502 8206 
10 1684 774 608 1523 10967 3825 10634 6756 12098 10635 
10 618 1694 1532 783 11812 6787 11791 3853 11702 11346 
10 1856 1696 1697 786 7275 6797 7274 12227 9437 11283 
10 1669 923 753 1670 11489 4272 11490 6717 8841 8843 
10 440 1352 612 1527 8924 11027 3335 11016 6283 11012 
10 521 352 1435 1434 11911 6008 11978 12037 6006 6010 
10 858 1755 804 696 11345 10341 4081 4073 10340 3915 
10 1579 1718 597 1741 6858 11709 11542 6925 6926 10602 
10 629 1705 1544 1543 10397 6819 11832 11859 6820 6335 
10 455 171 314 172 2867 8414 9010 2868 2310 8415 
10 2034 891 2062 1833 9719 11294 7905 7817 11141 7903 
10 628 629 456 1543 3387 3385 3383 10173 11859 12085 
10 859 597 1741 850 4074 10602 11104 4075 4046 11103 
10 1715 641 855 639 12089 4065 10680 12331 3668 4064 
10 1689 1848 945 1849 7250 9954 10370 7254 7255 10371 
10 184 467 326 183 2904 9493 8439 2322 2903 8438 
10 1383 17 469 1382 5856 10099 10524 5857 5853 10461 
10 1109 1868 1110 964 11343 11327 4846 4842 10966 4844 
10 1554 1555 467 1380 6368 12318 12343 6363 6367 9492 
10 1555 554 468 469 10581 3162 10459 10460 3163 3085 
10 436 1348 1349 295 10714 5755 10278 10313 5750 5754 
10 353 210 1435 522 8206 12077 6009 11848 3065 12028 
10 1991 1848 1849 945 7693 7255 7692 9956 9954 10371 
10 210 521 1435 522 3061 11978 12077 3065 3066 12028 
10 1537 1698 788 1699 6798 8953 11662 6802 6803 10699 
10 1275 534 1274 361 8681 11866 5531 11045 3103 11865 
10 1139 1931 2033 1910 11951 7815 10352 10350 7524 7814 
10 485 1399 1398 1571 10908 5905 10909 11354 6416 6417 
10 964 1867 1109 1868 11524 11983 4842 10966 7312 11343 
10 825 660 1576 826 3975 11433 11197 3979 3977 12143 
10 98 242 1297 384 8450 5596 8738 2653 11019 11021 
10 967 1113 1871 2011 4853 9837 9056 9119 10039 7754 
10 2010 1870 2011 966 7751 7755 7756 11590 10192 9217 
10 668 501 502 1416 3506 3008 3505 9898 9900 10024 
10 1718 664 1769 1511 10044 9604 7052 6859 9602 7009 
10 762 830 1747 667 3991 9990 9989 3792 3990 12071 
10 2120 1940 1175 2126 8132 11292 10591 8143 8141 10592 
10 963 1707 1867 1708 11889 7308 11550 11891 6830 7307 
10 1760 844 1600 843 12351 10877 6982 10577 4029 11766 
10 1112 2010 2104 2011 11589 8066 11591 9216 7756 8065 
10 1132 985 1893 986 4908 11152 10377 4909 4459 10378 
10 1446 1617 702 1767 6559 10719 9185 7003 7004 9184 
10 426 1339 285 1338 10050 5724 11671 10048 5725 5720 
10 1604 847 848 687 11134 4041 10561 11858 4036 4040 
10 363 1276 362 535 9752 12184 2591 3107 9753 3106 
10 1447 533 1274 1448 10506 11864 6047 6052 10507 6051 
10 704 534 1448 1449 3617 10854 10855 10711 8680 6055 
10 77 363 1276 362 2589 9752 11146 2587 2591 12184 
10 360 532 533 1446 3098 3102 3100 9868 9445 9444 
10 985 822 1734 823 4454 11026 10074 4455 3970 10075 
10 88 231 87 373 8573 8572 2224 2620 9966 2619 
10 1460 715 1629 1459 10782 10553 6594 6088 12352 6595 
10 2107 1254 2093 2120 9844 9846 8084 8304 10200 8301 
10 1724 813 812 647 9905 3940 10775 9907 3938 3936 
10 2032 1122 1882 975 9528 9512 7812 12205 4878 9453 
10 1298 557 385 1299 11521 3171 10588 5604 10206 11840 
10 387 101 386 1300 2662 2660 2664 11841 11075 9332 
10 1474 558 559 724 10901 3179 9324 9325 3677 3678 
10 598 764 1470 1578 3796 8723 11059 8912 9497 6627 
10 1894 2028 1893 1132 7801 7802 7389 10376 10904 10377 
10 2063 2028 1229 2115 8165 11608 11609 8166 8167 12086 
10 1227 2026 1228 1130 11348 10348 5238 5234 10347 5236 
10 737 1487 1653 1654 9873 6664 10194 11355 6668 6669 
10 904 734 1651 735 4215 9108 9694 4216 3712 9670 
10 255 111 1310 254 8476 10869 5635 2399 8475 5636 
10 1485 1311 569 1484 6160 10157 10580 6161 6156 8816 
10 915 1661 1662 745 11469 6693 10122 4248 10499 10500 
10 407 122 265 1321 2723 8497 10897 10250 10249 5669 
10 747 582 581 1497 3747 3248 3746 11386 10830 11387 
10 2026 1892 2027 1131 7795 7799 7800 10349 9589 9481 
10 583 748 1498 582 3750 12138 9294 3251 3749 9295 
10 543 1456 712 1457 9984 9883 3642 9985 6079 10160 
10 1276 220 362 1275 5533 12353 12184 5534 5529 8684 
10 1627 879 1787 1626 9476 11325 7073 6590 11509 7074 
10 1940 2120 1175 1033 8132 10591 11292 9515 11058 5057 
10 1231 2091 1978 1206 12183 8025 9849 5250 10443 11519 
10 1748 1586 1747 667 6946 6944 6948 11203 11366 12071 
10 1465 550 551 720 11456 3156 11036 10888 3665 3666 
10 879 1786 1787 1626 12269 7075 11325 11509 7070 7074 
10 1793 990 1794 1900 11462 11960 7096 7564 9692 7492 
10 934 935 768 1840 4308 4306 4305 9683 9969 11630 
10 1348 294 295 152 5751 2440 5750 11825 8375 8376 
10 378 550 551 1291 3152 3156 3154 12018 11457 12354 
10 550 1465 551 1291 11456 11036 3156 11457 6102 12354 
10 851 599 1635 1514 4049 11811 12019 8885 8886 6738 
10 943 1089 1090 1989 4779 4783 4781 11935 12142 10718 
10 1689 613 779 778 10532 3840 10327 11107 3838 3842 
10 780 1690 614 779 10000 12355 3843 3845 10001 3841 
10 622 1698 787 788 8938 11785 3865 3867 8953 3869 
10 451 1364 1363 1538 11126 5800 12224 12356 6315 6316 
10 609 1523 1349 436 12350 6270 10277 3325 12357 10278 
10 1962 1194 2051 1961 9370 9304 8000 7607 9305 8001 
10 1772 1636 860 1926 7020 12358 12097 7529 7490 9709 
10 860 1636 1772 694 12358 7020 12097 4077 12295 12107 
10 1018 1874 997 1612 10786 11790 4564 10336 7332 8867 
10 851 720 1635 856 4472 10890 12019 4101 4089 11030 
10 1925 2065 1019 2047 7912 12197 12118 7855 7911 10324 
10 1551 464 1377 637 10885 8749 6354 9276 3409 9335 
10 609 1524 1349 1523 11661 6274 10277 12350 6275 6270 
10 693 1466 1468 1338 11946 6532 11947 10067 6533 6110 
10 1863 959 1862 1703 10881 11641 7297 7296 10880 7292 
10 811 646 645 1561 3933 3441 3932 10556 10765 10557 
10 1882 1724 975 1723 7351 10986 9453 7352 6875 9454 
10 1170 2090 1205 2141 12278 12172 5427 10092 8267 10475 
10 972 1881 1937 1876 8727 7888 11710 12359 7350 8108 
10 972 1937 1017 1149 11710 10753 4554 4962 12189 4961 
10 4 5 95 1294 2505 8534 2232 12277 5586 8781 
10 1359 447 306 1360 10354 12360 5783 5788 10369 5787 
10 825 1737 1736 988 11198 6914 11685 4463 10726 10905 
10 103 389 104 247 2668 2669 2241 8460 10060 8461 
10 391 563 392 1305 3189 3190 2679 12361 8920 10120 
10 992 1903 1014 831 9596 11927 4920 4477 12035 4921 
10 1584 1412 498 1413 6452 8859 11897 6453 5946 9424 
10 191 334 1415 500 5098 5950 11232 3000 10554 11340 
10 1751 994 835 834 9783 4482 11142 9785 4483 4006 
10 1898 1181 1152 2096 12229 5286 11768 8068 11482 9661 
10 1953 1188 1239 1054 10933 5367 10428 11083 5108 5291 
10 1469 1423 527 1438 6111 12100 10845 6112 6029 10846 
10 1150 1982 1187 1219 10223 10224 5343 5205 12241 5344 
10 1012 1740 1677 698 10137 6923 10988 4538 10139 11418 
10 564 1306 392 1305 8910 8911 3192 10119 5625 10120 
10 1436 353 1435 522 6011 6009 6013 9350 11848 12028 
10 688 523 676 1605 3560 3529 3596 9449 9450 11041 
10 888 2015 1899 1878 12198 7765 12362 12170 7766 7405 
10 991 1907 993 2042 12233 10366 4481 12363 7839 10368 
10 164 447 306 163 2844 12360 8399 2302 2843 8398 
10 211 210 353 522 2353 8206 8205 3064 3065 11848 
10 1656 740 1490 1657 10211 8811 6673 6678 10212 6677 
10 998 1920 1796 1948 8834 7489 10568 11603 7565 7566 
10 1795 862 1769 1836 12029 9572 7098 7216 11691 7215 
10 1141 1969 1948 2014 10178 8109 11492 10180 8110 7764 
10 1034 1786 879 878 10153 12269 4614 4613 9739 4146 
10 1060 908 907 1811 4691 4229 4690 11594 12132 9555 
10 1535 620 1360 448 11744 12364 6307 11745 3359 10430 
10 541 369 1282 542 3125 10010 11510 3129 3127 12326 
10 2093 1264 2126 1175 12298 8701 8258 10030 5487 10592 
10 1257 2037 1164 1263 9316 9315 5443 5456 12164 5472 
10 1180 2069 1257 1191 10097 10098 5402 5389 10551 5416 
10 723 1473 1472 1637 10810 6125 10640 10724 6618 6619 
10 562 561 1477 1303 3188 10808 9999 10222 10809 6136 
10 800 1871 801 1711 9055 9057 3908 11078 7320 11079 
10 620 1534 1360 447 10365 6303 12364 3358 10356 10369 
10 1955 1056 1055 1807 9016 4680 10303 7584 9934 9890 
10 1647 901 900 731 10747 4208 9163 9368 4206 4204 
10 1311 255 397 1310 5639 10829 10158 5640 5635 10858 
10 1317 575 1490 1316 9000 8810 6174 5658 9684 6175 
10 251 252 1307 394 2396 5626 5627 11583 10923 11584 
10 1665 919 1666 1822 10871 9256 6705 7176 9258 7175 
10 118 261 403 1317 8489 10891 2711 8986 5657 8987 
10 2015 888 1899 1002 12198 12362 7765 12199 4531 10471 
10 1071 1823 920 1822 11406 11943 4725 11407 7180 9259 
10 1969 1069 1821 1970 12365 11091 7626 7631 9857 7630 
10 1157 1001 1920 1165 4994 8833 8832 5028 5026 10389 
10 1069 1969 1201 1970 12365 10282 5144 9857 7631 9856 
10 1502 587 1503 753 10425 12034 6215 11106 3764 9038 
10 620 1535 1360 1534 11744 6307 12364 10365 6308 6303 
10 447 164 306 1360 2844 8399 12360 10369 10429 5787 
10 1940 1174 1175 2126 11291 5058 11292 8141 8702 10592 
10 1084 1797 1981 1983 11896 7664 11807 12182 7669 7670 
10 631 1546 1371 1545 12062 6340 12366 11186 6341 6336 
10 520 1434 685 1433 10299 9154 3551 12367 6007 9156 
10 829 1639 1921 971 10112 7468 11534 4414 10330 11220 
10 1009 1150 1219 1930 4966 5205 5206 11497 12368 12243 
10 1993 1166 1092 1093 11798 5170 10009 8828 5314 4795 
10 1519 1344 1345 432 6259 5743 6258 9356 9355 9327 
10 2074 1993 1092 1992 8276 10009 9312 8278 7700 9428 
10 1143 991 993 2042 4944 4481 4943 11527 12363 10368 
10 952 1696 1856 786 9438 7275 10263 4358 9437 12227 
10 1093 1993 947 1092 8828 8830 4793 4795 10009 4790 
10 1359 446 447 619 10646 2845 10354 10353 3355 3356 
10 1353 440 299 157 8922 8923 5766 11964 2823 8385 
10 2004 1212 2047 1211 9657 11178 8192 11533 5183 10323 
10 1869 965 2009 1868 11342 9079 7748 7315 11159 7749 
10 1867 2008 1109 1868 7746 11344 11983 7312 7745 11343 
10 1709 798 965 1868 8670 4396 8671 7310 10964 11159 
10 1104 2003 1862 1103 9462 7731 10882 4828 9464 8795 
10 957 2002 1102 1103 8877 9177 4821 4823 8876 4825 
10 175 458 317 174 2877 12369 8421 2313 2876 8420 
10 624 451 623 1538 3370 3368 3372 12094 12356 11721 
10 959 1704 793 1703 10879 9457 4379 10880 6818 9734 
10 458 175 317 1371 2877 8421 12369 10434 10432 5820 
10 998 2014 1948 1796 11602 7764 11603 10568 7762 7566 
10 653 1730 819 1569 9850 9030 3956 9420 6891 9031 
10 1381 184 327 328 10421 8440 5850 5849 8441 2473 
10 153 436 1349 295 2811 10278 10292 8377 10313 5754 
10 2024 982 1890 1129 12174 10520 7789 9070 4899 10522 
10 2026 1130 2025 1891 10347 9806 7797 7796 9807 7792 
10 1348 436 152 295 10714 2810 11825 5750 10313 8376 
10 2144 1233 1255 1226 11567 5380 9923 10665 5460 5461 
10 2067 1266 1185 1219 10645 5474 10644 12242 5475 5470 
10 1584 1746 1585 665 6940 6941 6457 11986 12319 12320 
10 2024 2025 1129 1890 7794 9071 9070 7789 7793 10522 
10 345 202 1427 514 8327 9136 5985 11695 3041 9581 
10 853 1597 681 1598 9507 9509 4056 11209 6496 12218 
10 2052 1962 1261 2051 8003 10382 11267 7869 8000 10130 
10 1760 1599 1759 843 6981 6979 6983 10577 11724 10578 
10 1962 1062 1195 1194 9369 5127 11805 9370 5125 5129 
10 1408 1606 1439 525 6518 6519 6020 9650 10541 9641 
10 1432 684 518 683 10974 3549 9050 10976 3550 3545 
10 1918 1168 1162 2054 9232 5355 10572 7874 10406 10146 
10 1177 2081 1943 1942 9832 7969 9788 10422 7970 7551 
10 1150 1982 1219 1930 10223 12241 5205 12368 7666 12243 
10 1004 1115 1917 1162 4860 10306 10548 5012 5013 10148 
10 1905 890 1748 830 11520 10362 7422 9988 4175 11660 
10 1566 651 1567 1728 11358 12194 6406 6886 11776 6885 
10 510 199 1424 9 3029 12346 10402 11286 8642 5976 
10 1553 638 639 1715 9504 3418 11166 6850 9755 12331 
10 2046 2123 1950 1185 8145 8146 7852 11932 9625 11934 
10 2076 1245 2106 2117 12370 12207 8080 8260 12240 8259 
10 541 1282 1455 542 11510 6071 9825 3129 12326 11488 
10 1784 1031 1783 876 10051 10053 7066 11494 4605 11815 
10 2046 1051 1185 1050 11525 5101 11932 11933 4665 5100 
10 2084 1256 1172 2111 12371 5399 12268 8096 9065 12372 
10 1834 1003 1142 971 11367 4940 11368 11218 4507 4939 
10 2123 1238 1950 1185 9623 10549 8146 9625 5288 11934 
10 1801 2046 1950 1050 7851 7852 7571 11746 11933 11747 
10 1211 2013 2047 2003 10162 7856 10323 10797 8119 8120 
10 1211 2013 2003 1210 10162 8119 10797 5180 10163 9463 
10 684 1601 685 845 11707 11140 3553 4031 11829 4030 
10 561 562 1477 727 3188 9999 10808 3686 3687 11080 
10 904 1056 1807 903 4679 9934 11474 4217 4678 9892 
10 1056 904 1807 1808 4679 11474 9934 10834 10833 7135 
10 437 1350 296 1349 9526 5757 9525 10276 5758 5753 
10 686 1434 1603 1602 10318 6509 10319 12321 6507 6511 
10 1106 2004 2099 2005 8802 8191 9498 8804 7738 8052 
10 1742 893 723 724 9559 4182 10734 12219 4183 3679 
10 116 402 1315 401 2707 9116 8959 2705 2709 11324 
10 906 1810 1059 907 11402 9558 4687 4226 9557 4688 
10 908 1654 1655 738 12272 6672 11086 4227 11357 12055 
10 1914 1913 1164 1013 7449 9638 11950 11579 11578 5020 
10 1212 1106 2099 1213 5182 9498 10708 5186 5184 9487 
10 73 217 1272 359 8545 5520 9918 2577 9827 9929 
10 415 130 273 1329 2747 8513 11838 10472 12373 5693 
10 752 921 922 1668 4267 4271 4269 11284 10632 10633 
10 1284 1458 1457 544 6081 6082 6077 9611 11053 12374 
10 1071 1970 1822 1070 12375 7629 11407 4726 9858 12299 
10 1823 1972 1072 1824 7636 11431 11384 7183 7635 9385 
10 587 1502 1503 1329 10425 6215 12034 10473 6210 6214 
10 2026 2114 1228 2115 8102 12106 10348 8106 8107 11575 
10 1773 828 1877 1719 12105 9699 7338 7034 11886 7339 
10 637 1377 1552 465 9335 6358 9277 3410 9336 12007 
10 1938 1030 1782 2058 10865 12058 7536 7889 10867 7886 
10 99 242 384 1298 8451 11019 2654 10590 5600 11020 
10 734 1650 1484 1483 9107 6655 8817 10667 6656 6158 
10 565 393 564 1306 3195 3193 3197 11962 8909 8910 
10 2079 2107 1230 1083 8083 12376 10042 10040 12235 5246 
10 785 620 619 1534 3859 3360 3858 11553 10365 10355 
10 360 74 218 75 2580 8547 9666 2581 2211 8548 
10 446 1533 619 1359 12330 11634 3355 10646 6300 10353 
10 1696 620 785 1534 11883 3859 9043 6793 10365 11553 
10 1688 1847 777 944 7247 9008 11048 8854 8853 4333 
10 1985 1087 1086 939 11698 4771 12168 11699 4769 4767 
10 1143 2136 1208 1145 11526 12135 5397 4951 10216 5383 
10 1595 679 865 1596 9260 4103 11379 6490 9740 11381 
10 519 684 518 1432 3548 3549 3057 9113 10974 9050 
10 952 1097 1098 1855 4806 4810 4808 10265 12377 10266 
10 1191 1059 1959 1192 5116 9742 11377 5120 5118 10062 
10 963 1108 1866 962 4839 11374 11549 4392 4838 11903 
10 1550 635 636 801 10821 3408 10823 10842 3906 3907 
10 1708 963 797 964 11891 4391 10819 10965 4395 4393 
10 185 1 328 16 8352 2474 8353 12134 2150 5852 
10 2069 2037 1158 1257 7928 9314 10096 10098 9316 5401 
10 1190 1154 1191 2075 5437 5390 5117 8687 9379 8689 
10 1253 1196 2053 1197 5420 12160 12305 5421 5135 12378 
10 800 1871 1711 1870 9055 7320 11078 12226 7321 7316 
10 1561 1388 645 1560 6387 9094 10557 6388 6383 10559 
10 1180 1154 2075 1191 5080 9379 12379 5389 5390 8689 
10 2069 1924 2075 1180 7926 7951 7952 10097 11375 12379 
10 1227 2026 1130 2025 11348 10347 5234 11349 7797 9806 
10 1188 2096 2080 1955 9659 8074 11484 12380 8087 7989 
10 1137 2013 2033 1931 12253 7901 11559 11541 7760 7815 
10 11 8 10 1423 8133 2340 2509 5974 11440 11441 
10 697 1469 1610 689 10843 6534 11444 3600 11449 11905 
10 1196 1964 2053 1197 10565 8004 12160 5135 10455 12378 
10 2013 1137 1148 867 12253 4960 9129 9131 4925 4959 
10 1898 1181 2096 2080 12229 11482 8068 7967 11483 8074 
10 1896 1181 1898 2080 8908 12229 7401 7968 11483 7967 
10 846 1762 845 1602 9820 11562 4035 12322 6988 12381 
10 1916 1115 999 1160 10304 4861 11760 11446 5002 5003 
10 846 686 1602 685 4033 12321 12322 4034 3556 9155 
10 1022 1915 999 1160 12074 11758 4576 5004 11759 5003 
10 1245 2076 1266 2117 12370 12265 5489 12240 8260 11570 
10 650 1566 480 1393 11170 11066 3452 10655 6402 10649 
10 1370 457 174 458 11162 2874 11965 12334 2878 2876 
10 1188 1240 1055 1955 5366 5292 5109 12380 9018 10303 
10 1042 1911 1754 1924 12382 7440 10624 12200 7481 7478 
10 1715 641 639 1554 12089 3668 12331 6849 10952 11167 
10 1204 2089 1974 2088 12273 8019 11879 12383 8020 8015 
10 1031 875 1030 1783 4604 4602 4606 10053 10015 11593 
10 457 1370 630 458 11162 11839 3388 2878 12334 3389 
10 874 1781 1621 873 11215 7056 8792 4131 11216 9872 
10 879 1627 713 1626 9476 9478 4145 11509 6590 10161 
10 1171 1027 1237 2121 5281 5282 5283 10537 11979 10932 
10 1027 2125 2121 2073 10481 8155 11979 10482 8153 8137 
10 75 360 361 1274 2581 2585 2583 12384 9667 11865 
10 1040 1984 1039 1117 9972 10574 4633 4995 9980 5077 
10 1566 650 1565 1393 11170 10654 6403 6402 10655 6398 
10 1078 1830 1978 1079 11717 7653 11421 4978 10503 10504 
10 2054 1253 2053 1197 12111 12305 7875 11612 5421 12378 
10 1190 1957 1189 2075 8686 10612 5114 8687 7993 9380 
10 208 519 207 350 3055 3056 2350 8221 10358 8222 
10 2019 2032 1123 2110 7776 8948 8949 8092 8093 10898 
10 2068 1234 2091 1231 9855 10442 8178 9847 5266 12183 
10 1071 1971 1970 1202 11405 7634 12375 5148 12385 11665 
10 1216 2103 2143 2108 9935 8287 8782 9937 8285 8286 
10 1961 1062 1061 1813 9371 4698 10562 7602 9360 9361 
10 501 191 1415 500 3004 11232 11231 3005 3000 11340 
10 1070 919 918 1822 4722 4262 4721 12299 9258 12386 
10 1971 1203 1072 1972 8717 5151 11430 7637 8709 11431 
10 2122 1246 2143 2108 8863 8864 8332 8139 9870 8286 
10 1155 1221 1246 2143 5312 5214 5429 8784 8862 8864 
10 1964 2054 2053 1197 8164 7875 8004 10455 11612 12378 
10 1797 1084 936 1085 11896 4759 10022 11129 4762 4760 
10 1570 1731 1569 654 6894 6895 6415 11775 12221 9751 
10 767 1678 1900 934 9859 7406 9860 4304 10973 9693 
10 1511 664 1582 496 9602 9603 6448 9074 3493 11649 
10 1680 770 936 769 12124 4310 9391 9392 3815 4309 
10 1242 1084 1981 1983 5243 11807 9775 9776 12182 7670 
10 1980 1841 938 1085 7663 8699 8698 9401 9402 4763 
10 138 424 139 282 2773 2774 2276 8530 10992 8531 
10 2140 2085 1081 2119 8262 12290 10315 8271 8272 11915 
10 490 65 1404 491 2973 12387 11112 2977 2975 10286 
10 65 39 1404 491 2558 5918 12387 2975 10284 10286 
10 1997 2136 2040 1208 8228 8229 8197 11545 12135 12236 
10 1695 785 951 784 9045 4355 12388 10763 3860 4354 
10 2006 1865 1866 1107 7740 7306 7739 9484 11644 11904 
10 798 1709 1708 1868 8670 6833 10820 10964 7310 7311 
10 39 65 1404 38 2558 12387 5918 2173 2557 5919 
10 65 490 1404 38 2973 11112 12387 2557 11271 5919 
10 833 1749 669 1750 9489 12082 3999 9490 6954 11922 
10 1863 1704 1864 960 7295 7299 7300 11154 9456 12209 
10 1280 224 225 82 5545 2368 5544 9823 8560 8561 
10 714 880 1627 713 4148 9477 9880 3649 4147 9478 
10 1265 2092 1242 2097 9409 10534 5467 8760 8044 8773 
10 743 1493 1659 1660 8800 6682 10026 8801 6686 6687 
10 673 672 1753 836 3522 9548 9549 4007 4008 12147 
10 902 1806 1055 903 11073 9891 4675 4214 9893 4676 
10 1034 1786 1787 879 10153 7075 10155 4614 12269 11325 
10 2103 1216 2143 2102 9935 8782 8287 8064 8783 8322 
10 820 1731 1570 654 8898 6894 11774 3959 12221 11775 
10 2114 1227 2113 2025 11350 10343 8104 8103 11349 8099 
10 1221 1222 2110 1081 5217 10899 10853 5311 5492 10346 
10 1223 2134 2020 2119 12267 8089 10195 11277 8130 8127 
10 1729 652 817 1567 10978 3951 10760 6889 10979 12389 
10 1728 1729 817 1567 6890 10760 12310 6885 6889 12389 
10 1773 837 867 828 12148 4110 12288 12105 4090 4109 
10 1139 1137 2033 1931 4933 11559 10352 11951 11541 7815 
10 1876 1722 1835 973 7335 7213 7337 12390 11262 9758 
10 1423 8 527 9 11440 3081 12100 5975 2507 11287 
10 866 1880 2049 1902 8710 7860 12287 8711 7415 7859 
10 1625 877 1785 1624 9202 10016 7067 6584 11546 7068 
10 688 848 1604 1765 4039 10561 10887 10491 9322 6996 
10 2108 1218 1120 1246 9869 5280 12173 9870 5365 5320 
10 1218 1949 2104 2108 10926 8149 9592 9869 8086 8173 
10 1977 1078 1206 1077 9668 5161 11586 9285 4747 5160 
10 743 742 1659 1492 3736 10478 10026 11093 11098 6683 
10 544 543 713 1457 3135 3644 3645 12374 9985 9613 
10 1432 519 350 207 9113 10358 6000 9114 3056 8222 
10 598 555 1470 764 3295 8722 11059 3796 3797 8723 
10 1513 510 677 678 10400 3530 11749 10401 3533 3599 
10 1784 877 1624 1785 10583 11546 7064 7069 10016 7068 
10 2057 1174 1939 2126 11451 11450 7884 8174 8702 8142 
10 2114 1258 2115 2146 12245 12280 8107 8315 9077 8314 
10 2116 1258 2115 1183 12284 12280 8226 8752 5407 9595 
10 1641 1474 724 1742 6630 9325 9615 6930 6927 12219 
10 519 1432 350 1433 9113 6000 10358 10357 6004 6002 
10 492 1405 1406 40 10660 5926 8915 12339 5921 5925 
10 1405 492 1406 1578 10660 8915 5926 6438 8914 6437 
10 1738 988 1879 1737 10860 10728 7344 6917 10726 7521 
10 1048 1800 1047 2066 9174 9171 4656 9175 7915 9617 
10 2059 2017 1153 1010 7890 10529 9193 9194 10530 4973 
10 67 41 1406 493 2562 5924 12340 2981 10780 12391 
10 67 41 40 1406 2562 2175 2561 12340 5924 5925 
10 1062 1962 1813 1961 9369 7606 9360 9371 7607 7602 
10 742 1658 1659 1492 9948 6684 10478 11098 6679 6683 
10 1001 847 1764 1000 4500 9812 10410 4501 4497 10404 
10 684 1601 844 1600 11707 10875 4027 10975 6505 10877 
10 2076 1156 1266 1219 11850 5476 12265 12392 5207 5475 
10 2090 1170 2091 2141 12278 10441 8027 8267 10092 8266 
10 1826 1669 923 922 7188 11489 12283 8844 11465 4274 
10 1975 2089 1204 1976 8018 12273 10240 7649 8021 11101 
10 1671 1828 1827 925 7194 7195 7190 11587 9537 12121 
10 1973 1073 1074 1169 11572 4735 11563 10487 5153 5154 
10 1121 974 1835 1882 4875 9088 9087 9510 9451 7353 
10 624 1539 625 452 9716 9689 3375 3371 11298 3373 
10 2016 1246 2108 1120 9568 9870 8085 11566 5320 12173 
10 669 668 1749 832 3510 12081 12082 3995 3996 11730 
10 1366 453 312 170 11719 9153 5805 11259 2862 8411 
10 1590 1751 834 670 6956 9785 10924 9499 10837 4002 
10 1590 1751 670 1589 6956 10837 9499 6472 6955 10838 
10 1352 439 1351 298 10695 9404 5764 5763 10703 5759 
10 2041 1907 991 2042 7837 12233 10342 7841 7839 12363 
10 1891 983 2025 1890 9809 9808 7792 7380 10521 7793 
10 772 939 1843 1842 4318 9200 9201 10692 10691 7237 
10 343 201 1426 344 8344 12126 5981 2493 8340 5982 
10 835 836 2147 672 4009 12393 11921 4004 4008 11427 
10 1204 2088 1220 2089 12383 12394 5315 12273 8020 10477 
10 976 1122 2032 975 4879 9528 9407 4429 4878 12205 
10 343 512 1426 201 10985 11970 5981 8344 3034 12126 
10 2002 2003 1250 1103 7732 12180 9178 8876 9464 5340 
10 2002 2013 1250 2003 8034 12179 9178 7732 8119 12180 
10 2067 2076 1266 1219 7956 12265 10645 12242 12392 5475 
10 1760 844 1761 1600 12351 10876 6986 6982 10877 6984 
10 1275 219 361 1274 5530 11044 11045 5531 5526 11865 
10 930 1935 1140 2018 11363 12204 4934 11392 7936 10662 
10 244 101 386 100 8455 2660 11988 8454 2238 2659 
10 384 1467 1297 555 10920 6108 11021 3167 10623 11916 
10 1471 598 1470 1578 11435 11059 6119 6548 8912 6627 
10 1504 1671 755 1505 6719 9127 9111 6221 6718 9112 
10 75 219 218 1274 8549 2362 8548 12384 5526 5527 
10 1199 1968 1948 1200 12395 8168 9085 5143 11415 11493 
10 998 2014 1796 1002 11602 7762 10568 4561 11706 11068 
10 213 70 214 356 8538 8539 2357 11409 2568 9959 
10 1269 356 214 1270 9133 9959 5511 5516 12215 5515 
10 926 1078 1829 1077 4745 9669 10237 4743 4747 9433 
10 1673 926 927 1829 10236 4286 10801 7196 10237 12263 
10 360 75 218 1274 2581 8548 9666 9667 12384 5527 
10 695 528 806 1611 3591 3919 3920 10374 10214 11540 
10 2084 1256 2111 2138 12371 9065 8096 8333 11242 8319 
10 1078 926 1829 927 4745 10237 9669 4746 4286 12263 
10 851 886 1770 1634 4523 11234 11833 12158 11233 7097 
10 145 428 1341 287 2787 10280 10517 8361 12304 5730 
10 426 693 599 1468 3586 3592 3296 10049 11947 11809 
10 1078 1977 1206 1978 9668 11586 5161 11421 7655 11519 
10 528 1639 806 1611 10110 10111 3919 10214 6622 11540 
10 389 104 247 1303 2669 8461 10060 10061 11290 5615 
10 857 1003 1776 806 4506 10268 9713 4085 4505 10383 
10 389 103 1302 247 2668 10141 9264 10060 8460 5611 
10 561 562 390 1303 3188 3186 3184 10809 10222 11280 
10 115 400 1314 258 2702 9411 10618 8483 10870 5648 
10 573 572 738 1488 3221 3719 3720 10394 11301 12053 
10 739 1489 573 1488 10642 10392 3722 12054 6173 10394 
10 1009 1156 1930 1219 4986 11851 11497 5206 5207 12243 
10 2087 1161 1116 1169 12256 5011 12255 10488 5039 5040 
10 1449 534 1448 1275 8680 10854 6055 6054 8681 6050 
10 739 573 738 1488 3722 3720 3724 12054 10394 12053 
10 76 219 75 361 8550 8549 2212 2584 11044 2583 
10 219 75 361 1274 8549 2583 11044 5526 12384 11865 
10 1665 1498 1499 749 6701 6203 6700 9191 11626 11628 
10 1156 2076 1930 1219 11850 7955 11851 5207 12392 12243 
10 2091 1977 1978 1206 8026 7655 8025 10443 11586 11519 
10 30 57 31 1396 2541 2542 2165 5895 10185 5894 
10 1220 1205 1204 2089 5425 5159 5315 10477 10476 12273 
10 1161 2105 2087 1116 9743 8288 12256 5011 9831 12255 
10 759 928 929 1675 4288 4292 4290 9013 10502 9014 
10 595 594 1336 423 3287 12345 11625 3285 3283 11372 
10 1337 281 423 1336 5717 9545 9524 5718 5713 11372 
10 1080 1243 2086 1116 5352 8706 10055 4864 5303 10799 
10 708 875 1622 874 4132 10014 8791 4130 4134 8793 
10 1826 1825 1074 1974 7189 8847 8845 7641 7642 11564 
10 875 1782 1622 874 11868 7058 10014 4134 9543 8793 
10 886 1634 1633 1794 11233 6611 9365 9363 7094 7095 
10 835 1590 1591 1752 11190 6475 11192 11144 6958 6959 
10 886 719 1633 1634 4165 11228 9365 11233 11302 6611 
10 866 989 1902 1138 4557 10104 8711 4927 4928 11733 
10 447 1359 306 163 10354 5783 12360 2843 12004 8398 
10 1232 1264 2093 1175 5486 12298 10029 5455 5487 10030 
10 617 618 445 1532 3354 3352 3350 9388 11791 9389 
10 1531 1693 617 1532 6784 10814 11137 6299 6783 9388 
10 1172 1938 1171 2084 10866 12212 5049 12268 7982 10538 
10 495 664 1511 496 3494 9602 9762 2990 3493 9074 
10 640 1606 494 525 9695 9696 3423 3422 10541 3075 
10 985 1735 1893 986 10072 7384 11152 4459 10671 10378 
10 1707 796 797 963 12166 3896 11890 11889 4390 4391 
10 545 715 1460 1459 3650 10782 9221 8715 12352 6088 
10 715 1628 1629 1459 11741 6596 10553 12352 6591 6595 
10 461 177 1373 320 2885 8973 10936 8983 8426 5825 
10 2017 866 1880 2049 11872 8710 7770 7938 12287 7860 
10 2095 1086 1041 1153 12187 5041 11874 12080 5042 4972 
10 1555 1383 469 1382 6376 10524 10460 6369 5857 10461 
10 545 715 1459 714 3650 12352 8715 3648 3652 8719 
10 1643 727 1477 1644 10610 11080 6634 6639 12059 6638 
10 727 728 1477 1644 3691 10231 11080 12059 10232 6638 
10 715 1628 1459 714 11741 6591 12352 3652 9879 8719 
10 2076 2067 1930 1219 7956 7919 7955 12392 12242 12243 
10 1561 811 812 1723 10556 3937 10741 6871 10990 10742 
10 738 1654 1655 1488 11357 6672 12055 12053 6667 6671 
10 576 404 1317 1318 3228 8985 12024 12009 11908 5661 
10 1060 908 1811 1812 4691 12132 11594 9328 9329 7147 
10 1575 1403 489 1402 6428 11111 12312 6429 5917 11823 
10 1575 659 824 1574 10095 3972 10094 6430 11828 11273 
10 1654 908 1655 1811 12272 11086 6672 7143 12132 7142 
10 1297 241 383 1296 5597 11920 11917 5598 5593 11062 
10 1750 670 669 833 10836 3513 11922 9490 3998 3999 
10 1265 2081 1230 2079 9778 10494 5478 9779 8283 10042 
10 749 750 1499 1666 3757 12116 11628 10872 10132 6704 
10 1971 1071 1970 1822 11405 12375 7634 7633 11407 7629 
10 1823 1666 920 1822 7179 9257 11943 7180 7175 9259 
10 666 1586 1414 500 11771 6458 11772 3499 11339 10555 
10 1470 1297 383 1296 6113 11917 11061 6114 5598 11062 
10 1254 2081 2107 1230 10198 8284 9844 5393 10494 12376 
10 510 199 511 1424 3029 3032 3033 10402 12346 11445 
10 611 1525 1351 438 11150 6276 9405 3331 8937 9406 
10 155 297 1351 298 8381 5760 9814 8382 2443 5759 
10 1955 1806 1055 1954 7585 9891 10303 7586 7581 10912 
10 694 675 526 1613 3595 3526 3584 10674 10686 10675 
10 354 211 353 1436 8346 8205 2503 6012 10851 6011 
10 1435 686 521 1434 10317 3554 11978 6010 10318 12037 
10 439 155 1351 298 2819 9814 9404 10703 8382 5759 
10 1018 1612 839 1677 10336 8946 4563 10989 7026 8945 
10 839 1513 677 840 8944 11749 4015 4019 11847 4018 
10 840 1018 839 1677 4565 4563 4019 10987 10989 8945 
10 565 1480 1481 1307 11961 6149 12022 11963 6144 6148 
10 2081 2079 2107 1230 8283 8083 8284 10494 10042 12376 
10 1157 1199 1948 1141 5317 9085 12252 4992 5316 11492 
10 1454 1280 1281 540 6069 5549 6068 11655 10593 10594 
10 1458 544 713 1457 11053 3645 9612 6082 12374 9613 
10 1687 611 776 1525 11955 3832 10218 6766 11150 11762 
10 1685 941 1844 940 12049 12169 7238 9663 4326 9664 
10 543 371 1283 1284 3131 9958 9986 9609 9610 5558 
10 2079 1235 1153 1230 12286 5275 10041 10042 5356 5245 
10 1051 2046 1185 1186 11525 11932 5101 5102 9145 5104 
10 1491 576 1318 1492 11466 12009 6177 6182 11097 6181 
10 153 437 296 1349 2813 9525 8378 10292 10276 5753 
10 1126 2134 2021 2020 10791 8088 11056 12101 8089 7782 
10 1687 611 1526 777 11955 11149 6765 11039 3834 11631 
10 406 1319 405 577 8820 8821 2721 3232 9157 3231 
10 2079 1265 1235 1230 9779 5499 12286 10042 5478 5356 
10 1526 1688 777 612 6769 11048 11631 11028 11307 3835 
10 1687 1526 1688 777 6765 6769 6770 11039 11631 11048 
10 1309 253 395 1308 5633 12264 12254 5634 5629 8746 
10 451 1363 623 1538 12224 12225 3368 12356 6316 11721 
10 110 253 109 395 8473 8472 2247 2687 12264 2686 
10 1700 624 789 1538 9715 3871 10038 6805 12094 11015 
10 745 1661 1494 744 10499 6689 11629 3742 10663 8726 
10 404 1317 1318 262 8985 5661 11908 11909 5656 5660 
10 1317 261 403 1316 5657 10891 8987 5658 5653 9685 
10 577 576 1492 1318 3233 11097 9158 9159 12009 6181 
10 789 1699 623 788 11014 11720 3870 3872 10699 3868 
10 624 1700 1539 1538 9715 6804 9716 12094 6805 6320 
10 741 1491 1657 1658 8916 6676 8918 9946 6680 6681 
10 1331 589 1330 417 10980 10682 5700 11100 3267 8837 
10 1075 1975 1076 1827 10238 10239 4741 10515 7644 10242 
10 1542 455 1367 1368 11257 9395 6328 6327 9009 5812 
10 1541 1366 1367 454 6325 5809 6324 11667 11645 9396 
10 1541 627 454 1367 11666 3379 11667 6324 9394 9396 
10 752 921 1668 751 4267 10632 11284 3763 4266 12396 
10 415 1328 414 586 12000 9346 2748 3259 9345 3258 
10 697 1610 1612 864 11444 6544 11605 4098 9816 8865 
10 1469 1581 663 509 6552 10245 11448 11447 10337 3491 
10 1181 1012 1898 1018 5084 12228 12229 5085 4977 10787 
10 171 455 314 1367 2867 9010 8414 11648 9395 5807 
10 1671 924 1827 1670 11555 10514 7190 6720 11556 7191 
10 455 171 454 1367 2867 2865 2869 9395 11648 9396 
10 1524 437 1349 1350 10878 10276 6274 6273 9526 5758 
10 1685 609 775 774 11957 3828 11958 12050 3826 3830 
10 98 384 1297 383 2653 11021 8738 2651 2655 11917 
10 1364 451 310 168 11126 12214 5799 12397 2856 8407 
10 613 1689 1528 1527 10532 6771 10533 11010 6772 6287 
10 312 169 1365 311 8410 12398 5801 2457 8409 5802 
10 800 1710 634 799 12399 9726 3903 3905 11241 3901 
10 1869 1870 799 1710 7318 12230 11240 7313 7317 11241 
10 2142 1015 2060 2139 11047 9708 8274 8273 11189 8252 
10 1709 1548 1710 799 6831 6835 6836 8672 11672 11241 
10 160 444 303 1356 2834 8882 8392 11638 8883 5774 
10 1876 1722 973 1721 7335 11262 12390 7336 6869 11705 
10 972 1876 973 1721 12359 12390 4420 8728 7336 11705 
10 1705 794 795 961 10399 3890 10398 11530 4384 4385 
10 972 1881 1876 1721 8727 7350 12359 8728 7347 7336 
10 1370 1544 630 1545 6333 9342 11839 6337 6338 9917 
10 1940 1033 1175 1032 9515 5057 11292 11293 4612 5056 
10 470 1383 1384 18 10525 5860 12400 11819 5855 5859 
10 462 1375 179 321 8991 10190 2889 8992 5832 8429 
10 131 274 130 416 8515 8514 2268 2750 11382 2749 
10 892 722 1879 1637 4179 12402 12401 10723 10725 7395 
10 655 820 1732 1570 3960 10331 8930 8928 11774 6898 
10 818 1729 1568 652 11279 6888 9853 3953 10978 10770 
10 323 180 1376 322 8432 10981 5834 2468 8431 5835 
10 651 1728 817 1567 11776 12310 3950 12194 6885 12389 
10 587 588 1329 1503 3266 8850 10473 12034 9036 6214 
10 96 239 1295 240 8445 5592 10081 8446 2384 5591 
10 640 528 1512 829 3424 10213 9697 3986 3987 9705 
10 820 655 1732 821 3960 8930 10331 3964 3962 10333 
10 68 1295 42 1407 10082 5719 2564 10627 5930 5927 
10 1108 2006 2007 1866 10113 7744 10114 11374 7739 7743 
10 785 952 1855 951 4357 10265 9044 4355 4359 9723 
10 1610 1469 1615 689 6534 6555 6556 11905 11449 11471 
10 1779 1610 1615 841 7050 6556 7049 9817 9818 12038 
10 1606 1408 494 525 6518 9099 9696 10541 9650 3075 
10 897 728 1644 898 4195 10232 9878 4199 4197 12217 
10 1425 512 691 1594 11032 3570 11845 6483 9521 8871 
10 687 1603 1435 1604 11067 6510 11856 11858 6514 6512 
10 841 1610 1615 689 9818 6556 12038 4022 11905 11471 
10 519 520 685 1433 3060 3551 3552 10357 12367 9156 
10 208 351 520 1433 8219 10300 3059 10359 6003 12367 
10 209 208 351 520 2351 8219 8218 3058 3059 10300 
10 1965 2054 1241 2055 8070 11478 11412 8007 7878 11479 
10 527 1469 689 509 10845 11449 3563 3082 11447 3564 
10 935 1839 1679 1840 9168 7224 10689 9969 7228 7226 
10 1966 1198 2055 1241 10437 10448 8006 12109 5295 11479 
10 528 1639 1512 829 10110 6623 10213 3987 10112 9705 
10 566 565 1307 394 3200 11963 12403 3198 3196 11584 
10 1746 666 762 1747 12096 3793 9889 6945 12070 9989 
10 599 600 427 1514 3300 3298 3297 8886 8884 11224 
10 252 1308 1307 394 5630 5631 5626 10923 10653 11584 
10 1452 708 1622 1621 9212 8791 6574 6570 8790 6575 
10 459 176 318 1372 2880 8423 10465 10511 11892 5823 
10 1454 710 709 540 11656 3637 10636 11655 3635 3633 
10 703 704 1448 1618 3619 10855 10505 8767 9574 6562 
10 1564 648 1391 478 11779 10170 6396 11780 3446 11816 
10 1686 776 610 1525 10219 3831 10136 6762 11762 8936 
10 1920 848 1001 998 12150 4499 8833 8834 4494 4502 
10 1687 776 1686 1525 10218 10219 6767 6766 11762 6762 
10 1198 1966 2056 1967 10437 8009 10449 10937 7622 8008 
10 1753 672 2147 836 9548 11427 11426 12147 4008 12393 
10 1482 732 1649 1648 9026 12349 6653 6649 10228 6654 
10 1480 565 564 1306 11961 3197 12300 6145 11962 8910 
10 1401 488 1402 1574 10002 10003 5914 6426 10815 6425 
10 737 906 907 1653 4222 4226 4224 10194 9631 12115 
10 910 1656 1813 1657 10210 7149 9352 9353 6678 7148 
10 1661 745 914 744 10499 4246 9675 10663 3742 4245 
10 1328 272 414 1327 5690 10205 9346 5691 5686 9122 
10 750 585 1500 751 3756 10208 10174 3760 3758 10176 
10 659 488 1574 1402 3478 10815 11828 11822 10003 6425 
10 1665 749 1499 1666 9191 11628 6700 6705 10872 6704 
10 1500 750 1667 1666 10174 10175 6707 6703 10132 6708 
10 1920 848 1765 1764 12150 9322 7466 7465 10560 6998 
10 552 1465 551 856 12306 11036 3159 4069 11029 4068 
10 1797 935 936 1084 9166 4311 10022 11896 4758 4759 
10 657 1573 1400 1572 11043 6423 12210 12023 6424 6419 
10 1518 1344 1519 604 6255 6259 6260 9337 9354 9338 
10 1353 1528 441 1354 6286 12275 9649 5770 6285 10942 
10 1920 848 1764 1001 12150 10560 7465 8833 4499 10410 
10 1386 21 47 20 5864 2522 8999 5865 2155 2521 
10 1348 1522 608 1523 6267 9587 10715 6271 6272 10635 
10 473 1386 47 472 8998 8999 2921 2923 11606 2919 
10 1386 48 1387 473 8997 9052 5869 8998 2922 11990 
10 792 627 626 1541 3880 3381 3879 11151 11666 11185 
10 618 1694 1533 1532 11812 6786 11813 11791 6787 6302 
10 1003 857 1934 1021 4506 9712 10267 4583 4574 11941 
10 451 167 1363 310 2855 11669 12224 12214 8406 5795 
10 2002 957 1860 1861 8877 10018 7725 7728 8812 7291 
10 622 1537 623 450 8939 11663 3369 3365 11118 3367 
10 1878 2061 1934 1021 7898 7899 7518 12171 9829 11941 
10 1707 1546 1708 797 6825 6829 6830 11890 12063 10819 
10 1788 880 1035 1787 8967 4617 9781 7078 12404 11326 
10 880 879 1787 1627 4149 11325 12404 9477 9476 7073 
10 1788 880 1787 1627 8967 12404 7078 7077 9477 7073 
10 2052 1963 1252 1195 8002 12405 11263 12266 12274 5418 
10 1456 712 1457 1626 9883 10160 6079 6586 9474 6585 
10 462 1375 635 463 8991 11050 3403 2893 10191 3404 
10 140 283 1268 212 8444 6017 12316 12315 5508 5510 
10 1963 1196 1252 1195 10567 5419 12405 12274 5132 5418 
10 1049 2036 1950 1798 10439 7823 10550 9288 7821 7572 
10 1049 1799 2036 1798 9289 7822 10439 9288 7108 7821 
10 1892 1733 1734 822 7382 6905 7381 8926 11993 11026 
10 1278 365 366 538 8838 2600 8676 8840 3115 3116 
10 1452 539 1279 1453 10017 12046 6062 6067 11936 6066 
10 365 1278 366 80 8838 8676 2600 2596 8674 2598 
10 2052 1963 2053 1252 8002 8005 7872 11263 12405 11264 
10 807 1744 553 690 11034 9413 3922 3921 11035 3578 
10 1711 634 800 1710 9725 3903 11078 6839 9726 12399 
10 1361 448 1360 307 11884 10430 5791 5790 9636 5786 
10 1144 2070 2129 2062 12154 8245 11437 11295 7931 8250 
10 1995 1247 1094 1095 11007 5394 11008 11472 5328 4801 
10 1586 666 1585 1747 11771 11773 6460 6944 12070 6943 
10 787 1698 1536 1697 11785 6799 12406 11282 6800 6795 
10 1766 1755 804 1902 7048 10341 10105 7413 7414 8713 
10 577 1319 405 1318 9157 8821 3231 9159 5664 11907 
10 1963 1196 2053 1252 10567 12160 8005 12405 5419 11264 
10 1379 466 183 467 12032 2901 11123 9491 2905 2903 
10 1625 712 878 711 9473 4142 9203 9204 3643 4141 
10 550 378 377 1291 3152 2636 3151 11457 12018 8806 
10 92 235 91 377 8581 8580 2228 2632 8807 2631 
10 1465 552 1292 1466 12306 11269 6101 6106 12013 6105 
10 450 166 1362 309 2852 11870 11120 9793 8404 5792 
10 939 1986 1087 940 11701 11700 4769 4323 12202 4770 
10 308 166 1362 449 8403 11870 5793 11114 2850 11116 
10 632 633 460 1547 3399 3397 3395 9635 10127 11967 
10 2098 1089 1043 1088 10969 5083 9249 9247 4780 5323 
10 1372 632 460 1547 9634 3395 11894 6343 9635 11967 
10 560 1475 388 559 11308 11400 3180 3182 10940 3178 
10 2048 2059 2094 1041 7959 8117 8118 11536 9192 9834 
10 2094 2128 1041 1087 8309 12016 9834 9835 11837 5168 
10 102 246 245 1301 8458 2390 8457 12131 5608 5609 
10 880 879 1035 1787 4149 4616 4617 12404 11325 11326 
10 1038 882 1037 1790 4625 4623 4627 10948 9607 12157 
10 1069 1969 1820 1968 12365 7627 10474 11414 7628 7623 
10 897 1643 727 896 9241 10610 4194 4196 9242 4192 
10 894 1046 1800 1928 4649 9172 9173 9179 9041 7498 
10 1969 1069 1820 1821 12365 10474 7627 7626 11091 7174 
10 893 1046 894 1928 4648 4649 4187 9560 9041 9179 
10 114 400 1313 399 2701 11322 11328 2699 2703 11686 
10 1819 1968 1068 1820 7624 10444 9644 7171 7623 9645 
10 1062 910 1813 1814 4697 9352 9360 12282 9351 7153 
10 112 398 256 1311 2695 12188 8478 10828 10156 5638 
10 1968 1069 1068 1820 11414 4720 10444 7623 10474 9645 
10 737 906 1653 736 4222 9631 10194 3718 4221 9632 
10 1487 737 1653 1486 9873 10194 6664 6167 9875 6665 
10 928 1674 1830 1831 9302 7199 11831 10501 7203 7204 
10 1372 319 1373 460 5822 5826 5827 11894 11893 11968 
10 1938 1172 2111 2084 10866 12372 8095 7982 12268 8096 
10 1663 917 1664 1820 11952 11239 6699 7170 9646 7169 
10 1675 928 929 1831 10502 4292 9014 7202 10501 12140 
10 113 257 1312 399 8480 5641 12407 2698 10993 9282 
10 409 123 1322 267 2728 10874 9150 12408 8500 5671 
10 123 409 124 267 2728 2729 2261 8500 12408 8501 
10 1832 1675 929 1831 7206 9014 12139 7207 7202 12140 
10 1086 1980 1985 938 9458 7676 12168 4766 8698 12297 
10 177 461 1373 460 2885 10936 8973 2883 2887 11968 
10 355 1268 425 1444 12313 12317 3165 12409 6039 10827 
10 1683 1522 1684 773 6753 6757 6758 8988 9586 8990 
10 1558 472 473 643 11818 2923 11975 10527 3430 3431 
10 774 609 608 1523 3826 3327 3825 12098 12350 10635 
10 1693 1852 782 949 7262 11139 9530 11130 12129 4348 
10 1095 950 949 1853 4800 4353 4799 9963 9961 11132 
10 670 503 504 1418 3512 3014 3511 9500 9067 9069 
10 1995 1095 1094 949 11472 4801 11008 11491 4799 4797 
10 992 2039 2038 1904 12175 7832 9597 9598 7830 7829 
10 1106 961 960 2005 4833 4386 4832 8804 11331 10531 
10 182 466 325 1378 2900 12087 8436 11658 12033 5840 
10 1386 472 1558 1385 11606 11818 6377 5866 10893 6378 
10 1559 473 643 1558 12014 3431 8996 6382 11975 10527 
10 499 189 190 333 2998 2330 2997 10047 5192 5191 
10 776 1686 942 1846 10219 8677 4328 10220 7245 8679 
10 422 136 1335 280 2767 12057 10543 12314 8526 5710 
10 463 464 1376 636 2896 10982 10984 3406 3407 11018 
10 860 1837 1926 1636 10407 7491 9709 12358 7218 7490 
10 1121 1882 1835 2016 9510 7353 9087 9511 7767 7768 
10 1143 2041 991 2042 12036 10342 4944 11527 7841 12363 
10 1218 1112 1217 2104 5202 5200 5204 9592 11591 9941 
10 277 134 278 1333 8521 8522 2422 5705 10261 5704 
10 290 147 1343 289 8366 11124 5735 2435 8365 5736 
10 166 450 1362 449 2852 11120 11870 2850 2854 11116 
10 2062 1836 1833 1008 7904 7217 7903 11296 9992 9994 
10 979 1887 980 817 11714 10457 4441 4437 10758 4439 
10 816 1727 1728 1566 11177 6887 11777 11592 6882 6886 
10 979 816 1728 817 4436 11777 12309 4437 3952 12310 
10 1386 473 1559 1558 8998 12014 6381 6377 11975 6382 
10 1342 288 289 146 5733 2434 5732 11580 8363 8364 
10 1018 1012 1898 1677 4977 12228 10787 10989 10988 7400 
10 787 1698 1697 1857 11785 6800 11282 11880 7277 7278 
10 839 1513 840 1677 8944 11847 4019 8945 6736 10987 
10 1247 1082 1208 2040 5357 5370 5369 10631 10630 12236 
10 1526 1688 612 1527 6769 11307 11028 6284 6768 11012 
10 517 682 1431 683 3542 8771 9673 3546 3547 12211 
10 483 1397 1569 654 9006 6410 9418 3463 9005 9751 
10 1139 1248 2044 2033 5360 11261 10351 10352 11260 7943 
10 1397 483 1569 1396 9006 9418 6410 5899 9419 6411 
10 1067 1819 1818 1967 9642 7168 10945 10946 7620 7621 
10 310 1364 168 311 5799 12397 8407 2456 5798 8408 
10 912 913 1816 1065 4244 11096 11095 4705 4706 9933 
10 2037 2050 1164 1263 7863 9637 9315 12164 12281 5472 
10 1969 1069 1200 1968 12365 5142 11994 7628 11414 11415 
10 960 1863 1105 1864 11154 11481 4830 12209 7300 9747 
10 1863 2004 1105 1864 7734 8803 11481 7300 7733 9747 
10 321 1375 179 322 5832 10190 8429 2467 5831 8430 
10 2001 2133 1248 2044 8246 10702 10270 8237 8242 11261 
10 932 1717 1775 1875 12335 7053 11817 11422 7334 7487 
10 1249 1139 2033 1248 5374 10352 11560 5338 5360 11260 
10 1099 1100 2000 2133 4816 9061 9063 10464 10701 8201 
10 2138 1251 1262 1244 10079 5503 11243 9771 5488 5502 
10 1940 1174 1939 1032 11291 11450 7542 11293 5054 11972 
10 809 808 1017 1875 3928 4555 4553 8932 9048 8933 
10 809 1716 808 1875 8947 9046 3928 8932 7333 9048 
10 263 1319 1318 405 5663 5664 5659 11089 8821 11907 
10 2092 1242 2097 1983 10534 8773 8044 8029 9776 8042 
10 1874 1982 2096 1152 7667 8040 8041 11767 12301 9661 
10 1056 1955 1956 1807 9016 7589 9015 9934 7584 7588 
10 864 1612 839 997 8865 8946 4097 4492 8867 4491 
10 1982 1874 1150 1152 7667 12005 10223 12301 11767 4970 
10 860 763 1636 694 4076 10766 12358 4077 3795 12295 
10 1007 1918 1162 1917 9804 10572 5014 10571 7461 10148 
10 308 165 1361 307 8402 11885 5789 2453 8401 5790 
10 208 351 1433 350 8219 6003 10359 8221 2500 6002 
10 1064 912 1816 1065 4703 11095 9932 4707 4705 9933 
10 1066 1966 1965 1241 10436 7619 10451 5294 12109 11412 
10 915 1067 1818 914 4712 10945 11642 4250 4711 11640 
10 206 349 207 518 8225 8224 2349 3053 9049 3052 
10 743 913 1660 912 4242 10947 8801 4240 4244 10027 
10 506 197 340 196 3018 4764 11861 3019 2337 4765 
10 913 1817 1065 1066 12347 12348 4706 4708 10450 4710 
10 1077 1828 1076 1976 9432 10241 4744 9287 7647 10243 
10 1973 2087 1169 2088 8012 10488 10487 8016 8017 12258 
10 1205 2090 1976 2089 12172 8023 9286 10476 8024 8021 
10 924 1671 1827 925 11555 7190 10514 4280 11587 12121 
10 1282 1456 1455 542 6075 6076 6071 12326 12079 11488 
10 1843 1684 1844 940 7235 7239 7240 11836 9662 9664 
10 1988 1089 1989 2098 10968 12142 7688 8048 10969 8047 
10 2059 1929 2017 1010 7891 7771 7890 9194 11899 10530 
10 1420 505 196 339 11925 3015 12072 5965 12195 4773 
10 1727 816 1728 1886 11177 11777 6887 7364 12410 7363 
10 1858 954 788 955 8954 4364 8955 10297 4368 4366 
10 816 979 1728 1886 4436 12309 11777 12410 11715 7363 
10 1727 816 1886 978 11177 12410 7364 9137 4434 10516 
10 1106 961 2005 1107 4833 11331 8804 4837 4835 9482 
10 627 1542 1541 1703 9759 6329 11666 9733 6813 6814 
10 1419 505 1420 339 9565 11925 5967 5963 12195 5965 
10 465 1377 1378 324 9336 5842 11659 11049 5837 5841 
10 1504 754 1503 588 9964 9037 6218 10683 3767 9036 
10 2023 1224 1127 1225 9195 5225 9196 11506 5229 5227 
10 1123 976 1884 977 4881 9408 8950 4882 4432 9468 
10 816 979 1886 978 4436 11715 12410 4434 4438 10516 
10 2140 1155 2142 2135 12411 10307 8275 8329 11148 8328 
10 673 1753 1592 1778 9549 6962 9551 12294 7047 7044 
10 871 1027 872 2073 4592 4593 4125 10289 10482 12325 
10 930 1009 1935 1774 4527 12336 11363 11364 11498 7527 
10 52 477 25 51 2934 11500 2531 2187 2933 2530 
10 1865 2006 2005 1107 7740 7741 7736 11644 9484 9482 
10 1368 456 315 1369 12084 11122 5810 5815 12083 5814 
10 992 1904 762 933 9598 9887 4476 4478 12176 4302 
10 1594 692 691 861 9520 3575 8871 8869 4082 4083 
10 2041 2136 2042 1143 8230 8233 7841 12036 11526 11527 
10 872 1027 1028 2073 4593 4597 4595 12325 10482 11458 
10 872 1028 1897 2073 4595 11940 9983 12325 11458 7945 
10 2001 1100 1101 1248 10700 4819 9022 10270 5331 5332 
10 1817 1066 1965 1065 10450 10451 7614 12348 4710 10233 
10 367 539 1280 1279 3119 10690 9822 12045 12046 5546 
10 1963 1196 1195 1063 10567 5132 12274 10570 5130 5128 
10 1914 1207 1915 1022 12136 12113 7452 12412 5163 12074 
10 661 1577 1576 826 12069 6436 11434 3978 12413 12143 
10 1044 1133 2029 1895 4996 10983 9032 8972 8893 7804 
10 1738 827 826 1577 9001 3983 9002 6915 12068 12413 
10 1592 673 1593 507 9551 12293 6482 11652 3520 9309 
10 1405 1577 1404 491 6434 6435 5923 10285 10659 10286 
10 1045 1933 892 1044 9909 12161 4645 4647 8970 4643 
10 1474 1742 1473 724 6927 6928 6128 9325 12219 11312 
10 508 675 674 1580 3527 3594 3523 10509 10685 11516 
10 836 673 837 1778 4007 4011 4012 12146 12294 12149 
10 1795 807 1923 1744 12123 9140 7477 7099 11034 7474 
10 970 1014 1923 807 4546 9142 9653 4412 4545 9140 
10 1134 994 1908 993 4915 9784 10274 4916 4484 10367 
10 2043 994 1908 1134 9950 9784 7842 10273 4915 10274 
10 1779 1020 1922 2018 11391 11614 7502 7773 11390 7772 
10 954 787 953 1857 4363 4361 4365 11249 11880 11311 
10 376 90 1289 234 2628 11461 9231 11248 8578 5571 
10 2065 1936 1118 2139 7913 12260 11857 8265 8251 9519 
10 1020 930 1140 2018 4571 4934 4935 11390 11392 10662 
10 1911 1159 1154 1011 11752 5001 11753 12128 4999 4975 
10 1614 1777 1741 696 7039 7041 6924 10540 10118 10603 
10 906 1058 1809 905 4685 12191 11403 4223 4684 10616 
10 1240 1188 2080 1955 5366 11484 10916 9018 12380 7989 
10 1911 1154 2075 1924 11753 9379 7950 7481 12201 7951 
10 528 695 524 1611 3591 3587 3088 10214 10374 11513 
10 90 233 1289 234 8577 5572 11461 8578 2377 5571 
10 1421 1592 1593 507 6477 6482 6479 9926 11652 9309 
10 2078 1834 2071 1142 7961 7935 7964 9772 11368 11370 
10 1951 2046 1051 1186 7853 11525 10958 9144 9145 5102 
10 2050 1267 1164 1263 9803 5491 9637 12281 5483 5472 
10 1656 1812 909 1813 7145 11408 11621 7149 7150 9362 
10 1144 1146 2129 2070 5008 10329 11437 12154 10008 8245 
10 2004 1104 1863 1105 12250 11716 7734 8803 4831 11481 
10 891 859 1833 850 4176 9993 11141 4177 4075 11102 
10 587 415 1328 1329 3261 12000 10426 10473 10472 5694 
10 1166 1993 1092 2074 11798 10009 5170 9378 8276 9312 
10 1216 2103 1110 2102 9935 10294 5196 8783 8064 9975 
10 2016 1121 1120 1835 9511 4877 11566 7768 9087 9089 
10 1227 1130 1129 2025 5234 4904 5233 11349 9806 9071 
10 2085 1223 1224 1167 12289 5226 12261 10203 5391 5496 
10 2085 1223 1081 2119 12289 5392 12290 8272 11277 11915 
10 1513 510 1438 677 10400 11900 6241 11749 3530 11731 
10 1067 1199 1967 1198 5138 9086 10946 5137 5140 10937 
10 479 1392 1393 27 11099 5887 10648 10269 5882 5886 
10 1591 506 505 672 12292 3020 11926 10745 3517 3518 
10 1416 336 335 192 5954 2483 5953 10023 5064 5069 
10 1874 1150 1009 1930 12005 4966 11496 7508 12368 11497 
10 1592 506 1420 1591 11651 11654 6476 6478 12292 6474 
10 55 28 54 480 2537 2536 2190 2943 10651 2942 
10 506 1592 672 1591 11651 9550 3517 12292 6478 10745 
10 576 1491 1318 1317 11466 6177 12009 12024 6178 5661 
10 838 1925 1877 1719 12103 7503 11887 11888 7485 7339 
10 1397 483 31 58 9006 11682 5898 11365 2952 2543 
10 1187 1982 2067 1219 10224 7920 12238 5344 12241 12242 
10 468 1555 1382 1381 10459 6369 9097 9096 6366 6025 
10 43 1 185 16 2511 8352 2909 2513 2150 12134 
10 990 767 766 1768 4470 3806 4469 11670 8878 8879 
10 125 268 124 410 8503 8502 2262 2732 11532 2731 
10 378 92 1291 236 2634 12017 12018 9730 8582 5577 
10 92 378 93 236 2634 2635 2229 8582 9730 8583 
10 1496 1322 581 580 6193 11320 10998 11873 9152 3245 
10 409 124 267 1323 2729 8501 12408 9376 8966 5675 
10 1126 2021 2022 980 11056 7785 10792 4891 10456 10458 
10 1113 2012 1871 2011 9591 7758 9837 10039 7759 7754 
10 1726 814 1884 1725 9465 9466 7357 6881 9768 7358 
10 814 649 648 1564 3942 3450 3941 11174 11175 11779 
10 1834 1639 1776 806 7211 7042 7210 12206 10111 10383 
10 1003 1834 2071 1934 11367 7935 11369 10267 7520 7934 
10 1874 1982 1150 1930 7667 10223 12005 7508 7666 12368 
10 1942 1035 1941 1787 9782 11069 7548 7547 11326 7543 
10 1035 1034 1941 1787 4618 10154 11069 11326 10155 7543 
10 136 279 1335 280 8525 5711 12057 8526 2424 5710 
10 154 437 296 153 2814 9525 8379 2292 2813 8378 
10 588 587 1329 416 3266 10473 8850 3264 3262 8851 
10 398 112 256 113 2695 8478 12188 2696 2250 8479 
10 130 415 416 1329 2747 2751 2749 12373 10472 8851 
10 1053 1804 1803 1952 11914 7123 11852 11853 7575 7576 
10 1799 1643 896 1642 7106 9242 9290 7107 6636 10803 
10 1953 1804 1053 1952 7579 11914 11082 7580 7575 11853 
10 1353 441 300 1354 9649 12307 5765 5770 10942 5769 
10 569 1311 397 1310 10157 10158 3207 10857 5640 10858 
10 253 110 254 1309 8473 8474 2398 5633 11401 5632 
10 745 1495 1662 746 8814 6692 10500 3745 8815 9757 
10 1762 846 1763 1602 9820 9799 6992 6988 12322 6990 
10 844 1761 845 1004 10876 11881 4032 4509 10546 4508 
10 158 441 300 157 2826 12307 8387 2296 2825 8386 
10 441 158 300 1354 2826 8387 12307 10942 10938 5769 
10 750 585 584 1500 3756 3257 3755 10174 10208 11912 
10 169 452 1365 311 2859 10955 12398 8409 9813 5802 
10 1364 452 168 311 11127 2858 12397 5798 9813 8408 
10 1973 1243 2087 1972 10485 10486 8012 7640 8707 8013 
10 452 1364 1365 311 11127 5803 10955 9813 5798 5802 
10 1972 1073 1072 1824 11573 4732 11431 7635 9382 9385 
10 1498 748 749 1665 12138 3754 11626 6701 9189 9191 
10 274 1330 1329 416 5696 5697 5692 11382 8849 8851 
10 919 1071 920 1822 4724 4725 4265 9258 11407 9259 
10 415 1328 1329 273 12000 5694 10472 11838 5689 5693 
10 1341 428 1340 287 10280 10706 5731 5730 12304 5726 
10 693 380 1466 1338 3579 11071 11946 10067 11072 6533 
10 142 285 284 1338 8356 2430 8355 10068 5720 5721 
10 1772 694 1613 1719 12107 10674 7019 7021 10756 6861 
10 463 180 179 322 2892 2318 2891 12414 8431 8430 
10 1634 851 1635 1770 12158 12019 6614 7097 11833 7029 
10 602 1342 1517 430 12112 6253 9938 3305 11756 9940 
10 180 463 1376 322 2892 10984 10981 8431 12414 5835 
10 1375 463 179 322 10191 2891 10190 5831 12414 8430 
10 1680 770 769 1519 12124 3815 9392 6744 10279 9340 
10 463 1375 1376 322 10191 5836 10984 12414 5831 5835 
10 722 1640 1879 1637 11518 7343 12402 10725 6626 7395 
10 910 1814 911 1657 9351 12031 4238 9353 7152 11394 
10 349 1432 207 518 5999 9114 8224 9049 9050 3052 
10 1858 1859 1101 955 7285 9737 10296 10297 12222 4817 
10 1826 1669 1670 923 7188 6717 7187 12283 11489 8841 
10 1815 1964 1963 1064 7612 7613 7608 10235 9930 10566 
10 2105 1161 2087 2088 9743 12256 8288 8295 12257 8017 
10 512 692 1594 1426 3574 9520 9521 11970 11969 6484 
10 666 499 1414 1585 3500 10045 11772 11773 12341 6456 
10 1595 1427 1426 692 6486 5986 6485 9261 9263 11969 
10 330 187 1411 331 5298 9553 5938 2478 5270 5939 
10 1614 1579 597 1741 6550 11542 10601 6924 6925 10602 
10 1169 1204 1974 2088 5273 11879 11878 12258 12383 8015 
10 189 499 1413 333 2998 9422 9423 5192 10047 5945 
10 445 162 161 304 2838 2300 2837 12415 8395 8394 
10 692 1595 1594 1426 9261 6487 9520 11969 6485 6484 
10 1357 445 161 304 9387 2837 11718 5777 12415 8394 
10 1440 140 139 283 11692 2277 11620 6022 8444 8532 
10 445 1357 1358 304 9387 5782 11783 12415 5777 5781 
10 2105 1161 2088 2137 9743 12257 8295 8243 10856 8294 
10 924 1826 1827 1670 10512 7192 10514 11556 7187 7191 
10 444 160 303 161 2834 8392 8882 2835 2299 8393 
10 1973 1169 1974 2088 10487 11878 7643 8016 12258 8015 
10 939 938 1985 1842 4320 12297 11699 10691 8700 7675 
10 1533 618 446 619 11813 3353 12330 11634 3357 3355 
10 596 355 425 1444 3419 3165 3289 11623 12409 10827 
10 81 224 223 1279 8559 2367 8558 9347 5541 5542 
10 80 1279 81 223 8673 9347 2217 8557 5542 8558 
10 539 1280 1279 1453 10690 5546 12046 11936 6065 6066 
10 939 1086 1985 938 4767 12168 11699 4320 4766 12297 
10 444 1357 617 445 8881 9386 3349 2839 9387 3350 
10 939 1843 1842 1985 9200 7237 10691 11699 7674 7675 
10 1843 939 1986 1985 9200 11701 7678 7674 11699 7679 
10 754 924 1670 923 4275 11556 8842 4273 4277 8841 
10 534 533 1274 361 3105 11864 11866 3103 3101 11865 
10 5 95 1294 238 8534 8781 5586 2382 8535 5587 
10 1770 886 766 1794 11234 4534 11597 7330 9363 12416 
10 1715 805 641 1557 10181 3917 12089 7012 10182 10954 
10 103 246 102 388 8459 8458 2240 2666 9219 2665 
10 246 103 1302 388 8459 10141 5612 9219 2666 9218 
10 560 725 1475 559 3681 10939 11308 3182 3680 10940 
10 1742 893 724 894 9559 4183 12219 9561 4187 4185 
10 932 1717 1875 808 12335 7334 11422 4524 9047 9048 
10 1892 1130 1891 984 9588 9807 7383 8927 4903 11352 
10 1385 642 1558 1556 10894 10749 6378 6370 11052 6379 
10 1227 2144 1226 1259 10664 10665 5235 5501 12231 5495 
10 1300 387 245 1301 11841 11318 5605 5610 12417 5609 
10 453 169 452 1365 2861 2859 2863 10956 12398 10955 
10 710 1623 876 1624 11821 11820 4136 11547 6581 12006 
10 571 1313 399 1312 11157 11686 3213 11754 5646 9282 
10 1854 1695 1855 951 7268 7272 7273 9721 12388 9723 
10 1995 1247 1996 2131 11007 11552 7709 8196 10629 8195 
10 1313 571 1486 1312 11157 9876 6162 5646 11754 6163 
10 173 316 315 1369 8418 2461 8417 12008 5813 5814 
10 1322 409 267 1323 9150 12408 5671 5676 9376 5675 
10 582 410 581 1323 3246 3244 3248 11094 9377 11321 
10 582 1324 410 1323 9292 9293 3246 11094 5679 9377 
10 1247 1995 1996 1095 11007 7709 11552 5328 11472 11473 
10 2006 1214 2007 2100 9502 10115 7744 8054 9503 8053 
10 1508 593 592 1334 9034 3281 9035 6229 12027 9866 
10 1889 981 2023 1888 12075 12151 7786 7374 11275 7787 
10 1425 1608 511 1424 6526 11846 10164 5980 6525 11445 
10 455 1368 628 456 9009 10722 3382 2872 12084 3383 
10 199 342 511 1424 8350 10165 3032 12346 5977 11445 
10 1438 1423 527 9 6029 12100 10846 6018 5975 11287 
10 135 279 278 1334 8524 2423 8523 9430 5707 5708 
10 1623 1784 876 1624 7065 11494 11820 6581 7064 12006 
10 17 470 18 1383 10523 11819 2152 5856 10525 5855 
10 533 534 1274 1448 3105 11866 11864 10507 10854 6051 
10 1214 2101 2007 2100 10301 8057 10115 9503 8058 8053 
10 1333 420 278 1334 10262 11305 5704 5709 12418 5708 
10 641 470 1384 471 3425 12400 11797 3426 2917 12419 
10 2101 1214 2007 2008 10301 10115 8057 8056 12237 7747 
10 431 1344 148 290 10922 11105 2796 11125 5739 8367 
10 924 1826 1670 923 10512 7187 11556 4277 12283 8841 
10 1466 1468 1635 856 6532 6615 6612 11945 11810 11030 
10 1245 1233 2106 1259 5309 11568 12207 5504 5494 12232 
10 1465 552 1466 856 12306 12013 6106 11029 4069 11945 
10 693 599 1468 856 3592 11809 11947 4078 4079 11810 
10 444 160 443 1356 2834 2832 2836 8883 11638 11639 
10 490 661 1404 1576 3484 11121 11112 11113 11434 6431 
10 827 662 1577 1739 3981 10657 12068 11998 9495 6919 
10 1355 1530 443 1356 6292 9280 9091 5776 6291 11639 
10 52 477 1391 25 2934 10168 12338 2531 11500 5880 
10 1680 770 1519 1681 12124 10279 6744 6749 11337 6748 
10 770 1520 1519 1681 9447 6263 10279 11337 6747 6748 
10 1392 26 478 1391 5883 11735 11734 5884 5879 11816 
10 477 52 1391 478 2934 12338 10168 2938 2936 11816 
10 649 1564 1392 478 11175 6395 11982 3448 11780 11734 
10 1575 660 659 489 12144 3483 10095 12312 3481 3479 
10 2046 1051 1801 1802 11525 11895 7851 7850 10959 7117 
10 660 1575 1403 489 12144 6428 11109 3481 12312 11111 
10 1053 1803 900 1052 11852 9165 4669 4671 11854 4667 
10 899 1051 1802 898 4664 10959 11997 4202 4663 12420 
10 297 154 155 438 8380 2293 8381 12421 2816 2817 
10 2131 1082 1135 1247 10628 4919 9472 10629 5357 5358 
10 1905 1082 2039 2040 11683 9180 7831 7833 10630 7835 
10 578 579 1494 744 3239 10996 10962 3737 3738 8726 
10 2040 1145 1906 1082 10217 9904 7834 10630 4950 11684 
10 1552 638 465 1378 9505 3412 12007 6357 12422 11659 
10 231 87 373 230 8572 2619 9966 2374 8571 8704 
10 466 1379 325 1378 12032 5844 12087 12033 5845 5840 
10 466 182 465 1378 2900 2898 2902 12033 11658 11659 
10 466 182 325 183 2900 8436 12087 2901 2321 8437 
10 1380 184 326 327 12039 8439 5847 5846 8440 2472 
10 465 182 181 324 2898 2320 2897 11049 8435 8434 
10 50 475 476 1389 2928 2932 2930 9124 10519 9125 
10 1390 1562 476 647 6389 9417 9416 12324 10774 3442 
10 253 109 395 1308 8472 2686 12264 5629 10652 8746 
10 1306 107 250 251 10107 8467 5624 5623 8468 2395 
10 974 811 1723 812 4421 10990 9452 4422 3937 10742 
10 1082 1905 1906 2040 11683 7426 11684 10630 7833 7834 
10 996 1139 995 1910 4930 4931 4562 10469 10350 10467 
10 574 1489 1316 1315 10643 6171 10167 10166 6172 5655 
10 1168 1165 2055 1919 5037 12025 9233 9234 10390 7877 
10 1399 486 1400 1572 11002 11004 5908 6420 11987 6419 
10 127 270 1326 271 8507 5684 9162 8508 2415 5683 
10 753 754 1503 1670 3769 9037 9038 8843 8842 6716 
10 415 129 414 1328 2746 2744 2748 12000 9436 9346 
10 1061 1812 1813 909 9330 7150 9361 4694 11408 9362 
10 1914 1207 2051 1915 12136 10128 7864 7452 12113 7865 
10 1914 2050 2051 1207 7862 7866 7864 12136 11944 10128 
10 283 1440 282 139 6022 6023 2427 8532 11620 8531 
10 72 358 216 1271 2574 9920 8543 10585 10776 5517 
10 1269 213 355 1268 5512 10438 9135 5513 5509 12313 
10 499 666 665 1585 3500 3501 3497 12341 11773 12320 
10 1524 1350 1525 610 6273 6277 6278 10135 8934 8936 
10 499 1414 1585 1413 10045 6456 12341 9422 5949 6455 
10 1346 433 150 434 11808 2802 9440 9439 2806 2804 
10 434 1346 1347 293 9439 5749 10255 9441 5744 5748 
10 1350 297 1351 438 5756 5760 5761 8935 12421 9406 
10 609 608 1523 436 3327 10635 12350 3325 3323 12357 
10 1531 1357 1532 617 6294 6298 6299 11137 9386 9388 
10 303 1357 161 304 5778 11718 8393 2449 5777 8394 
10 1746 852 831 665 11711 4055 9888 12319 4052 3993 
10 2052 1915 2051 1160 7867 7865 7869 11266 11759 10129 
10 176 319 318 1372 8424 2464 8423 11892 5822 5823 
10 456 173 315 1369 2871 8417 11122 12083 12008 5814 
10 1837 763 1743 1636 10388 10767 7219 7218 10766 7025 
10 456 1368 315 172 12084 5810 11122 2870 9011 8416 
10 1915 1207 2051 1160 12113 10128 7865 11759 5166 10129 
10 1795 970 1008 2070 9652 4522 12030 7930 10309 11297 
10 1836 862 859 1008 11691 4111 9991 9992 4520 4521 
10 686 1434 685 520 10318 9154 3556 3555 10299 3551 
10 846 1603 1763 1602 9798 6991 9799 12322 6511 6990 
10 1495 745 1494 579 8814 11629 6191 11038 3740 10996 
10 1764 847 1763 1000 9812 9797 6995 10404 4497 9801 
10 1751 1590 835 1752 6956 11190 11142 6960 6958 11144 
10 531 1771 1617 1445 8889 7016 12423 8890 7017 6560 
10 1590 505 1419 504 12291 9565 6471 9501 3017 9566 
10 195 505 339 196 3016 12195 4774 2336 3015 4773 
10 1581 1636 694 1613 6617 12295 10244 6546 6616 10674 
10 1771 1676 700 1832 7504 11476 11487 7484 7205 12159 
10 1617 1771 531 701 7016 8889 12423 9186 9187 3608 
10 1617 532 701 531 11871 3609 9186 12423 3099 3608 
10 532 1617 1445 531 11871 6560 10314 3099 12423 8890 
10 530 1771 1445 1607 8887 7017 8888 11183 7018 6524 
10 72 215 1271 216 8542 5518 10585 8543 2359 5517 
10 761 1771 530 1607 11485 8887 4048 11486 7018 11183 
10 1157 998 1141 1948 4993 4938 4992 12252 11603 11492 
10 530 1771 700 531 8887 11487 3606 3096 8889 3607 
10 602 1342 1516 1517 12112 6249 10931 9938 6253 6254 
10 2070 1836 2062 1008 7929 7904 7931 11297 9992 11296 
10 371 543 1283 370 3131 9986 9958 2615 3130 9953 
10 1456 543 712 542 9984 3642 9883 12079 3132 3641 
10 1458 545 544 1285 8714 3138 11053 6080 8716 11814 
10 1667 751 1501 1668 10177 11574 6706 6711 12396 6710 
10 1795 2070 1008 1836 7930 11297 12030 7216 7929 9992 
10 877 1786 1033 878 9738 10416 4610 4143 9739 4611 
10 96 2 42 239 2233 2512 11708 8445 8442 5590 
10 1298 1467 384 556 6107 10920 11020 11463 10919 3168 
10 712 1456 542 711 9883 12079 3641 3643 9810 3639 
10 497 1412 1411 331 8858 5943 11688 8690 5941 5939 
10 751 752 1501 1668 3763 9896 11574 12396 11284 6710 
10 1805 1055 1954 1054 11070 10912 7582 11085 4677 10914 
10 567 1309 1308 1482 8872 5634 8747 9677 6150 6151 
10 2125 1234 2091 2064 12141 10442 8223 8154 10070 8177 
10 2068 1025 2064 1234 9854 10071 7924 9855 5263 10070 
10 1618 870 1901 1780 8769 10187 7410 7054 9750 7411 
10 117 261 260 1316 8488 2405 8487 10892 5653 5654 
10 1645 899 729 1646 12271 4200 12051 6645 11335 11255 
10 728 1478 1645 729 9620 6641 11928 3694 9621 12051 
10 154 297 1350 438 8380 5756 9527 2816 12421 8935 
10 576 404 575 1317 3228 3226 3230 12024 8985 9000 
10 1322 409 581 580 9150 3243 11320 9152 3241 3245 
10 574 1489 1490 1316 10643 6176 8809 10167 6171 6175 
10 1234 2125 1026 2064 12141 8856 5264 10070 8154 8857 
10 1640 722 1879 887 11518 12402 7343 11862 4169 11989 
10 722 892 1879 887 4179 12401 12402 4169 4181 11989 
10 616 1531 1692 782 11136 6780 12424 3849 9529 8897 
10 2120 1940 1941 1033 8132 7545 7980 11058 9515 10417 
10 1027 2125 1237 2121 10481 10102 5282 11979 8155 10932 
10 382 598 383 1296 3293 3294 2652 10621 11060 11062 
10 272 129 414 128 8511 2744 10205 8510 2266 2743 
10 1348 607 435 608 12060 3320 10713 10715 3324 3322 
10 942 943 1846 1989 4332 10688 8679 12425 11935 7687 
10 1517 1518 1679 603 6257 6741 6742 9939 8736 10252 
10 1682 1520 1521 771 6751 6266 6750 10599 9448 11919 
10 448 165 307 1361 2847 8401 9636 11884 11885 5790 
10 430 431 1343 603 2797 8735 11788 3307 3308 8737 
10 2125 2145 1237 2121 8302 8788 10102 8155 8303 10932 
10 1718 664 1579 597 10044 10598 6858 11709 3495 11542 
10 935 769 768 1679 4307 3812 4306 10689 9686 8758 
10 1579 495 525 597 9764 3077 9639 11542 3291 3292 
10 664 495 1579 597 3494 9764 10598 3495 3291 11542 
10 598 382 1471 1296 3293 11985 11435 11060 10621 6116 
10 466 1379 1554 467 12032 6364 11165 2905 9491 12343 
10 1368 314 315 172 5811 2460 5810 9011 8415 8416 
10 1553 1715 639 1554 6850 12331 11166 6365 6849 11167 
10 1555 554 467 468 10581 3164 12318 10459 3162 2908 
10 1236 2136 1998 1208 12137 8231 9913 5396 12135 9914 
10 1308 566 1307 394 8748 12403 5631 10653 3198 11584 
10 506 505 196 1420 3020 3015 3019 11654 11925 12072 
10 1425 512 1594 1426 11032 9521 6483 5983 11970 6484 
10 1858 1859 2001 1101 7285 7722 7723 10296 9737 9022 
10 1685 609 1523 1524 11957 12350 6760 6759 11661 6275 
10 518 517 1431 683 3054 9673 9051 3545 3546 12211 
10 1524 609 1349 437 11661 10277 6274 10878 3326 10276 
10 682 1599 1431 683 8772 6498 8771 3547 11725 12211 
10 206 349 518 1431 8225 9049 3053 11726 5997 9051 
10 2123 1238 1266 2117 9623 5477 9624 8290 8776 11570 
10 2076 1935 2106 1156 7954 8079 8080 11850 11849 12208 
10 380 1293 1338 381 10005 6531 11072 2646 8778 12042 
10 1291 378 1292 551 12018 9731 5582 12354 3154 11268 
10 1529 780 1690 614 10109 10000 6774 11254 3843 12355 
10 575 741 1490 740 3728 8917 8810 3726 3730 8811 
10 1696 620 1534 1535 11883 10365 6793 6792 11744 6308 
10 1695 1533 1534 619 6790 6305 6789 11635 11634 10355 
10 1245 2076 2106 1156 12370 8080 12207 5310 11850 12208 
10 143 286 285 1339 8358 2431 8357 12015 5723 5724 
10 1694 618 784 783 11812 3855 10761 11702 3853 3857 
10 566 1308 1307 1481 8748 5631 12403 9029 6147 6148 
10 1577 662 1578 1739 10657 9496 6439 6919 9495 6918 
10 1738 827 1577 1739 9001 12068 6915 6920 11998 6919 
10 241 98 383 97 8449 2651 11920 8448 2235 2650 
10 1097 1997 1096 1208 12234 11544 4807 5173 11545 5172 
10 2076 2123 1266 2117 8147 9624 12265 8260 8290 11570 
10 458 1370 317 174 12334 5816 12369 2876 11965 8420 
10 1467 721 1739 555 12020 11397 6931 10623 3669 8720 
10 730 1480 1646 1647 12026 6643 11256 9367 6647 6648 
10 1546 631 1371 459 12062 12366 6340 10510 3392 10433 
10 459 631 1371 458 3392 12366 10433 2881 3391 10434 
10 1803 899 900 1052 11334 4205 9165 11854 4666 4667 
10 1485 569 570 735 10580 3212 9272 9629 3710 3711 
10 1320 407 578 406 10896 3235 9655 8799 2724 3234 
10 264 1320 1319 406 5666 5667 5662 8797 8799 8820 
10 631 1545 1371 458 11186 6336 12366 3391 11187 10434 
10 1322 580 1495 1321 9152 8813 6189 5673 11830 6190 
10 2123 1238 2117 1950 9623 8776 8290 8146 10549 8113 
10 781 616 1692 782 3847 12424 8895 3851 3849 8897 
10 1509 594 1336 595 12122 12345 6231 11765 3287 11625 
10 585 1500 751 1501 10208 10176 3758 10207 6209 11574 
10 426 143 285 1339 2782 8357 11671 10050 12015 5724 
10 1749 1588 669 1750 6950 9532 12082 6954 6952 11922 
10 1775 805 1557 1556 10183 10182 7033 7032 11051 6374 
10 932 1717 808 805 12335 9047 4524 4300 9442 3925 
10 142 426 285 1338 2781 11671 8356 10068 10048 5720 
10 429 1342 602 430 8903 12112 3304 2794 11756 3305 
10 1678 602 1516 1517 10930 10931 6740 6739 9938 6254 
10 1555 1557 641 1383 6530 10954 10953 6376 6373 11796 
10 275 132 1331 417 8517 11160 5699 8835 2753 11100 
10 693 380 1338 381 3579 11072 10067 3580 2646 12042 
10 1768 990 1794 766 11670 11960 7329 8879 4469 12416 
10 554 1555 641 1383 10581 10953 3585 10582 6376 11796 
10 1554 641 639 554 10952 3668 11167 12088 3585 3417 
10 57 30 56 482 2541 2540 2192 2949 10184 2948 
10 1860 1861 790 1701 7291 10579 12311 7286 7290 9688 
10 642 1385 471 1384 10894 10895 3427 12426 5863 12419 
10 608 1348 1523 436 10715 6271 10635 3323 10714 12357 
10 147 431 148 290 2795 2796 2286 8366 11125 8367 
10 470 18 1384 471 11819 5859 12400 2917 10744 12419 
10 652 651 817 1567 3459 3950 3951 10979 12194 12389 
10 1537 1699 788 623 6802 10699 11662 11663 11720 3868 
10 624 1364 1538 1539 11128 6315 12094 9716 6319 6320 
10 957 1861 790 1860 8812 10579 4372 10018 7291 12311 
10 624 1364 1539 452 11128 6319 9716 3371 11127 11298 
10 651 1566 1567 1394 11358 6406 12194 11359 6401 6405 
10 1581 1636 663 694 6617 10768 10245 10244 12295 3583 
10 1636 763 663 694 10766 3794 10768 12295 3795 3583 
10 789 956 790 1860 4369 4370 3875 10037 10019 12311 
10 1872 968 1712 802 10840 10385 7323 9399 4406 9400 
10 10 1423 526 1442 11441 10033 3079 12296 6032 10035 
10 19 1385 1384 471 5862 5863 5858 10743 10895 12419 
10 508 11 10 1442 10928 2509 3024 10508 6031 12296 
10 2101 1214 1118 2100 10301 5435 9517 8058 9503 9518 
10 2065 1213 1118 1019 11013 5256 11857 12197 5257 5019 
10 1761 1762 845 1004 6989 11562 11881 10546 10547 4508 
10 1762 1007 845 1004 9819 4517 11562 10547 4518 4508 
10 1550 463 1376 636 10822 10984 6351 10823 3406 11018 
10 2065 2100 1118 1213 8306 9518 11857 11013 9486 5256 
10 1380 184 327 1381 12039 8440 5846 5851 10421 5850 
10 1298 1467 1297 384 6107 6108 5601 11020 10920 11021 
10 1015 1936 2139 1118 11188 8251 11189 4868 12260 9519 
10 858 1929 1838 889 11347 7506 11693 4173 12078 11252 
10 1557 641 1384 1556 10954 11797 6372 6374 11551 6371 
10 18 19 1384 471 2153 5858 5859 10744 10743 12419 
10 1748 890 832 830 10362 4174 10363 11660 4175 3997 
10 1550 1711 801 1712 6837 11079 10842 6841 6842 9577 
10 1586 666 667 500 11771 3504 11366 11339 3499 3503 
10 1590 505 504 671 12291 3017 9501 10925 3514 3515 
10 56 481 482 1395 2946 2950 2948 11804 11803 10773 
10 345 514 1428 203 11695 9580 5987 8326 3040 10806 
10 347 1430 516 1429 5993 11681 9582 5991 5995 9583 
10 1430 682 681 1598 8770 3544 12041 6495 11781 12218 
10 517 682 516 1430 3542 3543 3051 9672 8770 11681 
10 974 975 812 1723 4426 4424 4422 9452 9454 10742 
10 1724 1562 1563 647 6874 6394 6873 9907 10774 9908 
10 1390 477 1563 647 11499 10169 6393 12324 3443 9908 
10 211 354 14 523 8346 8347 2354 3068 11470 3067 
10 1733 822 1572 1734 11993 12021 6900 6905 11026 6904 
10 162 445 1358 304 2838 11783 11793 8395 12415 5781 
10 1284 228 229 86 5557 2372 5556 10248 8568 8569 
10 822 657 1572 1734 3966 12023 12021 11026 12427 6904 
10 1524 609 610 775 11661 3330 10135 11959 3828 3829 
10 365 364 537 1277 2597 3112 3113 9206 11388 9207 
10 1623 1453 709 1622 6577 10638 10637 6578 6573 11501 
10 589 1331 1330 1504 10980 5700 10682 9109 6216 6217 
10 715 882 716 1630 4153 4154 3655 10552 9606 10847 
10 717 884 1632 1631 4159 12002 9372 10849 12003 6605 
10 1177 1942 1943 1035 10422 7551 9788 5065 9782 9780 
10 2083 1039 1117 1179 10380 5077 9205 8764 5075 5267 
10 886 990 1794 885 4559 11960 9363 4167 4586 9364 
10 549 1463 1633 1464 9253 6607 11229 9237 6100 6606 
10 1793 884 885 1040 12130 4164 10272 10131 4631 4632 
10 657 1573 1572 1734 11043 6424 12023 12427 6903 6904 
10 385 386 1299 557 2661 9334 11840 3171 3172 10206 
10 1306 250 392 1305 5624 10091 8911 5625 5620 10120 
10 1188 1953 1954 1054 10933 7583 10913 5108 11083 10914 
10 1531 616 1692 1530 11136 12424 6780 6296 9279 6781 
10 616 781 1692 1530 3847 8895 12424 9279 9393 6781 
10 1148 2047 1877 1006 11576 7854 9130 4958 10325 9700 
10 690 807 1745 852 3921 9141 11033 4053 4054 11713 
10 579 745 1494 744 3740 11629 10996 3738 3742 8726 
10 899 1645 729 898 12271 12051 4200 4202 12052 4198 
10 407 1320 578 579 10896 9655 3235 3237 10994 3239 
10 580 1495 1321 579 8813 6190 11830 3242 11038 10995 
10 1496 1322 580 1495 6193 9152 11873 6194 6189 8813 
10 1674 1507 758 757 6728 10121 9303 9105 9104 3781 
10 1744 690 1745 1583 11035 11033 6939 6936 11923 6937 
10 422 1335 421 593 10543 11954 2769 3280 10544 3279 
10 279 136 1335 421 8525 12057 5711 9429 2765 11954 
10 1507 758 592 1508 10121 3779 9658 6230 9033 9035 
10 1801 897 1644 898 9877 9878 7113 11877 4199 12217 
10 1673 926 757 927 10236 4282 9106 10801 4286 4284 
10 1051 1801 1802 898 11895 7117 10959 4663 11877 12420 
10 739 1489 1656 740 10642 6674 11910 3727 11531 10211 
10 1460 1287 546 1286 6086 10605 9223 6087 5567 9224 
10 739 574 1489 740 3723 10643 10642 3727 3725 11531 
10 990 767 1900 934 4470 9860 9692 4471 4304 9693 
10 1353 613 441 1528 9648 3338 9649 6286 10533 12275 
10 442 1529 615 1355 12001 10108 3343 9090 6288 9228 
10 1396 30 482 1395 5895 10184 10186 5896 5891 10773 
10 1489 574 1490 740 10643 8809 6176 11531 3725 8811 
10 613 1528 779 614 10533 10493 3840 3342 12276 3841 
10 41 1407 1406 493 5928 5929 5924 10780 10779 12391 
10 451 1364 452 168 11126 11127 2860 2856 12397 2858 
10 1823 921 1072 920 11383 4728 11384 11943 4268 4727 
10 1104 2004 1863 2003 12250 7734 11716 9462 7735 7730 
10 1667 921 1824 1823 11429 9384 7182 7178 11383 7183 
10 1112 2010 2011 966 11589 7756 9216 4850 11590 9217 
10 961 1865 962 795 11329 11902 4389 4385 12093 4387 
10 554 1555 467 1554 10581 12318 3164 12088 6368 12343 
10 1166 1014 2072 1923 5253 11736 11737 11980 9142 7942 
10 646 1562 1389 1561 10764 6390 10991 10765 6391 6386 
10 644 473 643 1559 3433 3431 3435 8994 12014 8996 
10 1876 972 973 1114 12359 4420 12390 11037 4858 4859 
10 492 67 1406 493 2979 12340 8915 2983 2981 12391 
10 1905 2039 933 1904 7831 9182 10159 7423 7830 12176 
10 382 1471 1407 493 11985 6118 10778 3086 12428 10779 
10 382 598 1471 493 3293 11435 11985 3086 3421 12428 
10 1907 832 1749 1906 11729 11730 7427 7429 10364 7425 
10 1748 1586 667 1587 6946 11366 11203 6947 6463 11204 
10 1905 1082 933 2039 11683 4755 10159 7831 9180 9182 
10 1418 338 194 504 5960 4792 9068 9069 11924 3013 
10 1894 1735 1736 986 7388 6911 7387 10287 10671 10670 
10 1442 675 508 1580 10684 3527 10508 6443 10685 10509 
10 992 1135 2039 933 4918 9181 12175 4478 4917 9182 
10 2047 1925 1877 1006 7855 7503 7854 10325 12196 9700 
10 1684 774 940 773 10967 4322 9662 8990 3827 4321 
10 1854 1997 1996 1096 7711 7712 7707 9722 11544 12133 
10 1754 1042 1756 865 10624 10133 6971 11380 4638 10134 
10 344 1427 513 1426 5984 9789 10707 5982 5986 11971 
10 1740 1012 1896 1011 10137 8907 7394 10138 4537 12127 
10 1042 1924 1754 1756 12200 7478 10624 10133 7479 6971 
10 1012 1159 1896 1011 5000 8906 8907 4537 4999 12127 
10 1854 1694 1695 784 7269 6791 7268 10221 10761 10763 
10 950 1694 1854 784 11703 7269 9960 4352 10761 10221 
10 1412 1584 690 1583 6452 11898 8860 6450 6454 11923 
10 1042 1016 1924 1756 5025 10334 12200 10133 9563 7479 
10 1023 1005 2031 1167 4581 11514 11800 5034 5032 11025 
10 1001 1920 1165 1919 8833 10389 5026 10411 7467 10390 
10 358 1445 530 531 12043 8888 3092 3094 8890 3096 
10 409 1322 581 1323 9150 11320 3243 9376 5676 11321 
10 584 583 1499 1325 3254 11627 11913 12323 10597 6202 
10 880 1036 1788 1035 4619 8968 8967 4617 4621 9781 
10 1627 1457 713 1626 6589 9613 9478 6590 6585 10161 
10 1865 1705 1706 795 7302 6824 7301 12093 10398 9343 
10 961 1705 1865 795 11530 7302 11329 4385 10398 12093 
10 543 1284 1457 544 9609 6077 9985 3135 9611 12374 
10 338 195 194 504 4791 2335 4792 11924 3012 3013 
10 892 1044 1879 887 4643 8971 12401 4181 4642 11989 
10 556 1467 721 1640 10919 12020 3670 11517 6625 11396 
10 857 1878 1934 1021 9711 7518 9712 4574 12171 11941 
10 1640 556 1472 722 11517 11508 6624 11518 3671 10641 
10 1577 827 826 661 12068 3983 12413 12069 3980 3978 
10 1485 1486 570 1312 6164 10480 9272 6159 6163 9274 
10 1486 571 570 1312 9876 3215 10480 6163 11754 9274 
10 1649 1650 903 733 6657 10607 11314 11618 10884 4212 
10 1158 1016 1912 1180 4998 10335 11843 5081 5078 11376 
10 1309 568 567 396 8874 3206 8872 10883 3204 3202 
10 1731 820 1732 1890 8898 10331 6899 7376 12429 7375 
10 261 118 262 1317 8489 8490 2406 5657 8986 5656 
10 2013 1931 867 1877 7760 11064 9131 7761 7510 9132 
10 1966 1067 1066 1818 10435 4713 10436 7617 10945 11643 
10 913 1817 1066 914 12347 10450 4708 4247 9674 4709 
10 913 1817 914 1660 12347 9674 4247 10947 7161 9676 
10 277 133 419 1332 8520 2758 11867 5701 11247 10260 
10 1773 828 867 1877 12105 4109 12288 7338 9699 9132 
10 837 1773 674 828 12148 10697 4010 4090 12105 3985 
10 1674 928 1830 927 9302 11831 7199 9911 4289 10800 
10 136 279 135 421 8525 8524 2273 2765 9429 2764 
10 593 759 1508 758 3782 10812 9034 3780 3784 9033 
10 1773 675 674 828 11515 3594 10697 12105 3984 3985 
10 990 886 1794 766 4559 9363 11960 4469 4534 12416 
10 429 1341 601 1516 8905 10281 3302 10929 6250 10059 
10 1650 734 903 733 9107 4213 10607 10884 3709 4212 
10 820 983 1732 1890 4448 10332 10331 12429 10521 7375 
10 1768 1770 766 1794 7013 11597 8879 7329 7330 12416 
10 770 937 1681 936 4312 10729 11337 4310 4314 10020 
10 1691 1850 947 1851 7256 9942 9943 7260 7261 8831 
10 1927 701 702 868 10720 3613 10721 9862 4112 4113 
10 1447 702 533 703 9183 3612 10506 9434 3616 3614 
10 1731 820 1890 982 8898 12429 7376 8899 4446 10520 
10 954 1099 2000 1857 4812 9063 9062 11249 10258 7720 
10 1150 1874 1009 997 12005 11496 4966 4965 11790 4525 
10 1612 1874 997 1774 7332 11790 8867 7031 7331 8868 
10 1700 789 790 1860 10038 3875 9717 7287 10037 12311 
10 798 1708 797 964 10820 10819 3899 4394 10965 4393 
10 109 253 252 1308 8472 2397 8471 10652 5629 5630 
10 869 1927 702 868 9861 10721 4114 4116 9862 4113 
10 203 204 515 346 2346 3043 3044 8311 8310 10807 
10 800 1871 1870 967 9055 7321 12226 4402 9056 9118 
10 2061 2105 1934 1021 8077 8075 7899 9829 9745 11941 
10 204 1429 515 346 9117 10144 3043 8310 5990 10807 
10 1421 507 1593 1422 9926 9309 6479 5973 9925 6480 
10 1729 1887 1728 817 7366 7367 6890 10760 10758 12310 
10 1185 1238 1950 1050 5288 10549 11934 5100 5287 11747 
10 1608 1425 691 1594 6526 11845 11439 6540 6483 8871 
10 508 674 1593 1580 3523 9310 9308 10509 11516 6481 
10 507 673 1593 674 3520 12293 9309 3524 3525 9310 
10 1891 983 1890 1732 9809 10521 7380 7379 10332 7375 
10 1397 484 483 58 9004 2956 9006 11365 2954 2952 
10 1740 1608 698 1594 6921 11417 10139 6922 6540 8870 
10 1612 1018 1898 1677 10336 10787 7399 7026 10989 7400 
10 1526 611 439 612 11149 3332 10750 11028 3336 3334 
10 1751 833 1750 1908 12178 9490 6957 7431 10405 7430 
10 1005 2030 2031 1167 9703 7811 11514 5032 10204 11025 
10 507 508 1593 1422 3026 9308 9309 9925 10446 6480 
10 1422 508 1593 1580 10446 9308 6480 6442 10509 6481 
10 1423 1469 527 509 6111 10845 12100 10338 11447 3082 
10 707 1620 1451 706 9678 6567 9547 3628 9679 11942 
10 864 1779 930 841 9815 11362 4293 4102 9817 4294 
10 1916 1760 1915 999 7453 7451 7455 11760 12073 11758 
10 1790 1944 1789 1037 7552 7553 7084 12157 10413 10963 
10 1022 1914 1759 1915 12412 7448 10576 12074 7452 7450 
10 1013 1913 1164 931 11578 9638 5020 4542 11763 5021 
10 1601 1762 1602 845 6987 6988 6508 11829 11562 12381 
10 853 681 854 1598 4056 4060 4061 11209 12218 11210 
10 586 585 751 1501 3260 3758 3759 9897 10207 11574 
10 1643 1476 1477 727 6635 6137 6634 10610 10608 11080 
10 547 717 1462 1461 3656 9374 10596 10291 10850 6094 
10 1630 882 716 883 9606 4154 10847 10737 4158 4156 
10 1036 881 1789 1037 4620 12186 12328 4624 4622 10963 
10 1789 1037 1943 1036 10963 10415 7549 12328 4624 9787 
10 1790 881 1629 882 12185 11743 7083 9607 4155 9608 
10 1938 1029 1172 1171 11244 5047 10866 12212 5046 5049 
10 1046 1045 1182 2029 4650 5088 5089 9042 9040 11432 
10 1264 1232 2124 1244 5486 10677 9199 5507 5305 10484 
10 640 829 1766 804 3986 9706 9704 3916 3988 10105 
10 564 563 1479 1305 3194 8921 9841 10119 8920 6142 
10 1834 1003 971 806 11367 4507 11218 12206 4505 4415 
10 558 1474 1473 724 10901 6128 11235 3677 9325 11312 
10 1474 1641 724 725 6630 9615 9325 9323 8964 3682 
10 1790 881 882 1037 12185 4155 9607 12157 4622 4623 
10 2124 1264 2126 2093 9199 8701 8257 8152 12298 8258 
10 1256 1172 2111 1173 5399 12372 9065 5400 5052 9066 
10 1790 881 1037 1789 12185 4622 12157 7084 12186 10963 
10 710 1454 1623 1624 11656 6576 11821 11547 6580 6581 
10 1799 895 1800 1642 10802 12165 7111 7107 9254 7109 
10 770 937 771 1681 4312 4313 3818 11337 10729 10600 
10 895 1641 1800 1642 8963 7110 12165 9254 6633 7109 
10 820 983 1890 982 4448 10521 12429 4446 4450 10520 
10 2087 2061 2086 1116 8289 8216 8014 12255 9830 10799 
10 2036 1048 1184 2066 10440 5095 8775 7933 9175 8755 
10 2105 2061 2087 1116 8077 8289 8288 9831 9830 12255 
10 1652 906 1653 1809 9630 9631 6666 7137 11403 7136 
10 1645 899 1802 898 12271 11997 7116 12052 4202 12420 
10 2036 1799 1048 2066 7822 9176 10440 7933 7914 9175 
10 1048 1047 1184 2066 4656 5094 5095 9175 9617 8755 
10 580 1496 746 581 11873 9756 3743 3245 10998 3744 
10 987 825 824 1736 4461 3976 4460 11193 11685 10672 
10 1060 1960 1811 1959 10321 7600 11594 10063 7601 7596 
10 1837 1023 2031 1922 10386 11800 7809 7494 12153 7810 
10 274 130 416 1329 8514 2749 11382 5692 12373 8851 
10 1069 917 1820 1821 4718 9646 10474 11091 11090 7174 
10 1062 910 1814 1063 4697 9351 12282 4701 4699 10863 
10 915 1819 1662 1818 12220 7167 10122 11642 7168 7163 
10 130 274 273 1329 8514 2418 8513 12373 5692 5693 
10 1067 915 1818 1819 4712 11642 10945 9642 12220 7168 
10 1810 1959 1059 1811 7597 9742 9558 7144 7596 9556 
10 921 1667 1668 751 11429 6711 10632 4266 10177 12396 
10 1073 1243 1972 1072 5301 8707 11573 4732 5304 11431 
10 1243 1203 1972 1072 5422 8709 8707 5304 5151 11431 
10 1071 1823 1072 920 11406 11384 4729 4725 11943 4727 
10 1959 1060 1059 1811 10063 4692 9742 7596 11594 9556 
10 1078 1830 1079 927 11717 10503 4978 4746 10800 4748 
10 926 1672 1828 1829 9534 7193 9535 10237 7197 7198 
10 1309 396 567 395 10883 3202 8872 12254 2691 3201 
10 1830 1673 927 1829 7200 10801 10800 7201 7196 12263 
10 1619 871 1897 1901 9575 9981 7397 7409 10288 7412 
10 1821 1665 1822 918 7172 7176 7177 11092 9190 12386 
10 1686 1845 775 942 7241 12048 10247 8677 8678 4327 
10 1845 941 775 942 11956 4325 12048 8678 4329 4327 
10 1090 2129 2127 1144 11436 8227 11863 5324 11437 11637 
10 2092 2079 1235 2095 8160 12286 10065 8161 8159 10066 
10 1697 787 953 786 11282 4361 11309 11283 3866 4360 
10 1856 952 953 1098 10263 4362 11310 10264 4808 4809 
10 351 1434 520 1433 6005 10299 10300 6003 6007 12367 
10 1363 1537 623 1538 6312 11663 12225 6316 6317 11721 
10 2034 891 889 1043 9719 4178 11251 9720 4639 4640 
10 461 1548 634 1374 12430 11258 3400 8982 6345 11055 
10 1366 453 1365 312 11719 10956 5806 5805 9153 5801 
10 1682 1841 938 1842 7229 8699 12114 7233 7234 8700 
10 1386 48 47 21 8997 2183 8999 5864 2523 2522 
10 1665 919 1822 918 10871 9258 7176 9190 4262 12386 
10 2005 960 1105 1864 10531 4830 8805 7737 12209 9747 
10 1876 973 1835 1120 12390 9758 7337 11577 4872 9089 
10 948 1093 1094 1994 4794 4798 4796 8980 9460 9461 
10 803 932 1714 1873 4298 12431 9619 11169 11168 7325 
10 948 1852 1995 949 8978 7705 8979 4350 12129 11491 
10 96 382 97 240 2648 2649 2234 8446 10620 8447 
10 1045 893 892 1933 4646 4184 4645 9909 11504 12161 
10 1933 892 1879 1637 12161 12401 7516 7515 10723 7395 
10 1707 631 797 796 12061 3894 11890 12166 3892 3896 
10 1704 794 1864 960 9455 11529 7299 9456 4382 12209 
10 932 1775 1714 1873 11817 7328 12431 11168 7482 7325 
10 706 1451 707 537 11942 9547 3628 3624 9211 3626 
10 585 413 1326 1327 3255 9161 10230 9121 10069 5688 
10 1002 2015 2014 1899 12199 7937 11706 10471 7765 7763 
10 706 536 1451 537 3623 11196 11942 3624 3114 9211 
10 1775 855 932 1714 10679 4299 11817 7328 10681 12431 
10 888 765 1899 1002 4171 10140 12362 4531 4503 10471 
10 1639 829 1921 1766 10112 11534 7468 7001 9706 7469 
10 1639 1834 1921 971 7211 7471 7468 10330 11218 11220 
10 2078 1119 1921 971 9790 9791 7962 11219 4871 11220 
10 1245 2146 2106 2117 12239 8325 12207 12240 8324 8259 
10 981 818 1730 819 4442 9852 12076 4443 3958 9030 
10 1610 864 1774 1612 9816 8866 7030 6544 8865 7031 
10 1955 1240 1956 2080 9018 9017 7589 7989 10916 7988 
10 855 803 932 1714 4080 4298 4299 10681 9619 12431 
10 941 1845 1844 1987 11956 7243 12169 9427 7680 7681 
10 2140 1167 1081 2085 10202 5033 10315 8262 10203 12290 
10 1845 941 1088 1987 11956 4775 9227 7680 9427 10246 
10 1938 1172 2058 2111 10866 10868 7889 8095 12372 8094 
10 653 818 819 1730 3954 3958 3956 9850 9852 9030 
10 1443 595 1444 596 12011 12110 6041 11622 3290 11623 
10 708 1452 1622 1453 9212 6574 8791 11937 6067 6573 
10 549 1463 548 718 9253 8825 3150 3660 11226 3659 
10 1042 1911 1154 1011 12382 11753 4974 4637 12128 4975 
10 1158 1913 1912 931 11206 7446 11843 4997 11763 11844 
10 1953 1805 1954 1054 7578 7582 7583 11083 11085 10914 
10 732 902 733 1649 4209 4210 3706 12349 11313 11618 
10 1951 1803 1052 1802 7573 11854 9539 7574 7120 10960 
10 578 406 577 1319 3234 3232 3236 9656 8820 9157 
10 1916 1761 999 1004 7454 12203 11760 11214 10546 4510 
10 662 1577 1578 1405 10657 6439 9496 10658 6434 6438 
10 913 1817 1660 1816 12347 7161 10947 11096 7162 7157 
10 1462 717 548 718 9374 3657 8827 9375 3661 3659 
10 1075 1826 1074 1974 10513 8845 4738 12216 7641 11564 
10 1220 2088 1204 1161 12394 12383 5315 5209 12257 5272 
10 993 833 834 1908 4480 4003 4479 10367 10405 9786 
10 871 1619 1618 1901 9575 6566 9576 10288 7409 7410 
10 1564 648 1725 1563 11779 12432 6876 6397 10171 6877 
10 943 1847 1846 1989 9007 7249 10688 11935 7686 7687 
10 80 1279 223 1278 8673 5542 8557 8674 5543 5538 
10 1235 1086 2095 1153 5274 12187 10066 5275 5042 12080 
10 1088 2128 1087 1043 9248 11837 4777 5323 9250 5167 
10 2094 2048 1041 2128 8118 11536 9834 8309 8338 12016 
10 2017 866 2049 1083 11872 12287 7938 10528 4757 12246 
10 829 989 971 1921 4467 4468 4414 11534 11535 11220 
10 2094 1086 1041 2095 9833 5041 9834 8039 12187 11874 
10 2059 2048 1929 1010 7959 7857 7891 9194 11537 11899 
10 1236 1209 2132 1134 5285 11323 11558 5278 5262 11455 
10 1695 785 1855 951 9045 9044 7272 12388 4355 9723 
10 1115 1916 999 1004 10304 11760 4861 4860 11214 4510 
10 1089 943 942 1989 4779 4332 4778 12142 11935 12425 
10 499 1414 1413 333 10045 5949 9422 10047 5947 5945 
10 1145 2136 1208 2040 10216 12135 5383 10217 8229 12236 
10 1108 2006 1866 1107 10113 7739 11374 4840 9484 11904 
10 462 1375 1374 1549 8991 5833 8993 11423 6348 6349 
10 468 469 16 1382 3085 10100 9098 9097 10461 5854 
10 1108 2006 1107 1214 10113 9484 4840 5188 9502 5187 
10 1865 961 962 1107 11329 4389 11902 11644 4835 4836 
10 963 1867 964 1708 11550 11524 4395 11891 7307 10965 
10 1988 1089 942 1989 10968 4778 9225 7688 12142 12425 
10 866 1902 2049 1138 8711 7859 12287 4927 11733 11834 
10 1251 2138 1142 1244 10079 9770 5347 5488 9771 5307 
10 1755 640 1766 804 10339 9704 7048 10341 3916 10105 
10 1097 952 951 1855 4806 4359 4805 12377 10265 9723 
10 1936 1015 863 1118 11188 4556 12119 12260 4868 4869 
10 1045 1133 2029 1044 5087 10983 9040 4647 4996 9032 
10 55 28 1394 29 2537 5889 10709 2538 2163 5888 
10 1894 1133 2028 1132 8891 10902 7801 10376 4913 10904 
10 1128 2024 982 1889 10453 12174 4897 12177 7790 11076 
10 1564 814 1725 648 11174 9768 6876 11779 3941 12432 
10 1097 951 1096 1855 4805 4803 4807 12377 9723 9724 
10 1997 1097 1096 1855 12234 4807 11544 7710 12377 9724 
10 1183 2063 1229 2115 9594 11609 5406 9595 8166 12086 
10 1968 1199 1068 1200 12395 5139 10444 11415 5143 5141 
10 1069 1969 1200 1201 12365 11994 5142 5144 10282 5146 
10 2134 1223 2085 2119 12267 12289 8299 8130 11277 8272 
10 765 888 1899 1878 4171 12362 10140 12102 12170 7405 
10 1707 1706 962 1866 6827 10777 12167 7304 7305 11903 
10 2096 1982 1239 1152 8040 10225 9660 9661 12301 5277 
10 1616 869 870 1780 9570 4119 8768 7055 9748 9750 
10 1935 1009 1930 1774 12336 11497 7528 7527 11498 7507 
10 1027 871 1026 2073 4592 4590 4594 10482 10289 8855 
10 1706 1865 962 1866 7301 11902 10777 7305 7306 11903 
10 1903 1014 2072 1163 11927 11736 7940 9671 5017 9469 
10 1903 992 1014 1163 9596 4920 11927 9671 5016 5017 
10 1475 388 559 1301 11400 3178 10940 6130 9220 12433 
10 1628 881 1629 1789 11742 11743 6596 7080 12186 7079 
10 549 1463 718 1633 9253 11226 3660 11229 6607 11227 
10 602 767 1516 601 3805 10058 10931 3306 3804 10059 
10 85 84 370 227 2221 2610 2611 8566 8565 9952 
10 1033 1939 1032 1940 9514 11972 4612 9515 7542 11293 
10 2052 1962 1963 1195 8003 7610 8002 12266 11805 12274 
10 1628 1788 881 1789 7076 8969 11742 7080 7081 12186 
10 930 864 1009 1774 4293 4526 4527 11364 8866 11498 
10 319 176 177 460 8424 2315 8425 11893 2882 2883 
10 2114 1258 1228 2115 12245 5442 12106 8107 12280 11575 
10 1121 974 1882 975 4875 9451 9510 4876 4426 9453 
10 1709 633 798 1547 11237 3898 8670 6832 10127 10126 
10 1916 1760 999 1761 7453 12073 11760 7454 6986 12203 
10 1760 844 999 1761 12351 4495 12073 6986 10876 12203 
10 1238 1260 2117 1184 5439 11569 8776 5349 5438 8777 
10 1198 1165 2055 1241 5377 12025 10448 5295 5384 11479 
10 685 846 845 1602 4034 4035 4030 9155 12322 12381 
10 1474 1475 559 1301 6131 10940 9324 6126 6130 12433 
10 1760 1022 1759 1915 10575 10576 6983 7451 12074 7450 
10 2050 1267 1961 2051 9803 9307 7998 7866 9306 8001 
10 1160 2052 1261 2051 11266 11267 5469 10129 7869 10130 
10 1914 1022 1759 1013 12412 10576 7448 11579 4981 11212 
10 388 387 559 1301 2667 3177 3178 9220 12417 12433 
10 1722 811 1560 1561 10910 10558 6868 6867 10556 6388 
10 1238 1049 1184 2036 5289 5097 5349 8774 10439 8775 
10 1260 2116 2117 1184 12285 8115 11569 5438 8754 8777 
10 1883 2032 1882 975 7570 7812 7356 10396 12205 9453 
10 1933 1045 1928 2029 9909 9039 7517 7921 9040 8032 
10 1258 2116 2115 2146 12284 8226 12280 9077 8317 8314 
10 387 1300 559 1301 11841 10900 3177 12417 5610 12433 
10 1258 1229 1228 2115 5409 5241 5442 12280 12086 11575 
10 1573 657 658 823 11043 3477 10795 10796 3968 3969 
10 1159 1896 1911 2045 8906 7441 11752 10917 7848 7849 
10 1159 1181 1896 2080 5086 8908 8906 10918 11483 7968 
10 1257 1191 1959 1192 5416 11377 11378 5417 5120 10062 
10 2013 1137 2033 1250 12253 11559 7901 12179 5379 12308 
10 1959 1958 1191 2069 7598 8688 11377 7994 7995 10551 
10 1599 682 854 843 8772 4059 11782 11724 4026 4062 
10 2138 2145 1262 1251 8334 8974 11243 10079 10080 5503 
10 308 165 166 449 8402 2304 8403 11114 2849 2850 
10 1119 989 1921 971 4870 11535 9791 4871 4468 11220 
10 1938 2035 1029 1171 7820 11245 11244 12212 10536 5046 
10 1201 1970 1202 1070 9856 11665 5149 5145 9858 5147 
10 2035 1029 1171 1028 11245 5046 10536 11454 4600 5045 
10 1969 1141 1948 1200 10178 11492 8109 11994 5428 11493 
10 1970 1071 1202 1070 12375 5148 11665 9858 4726 5147 
10 532 1617 702 1446 11871 10719 3611 9445 6559 9185 
10 1203 1971 1202 2109 8717 12385 5152 10056 8171 11664 
10 1971 1071 1203 1202 11405 5150 8717 12385 5148 5152 
10 1155 2140 1015 1081 12411 9732 4983 4982 10315 4753 
10 411 583 412 1325 3249 3250 2739 11601 10597 11751 
10 2032 1221 1123 2110 9605 5213 8948 8093 10853 10898 
10 87 230 229 372 8571 2373 8570 2617 8705 8696 
10 1300 1474 559 1301 6127 9324 10900 5610 6126 12433 
10 1155 2140 1081 2135 12411 10315 4982 11148 8329 10345 
10 1221 1155 1081 2135 5312 4982 5311 10852 11148 10345 
10 354 15 14 1437 2504 2508 8347 6014 6015 11690 
10 382 1295 1407 1471 10083 5930 10778 11985 6117 6118 
10 228 371 86 1284 9957 2614 8568 5557 9610 10248 
10 385 99 384 1298 2656 2654 2658 10588 10590 11020 
10 1297 1467 1470 555 6108 6115 6113 11916 10623 8722 
10 97 382 383 1296 2649 2652 2650 10622 10621 11062 
10 39 66 40 1405 2559 2560 2174 5922 10669 5921 
10 382 68 1407 1295 3071 10627 10778 10083 10082 5930 
10 1478 1645 729 1479 6641 12051 9621 6143 6640 9843 
10 1306 107 251 393 10107 8468 5623 8909 2680 11581 
10 391 105 249 106 2674 8464 12434 2675 2243 8465 
10 105 391 249 1304 2674 12434 8464 10090 10124 5617 
10 833 1749 832 669 9489 11730 4000 3999 12082 3995 
10 106 391 392 1305 2675 2679 2677 12337 12361 10120 
10 1815 1064 911 912 10235 4702 11976 11755 4703 4241 
10 813 648 1563 1725 3939 10171 9906 9769 12432 6877 
10 742 1658 911 1659 9948 9947 4237 10478 6684 10479 
10 818 981 1730 1888 4442 12076 9852 11274 11275 7369 
10 814 648 813 1725 3941 3939 3943 9768 12432 9769 
10 1364 451 624 1538 11126 3370 11128 6315 12356 12094 
10 1702 1861 958 1862 7289 8739 8741 7293 7294 8796 
10 1485 1652 1651 735 6662 6663 6658 9629 9627 9670 
10 128 413 414 1327 2741 2745 2743 12344 10069 9122 
10 1361 448 449 621 11884 2851 11115 11722 3361 3362 
10 622 1698 1536 787 8938 6799 8940 3865 11785 12406 
10 1876 2012 1937 1114 7896 7925 8108 11037 10197 12435 
10 440 439 612 1352 2824 3334 3335 8924 10695 11027 
10 433 1346 292 1345 11808 5745 9318 9319 5746 5741 
10 972 1876 1937 1114 12359 8108 11710 4858 11037 12435 
10 1937 2012 1149 1114 7925 10226 12189 12435 10197 4963 
10 1689 1848 1688 778 7250 7251 6773 11107 11108 11306 
10 1485 736 735 570 9628 3715 9629 9272 3713 3711 
10 943 1847 1090 944 9007 10717 4781 4335 8853 4782 
10 450 1537 623 1363 11118 11663 3367 11119 6312 12225 
10 620 1696 786 1535 11883 9437 3861 11744 6792 11285 
10 1537 1699 623 1538 6802 11720 11663 6317 6801 11721 
10 1223 1124 1222 2020 5218 5216 5220 10195 9599 9601 
10 1966 1067 1967 1198 10435 10946 7622 10437 5137 10937 
10 176 459 318 175 2880 10465 8423 2314 2879 8422 
10 1895 987 1736 988 8894 11193 7391 10727 4465 10905 
10 994 2043 1136 1134 9950 10361 4923 4915 10273 4924 
10 1372 1547 460 1373 6343 11967 11894 5827 6342 11968 
10 836 835 1752 995 4009 11144 12436 4485 4486 12251 
10 228 85 86 371 8567 2222 8568 9957 2613 2614 
10 994 1909 1136 2043 9949 10730 4923 9950 7843 10361 
10 1361 1536 449 1362 6310 11723 11115 5794 6309 11116 
10 1249 2002 2033 1250 9019 8033 11560 5342 9178 12308 
10 44 17 43 469 2515 2514 2179 2911 10099 2910 
10 16 469 468 43 10100 3085 9098 2513 2910 3076 
10 835 994 1752 995 4482 11143 11144 4486 4487 12251 
10 1616 869 1932 1767 9570 12156 7512 7005 9569 7513 
10 1548 633 1373 461 11676 11966 6346 12430 3398 10936 
10 838 675 694 1719 4014 3595 4013 11888 10757 10756 
10 825 1575 824 1736 10093 10094 3976 11685 6909 10672 
10 1737 825 1576 826 11198 11197 6912 10861 3979 12143 
10 1231 2068 1147 1979 9847 12437 5249 9848 8116 10944 
10 1025 2068 1147 1231 9854 12437 4956 5260 9847 5249 
10 1577 661 1404 491 12069 11121 6435 10659 3485 10286 
10 1577 1738 1576 826 6915 6916 6436 12413 9002 12143 
10 1924 1154 2075 1180 12201 9379 7951 11375 5080 12379 
10 1496 1663 1662 746 6695 6696 6691 9756 10076 9757 
10 1416 501 335 1415 9900 11230 5953 5955 11231 5951 
10 646 811 812 1561 3933 3937 3935 10765 10556 10741 
10 1752 1909 1910 995 7434 7438 7436 12251 10731 10467 
10 1907 2041 991 1906 7837 10342 12233 7429 7836 9902 
10 666 831 1746 762 3992 9888 12096 3793 3994 9889 
10 1687 776 943 1846 10218 4330 10687 7244 10220 10688 
10 512 343 1426 1425 10985 5981 11970 11032 5979 5983 
10 1515 600 428 601 8901 3299 10704 10921 3303 3301 
10 2037 1913 1912 1158 7825 7446 7824 9314 11206 11843 
10 1859 956 1101 955 9736 4818 9737 12222 4371 4817 
10 1209 1100 2133 1248 5175 10701 10463 5330 5331 10702 
10 1907 832 1906 991 11729 10364 7429 12233 4474 9902 
10 545 373 1285 1286 3137 10256 8716 9222 9967 5564 
10 301 1355 159 302 5772 9092 8389 2447 5771 8390 
10 1452 1278 538 1451 6063 8840 9215 6064 6059 9546 
10 1205 2090 1977 1976 12172 8022 9284 9286 8023 7652 
10 360 1447 1274 1273 11761 6047 9667 9665 6048 5528 
10 1616 703 1448 1618 8766 10505 6557 6563 8767 6562 
10 2061 2105 1021 1116 8077 9745 9829 9830 9831 4862 
10 220 76 362 1275 8551 2586 12353 5529 9584 8684 
10 1287 231 373 1286 5566 9966 10615 5567 5562 9967 
10 915 745 1662 746 4248 10500 10122 4249 3745 9757 
10 1243 2087 1116 1169 10486 12255 5303 5302 10488 5040 
10 1496 1497 581 1323 6197 11387 10998 6192 6196 11321 
10 1460 1630 716 1461 6598 10847 10783 6091 6597 10784 
10 635 1711 1550 1549 11077 6837 10821 11424 6838 6353 
10 598 662 764 1578 3577 3799 3796 8912 9496 9497 
10 598 662 1578 492 3577 9496 8912 3490 3488 8914 
10 797 1547 632 1546 10818 9635 3895 12063 6344 9633 
10 2069 1180 2075 1191 10097 12379 7952 10551 5389 8689 
10 565 566 1307 1481 3200 12403 11963 12022 9029 6148 
10 1953 1804 1054 1053 7579 11084 11083 11082 11914 4674 
10 1482 732 733 1649 9026 3706 11619 6653 12349 11618 
10 1154 1911 2075 2045 11753 7950 9379 9881 7849 7953 
10 797 1547 1546 1708 10818 6344 12063 10819 6828 6829 
10 408 407 579 1321 2727 3237 3238 10251 10250 10995 
10 1016 1042 1924 1180 5025 12200 10334 5078 5079 11375 
10 861 1042 1754 865 4636 10624 10626 4105 4638 11380 
10 1497 582 581 1323 10830 3248 11387 6196 11094 11321 
10 1958 1058 1191 1190 11133 5115 8688 8685 5113 5117 
10 995 1753 1752 836 10466 6963 12251 4485 12147 12436 
10 1671 756 925 755 9126 4279 11587 9127 3775 4278 
10 1482 567 1483 733 9677 8873 6155 11619 3704 10668 
10 633 1548 1373 1547 11676 6346 11966 10127 6347 6342 
10 1449 1276 535 1275 6053 9753 8682 6054 5534 8683 
10 175 318 317 1371 8422 2463 8421 10432 5819 5820 
10 457 173 316 174 2873 8418 11288 2874 2312 8419 
10 1372 459 1371 318 10511 10433 5824 5823 10465 5819 
10 1370 458 317 1371 12334 12369 5816 5821 10434 5820 
10 886 851 1770 766 4523 11833 11234 4534 4051 11597 
10 429 602 1516 601 3304 10931 10929 3302 3306 10059 
10 1203 1080 2109 1202 5459 10054 10056 5152 5453 11664 
10 1080 1201 2109 1202 5254 10283 10054 5453 5149 11664 
10 299 156 1352 298 8384 10694 5762 2444 8383 5763 
10 995 1753 836 996 10466 12147 4485 4562 10468 4489 
10 297 155 1351 438 8381 9814 5760 12421 2817 9406 
10 778 1688 1527 612 11306 6768 11011 3837 11307 11012 
10 1673 1674 927 757 6729 9911 10801 9106 9105 4284 
10 1236 2136 1143 2132 12137 11526 5279 11558 8270 11528 
10 486 61 60 34 2961 2196 2960 11003 2549 2548 
10 167 451 1363 450 2855 12224 11669 2853 2857 11119 
10 451 1364 310 1363 11126 5799 12214 12224 5800 5795 
10 1214 2101 1215 2008 10301 10302 5195 12237 8056 9974 
10 66 492 40 1405 2978 12339 2560 10669 10660 5921 
10 1709 965 799 1869 8671 4397 8672 7314 11342 11240 
10 178 461 320 177 2886 8983 8427 2316 2885 8426 
10 633 1548 634 461 11676 11258 3402 3398 12430 3400 
10 77 220 76 362 8552 8551 2213 2587 12353 2586 
10 1925 838 863 1772 12103 4095 12117 7486 12104 12108 
10 1936 2065 1118 1019 7913 11857 12260 12120 12197 5019 
10 1936 860 863 1015 12095 4096 12119 11188 4548 4556 
10 1936 860 1015 2060 12095 4548 11188 7892 9707 9708 
10 1936 1925 2065 1019 7530 7912 7913 12120 12118 12197 
10 1134 1143 2042 2132 4945 11527 10275 11455 11528 8239 
10 2023 1224 1225 2112 9195 5229 11506 8098 10752 11505 
10 1881 1716 1721 809 7348 6866 7347 8729 8947 8730 
10 2023 981 1127 2022 12151 4894 9196 7788 12152 10793 
10 2134 1223 1126 1224 12267 5221 10791 9197 5226 5224 
10 1568 653 1569 1730 9851 9420 6412 6892 9850 6891 
10 980 981 1888 2022 4444 11275 11276 10458 12152 7783 
10 420 421 1334 592 2766 9431 12418 3276 3277 9866 
10 2049 1902 2077 1138 7859 7957 7958 11834 11733 11697 
10 1507 1333 1334 592 6226 5709 6225 9658 12091 9866 
10 1979 1927 1932 1147 7917 7906 7985 10944 9863 12438 
10 1936 1925 863 1772 7530 12117 12119 7531 7486 12108 
10 202 514 513 1427 3041 3042 3037 9136 9581 9789 
10 837 673 674 1778 4011 3525 4010 12149 12294 10698 
10 673 1753 1778 836 9549 7047 12294 4007 12147 12146 
10 1819 1663 1820 916 7166 7170 7171 9643 10077 9647 
10 506 673 672 1592 3521 3522 3517 11651 9551 9550 
10 2081 1177 1230 1176 9832 5464 10494 10199 5067 5433 
10 847 846 1763 1000 4038 9799 9797 4497 4498 9801 
10 685 1601 1602 845 11140 6508 9155 4030 11829 12381 
10 191 334 335 1415 5098 2482 5070 11232 5950 5951 
10 1927 869 1932 1147 9861 12156 7906 9863 4955 12438 
10 1235 2079 1153 2095 12286 10041 5275 10066 8159 12080 
10 1614 525 696 597 9640 3589 10540 10601 3292 3601 
10 948 1093 1851 947 4794 8829 11201 4347 4793 8831 
10 1852 1693 1853 949 7262 7266 7267 12129 11130 11132 
10 1262 1171 1237 2084 5449 5283 5452 8975 10538 8976 
10 1034 1786 1033 1941 10153 10416 4615 10154 7544 10417 
10 830 1748 1747 667 11660 6948 9990 3990 11203 12071 
10 217 74 218 1273 8546 8547 2361 5524 9794 5523 
10 1221 2122 2143 2135 8861 8332 8862 10852 8213 8348 
10 1155 1216 2143 1246 5432 8782 8784 5429 5431 8864 
10 1136 1139 1910 995 4932 10350 10732 4922 4931 10467 
10 1979 2068 1147 1932 8116 12437 10944 7985 7923 12438 
10 434 151 150 293 2805 2289 2804 9441 8373 8372 
10 1113 2104 1112 1218 9590 11591 4855 5203 9592 5202 
10 1218 1949 2012 2104 10926 7895 9593 9592 8149 8150 
10 2037 1959 1257 2069 7997 11378 9316 7928 7994 10098 
10 1801 1645 1802 898 7112 7116 7117 11877 12052 12420 
10 151 434 1347 293 2805 10255 10254 8373 9441 5748 
10 899 730 729 1646 4201 3697 4200 11335 11256 11255 
10 567 732 733 1482 3702 3706 3704 9677 9026 11619 
10 1959 1263 1192 1960 12162 5457 10062 7601 12163 11199 
10 1491 1658 742 1492 6680 9948 11467 6182 6679 11098 
10 1968 1199 1948 1967 12395 9085 8168 7625 9086 8169 
10 741 910 1657 740 4234 9353 8918 3730 4233 10212 
10 902 1649 903 733 11313 11314 4214 4210 11618 4212 
10 1826 924 1075 923 10512 4737 10513 12283 4277 4736 
10 2068 1025 1147 1932 9854 4956 12437 7923 12155 12438 
10 1509 1676 760 1510 6734 11475 12065 6236 6733 12066 
10 1440 140 283 1268 11692 8444 6022 6033 12316 6017 
10 1973 1169 1074 1974 10487 5154 11563 7643 11878 11564 
10 1975 2089 1974 1204 8018 8019 7646 10240 12273 11879 
10 752 1502 1668 1669 9894 6709 11284 11464 6713 6714 
10 1204 1075 1074 1974 5155 4738 5415 11879 12216 11564 
10 1520 605 606 771 9446 3318 11679 9448 3816 3817 
10 1025 869 1147 1932 4587 4955 4956 12155 12156 12438 
10 140 69 1268 355 2565 9970 12316 3070 2566 12313 
10 69 140 1268 212 2565 12316 9970 8536 12315 5510 
10 1333 420 1334 592 10262 12418 5709 12091 3276 9866 
10 1278 538 366 1279 8840 3116 8676 5543 12047 8675 
10 1278 1452 538 1279 6063 9215 8840 5543 6062 12047 
10 1575 824 1736 1574 10094 10672 6909 6430 11273 6910 
10 824 1735 1736 1574 10673 6911 10672 11273 6906 6910 
10 1905 762 1904 933 9987 9887 7423 10159 4302 12176 
10 1016 1757 1912 1756 9562 7443 10335 9563 6974 7442 
10 1535 448 1361 621 11745 11884 6306 8941 3361 11722 
10 956 957 790 1860 4374 4372 4370 10019 10018 12311 
10 549 550 377 1290 3153 3151 3149 9252 11604 8808 
10 550 549 1464 1290 3153 9237 9236 11604 9252 6099 
10 682 1430 1599 1598 8770 6497 8772 11781 6495 6499 
10 840 1012 1677 698 4539 10988 10987 4020 4538 11418 
10 1702 1540 626 791 6811 11675 11184 8742 10031 3877 
10 1795 970 1923 807 9652 9653 7477 12123 4412 9140 
10 1870 1869 799 966 7318 11240 12230 10192 12125 4399 
10 1551 1550 636 1712 6356 10823 10886 6840 6841 9578 
10 638 803 1552 637 3913 9618 9505 3414 3912 9277 
10 464 1551 1376 636 10885 6355 10982 3407 10886 11018 
10 803 1713 637 802 10470 9275 3912 3914 9398 3910 
10 102 387 388 1301 2663 2667 2665 12131 12417 9220 
10 387 102 245 1301 2663 8457 11318 12417 12131 5609 
10 1937 972 1114 1149 11710 4858 12435 12189 4962 4963 
10 1944 1178 2082 1943 10412 8763 7971 7554 10414 7972 
10 46 472 1385 471 2918 10893 11992 2916 2920 10895 
10 257 113 1312 256 8480 12407 5641 2401 8479 5642 
10 1385 642 1556 1384 10894 11052 6370 5863 12426 6371 
10 1383 470 1384 641 10525 12400 5860 11796 3425 11797 
10 398 113 1312 399 2696 12407 9281 2700 2698 9282 
10 113 398 1312 256 2696 9281 12407 8479 12188 5642 
10 1735 985 1893 1734 10072 11152 7384 6908 10074 7385 
10 1735 824 986 823 10673 4458 10671 10073 3973 4457 
10 660 825 1575 659 3975 10093 12144 3483 3974 10095 
10 657 822 823 1734 3966 3970 3968 12427 11026 10075 
10 2028 2063 1182 2029 8165 11610 10903 7806 8073 11432 
10 2142 2140 2060 1015 8275 8253 8274 11047 9732 9708 
10 1178 1177 2082 1943 5073 9777 8763 10414 9788 7972 
10 690 497 1583 553 3568 10310 11923 3578 3160 10312 
10 787 1697 1536 621 11282 6795 12406 3864 8942 8943 
10 852 1903 1014 1745 11991 11927 4544 11713 7416 9143 
10 1528 1690 779 614 6775 10001 10493 12276 12355 3841 
10 1409 496 186 495 9073 2989 12099 9763 2990 2986 
10 1746 852 665 1584 11711 4052 12319 6940 11712 11986 
10 946 1849 1690 779 10408 7253 9148 4339 10326 10001 
10 1207 1914 1013 1022 12136 11579 5164 5163 12412 4981 
10 1870 1711 800 1710 7316 11078 12226 7317 6839 12399 
10 1911 1740 1011 1754 7439 10138 12128 7440 6966 10625 
10 1528 1529 1690 614 6290 6774 6775 12276 11254 12355 
10 1750 1588 669 1589 6952 9532 11922 6953 6469 9531 
10 1394 481 29 1395 11806 11802 5888 5893 11803 5892 
10 481 652 1395 1567 3457 10772 11803 12193 10979 6404 
10 935 1839 1840 1984 9168 7228 9969 9968 7671 7672 
10 1335 422 280 1336 10543 12314 5710 5715 12329 5714 
10 135 420 421 1334 2762 2766 2764 9430 12418 9431 
10 420 135 278 1334 2762 8523 11305 12418 9430 5708 
10 1465 1291 1292 551 6102 5582 6101 11036 12354 11268 
10 1520 605 1345 1346 9446 9326 6262 6261 11677 5746 
10 2046 2123 1185 2067 8145 9625 11932 8134 8144 10644 
10 605 1519 1345 432 11996 6258 9326 3313 9356 9327 
10 849 1837 1743 1922 11789 7219 11017 11599 7494 7472 
10 1020 849 1615 1922 4582 11600 11613 11614 11599 7473 
10 605 1520 1345 1519 9446 6262 9326 11996 6263 6258 
10 697 1469 689 527 10843 11449 3600 3598 10845 3563 
10 1628 880 881 1788 11054 4152 11742 7076 8967 8969 
10 292 1346 150 293 5745 9440 8371 2438 5744 8372 
10 1793 1947 1792 1040 7561 7562 7093 10131 9971 11740 
10 144 286 1340 287 8359 5727 11222 8360 2432 5726 
10 884 1793 1632 1792 12130 7092 12002 11739 7093 7088 
10 1394 481 1395 1567 11806 11803 5893 6405 12193 6404 
10 1801 897 1050 1798 9877 4660 11746 7114 9243 11748 
10 897 728 727 1644 4195 3691 4194 9878 10232 12059 
10 1645 729 1479 1646 12051 9843 6640 6645 11255 6644 
10 1953 1053 1187 1952 11082 5106 10427 7580 11853 10545 
10 598 492 1406 493 3490 8915 8913 3421 2983 12391 
10 616 1531 444 1356 11136 11138 3347 11784 6295 8883 
10 739 1656 1655 909 11910 6675 11087 4230 11621 11088 
10 1530 616 443 1356 9279 3346 9280 6291 11784 11639 
10 1531 616 1530 1356 11136 9279 6296 6295 11784 6291 
10 363 1276 536 1277 9752 9754 3109 11981 5537 9864 
10 593 1335 421 1334 10544 11954 3279 12027 5712 9431 
10 1821 1070 918 1822 11419 4721 11092 7177 12299 12386 
10 1970 1821 1822 1070 7630 7177 7629 9858 11419 12299 
10 492 66 40 67 2978 2560 12339 2979 2202 2561 
10 765 888 1878 857 4171 12170 12102 4071 4170 9711 
10 695 1720 857 765 10373 11238 4070 3800 9884 4071 
10 441 1528 614 1354 12275 12276 3340 10942 6285 11694 
10 2015 1080 2014 2109 10320 11413 7937 8091 10054 8090 
10 1370 1545 458 1371 6337 11187 12334 5821 6336 10434 
10 2107 1254 1230 1083 9844 5393 12376 12235 5371 5246 
10 461 1548 1374 1373 12430 6345 8982 10936 6346 5830 
10 1471 598 1406 493 11435 8913 6547 12428 3421 12391 
10 774 1685 1684 940 12050 6761 10967 4322 9663 9662 
10 1991 1091 2129 1990 9240 9714 8187 7694 11040 8188 
10 1528 1529 614 1354 6290 11254 12276 6285 6289 11694 
10 1553 638 1552 1378 9504 9505 6362 6361 12422 6357 
10 1432 518 1431 683 9050 9051 6001 10976 3545 12211 
10 1407 1471 1406 493 6118 6547 5929 10779 12428 12391 
10 1854 1695 951 784 7268 12388 9721 10221 10763 4354 
10 24 1390 476 51 5877 9416 9123 2529 12439 2931 
10 638 466 465 1378 3413 2902 3412 12422 12033 11659 
10 2103 1111 1110 2009 10293 4849 10294 8063 9080 9081 
10 638 1553 466 1378 9504 11164 3413 12422 6361 12033 
10 1111 965 2009 2010 4847 9079 9080 11588 11341 7753 
10 633 1709 1548 1547 11237 6831 11676 10127 6832 6347 
10 1232 2124 2077 2093 10677 8151 10676 10029 8152 8030 
10 2015 2061 1878 888 7897 7898 7766 12198 9828 12170 
10 765 1720 857 1878 9884 11238 4071 12102 7340 9711 
10 1920 1157 2056 1948 8832 11411 7880 7565 12252 7881 
10 1390 477 476 51 11499 2935 9416 12439 2933 2931 
10 477 1390 25 51 11499 5876 11500 2933 12439 2530 
10 1390 24 25 51 5877 2159 5876 12439 2529 2530 
10 657 486 1400 487 3472 11004 12210 3473 2965 11001 
10 486 657 1400 1572 3472 12210 11004 11987 12023 6419 
10 486 61 34 1400 2961 2549 11003 11004 10999 5907 
10 1889 1731 982 819 7372 8899 11076 11502 8900 4445 
10 1570 1397 654 1569 6414 9005 11775 6415 6410 9751 
10 61 35 34 1400 2550 2169 2549 10999 5906 5907 
10 719 718 885 1633 3664 4162 4163 11228 11227 9366 
10 884 1793 885 1632 12130 10272 4164 12002 7092 10271 
10 1947 1900 1840 934 7827 7408 7826 9682 9693 9683 
10 1900 1678 1840 934 7406 7227 7408 9693 10973 9683 
10 2050 1267 1207 1164 9803 5490 11944 9637 5491 5165 
10 1042 1911 1011 1754 12382 12128 4637 10624 7440 10625 
10 497 187 1411 496 2992 9553 11688 2993 2988 9554 
10 1650 904 1651 1807 10606 9694 6660 7131 11474 7130 
10 1913 1158 1164 931 11206 5022 9638 11763 4997 5021 
10 1718 862 1836 1769 10043 11691 7214 7052 9572 7215 
10 1042 1911 1924 1154 12382 7481 12200 4974 11753 12201 
10 1401 488 487 62 10002 2968 11005 12440 2966 2964 
10 1023 1167 2031 1151 5034 11025 11800 4968 5038 9979 
10 862 1795 1769 1744 12029 7098 9572 9571 7099 7011 
10 1744 1583 1582 553 6936 6451 6935 9413 10312 9414 
10 2063 1046 1182 2029 9622 5089 11610 8073 9042 11432 
10 1933 1044 1879 892 8970 8971 7516 12161 4643 12401 
10 1300 1474 1473 558 6127 6128 6123 9331 10901 11235 
10 2063 1183 1182 1046 9594 5093 11610 9622 5091 5089 
10 622 787 1536 621 3865 12406 8940 3366 3864 8943 
10 602 1678 767 768 10930 9859 3805 3807 8756 3809 
10 488 1401 36 62 10002 5909 10004 2966 12440 2552 
10 1750 670 833 1751 10836 3998 9490 6957 10837 12178 
10 1628 715 881 714 11741 4151 11742 9879 3652 4150 
10 508 10 526 1442 3024 3079 3080 10508 12296 10035 
10 674 673 1593 1778 3525 12293 9310 10698 12294 7045 
10 1177 2081 2082 1943 9832 7973 9777 9788 7969 7972 
10 731 1647 1648 1481 9368 6651 10229 9927 6646 6650 
10 1773 675 1719 1580 11515 10757 7034 7028 10685 6860 
10 1188 2096 1955 1954 9659 8087 12380 10913 8162 7586 
10 901 902 1805 1054 4211 11074 11081 4672 4673 11085 
10 902 1806 1649 1805 11073 7128 11313 11074 7129 7124 
10 1955 1188 1954 1055 12380 10913 7586 10303 5109 10912 
10 35 61 62 487 2550 2197 2551 11000 2963 2964 
10 1816 1817 1965 1065 7162 7614 7615 9933 12348 10233 
10 1719 675 1613 1580 10757 10686 6861 6860 10685 6551 
10 706 1451 1450 1620 11942 6061 11425 9679 6567 6568 
10 1161 1169 2088 1204 5039 12258 12257 5272 5273 12383 
10 869 1927 1932 1767 9861 7906 12156 9569 7495 7513 
10 1828 1977 1976 1077 7651 7652 7647 9432 9285 9287 
10 1903 1014 1745 1923 11927 9143 7416 7476 9142 7475 
10 778 1689 945 779 11107 10370 4336 3842 10327 4337 
10 684 519 685 1433 3548 3552 3553 12181 10357 9156 
10 1988 942 1846 1989 9225 8679 7683 7688 12425 7687 
10 2128 1986 1987 1087 8185 7682 8184 11837 11700 9426 
10 2041 1143 991 1145 12036 4944 10342 10215 4951 4948 
10 519 208 520 1433 3055 3059 3060 10357 10359 12367 
10 35 1401 487 62 5910 11005 11000 2551 12440 2964 
10 1209 2043 2132 1134 10360 8240 11323 5262 10273 11455 
10 1236 1999 1098 1998 11557 10935 5334 9913 7718 11973 
10 684 1432 1433 1601 10974 6004 12181 11707 6503 6504 
10 684 519 1433 1432 3548 10357 12181 10974 9113 6004 
10 1586 666 1747 667 11771 12070 6944 11366 3504 12071 
10 1401 35 36 62 5910 2170 5909 12440 2551 2552 
10 1390 477 1391 1563 11499 10168 5881 6393 10169 6392 
10 979 1887 1728 1886 11714 7367 12309 11715 7368 7363 
10 448 620 1360 447 3359 12364 10430 2848 3358 10369 
10 1870 800 799 1710 12226 3905 12230 7317 12399 11241 
10 1773 1931 867 837 7509 11064 12288 12148 11065 4110 
10 1885 1124 978 1125 8961 4885 9138 10831 4889 4887 
10 2001 1100 2133 2000 10700 10701 8246 7724 9061 8201 
10 1126 980 2022 1127 4891 10458 10792 4895 4893 10793 
10 2024 1128 2023 1889 10453 11507 7791 7790 12177 7786 
10 2023 1224 2112 2134 9195 10752 8098 8217 9197 8220 
10 2112 2024 1128 2023 8097 10453 10452 8098 7791 11507 
10 1221 1122 2032 1123 5212 9528 9605 5213 4883 8948 
10 595 1444 1337 1510 12110 6375 11624 11764 6538 6234 
10 761 595 760 1510 3788 3786 3791 12012 11764 12066 
10 1268 1440 425 1444 6033 10825 12317 6039 6040 10827 
10 960 961 1864 2005 4386 11330 12209 10531 11331 7737 
10 1713 1872 969 1873 7322 9058 11459 7326 7327 9060 
10 1883 976 1884 2032 10395 9408 7359 7570 9407 7569 
10 1065 1965 1197 1241 10233 11611 5134 5296 11412 5359 
10 648 477 1391 478 3445 10168 10170 3446 2938 11816 
10 1676 761 760 1510 11480 3791 11475 6733 12012 12066 
10 1454 541 1455 710 9824 9825 6073 11656 3636 11503 
10 1220 2089 2088 2137 10477 8020 12394 9838 8323 8294 
10 506 1421 340 197 11653 5968 11861 3018 11200 4764 
10 710 1455 1624 711 11503 6579 11547 3640 9811 9910 
10 1007 1762 1917 1004 9819 7457 10571 4518 10547 10548 
10 189 332 1413 498 5222 5944 9423 2994 11281 9424 
10 217 73 1272 216 8545 9918 5520 2360 8544 5521 
10 710 877 1624 876 4138 11546 11547 4136 4140 12006 
10 2056 1165 1919 2055 10391 10390 7879 7902 12025 7877 
10 1539 452 1365 625 11298 10955 6318 9689 3373 10957 
10 358 1445 1272 1271 12043 6042 9919 10776 6043 5522 
10 1104 959 1863 1105 4827 10881 11716 4831 4829 11481 
10 2103 1111 1217 1216 10293 5199 9936 9935 5197 5201 
10 1540 1539 1365 625 6323 6318 6322 11674 9689 10957 
10 2076 1245 1266 1156 12370 5489 12265 11850 5310 5476 
10 599 1468 1635 1514 11809 6615 11811 8886 6245 6738 
10 1258 2116 1260 1184 12284 12285 5410 5408 8754 5438 
10 1245 1260 1259 2146 5505 5412 5504 12239 9076 9078 
10 1476 561 1477 727 9267 10808 6137 10608 3686 11080 
10 2134 1223 1224 2085 12267 5226 9197 8299 12289 12261 
10 2116 1258 1260 2146 12284 5410 12285 8317 9077 9076 
10 248 105 1304 390 8463 10090 5618 11595 2672 10125 
10 1282 369 370 542 10010 2612 10011 12326 3127 3128 
10 1621 873 1781 1620 9872 11216 7056 6572 9680 7057 
10 2087 1243 2086 1972 10486 8706 8014 8013 8707 8010 
10 74 360 218 1273 2580 9666 8547 9794 9665 5523 
10 696 1606 640 525 10539 9695 3590 3589 10541 3422 
10 597 696 1741 850 3601 10603 10602 4046 4047 11103 
10 1685 774 941 940 12050 4324 12049 9663 4322 4326 
10 1144 1089 1043 2127 5082 5083 4976 11637 11270 10328 
10 1777 1838 1741 850 7221 7222 7041 10117 11410 11103 
10 1041 2048 889 1043 11536 11253 4634 4641 11999 4640 
10 1764 847 1604 1603 9812 11134 6994 6993 9796 6514 
10 105 248 104 390 8463 8462 2242 2672 11595 2671 
10 1080 1201 1141 2109 5254 5255 4979 10054 10283 10179 
10 1201 1969 1141 2109 10282 10178 5255 10283 8158 10179 
10 912 1815 1659 911 11755 7154 10028 4241 11976 10479 
10 1656 910 909 740 10210 4235 11621 10211 4233 4231 
10 2109 1971 1202 1970 8171 12385 11664 8170 7634 11665 
10 2084 1256 2138 1262 12371 11242 8333 8975 5451 11243 
10 1172 2111 1173 2058 12372 9066 5052 10868 8094 10489 
10 2084 1256 1262 1172 12371 5451 8975 12268 5399 5450 
10 1119 2078 2124 1244 9790 8238 10678 5306 9773 10484 
10 2138 1256 2111 2124 11242 9065 8319 8269 10483 8305 
10 259 116 1315 401 8485 8959 5651 11738 2705 11324 
10 116 259 115 401 8485 8484 2253 2705 11738 2704 
10 1854 1095 1996 1853 9962 11473 7707 7270 9963 7708 
10 948 1852 1851 1994 8978 7264 11201 8980 7701 7702 
10 967 968 801 1871 4407 4405 4403 9056 10384 9057 
10 968 802 801 1712 4406 3911 4405 10385 9400 9577 
10 1434 686 685 1602 10318 3556 9154 6507 12321 9155 
10 1581 1469 663 1743 6552 11448 10245 6933 6934 10769 
10 671 1590 670 504 10925 9499 3516 3515 9501 3511 
10 921 1667 920 1823 11429 11929 4268 11383 7178 11943 
10 413 127 412 1326 2740 2738 2742 9161 9162 11333 
10 2004 1212 2099 2047 9657 10708 8191 8192 11178 8156 
10 860 1837 1636 763 10407 7218 12358 4076 10388 10766 
10 1837 1005 1926 2030 10387 9710 7491 7808 9703 7807 
10 2140 1155 1015 2142 12411 4983 9732 8275 10307 11047 
10 583 584 412 1325 3254 3252 3250 10597 12323 11751 
10 356 213 1269 214 11409 5512 9133 9959 2357 5511 
10 583 411 1324 1325 3249 9291 9296 10597 11601 5682 
10 1975 1204 1076 1976 10240 5156 10239 7649 11101 10243 
10 1161 1220 2088 2137 5209 12394 12257 10856 9838 8294 
10 1463 1462 548 718 6097 8827 8825 11226 9375 3659 
10 1443 595 596 761 12011 3290 11622 11668 3788 3789 
10 595 1444 596 424 12110 11623 3290 3286 10826 3288 
10 595 1444 424 1337 12110 10826 3286 11624 6375 9522 
10 1075 924 1827 1076 4737 10514 10515 4741 4739 10242 
10 422 594 423 1336 3282 3283 2772 12329 12345 11372 
10 151 435 294 1347 2807 11657 8374 10254 10253 5747 
10 220 77 1276 362 8552 11146 5533 12353 2587 12184 
10 1346 433 292 150 11808 9318 5745 9440 2802 8371 
10 433 1346 606 434 11808 11678 3316 2806 9439 3317 
10 1711 1871 801 1712 7320 9057 11079 6842 7319 9577 
10 2043 1209 2132 2133 10360 11323 8240 8241 10463 8277 
10 1234 2068 2091 2064 9855 8178 10442 10070 7924 8177 
10 1827 1975 1076 1976 7644 10239 10242 7648 7649 10243 
10 1841 937 1681 1682 10316 10729 7230 7229 12259 6752 
10 222 1278 80 223 5539 8674 8556 2366 5538 8557 
10 646 1562 812 647 10764 10740 3935 3444 10774 3936 
10 237 94 238 1293 8585 8586 2381 5584 11031 5583 
10 446 162 445 1358 2840 2838 2842 10647 11793 11783 
10 794 1704 1543 628 9455 6816 11860 3885 10172 10173 
10 1739 721 764 555 11397 3798 8721 8720 3669 3797 
10 794 1705 1543 1704 10399 6820 11860 9455 6821 6816 
10 1757 1913 1758 931 7444 7445 6977 11208 11763 10152 
10 642 641 1384 471 3429 11797 12426 3427 3426 12419 
10 1443 596 1269 529 11622 9134 6037 12044 3593 11827 
10 355 1269 1268 1444 9135 5513 12313 12409 6038 6039 
10 596 1269 355 1444 9134 9135 3419 11623 6038 12409 
10 1379 1554 467 1380 6364 12343 9491 5848 6363 9492 
10 554 639 1554 467 3417 11167 12088 3164 3416 12343 
10 1555 1381 467 1380 6366 12040 12318 6367 5851 9492 
10 681 1597 680 1429 9509 9508 3541 10142 6492 10143 
10 1596 1595 1756 865 6490 6969 6970 11381 11379 10134 
10 468 1381 184 467 9096 10421 2906 2908 12040 2904 
10 565 393 1306 1307 3195 8909 11962 11963 11582 5628 
10 479 649 650 1565 3449 3453 3451 10656 11179 10654 
10 512 201 513 1426 3034 3038 3039 11970 12126 11971 
10 649 479 1392 1565 3449 11099 11982 11179 10656 6399 
10 649 650 1565 815 3453 10654 11179 3944 3945 12090 
10 844 1760 999 843 12351 12073 4495 4029 10577 4496 
10 54 479 1393 27 2940 10648 10619 2535 10269 5886 
10 1726 649 1565 815 11176 11179 6879 11173 3944 12090 
10 660 490 1403 1576 3482 11110 11109 11433 11113 6432 
10 644 474 1560 645 3434 10087 9944 3438 3436 10559 
10 641 642 1384 1556 3429 12426 11797 11551 11052 6371 
10 650 1727 1565 815 11171 6883 10654 3945 11172 12090 
10 16 17 1382 469 2151 5853 5854 10100 10099 10461 
10 490 1403 1404 38 11110 5920 11112 11271 5915 5919 
10 30 56 482 1395 2540 2948 10184 5891 11804 10773 
10 495 1579 1439 1409 9764 6440 9746 9763 6441 6028 
10 816 651 1728 817 3948 11776 11777 3952 3950 12310 
10 57 483 1396 482 2951 9419 10185 2949 2953 10186 
10 1907 832 991 833 11729 4474 12233 9488 4000 4473 
10 1588 1749 668 1587 6950 12081 10736 6466 6949 9899 
10 563 391 1304 1305 3189 10124 8951 8920 12361 5622 
10 391 106 249 1305 2675 8465 12434 12361 12337 5621 
10 1597 681 1598 1429 9509 12218 6496 6492 10142 6494 
10 681 1430 1598 1429 12041 6495 12218 10142 5995 6494 
10 391 1304 1305 249 10124 5622 12361 12434 5617 5621 
10 56 30 29 1395 2540 2164 2539 11804 5891 5892 
10 2035 1027 2121 2073 11453 11979 8136 7944 10482 8137 
10 572 1487 1314 1313 11155 6165 9410 11156 6166 5649 
10 1113 967 1112 2011 4853 4851 4855 10039 9119 9216 
10 699 688 676 1638 3605 3596 3604 9102 10492 9103 
10 539 367 366 1279 3119 2603 3118 12046 12045 8675 
10 1857 1098 1099 1999 10934 4813 10258 7716 10935 10257 
10 1097 1997 1998 1855 12234 7715 9912 12377 7710 7714 
10 523 354 1437 1436 11470 6014 11689 9348 6012 6016 
10 523 1605 1437 1609 9450 6516 11689 11786 6554 6528 
10 705 706 1620 872 3625 9679 8694 4123 4124 10712 
10 536 1451 1277 1450 11196 6060 9864 9865 6061 6056 
10 705 1449 1450 535 10755 6058 8693 3620 8682 10057 
10 1449 1619 705 1450 6565 8692 10755 6058 6564 8693 
10 1509 594 1335 1336 12122 10542 6232 6231 12345 5715 
10 536 705 1450 535 3621 8693 9865 3111 3620 10057 
10 1111 2103 2010 2009 10293 8062 11588 9080 8063 7753 
10 1523 1348 1349 436 6271 5755 6270 12357 10714 10278 
10 145 429 288 1341 2789 8904 8362 10517 8905 5729 
10 429 145 428 1341 2789 2787 2791 8905 10517 10280 
10 428 145 144 287 2787 2283 2786 12304 8361 8360 
10 2008 1110 2009 2102 9973 9081 7750 8060 9975 8059 
10 481 651 1394 480 3455 11359 11806 2947 3454 10710 
10 1526 611 1351 439 11149 9405 6280 10750 3332 9404 
10 605 770 1519 604 3814 10279 11996 3315 3813 9338 
10 1566 651 650 480 11358 3456 11170 11066 3454 3452 
10 883 1038 1039 1791 4626 4630 4628 10738 10950 10733 
10 1792 884 883 1631 11739 4161 11875 7089 12003 10739 
10 884 717 883 1631 4159 4157 4161 12003 10849 10739 
10 1110 2103 2009 2102 10294 8063 9081 9975 8064 8059 
10 1792 883 1039 1791 11875 4628 11399 7090 10738 10733 
10 305 162 1358 304 8396 11793 5780 2450 8395 5781 
10 657 1573 1734 823 11043 6903 12427 3968 10796 10075 
10 1641 725 1475 1642 8964 10939 6629 6633 9255 6632 
10 725 726 1475 1642 3685 10085 10939 9255 10086 6632 
10 442 1355 159 301 9090 9092 2829 10943 5772 8389 
10 158 442 159 301 2828 2829 2297 8388 10943 8389 
10 1876 1114 973 1120 11037 4859 12390 11577 4874 4872 
10 985 1735 986 823 10072 10671 4459 4455 10073 4457 
10 1808 1057 905 1809 10835 4682 9270 7138 12190 10616 
10 1958 1058 1957 1809 11133 11404 7595 7594 12191 7590 
10 1957 1808 1809 1057 7591 7138 7590 10611 10835 12190 
10 1058 1957 1809 1057 11404 7590 12191 4686 10611 12190 
10 1222 1223 2119 1081 5220 11277 11278 5492 5392 11915 
10 413 128 271 1327 2741 8509 9160 10069 12344 5687 
10 1366 453 170 454 11719 2862 11259 11645 2866 2864 
10 1199 1968 1068 1967 12395 10444 5139 9086 7625 10445 
10 1498 748 1664 1497 12138 11538 6697 6200 12192 6698 
10 748 1498 1664 1665 12138 6697 11538 9189 6701 6702 
10 169 453 312 1365 2861 9153 8410 12398 10956 5801 
10 748 747 1664 1497 3751 11953 11538 12192 11386 6698 
10 747 1663 1664 1497 10089 6699 11953 11386 6694 6698 
10 1326 413 271 1327 9161 9160 5683 5688 10069 5687 
10 1832 1771 701 700 7484 9187 9188 12159 11487 3610 
10 16 185 43 468 12134 2909 2513 9098 2907 3076 
10 701 1832 929 868 9188 12139 4528 4112 11205 4529 
10 1509 1676 1675 760 6734 6735 6730 12065 11475 9012 
10 1097 1855 1998 1098 12377 7714 9912 4810 10266 11973 
10 759 1509 1675 760 10811 6730 9013 3787 12065 9012 
10 1757 1016 1912 931 9562 10335 7443 11208 4550 11844 
10 1258 2114 1228 1227 12245 12106 5442 5500 11350 5238 
10 1597 853 1757 1758 9507 11207 6973 6975 10151 6977 
10 941 1685 1844 1845 12049 7238 12169 11956 7242 7243 
10 473 644 1387 1559 3433 10088 11990 12014 8994 6380 
10 644 473 1387 474 3433 11990 10088 3434 2926 9053 
10 1753 2147 1591 1752 11426 11428 6961 6963 12441 6959 
10 2147 835 1591 1752 11921 11192 11428 12441 11144 6959 
10 835 836 1752 2147 4009 12436 11144 11921 12393 12441 
10 1753 2147 1752 836 11426 12441 6963 12147 12393 12436 

CELL_TYPES 6002
24
24
24
24
24
24
24
24
24
24
24
24
24
24
24
24
24
24
24
24
24
24
24
24
24
24
24
24
24
24
24
24
24
24
24
24
24
24
24
24
24
24
24
24
24
24
24
24
24
24
24
24
24
24
24
24
24
24
24
24
24
24
24
24
24
24
24
24
24
24
24
24
24
24
24
24
24
24
24
24
24
24
24
24
24
24
24
24
24
24
24
24
24
24
24
24
24
24
24
24
24
24
24
24
24
24
24
24
24
24
24
24
24
24
24
24
24
24
24
24
24
24
24
24
24
24
24
24
24
24
24
24
24
24
24
24
24
24
24
24
24
24
24
24
24
24
24
24
24
24
24
24
24
24
24
24
24
24
24
24
24
24
24
24
24
24
24
24
24
24
24
24
24
24
24
24
24
24
24
24
24
24
24
24
24
24
24
24
24
24
24
24
24
24
24
24
24
24
24
24
24
24
24
24
24
24
24
24
24
24
24
24
24
24
24
24
24
24
24
24
24
24
24
24
24
24
24
24
24
24
24
24
24
24
24
24
24
24
24
24
24
24
24
24
24
24
24
24
24
24
24
24
24
24
24
24
24
24
24
24
24
24
24
24
24
24
24
24
24
24
24
24
24
24
24
24
24
24
24
24
24
24
24
24
24
24
24
24
24
24
24
24
24
24
24
24
24
24
24
24
24
24
24
24
24
24
24
24
24
24
24
24
24
24
24
24
24
24
24
24
24
24
24
24
24
24
24
24
24
24
24
24
24
24
24
24
24
24
24
24
24
24
24
24
24
24
24
24
24
24
24
24
24
24
24
24
24
24
24
24
24
24
24
24
24
24
24
24
24
24
24
24
24
24
24
24
24
24
24
24
24
24
24
24
24
24
24
24
24
24
24
24
24
24
24
24
24
24
24
24
24
24
24
24
24
24
24
24
24
24
24
24
24
24
24
24
24
24
24
24
24
24
24
24
24
24
24
24
24
24
24
24
24
24
24
24
24
24
24
24
24
24
24
24
24
24
24
24
24
24
24
24
24
24
24
24
24
24
24
24
24
24
24
24
24
24
24
24
24
24
24
24
24
24
24
24
24
24
24
24
24
24
24
24
24
24
24
24
24
24
24
24
24
24
24
24
24
24
24
24
24
24
24
24
24
24
24
24
24
24
24
24
24
24
24
24
24
24
24
24
24
24
24
24
24
24
24
24
24
24
24
24
24
24
24
24
24
24
24
24
24
24
24
24
24
24
24
24
24
24
24
24
24
24
24
24
24
24
24
24
24
24
24
24
24
24
24
24
24
24
24
24
24
24
24
24
24
24
24
24
24
24
24
24
24
24
24
24
24
24
24
24
24
24
24
24
24
24
24
24
24
24
24
24
24
24
24
24
24
24
24
24
24
24
24
24
24
24
24
24
24
24
24
24
24
24
24
24
24
24
24
24
24
24
24
24
24
24
24
24
24
24
24
24
24
24
24
24
24
24
24
24
24
24
24
24
24
24
24
24
24
24
24
24
24
24
24
24
24
24
24
24
24
24
24
24
24
24
24
24
24
24
24
24
24
24
24
24
24
24
24
24
24
24
24
24
24
24
24
24
24
24
24
24
24
24
24
24
24
24
24
24
24
24
24
24
24
24
24
24
24
24
24
24
24
24
24
24
24
24
24
24
24
24
24
24
24
24
24
24
24
24
24
24
24
24
24
24
24
24
24
24
24
24
24
24
24
24
24
24
24
24
24
24
24
24
24
24
24
24
24
24
24
24
24
24
24
24
24
24
24
24
24
24
24
24
24
24
24
24
24
24
24
24
24
24
24
24
24
24
24
24
24
24
24
24
24
24
24
24
24
24
24
24
24
24
24
24
24
24
24
24
24
24
24
24
24
24
24
24
24
24
24
24
24
24
24
24
24
24
24
24
24
24
24
24
24
24
24
24
24
24
24
24
24
24
24
24
24
24
24
24
24
24
24
24
24
24
24
24
24
24
24
24
24
24
24
24
24
24
24
24
24
24
24
24
24
24
24
24
24
24
24
24
24
24
24
24
24
24
24
24
24
24
24
24
24
24
24
24
24
24
24
24
24
24
24
24
24
24
24
24
24
24
24
24
24
24
24
24
24
24
24
24
24
24
24
24
24
24
24
24
24
24
24
24
24
24
24
24
24
24
24
24
24
24
24
24
24
24
24
24
24
24
24
24
24
24
24
24
24
24
24
24
24
24
24
24
24
24
24
24
24
24
24
24
24
24
24
24
24
24
24
24
24
24
24
24
24
24
24
24
24
24
24
24
24
24
24
24
24
24
24
24
24
24
24
24
24
24
24
24
24
24
24
24
24
24
24
24
24
24
24
24
24
24
24
24
24
24
24
24
24
24
24
24
24
24
24
24
24
24
24
24
24
24
24
24
24
24
24
24
24
24
24
24
24
24
24
24
24
24
24
24
24
24
24
24
24
24
24
24
24
24
24
24
24
24
24
24
24
24
24
24
24
24
24
24
24
24
24
24
24
24
24
24
24
24
24
24
24
24
24
24
24
24
24
24
24
24
24
24
24
24
24
24
24
24
24
24
24
24
24
24
24
24
24
24
24
24
24
24
24
24
24
24
24
24
24
24
24
24
24
24
24
24
24
24
24
24
24
24
24
24
24
24
24
24
24
24
24
24
24
24
24
24
24
24
24
24
24
24
24
24
24
24
24
24
24
24
24
24
24
24
24
24
24
24
24
24
24
24
24
24
24
24
24
24
24
24
24
24
24
24
24
24
24
24
24
24
24
24
24
24
24
24
24
24
24
24
24
24
24
24
24
24
24
24
24
24
24
24
24
24
24
24
24
24
24
24
24
24
24
24
24
24
24
24
24
24
24
24
24
24
24
24
24
24
24
24
24
24
24
24
24
24
24
24
24
24
24
24
24
24
24
24
24
24
24
24
24
24
24
24
24
24
24
24
24
24
24
24
24
24
24
24
24
24
24
24
24
24
24
24
24
24
24
24
24
24
24
24
24
24
24
24
24
24
24
24
24
24
24
24
24
24
24
24
24
24
24
24
24
24
24
24
24
24
24
24
24
24
24
24
24
24
24
24
24
24
24
24
24
24
24
24
24
24
24
24
24
24
24
24
24
24
24
24
24
24
24
24
24
24
24
24
24
24
24
24
24
24
24
24
24
24
24
24
24
24
24
24
24
24
24
24
24
24
24
24
24
24
24
24
24
24
24
24
24
24
24
24
24
24
24
24
24
24
24
24
24
24
24
24
24
24
24
24
24
24
24
24
24
24
24
24
24
24
24
24
24
24
24
24
24
24
24
24
24
24
24
24
24
24
24
24
24
24
24
24
24
24
24
24
24
24
24
24
24
24
24
24
24
24
24
24
24
24
24
24
24
24
24
24
24
24
24
24
24
24
24
24
24
24
24
24
24
24
24
24
24
24
24
24
24
24
24
24
24
24
24
24
24
24
24
24
24
24
24
24
24
24
24
24
24
24
24
24
24
24
24
24
24
24
24
24
24
24
24
24
24
24
24
24
24
24
24
24
24
24
24
24
24
24
24
24
24
24
24
24
24
24
24
24
24
24
24
24
24
24
24
24
24
24
24
24
24
24
24
24
24
24
24
24
24
24
24
24
24
24
24
24
24
24
24
24
24
24
24
24
24
24
24
24
24
24
24
24
24
24
24
24
24
24
24
24
24
24
24
24
24
24
24
24
24
24
24
24
24
24
24
24
24
24
24
24
24
24
24
24
24
24
24
24
24
24
24
24
24
24
24
24
24
24
24
24
24
24
24
24
24
24
24
24
24
24
24
24
24
24
24
24
24
24
24
24
24
24
24
24
24
24
24
24
24
24
24
24
24
24
24
24
24
24
24
24
24
24
24
24
24
24
24
24
24
24
24
24
24
24
24
24
24
24
24
24
24
24
24
24
24
24
24
24
24
24
24
24
24
24
24
24
24
24
24
24
24
24
24
24
24
24
24
24
24
24
24
24
24
24
24
24
24
24
24
24
24
24
24
24
24
24
24
24
24
24
24
24
24
24
24
24
24
24
24
24
24
24
24
24
24
24
24
24
24
24
24
24
24
24
24
24
24
24
24
24
24
24
24
24
24
24
24
24
24
24
24
24
24
24
24
24
24
24
24
24
24
24
24
24
24
24
24
24
24
24
24
24
24
24
24
24
24
24
24
24
24
24
24
24
24
24
24
24
24
24
24
24
24
24
24
24
24
24
24
24
24
24
24
24
24
24
24
24
24
24
24
24
24
24
24
24
24
24
24
24
24
24
24
24
24
24
24
24
24
24
24
24
24
24
24
24
24
24
24
24
24
24
24
24
24
24
24
24
24
24
24
24
24
24
24
24
24
24
24
24
24
24
24
24
24
24
24
24
24
24
24
24
24
24
24
24
24
24
24
24
24
24
24
24
24
24
24
24
24
24
24
24
24
24
24
24
24
24
24
24
24
24
24
24
24
24
24
24
24
24
24
24
24
24
24
24
24
24
24
24
24
24
24
24
24
24
24
24
24
24
24
24
24
24
24
24
24
24
24
24
24
24
24
24
24
24
24
24
24
24
24
24
24
24
24
24
24
24
24
24
24
24
24
24
24
24
24
24
24
24
24
24
24
24
24
24
24
24
24
24
24
24
24
24
24
24
24
24
24
24
24
24
24
24
24
24
24
24
24
24
24
24
24
24
24
24
24
24
24
24
24
24
24
24
24
24
24
24
24
24
24
24
24
24
24
24
24
24
24
24
24
24
24
24
24
24
24
24
24
24
24
24
24
24
24
24
24
24
24
24
24
24
24
24
24
24
24
24
24
24
24
24
24
24
24
24
24
24
24
24
24
24
24
24
24
24
24
24
24
24
24
24
24
24
24
24
24
24
24
24
24
24
24
24
24
24
24
24
24
24
24
24
24
24
24
24
24
24
24
24
24
24
24
24
24
24
24
24
24
24
24
24
24
24
24
24
24
24
24
24
24
24
24
24
24
24
24
24
24
24
24
24
24
24
24
24
24
24
24
24
24
24
24
24
24
24
24
24
24
24
24
24
24
24
24
24
24
24
24
24
24
24
24
24
24
24
24
24
24
24
24
24
24
24
24
24
24
24
24
24
24
24
24
24
24
24
24
24
24
24
24
24
24
24
24
24
24
24
24
24
24
24
24
24
24
24
24
24
24
24
24
24
24
24
24
24
24
24
24
24
24
24
24
24
24
24
24
24
24
24
24
24
24
24
24
24
24
24
24
24
24
24
24
24
24
24
24
24
24
24
24
24
24
24
24
24
24
24
24
24
24
24
24
24
24
24
24
24
24
24
24
24
24
24
24
24
24
24
24
24
24
24
24
24
24
24
24
24
24
24
24
24
24
24
24
24
24
24
24
24
24
24
24
24
24
24
24
24
24
24
24
24
24
24
24
24
24
24
24
24
24
24
24
24
24
24
24
24
24
24
24
24
24
24
24
24
24
24
24
24
24
24
24
24
24
24
24
24
24
24
24
24
24
24
24
24
24
24
24
24
24
24
24
24
24
24
24
24
24
24
24
24
24
24
24
24
24
24
24
24
24
24
24
24
24
24
24
24
24
24
24
24
24
24
24
24
24
24
24
24
24
24
24
24
24
24
24
24
24
24
24
24
24
24
24
24
24
24
24
24
24
24
24
24
24
24
24
24
24
24
24
24
24
24
24
24
24
24
24
24
24
24
24
24
24
24
24
24
24
24
24
24
24
24
24
24
24
24
24
24
24
24
24
24
24
24
24
24
24
24
24
24
24
24
24
24
24
24
24
24
24
24
24
24
24
24
24
24
24
24
24
24
24
24
24
24
24
24
24
24
24
24
24
24
24
24
24
24
24
24
24
24
24
24
24
24
24
24
24
24
24
24
24
24
24
24
24
24
24
24
24
24
24
24
24
24
24
24
24
24
24
24
24
24
24
24
24
24
24
24
24
24
24
24
24
24
24
24
24
24
24
24
24
24
24
24
24
24
24
24
24
24
24
24
24
24
24
24
24
24
24
24
24
24
24
24
24
24
24
24
24
24
24
24
24
24
24
24
24
24
24
24
24
24
24
24
24
24
24
24
24
24
24
24
24
24
24
24
24
24
24
24
24
24
24
24
24
24
24
24
24
24
24
24
24
24
24
24
24
24
24
24
24
24
24
24
24
24
24
24
24
24
24
24
24
24
24
24
24
24
24
24
24
24
24
24
24
24
24
24
24
24
24
24
24
24
24
24
24
24
24
24
24
24
24
24
24
24
24
24
24
24
24
24
24
24
24
24
24
24
24
24
24
24
24
24
24
24
24
24
24
24
24
24
24
24
24
24
24
24
24
24
24
24
24
24
24
24
24
24
24
24
24
24
24
24
24
24
24
24
24
24
24
24
24
24
24
24
24
24
24
24
24
24
24
24
24
24
24
24
24
24
24
24
24
24
24
24
24
24
24
24
24
24
24
24
24
24
24
24
24
24
24
24
24
24
24
24
24
24
24
24
24
24
24
24
24
24
24
24
24
24
24
24
24
24
24
24
24
24
24
24
24
24
24
24
24
24
24
24
24
24
24
24
24
24
24
24
24
24
24
24
24
24
24
24
24
24
24
24
24
24
24
24
24
24
24
24
24
24
24
24
24
24
24
24
24
24
24
24
24
24
24
24
24
24
24
24
24
24
24
24
24
24
24
24
24
24
24
24
24
24
24
24
24
24
24
24
24
24
24
24
24
24
24
24
24
24
24
24
24
24
24
24
24
24
24
24
24
24
24
24
24
24
24
24
24
24
24
24
24
24
24
24
24
24
24
24
24
24
24
24
24
24
24
24
24
24
24
24
24
24
24
24
24
24
24
24
24
24
24
24
24
24
24
24
24
24
24
24
24
24
24
24
24
24
24
24
24
24
24
24
24
24
24
24
24
24
24
24
24
24
24
24
24
24
24
24
24
24
24
24
24
24
24
24
24
24
24
24
24
24
24
24
24
24
24
24
24
24
24
24
24
24
24
24
24
24
24
24
24
24
24
24
24
24
24
24
24
24
24
24
24
24
24
24
24
24
24
24
24
24
24
24
24
24
24
24
24
24
24
24
24
24
24
24
24
24
24
24
24
24
24
24
24
24
24
24
24
24
24
24
24
24
24
24
24
24
24
24
24
24
24
24
24
24
24
24
24
24
24
24
24
24
24
24
24
24
24
24
24
24
24
24
24
24
24
24
24
24
24
24
24
24
24
24
24
24
24
24
24
24
24
24
24
24
24
24
24
24
24
24
24
24
24
24
24
24
24
24
24
24
24
24
24
24
24
24
24
24
24
24
24
24
24
24
24
24
24
24
24
24
24
24
24
24
24
24
24
24
24
24
24
24
24
24
24
24
24
24
24
24
24
24
24
24
24
24
24
24
24
24
24
24
24
24
24
24
24
24
24
24
24
24
24
24
24
24
24
24
24
24
24
24
24
24
24
24
24
24
24
24
24
24
24
24
24
24
24
24
24
24
24
24
24
24
24
24
24
24
24
24
24
24
24
24
24
24
24
24
24
24
24
24
24
24
24
24
24
24
24
24
24
24
24
24
24
24
24
24
24
24
24
24
24
24
24
24
24
24
24
24
24
24
24
24
24
24
24
24
24
24
24
24
24
24
24
24
24
24
24
24
24
24
24
24
24
24
24
24
24
24
24
24
24
24
24
24
24
24
24
24
24
24
24
24
24
24
24
24
24
24
24
24
24
24
24
24
24
24
24
24
24
24
24
24
24
24
24
24
24
24
24
24
24
24
24
24
24
24
24
24
24
24
24
24
24
24
24
24
24
24
24
24
24
24
24
24
24
24
24
24
24
24
24
24
24
24
24
24
24
24
24
24
24
24
24
24
24
24
24
24
24
24
24
24
24
24
24
24
24
24
24
24
24
24
24
24
24
24
24
24
24
24
24
24
24
24
24
24
24
24
24
24
24
24
24
24
24
24
24
24
24
24
24
24
24
24
24
24
24
24
24
24
24
24
24
24
24
24
24
24
24
24
24
24
24
24
24
24
24
24
24
24
24
24
24
24
24
24
24
24
24
24
24
24
24
24
24
24
24
24
24
24
24
24
24
24
24
24
24
24
24
24
24
24
24
24
24
24
24
24
24
24
24
24
24
24
24
24
24
24
24
24
24
24
24
24
24
24
24
24
24
24
24
24
24
24
24
24
24
24
24
24
24
24
24
24
24
24
24
24
24
24
24
24
24
24
24
24
24
24
24
24
24
24
24
24
24
24
24
24
24
24
24
24
24
24
24
24
24
24
24
24
24
24
24
24
24
24
24
24
24
24
24
24
24
24
24
24
24
24
24
24
24
24
24
24
24
24
24
24
24
24
24
24
24
24
24
24
24
24
24
24
24
24
24
24
24
24
24
24
24
24
24
24
24
24
24
24
24
24
24
24
24
24
24
24
24
24
24
24
24
24
24
24
24
24
24
24
24
24
24
24
24
24
24
24
24
24
24
24
24
24
24
24
24
24
24
24
24
24
24
24
24
24
24
24
24
24
24
24
24
24
24
24
24
24
24
24
24
24
24
24
24
24
24
24
24
24
24
24
24
24
24
24
24
24
24
24
24
24
24
24
24
24
24
24
24
24
24
24
24
24
24
24
24
24
24
24
24
24
24
24
24
24
24
24
24
24
24
24
24
24
24
24
24
24
24
24
24
24
24
24
24
24
24
24
24
24
24
24
24
24
24
24
24
24
24
24
24
24
24
24
24
24
24
24
24
24
24
24
24
24
24
24
24
24
24
24
24
24
24
24
24
24
24
24
24
24
24
24
24
24
24
24
24
24
24
24
24
24
24
24
24
24
24
24
24
24
24
24
24
24
24
24
24
24
24
24
24
24
24
24
24
24
24
24
24
24
24
24
24
24
24
24
24
24
24
24
24
24
24
24
24
24
24
24
24
24
24
24
24
24
24
24
24
24
24
24
24
24
24
24
24
24
24
24
24
24
24
24
24
24
24
24
24
24
24
24
24
24
24
24
24
24
24
24
24
24
24
24
24
24
24
24
24
24
24
24
24
24
24
24
24
24
24
24
24
24
24
24
24
24
24
24
24
24
24
24
24
24
24
24
24
24
24
24
24
24
24
24
24
24
24
24
24
24
24
24
24
24
24
24
24
24
24
24
24
24
24
24
24
24
24
24
24
24
24
24
24
24
24
24
24
24
24
24
24
24
24
24
24
24
24
24
24
24
24
24
24
24
24
24
24
24
24
24
24
24
24
24
24
24
24
24
24
24
24
24
24
24
24
24
24
24
24
24
24
24
24
24
24
24
24
24
24
24
24
24
24
24
24
24
24
24
24
24
24
24
24
24
24
24
24
24
24
24
24
24
24
24
24
24
24
24
24
24
24
24
24
24
24
24
24
24
24
24
24
24
24
24
24
24
24
24
24
24
24
24
24
24
24
24
24
24
24
24
24
24
24
24
24
24
24
24
24
24
24
24
24
24
24
24
24
24
24
24
24
24
24
24
24
24
24
24
24
24
24
24
24
24
24
24
24
24
24
24
24
24
24
24
24
24
24
24
24
24
24
24
24
24
24
24
24
24
24
24
24
24
24
24
24
24
24
24
24
24
24
24
24
24
24
24
24
24
24
24
24
24
24
24
24
24
24
24
24
24
24
24
24
24
24
24
24
24
24
24
24
24
24
24
24
24
24
24
24
24
24
24
24
24
24
24
24
24
24
24
24
24
24
24
24
24
24
24
24
24
24
24
24
24
24
24
24
24
24
24
24
24
24
24
24
24
24
24
24
24
24
24
24
24
24
24
24
24
24
24
24
24
24
24
24
24
24
24
24
24
24
24
24
24
24
24
24
24
24
24
24
24
24
24
24
24
24
24
24
24
24
24
24
24
24
24
24
24
24
24
24
24
24
24
24
24
24
24
24
24
24
24
24
24
24
24
24
24
24
24
24
24
24
24
24
24
24
24
24
24
24
24
24
24
24
24
24
24
24
24
24
24
24
24
24
24
24
24
24
24
24
24
24
24
24
24
24
24
24
24
24
24
24
24
24
24
24
24
24
24
24
24
24
24
24
24
24
24
24
24
24
24
24
24
24
24
24
24
24
24
24
24
24
24
24
24
24
24
24
24
24
24
24
24
24
24
24
24
24
24
24
24
24
24
24
24
24
24
24
24
24
24
24
24
24
24
24
24
24
24
24
24
24
24
24
24
24
24
24
24
24
24
24
24
24
24
24
24
24
24
24
24
24
24
24
24
24
24
24
24
24
24
24
24
24
24
24
24
24
24
24
24
24
24
24
24
24
24
24
24
24
24
24
24
24
24
24
24
24
24
24
24
24
24
24
24
24
24
24
24
24
24
24
24
24
24
24
24
24
24
24
24
24
24
24
24
24
24
24
24
24
24
24
24
24
24
24
24
24
24
24
24
24
24
24
24
24
24
24
24
24
24
24
24
24
24
24
24
24
24
24
24
24
24
24
24
24
24
24
24
24
24
24
24
24
24
24
24
24
24
24
24
24
24
24
24
24
24
24
24
24
24
24
24
24
24
24
24
24
24
24
24
24
24
24
24
24
24
24
24
24
24
24
24
24
24
24
24
24
24
24
24
24
24
24
24
24
24
24
24
24
24
24
24
24
24
24
24
24
24
24
24
24
24
24
24
24
24
24
24
24
24
24
24
24
24
24
24
24
24
24
24
24
24
24
24
24
24
24
24
24
24
24
24
24
24
24
24
24
24
24
24
24
24
24
24
24
24
24
24
24
24
24
24
24
24
24
24
24
24
24
24
24
24
24
24
24
24
24
24
24
24
24
24
24
24
24
24
24
24
24
24
24
24
24
24
24
24
24
24
24
24
24
24
24
24
24
24
24
24
24
24
24
24
24
24
24
24
24
24
24
24
24
24
24
24
24
24
24
24
24
24
24
24
24
24
24
24
24
24
24
24
24
24
24
24
24
24
24
24
24
24
24
24
24
24
24
24
24
24
24
24
24
24
24
24
24
24
24
24
24
24
24
24
24
24
24
24
24
24
24
24
24
24
24
24
24
24
24
24
24
24
24
24
24
24
24
24
24
24
24
24
24
24
24
24
24
24
24
24
24
24
24
24
24
24
24
24
24
24
24
24
24
24
24
24
24
24
24
24
24
24
24
24
24
24
24
24
24
24
24
24
24
24
24
24
24
24
24
24
24
24
24
24
24
24
24
24
24
24
24
24
24
24
24
24
24
24
24
24
24
24
24
24
24
24
24
24
24
24
24
24
24
24
24
24
24
24
24
24
24
24
24
24
24
24
24
24
24
24
24
24
24
24
24
24
24
24
24
24
24
24
24
24
24
24
24
24
24
24
24
24
24
24
24
24
24
24
24
24
24
24
24
24
24
24
24
24
24
24
24
24
24
24
24
24
24
24
24
24
24
24
24
24
24
24
24
24
24
24
24
24
24
24
24
24
24
24
24
24
24
24
24
24
24
24
24
24
24
24
24
24
24
24
24
24
24
24
24
24
24
24
24
24
24
24
24
24
24
24
24
24
24
24
24
24
24
24
24
24
24
24
24
24
24
24
24
24
24
24
24
24
24
24
24
24
24
24
24
24
24
24
24
24
24
24
24
24
24
24
24
24
24
24
24
24
24
24
24
24
24
24
24
24
24
24
24
24
24
24
24
24
24
24
24
24
24
24
24
24
24
24
24
24
24
24
24
24
24
24
24
24
24
24
24
24
24
24
24
24
24
24
24
24
24
24
24
24
24
24
24
24
24
24
24
24
24
24
24
24
24
24
24
24
24
24
24
24
24
24
24
24
24
24
24
24
24
24
24
24
24
24
24
24
24
24
24
24
24
24
24
24
24
24
24
24
24
24
24
24
24
24
24
24
24
24
24
24
24
24
24
24
24
24
24
24
24
24
24
24
24
24
24
24
24
24
24
24
24
24
24
24
24
24
24
24
24
24
24
24
24
24
24
24
24
24
24
24
24
24
24
24
24
24
24
24
24
24
24
24
24
24
24
24
24
24
24
24
24
24
24
24
24
24
24
24
24
24
24
24
24
24
24
24
24
24
24
24
24
24
24
24
24
24
24
24
24
24
24
24
24
24
24
24
24
24
24
24
24
24
24
24
24
24
24
24
24
24
24
24
24
24
24
24
24
24
24
24
24
24
24
24
24
24
24
24
24
24
24
24
24
24
24
24
24
24
24
24
24
24
24
24
24
24
24
24
24
24
24
24
24
24
24
24
24
24
24
24
24
24
24
24
24
24
24
24
24
24
24
24
24
24
24
24
24
24
24
24
24
24
24
24
24
24
24
24
24
24
24
24
24
24
24
24
24
24
24
24
24
24
24
24
24
24
24
24
24
24
24
24
24
24
24
24
24
24
24
24
24
24
24
24
24
24
24
24
24
24
24
24
24
24
24
24
24
24
24
24
24
24
24
24
24
24
24
24
24
24
24
24
24
24
24
24
24
24
24
24
24
24
24
24
24
24
24
24
24
24
24
24
24
24
24
24
24
24
24
24
24
24
24
24
24
24
24
24
24
24
24
24
24
24
24
24
24
24
24
24
24
24
24
24
24
24
24
24
24
24
24
24
24
24
24
24
24
24
24
24
24
24
24
24
24
24
24
24
24
24
24
24
24
24
24
24
24
24
24
24
24
24
24
24
24
24
24
24
24
24
24
24
24
24
24
24
24
24
24
24
24
24
24
24
24
24
24
24
24
24
24
24
24
24
24
24
24
24
24
24
24
24
24
24
24
24
24
24
24
24
24
24
24
24
24
24
24
24
24
24
24
24
24
24
24
24
24
24
24
24
24
24
24
24
24
24
24
24
24
24
24
24
24
24
24
24
24
24
24
24
24
24
24
24
24
24
24
24
24
24
24
24
24
24
24
24
24
24
24
24
24
24
24
24
24
24
24
24
24
24
24
24
24
24
24
24
24
24
24
24
24
24
24
24
24
24
24
24
24
24
24
24
24
24
24
24
24
24
24
24
24
24
24
24
24
24
24
24
24
24
24
24
24
24
24
24
24
24
24
24
24
24
24
24
24
24
24
24
24
24
24
24
24
24
24
24
24
24
24
24
24
24
24
24
24
24
24
24
24
24
24
24
24
24
24
24
24
24
24
24
24
24
24
24
24
24
24
24
24
24
24
24
24
24
24
24
24
24
24
24
24
24
24
24
24
24
24
24
24
24
24
24
24
24
24
24
24
24
24
24
24
24
24
24
24
24
24
24
24
24
24
24
24
24
24
24
24
24
24
24
24
24
24
24
24
24
24
24
24
24
24
24
24
24
24
24
24
24
24
24
24
24
24
24
24
24
24
24
24
24
24
24
24
24
24
24
24
24
24
24
24
24
24
24
24
24
24
24
24
24
24
24
24
24
24
24
24
24
24
24
24
24
24
24
24
24
24
24
24
24
24
24
24
24
24
24
24
24
24
24
24
24
24
24
24
24
24
24
24
24
24
24
24
24
24
24
24
24
24
24
24
24
24
24
24
24
24
24
24
24
24
24
24
24
24
24
24
24
24
24
24
24
24
24
24
24
24
24
24
24
24
24
24
24
24
24
24
24
24
24

POINT_DATA 12442
FIELD FieldData 19
Displacement 3 12442 double
0 0 0 0 0 0 0 0 0 
0 0 0 -4.29811 31.7776 -0.270188 -4.30129 31.776 -0.00343149 
4.31439 31.7914 -0.189108 4.31223 31.7899 0.0776514 0.084746 12.8061 -0.0530049 
0.07051 12.8146 0.0995445 -0.119934 12.8025 -0.0696879 -0.0890243 12.8022 0.115497 
-0.100285 17.9797 -0.156024 -0.104976 17.9665 0.0204133 0.0710763 17.9589 -0.137422 
0.0822584 17.969 0.00965449 0 0 0 0 0 0 
0 0 0 0 0 0 0 0 0 
0 0 0 0 0 0 0 0 0 
0 0 0 0 0 0 0 0 0 
0 0 0 0 0 0 0 0 0 
0 0 0 0 0 0 0 0 0 
0 0 0 0 0 0 0 0 0 
0 0 0 0 0 0 0 0 0 
0 0 0 0 0 0 0 0 0 
0 0 0 0 0 0 0 0 0 
0 0 0 0 0 0 0 0 0 
0 0 0 0 0 0 0 0 0 
0 0 0 0 0 0 0 0 0 
0 0 0 0 0 0 0 0 0 
0 0 0 0 0 0 0 0 0 
0 0 0 0 0 0 0 0 0 
0 0 0 0 0 0 0 0 0 
0 0 0 0 0 0 0 0 0 
3.99478 31.7483 -0.191787 3.71519 31.7087 -0.194022 3.42645 31.6649 -0.196074 
3.12677 31.6166 -0.197882 2.84767 31.57 -0.199367 2.56416 31.5222 -0.20071 
2.25852 31.4717 -0.20207 1.94689 31.423 -0.203412 1.63812 31.379 -0.204787 
1.33293 31.3409 -0.206269 1.02311 31.3089 -0.20786 0.66295 31.2814 -0.210061 
0.3555 31.2668 -0.2122 0.00904345 31.2605 -0.21497 -0.328068 31.2651 -0.218052 
-0.654331 31.2794 -0.221411 -1.00541 31.3052 -0.225484 -1.30635 31.335 -0.229195 
-1.63867 31.3754 -0.233654 -1.99096 31.4252 -0.238594 -2.28448 31.4708 -0.24286 
-2.59787 31.5219 -0.247479 -2.88892 31.5701 -0.251761 -3.18354 31.6182 -0.25601 
-3.45834 31.6612 -0.259801 -3.73878 31.7024 -0.263474 -4.03432 31.7429 -0.267083 
1.05641 1.17155 -0.215517 1.75874 2.02261 -0.111593 2.23226 2.72928 -0.0891951 
2.59181 3.36155 -0.0768548 2.90685 4.02695 -0.0690478 3.14633 4.64856 -0.064629 
3.34294 5.29028 -0.0619264 3.48145 5.87304 -0.0607101 3.58572 6.45557 -0.06054 
3.66541 7.0956 -0.0612484 3.71033 7.68371 -0.0626547 3.73239 8.30545 -0.0648763 
3.73311 8.87709 -0.067651 3.71633 9.51432 -0.0712216 3.6865 10.1322 -0.0753524 
3.64081 10.851 -0.0807394 3.59278 11.5221 -0.0862084 3.54123 12.2363 -0.0923136 
3.49895 12.8671 -0.097832 3.45705 13.6027 -0.104222 3.42787 14.2822 -0.11001 
3.40944 14.9676 -0.115646 3.40307 15.6899 -0.121293 3.40933 16.3486 -0.126121 
3.42933 17.0735 -0.131047 3.46577 17.8627 -0.135946 3.51078 18.5828 -0.139981 
3.56451 19.2985 -0.143624 3.62145 19.977 -0.146773 3.68421 20.6829 -0.149813 
3.74168 21.3206 -0.152407 3.80032 21.9869 -0.155034 3.85548 22.6511 -0.157621 
3.90827 23.3463 -0.160355 3.95126 23.9789 -0.162872 3.99304 24.6769 -0.165678 
4.02958 25.3786 -0.168509 4.06185 26.0847 -0.171336 4.08986 26.7635 -0.174009 
4.11766 27.4798 -0.176741 4.14537 28.2014 -0.179358 4.17302 28.8946 -0.181692 
4.20591 29.6579 -0.184028 4.2407 30.3907 -0.18599 4.27505 31.0577 -0.187507 
-4.26137 31.0773 -0.268579 -4.2229 30.3102 -0.26673 -4.19235 29.6441 -0.264796 
-4.16316 28.9471 -0.262535 -4.13632 28.2536 -0.26004 -4.10718 27.4664 -0.256978 
-4.08164 26.7827 -0.25415 -4.05467 26.104 -0.251229 -4.02349 25.3981 -0.248103 
-3.9863 24.665 -0.244777 -3.94726 23.9991 -0.241711 -3.90062 23.3038 -0.238499 
-3.84554 22.5779 -0.23518 -3.79032 21.9142 -0.232154 -3.73451 21.28 -0.229244 
-3.67425 20.6108 -0.22612 -3.6145 19.9373 -0.222864 -3.55006 19.1618 -0.218872 
-3.49771 18.4458 -0.214903 -3.45289 17.6927 -0.210365 -3.4241 17.0351 -0.206093 
-3.40488 16.3106 -0.201031 -3.39963 15.5537 -0.195345 -3.40813 14.8652 -0.189841 
-3.4274 14.2134 -0.184348 -3.46144 13.4708 -0.177799 -3.50134 12.8009 -0.171684 
-3.55134 12.0779 -0.164932 -3.59916 11.4285 -0.158769 -3.65141 10.6995 -0.151903 
-3.68896 10.1028 -0.146362 -3.72083 9.42805 -0.140273 -3.73537 8.82164 -0.134986 
-3.73183 8.19488 -0.12974 -3.70886 7.63133 -0.125196 -3.65263 6.961 -0.119947 
-3.56978 6.3503 -0.115254 -3.44672 5.71342 -0.110452 -3.29723 5.13109 -0.106196 
-3.10698 4.54518 -0.102041 -2.85666 3.92328 -0.0977577 -2.55934 3.31556 -0.0938302 
-2.17225 2.65306 -0.0901387 -1.65485 1.91318 -0.0913753 -1.03259 1.20578 -0.132099 
-0.0540548 17.6346 -0.115542 -0.0677924 17.2749 -0.117094 -0.0729681 16.9003 -0.117714 
-0.0762265 16.5414 -0.116885 -0.0790091 16.1318 -0.114252 -0.0803221 15.7468 -0.111154 
-0.0810497 15.3465 -0.106894 -0.0808961 14.9293 -0.102121 -0.0800542 14.55 -0.0967008 
-0.0777483 14.1242 -0.0890635 -0.0747783 13.7722 -0.0808119 -0.0688817 13.4222 -0.0699786 
-0.0552361 13.1274 -0.050683 0.0314742 13.1406 -0.0548385 0.0460833 13.4617 -0.0702202 
0.0541835 13.7988 -0.0798719 0.0584812 14.1674 -0.0877571 0.0606561 14.5443 -0.0948035 
0.0622883 14.9237 -0.0996854 0.0630218 15.3465 -0.104409 0.0627126 15.7525 -0.108565 
0.0616377 16.1541 -0.111772 0.0599049 16.5738 -0.113771 0.0566904 16.9359 -0.11455 
0.0502248 17.3115 -0.112767 0.0399876 17.6373 -0.109572 4.02448 31.7511 0.0752972 
3.73697 31.7108 0.0728843 3.45635 31.6685 0.0702493 3.18148 31.6246 0.0674068 
2.89495 31.5769 0.0642763 2.61226 31.5293 0.0610836 2.29903 31.4773 0.0574724 
1.99695 31.4295 0.0539743 1.68912 31.3848 0.0504229 1.3215 31.3384 0.046305 
0.974679 31.3034 0.0426032 0.651144 31.2794 0.0393608 0.334057 31.2647 0.036255 
-0.0312268 31.2591 0.0330126 -0.358977 31.2646 0.0303173 -0.685152 31.2797 0.027798 
-1.00831 31.3037 0.0254454 -1.33656 31.3367 0.0231265 -1.65056 31.3752 0.0209548 
-1.97658 31.4212 0.0186811 -2.27907 31.468 0.0164883 -2.58427 31.5176 0.0141649 
-2.86738 31.5645 0.0118483 -3.16238 31.6128 0.00923924 -3.43738 31.656 0.00655102 
-3.72602 31.6987 0.00345798 -4.02946 31.7403 -0.000139006 0.997563 1.16551 0.217134 
1.66055 1.90437 0.149022 2.14766 2.61514 0.154872 2.52117 3.24993 0.156942 
2.84962 3.91666 0.158043 3.08954 4.51084 0.158939 3.28984 5.12511 0.159833 
3.44545 5.73547 0.160681 3.56688 6.37275 0.161281 3.64844 6.98403 0.161732 
3.70189 7.62702 0.162081 3.72641 8.24772 0.162256 3.72883 8.84696 0.162361 
3.71414 9.45432 0.162169 3.68563 10.0708 0.161858 3.64712 10.6975 0.161241 
3.60241 11.3348 0.16028 3.55762 11.9519 0.158967 3.50978 12.6416 0.156981 
3.4672 13.3416 0.154418 3.43319 14.0506 0.151257 3.41031 14.7667 0.147512 
3.40047 15.4551 0.143445 3.40409 16.2121 0.138525 3.4217 16.9372 0.133462 
3.45072 17.6283 0.12839 3.49037 18.3171 0.12319 3.54631 19.0997 0.11727 
3.60199 19.7799 0.112246 3.66136 20.4553 0.107504 3.72475 21.1583 0.10297 
3.78404 21.8257 0.0991492 3.84023 22.4906 0.0958686 3.89667 23.2176 0.0928961 
3.94275 23.8818 0.0907232 3.98715 24.6114 0.0888588 4.021 25.2489 0.0876038 
4.0554 25.9864 0.0864706 4.08373 26.6646 0.0856294 4.11042 27.3476 0.0848805 
4.13804 28.0683 0.0841169 4.16807 28.8269 0.0832445 4.19771 29.5234 0.0823004 
4.23349 30.2891 0.0809951 4.2746 31.0897 0.0792409 -4.26277 31.0424 -0.00163301 
-4.22288 30.2419 0.000153653 -4.18972 29.5095 0.00152428 -4.15974 28.78 0.00265113 
-4.13453 28.1203 0.00355558 -4.10668 27.3666 0.0045575 -4.08099 26.6836 0.00550207 
-4.05369 26.0055 0.00656846 -4.02198 25.3001 0.00791191 -3.98755 24.631 0.00952288 
-3.9482 23.965 0.0115504 -3.89663 23.2065 0.0144598 -3.84579 22.5433 0.0175659 
-3.7903 21.8793 0.0212244 -3.72859 21.1811 0.0256266 -3.66819 20.511 0.0303208 
-3.60588 19.8044 0.0356307 -3.54491 19.0602 0.0414619 -3.49577 18.376 0.0469077 
-3.45027 17.5895 0.0530672 -3.42189 16.8987 0.0582843 -3.4032 16.0095 0.0645735 
-3.40321 15.3192 0.0690481 -3.41665 14.5994 0.0732822 -3.44418 13.8528 0.0771879 
-3.47763 13.2104 0.0801275 -3.5199 12.544 0.0827905 -3.57109 11.8254 0.0852903 
-3.6163 11.2107 0.0871776 -3.6607 10.5758 0.0890108 -3.70118 9.89277 0.0909602 
-3.72735 9.25054 0.0929133 -3.73701 8.64658 0.0949676 -3.72826 8.05015 0.0972985 
-3.6959 7.43181 0.100099 -3.63964 6.84617 0.103229 -3.55538 6.26339 0.106881 
-3.43955 5.68168 0.111183 -3.27982 5.07109 0.116526 -3.0852 4.48406 0.122765 
-2.84244 3.88884 0.130775 -2.52626 3.24949 0.142054 -2.15125 2.612 0.157262 
-1.67614 1.92646 0.186373 -1.02809 1.1377 0.248984 -0.0527875 17.6686 0.00354164 
-0.069581 17.3054 0.0155363 -0.0754663 16.9431 0.024624 -0.0789716 16.5916 0.0314886 
-0.0811539 16.1775 0.0385926 -0.0825817 15.8099 0.0436446 -0.0831727 15.4043 0.0486322 
-0.0830315 14.9642 0.0530543 -0.0819699 14.5674 0.0565022 -0.0800499 14.1573 0.0593548 
-0.0767108 13.7985 0.0615765 -0.071484 13.445 0.0626829 -0.0610802 13.1354 0.0651612 
0.0361016 13.1424 0.0607441 0.0477531 13.5228 0.0627838 0.0538801 13.882 0.0623774 
0.0571269 14.2714 0.0607383 0.0593536 14.679 0.0576636 0.0603329 15.0942 0.0541208 
0.06055 15.4836 0.0501083 0.0601216 15.8661 0.045323 0.0590626 16.2492 0.0395862 
0.0566167 16.6237 0.0337547 0.052815 16.9841 0.0268761 0.0464947 17.3177 0.0178861 
0.0329703 17.6474 0.00602928 3.87551 31.138 -0.190898 3.57799 31.1292 -0.193164 
3.26823 31.0829 -0.195276 2.98611 30.9747 -0.196848 2.69056 30.8851 -0.198437 
2.39681 30.8334 -0.200033 2.07906 30.7726 -0.201705 1.77204 30.7128 -0.203319 
1.44999 30.6573 -0.205083 1.13908 30.6303 -0.206911 0.82072 30.5978 -0.208952 
0.500458 30.5772 -0.211249 0.17468 30.5788 -0.213818 -0.156944 30.5861 -0.216737 
-0.484979 30.596 -0.219936 -0.821815 30.6167 -0.223557 -1.12917 30.6483 -0.227112 
-1.45754 30.7034 -0.231181 -1.78635 30.7554 -0.235477 -2.09659 30.7953 -0.23966 
-2.41025 30.8366 -0.243979 -2.71021 30.8835 -0.248155 -3.00038 30.9545 -0.252202 
-3.28133 31.0316 -0.256103 -3.54337 31.118 -0.259679 -3.81668 31.0956 -0.26307 
-4.05712 31.0244 -0.265926 1.02751 1.04001 -0.17045 1.70164 1.95776 -0.123191 
2.15802 2.7187 -0.102826 2.51962 3.44832 -0.0903939 2.78525 4.10452 -0.0829129 
3.00864 4.7741 -0.077523 3.17887 5.44715 -0.0742942 3.29773 6.08315 -0.0728848 
3.39255 6.68819 -0.0717362 3.45003 7.31923 -0.0719551 3.48211 7.96949 -0.0729492 
3.49269 8.59231 -0.0744987 3.48835 9.21447 -0.0766265 3.45947 9.87802 -0.0797309 
3.41288 10.5411 -0.0835885 3.36366 11.2371 -0.0880132 3.31647 11.8855 -0.0925516 
3.2629 12.5726 -0.0977577 3.21055 13.2755 -0.10331 3.17679 13.9554 -0.108695 
3.15421 14.6241 -0.113987 3.14247 15.3265 -0.119458 3.14353 16.0199 -0.124683 
3.15714 16.7513 -0.129952 3.18017 17.4631 -0.134812 3.22705 18.1773 -0.139309 
3.2821 18.8548 -0.143249 3.3403 19.566 -0.147125 3.39727 20.2645 -0.150694 
3.4531 20.9091 -0.153759 3.52012 21.5788 -0.156632 3.57056 22.2452 -0.159513 
3.6175 22.9221 -0.162334 3.66348 23.6091 -0.165065 3.70652 24.2886 -0.167664 
3.74935 24.9865 -0.170226 3.78476 25.6665 -0.172704 3.81107 26.3708 -0.175292 
3.83624 27.0983 -0.177881 3.86394 27.8254 -0.180332 3.88544 28.5202 -0.182601 
3.91835 29.2602 -0.184812 3.95621 29.9588 -0.186735 4.0109 30.6156 -0.188281 
-3.99156 29.8108 -0.262526 -3.94803 29.2141 -0.260465 -3.91003 28.502 -0.257999 
-3.87326 27.78 -0.255339 -3.84279 27.0348 -0.252528 -3.80856 26.3166 -0.249657 
-3.78036 25.6219 -0.246847 -3.75022 24.9035 -0.243871 -3.71203 24.1983 -0.240822 
-3.66512 23.511 -0.23774 -3.61564 22.8102 -0.23453 -3.55939 22.1446 -0.231385 
-3.49863 21.4758 -0.228112 -3.44298 20.8081 -0.224776 -3.38311 20.0934 -0.221044 
-3.31621 19.3739 -0.216962 -3.25407 18.6678 -0.212662 -3.20239 17.9554 -0.208077 
-3.16239 17.2451 -0.203238 -3.14368 16.5412 -0.198315 -3.1385 15.8388 -0.193175 
-3.15177 15.163 -0.188102 -3.1744 14.4797 -0.182737 -3.20514 13.745 -0.1767 
-3.2409 13.0641 -0.170974 -3.28678 12.3896 -0.165325 -3.34257 11.703 -0.15964 
-3.39084 10.9915 -0.153801 -3.43631 10.3573 -0.148787 -3.47746 9.69587 -0.143735 
-3.50166 9.0538 -0.139042 -3.50661 8.41872 -0.134646 -3.49405 7.78172 -0.130409 
-3.45768 7.15204 -0.126374 -3.39094 6.51222 -0.122423 -3.28103 5.86876 -0.118911 
-3.1313 5.20676 -0.115558 -2.94974 4.5698 -0.112521 -2.74211 3.96806 -0.10963 
-2.45824 3.29986 -0.106884 -2.08644 2.59362 -0.106395 -1.60549 1.82627 -0.107547 
-1.00378 1.01201 -0.124069 -0.470426 0.460674 -0.161544 -0.440525 0.481503 -0.153778 
-0.38877 0.472123 -0.163789 -0.319295 0.448177 -0.181873 -0.293861 0.466241 -0.18494 
-0.253582 0.481267 -0.190723 -0.21577 0.484459 -0.188791 -0.180011 0.489959 -0.187292 
-0.143739 0.496474 -0.186262 -0.108404 0.502405 -0.188153 -0.0710209 0.502253 -0.187496 
-0.0346351 0.495378 -0.186629 0.000521675 0.501709 -0.186944 0.0363576 0.511199 -0.186137 
0.0713075 0.507801 -0.185898 0.106397 0.502784 -0.185205 0.141087 0.493147 -0.185806 
0.175109 0.487204 -0.184686 0.208306 0.476952 -0.185008 0.242823 0.471735 -0.184217 
0.276305 0.463323 -0.184517 0.317673 0.466393 -0.184996 0.368911 0.477756 -0.18601 
0.425266 0.485189 -0.190568 0.484212 0.496485 -0.199456 -0.00975083 19.0411 -0.301033 
-0.356231 18.7453 -0.196282 -0.25702 18.081 -0.157883 -0.222448 17.472 -0.146498 
-0.215234 16.9613 -0.140437 -0.2137 16.5019 -0.136524 -0.215961 16.03 -0.13245 
-0.216997 15.5892 -0.128446 -0.213552 15.1241 -0.123676 -0.212927 14.6582 -0.118853 
-0.21366 14.196 -0.113796 -0.219842 13.6969 -0.108694 -0.223205 13.2275 -0.10331 
-0.248512 12.6705 -0.0993512 -0.377945 11.9779 -0.121879 0.0384335 11.6438 -0.224449 
0.319207 12.1218 -0.103403 0.209473 12.7869 -0.0916877 0.184147 13.3096 -0.0964875 
0.180939 13.7726 -0.102158 0.179339 14.2192 -0.107132 0.177853 14.6604 -0.11194 
0.179054 15.1338 -0.116639 0.179426 15.599 -0.12108 0.179872 16.0335 -0.12485 
0.179523 16.5146 -0.128641 0.180791 16.9721 -0.132199 0.185082 17.46 -0.136835 
0.207704 18.0184 -0.147148 0.304384 18.6482 -0.17849 0.469694 19.3102 -0.251382 
-0.50495 19.4271 -0.260736 -0.491531 11.2608 -0.188307 0.472664 11.3983 -0.170281 
0.246123 20.1292 -0.246399 3.41716 30.5913 -0.192691 3.13605 30.4104 -0.194206 
2.8512 30.2659 -0.195805 2.55237 30.1582 -0.197573 2.23188 30.0782 -0.199512 
1.91183 30.0358 -0.201502 1.58935 29.9885 -0.203522 1.26431 29.9283 -0.205615 
0.957613 29.8947 -0.20773 0.646224 29.8782 -0.210022 0.336612 29.8798 -0.212483 
0.0109922 29.8708 -0.215271 -0.321442 29.8953 -0.218379 -0.651239 29.8922 -0.221714 
-0.963188 29.94 -0.225111 -1.26683 29.9872 -0.228618 -1.61051 30.0373 -0.2328 
-1.92439 30.0611 -0.236751 -2.23249 30.0877 -0.24071 -2.5408 30.1448 -0.244758 
-2.83728 30.2183 -0.24872 -3.11841 30.3218 -0.252524 -3.38368 30.438 -0.256156 
-3.6375 30.5601 -0.259657 -0.521725 18.2186 -0.171057 -1.01999 1.11726 -0.129388 
1.68629 2.09913 -0.128344 2.08996 2.8673 -0.112248 2.39366 3.57325 -0.102241 
2.63037 4.24321 -0.095012 2.83851 4.96857 -0.089307 2.99266 5.67203 -0.0855169 
3.09676 6.30579 -0.0834248 3.16845 6.94164 -0.0822628 3.21155 7.5944 -0.0819746 
3.23476 8.2704 -0.0822834 3.22731 8.88367 -0.0834557 3.20921 9.56008 -0.0851511 
3.16681 10.2433 -0.0877567 3.11694 10.9333 -0.0909296 3.07399 11.5752 -0.0942881 
3.02045 12.2513 -0.0984461 2.96267 12.9659 -0.103311 2.92016 13.6371 -0.108116 
2.88538 14.2945 -0.113004 2.86363 14.9729 -0.118118 2.85475 15.6723 -0.123396 
2.86592 16.3946 -0.128737 2.89861 17.1043 -0.133792 2.93806 17.8141 -0.138678 
2.97962 18.457 -0.14292 3.03306 19.1247 -0.147072 3.10496 19.8444 -0.15117 
3.15623 20.5234 -0.15495 3.2086 21.1482 -0.158148 3.26627 21.8272 -0.161338 
3.32298 22.5056 -0.164253 3.37201 23.2056 -0.167115 3.40853 23.8613 -0.169698 
3.44951 24.5618 -0.172218 3.48979 25.2541 -0.174546 3.51912 25.9556 -0.176911 
3.54902 26.6766 -0.179231 3.56847 27.4325 -0.181679 3.58544 28.1322 -0.183853 
3.61486 28.8689 -0.185957 3.65906 29.6139 -0.18791 3.7022 30.431 -0.190078 
-0.758539 19.7092 -0.216532 1.06509 1.19818 -0.15842 -3.74573 29.5451 -0.258715 
-3.68115 28.8262 -0.256096 -3.62327 28.0884 -0.253384 -3.5795 27.3162 -0.250623 
-3.55068 26.5523 -0.247933 -3.52907 25.8671 -0.24546 -3.49791 25.128 -0.242633 
-3.45565 24.4105 -0.239693 -3.41909 23.7417 -0.236884 -3.36922 23.0432 -0.233721 
-3.31917 22.3548 -0.230485 -3.26198 21.6723 -0.227061 -3.19947 21.0158 -0.223536 
-3.12513 20.3027 -0.219407 -3.06291 19.5898 -0.215116 -3.00105 18.8637 -0.210447 
-2.94552 18.1963 -0.205864 -2.89593 17.4847 -0.200747 -2.87804 16.8154 -0.19603 
-2.8706 16.0918 -0.190772 -2.87757 15.4268 -0.185849 -2.89864 14.7469 -0.180761 
-2.92458 14.0414 -0.17532 -2.9674 13.3182 -0.16983 -3.00634 12.668 -0.164889 
-3.05824 11.978 -0.15986 -3.11509 11.2872 -0.155033 -3.16801 10.6038 -0.150487 
-3.21212 9.95464 -0.146398 -3.24476 9.28445 -0.142404 -3.26628 8.65398 -0.138813 
-3.26618 7.98701 -0.135243 -3.23912 7.35317 -0.132092 -3.16996 6.66878 -0.129194 
-3.07345 6.01176 -0.12661 -2.94114 5.32793 -0.124268 -2.77562 4.64975 -0.121945 
-2.57861 4.01953 -0.120324 -2.3237 3.35176 -0.118976 -1.98929 2.62738 -0.118297 
-1.54328 1.86451 -0.120878 -0.308904 20.2143 -0.249447 -0.93688 1.15096 -0.140462 
-0.72006 0.995463 -0.154651 -0.642692 1.01405 -0.166049 -0.572285 1.04836 -0.172601 
-0.506483 1.08534 -0.173497 -0.42108 1.08094 -0.17369 -0.34309 1.10025 -0.17398 
-0.268835 1.10611 -0.17414 -0.195739 1.11119 -0.173981 -0.116256 1.1084 -0.173711 
-0.0408765 1.10868 -0.173049 0.0311073 1.11977 -0.172395 0.103525 1.10314 -0.172018 
0.177352 1.10639 -0.171959 0.252065 1.09272 -0.171987 0.324335 1.07324 -0.171893 
0.396141 1.06307 -0.171354 0.465672 1.03844 -0.170739 0.534791 1.01263 -0.16979 
0.618431 1.01322 -0.168289 0.71609 1.0294 -0.165999 0.8221 1.03768 -0.16433 
-0.193962 10.2399 -0.180814 -0.625245 18.9299 -0.191838 -0.40581 16.9333 -0.147805 
-0.400804 16.3983 -0.142471 -0.396779 15.8848 -0.137558 -0.38948 15.3696 -0.132486 
-0.391602 14.8475 -0.127881 -0.399932 14.3133 -0.123576 -0.419195 13.7542 -0.120221 
-0.448899 13.1858 -0.117695 -0.515307 12.5056 -0.119141 -0.632346 11.7623 -0.129696 
-0.780257 10.9254 -0.149168 0.686786 19.5766 -0.205452 0.688978 11.2304 -0.128166 
0.532598 11.9877 -0.108398 0.351107 13.8365 -0.108203 0.340125 14.347 -0.112285 
0.338373 14.8589 -0.116662 0.330492 15.3858 -0.121079 0.329381 15.8706 -0.12524 
0.334959 16.3823 -0.129765 0.34729 16.9171 -0.135003 0.375814 17.4874 -0.142236 
0.439554 18.1553 -0.155164 0.545673 18.8421 -0.175544 0.356957 10.4555 -0.176398 
-0.435543 17.5082 -0.155835 0.435141 12.6732 -0.103232 0.37917 13.2872 -0.104958 
-3.86994 30.3184 -0.262074 -0.756502 9.76187 -0.165939 0.704147 20.3484 -0.220912 
-0.747733 20.5 -0.231925 0.733216 10.4196 -0.151978 0.772358 12.0468 -0.110577 
0.913512 19.5964 -0.186363 3.04925 29.6838 -0.192837 2.73339 29.4845 -0.194698 
2.41681 29.3911 -0.196848 2.07019 29.3072 -0.199223 1.74057 29.2124 -0.201489 
1.40876 29.1685 -0.20388 1.09634 29.16 -0.206209 0.79164 29.1294 -0.208554 
0.488874 29.1207 -0.211004 0.163159 29.103 -0.213775 -0.162549 29.0834 -0.216715 
-0.494327 29.0959 -0.219928 -0.792067 29.1396 -0.222991 -1.10711 29.2088 -0.226422 
-1.4242 29.2523 -0.230026 -1.75972 29.3004 -0.233989 -2.07312 29.3204 -0.237756 
-2.3825 29.3623 -0.241569 -2.68808 29.4387 -0.245432 -2.9837 29.5609 -0.249306 
-3.27127 29.7149 -0.253187 1.6479 2.31923 -0.132477 1.96844 3.02373 -0.121001 
2.24525 3.75562 -0.111829 2.45588 4.46687 -0.105312 2.64789 5.21406 -0.0994134 
2.78415 5.92141 -0.095467 2.86458 6.56248 -0.0933258 2.9153 7.2249 -0.0920372 
2.94302 7.90448 -0.0913311 2.95185 8.58248 -0.091136 2.92861 9.22675 -0.0918694 
2.8946 9.92218 -0.0930592 2.85981 10.6122 -0.0946805 2.8158 11.2656 -0.0969613 
2.76613 11.9396 -0.0999936 2.70153 12.6372 -0.103902 2.65091 13.3338 -0.108208 
2.61768 13.9825 -0.112534 2.59229 14.6493 -0.117254 2.5738 15.3461 -0.12239 
2.56868 16.0438 -0.127627 2.57807 16.7572 -0.133003 2.60721 17.4697 -0.138283 
2.66699 18.1364 -0.142948 2.73401 18.7548 -0.147068 2.79301 19.4055 -0.151325 
2.84085 20.095 -0.155754 2.90094 20.7397 -0.15945 2.95404 21.3686 -0.162809 
3.01338 22.063 -0.166117 3.05621 22.7531 -0.169235 3.09827 23.4481 -0.172027 
3.14161 24.1096 -0.174341 3.18495 24.8049 -0.176557 3.21759 25.5132 -0.178779 
3.23886 26.2355 -0.181029 3.2537 26.9917 -0.183325 3.27278 27.759 -0.185515 
3.29434 28.4791 -0.187462 3.33258 29.2253 -0.189321 3.38301 29.939 -0.191018 
-0.642473 16.2649 -0.149235 -0.357088 8.86989 -0.166435 1.2927 1.65472 -0.14621 
1.01007 20.4505 -0.200704 -3.37911 28.4435 -0.251505 -3.31348 27.663 -0.248729 
-3.27534 26.8562 -0.246105 -3.25642 26.1133 -0.243736 -3.22966 25.3983 -0.241273 
-3.19461 24.6614 -0.238545 -3.13601 23.9657 -0.235647 -3.10469 23.2637 -0.232723 
-3.0651 22.5867 -0.229648 -2.99873 21.9258 -0.226207 -2.93692 21.2373 -0.222411 
-2.85901 20.5439 -0.218152 -2.79227 19.8302 -0.213538 -2.74176 19.1116 -0.208746 
-2.6854 18.4419 -0.203915 -2.6193 17.7496 -0.198512 -2.59201 17.0759 -0.193496 
-2.57383 16.3815 -0.188261 -2.58675 15.6993 -0.183388 -2.60328 15.0478 -0.178642 
-2.63269 14.3237 -0.173426 -2.66854 13.6233 -0.168458 -2.70634 12.9369 -0.163718 
-2.76016 12.2801 -0.159551 -2.81526 11.5921 -0.155456 -2.87087 10.8779 -0.151523 
-2.91915 10.2299 -0.148313 -2.96038 9.55947 -0.145232 -2.9943 8.89221 -0.1423 
-3.00568 8.24472 -0.139679 -2.99009 7.56812 -0.137233 -2.92554 6.8632 -0.135289 
-2.84 6.19109 -0.133543 -2.71606 5.48918 -0.132283 -2.56885 4.78399 -0.131063 
-2.39852 4.12507 -0.129765 -2.17833 3.46735 -0.129298 -1.89423 2.77094 -0.129287 
-0.555774 21.3581 -0.229468 -1.12318 1.56035 -0.143385 0.526437 21.246 -0.221442 
-0.767078 18.0754 -0.173469 -1.02113 1.59281 -0.15289 -0.922966 1.65231 -0.161039 
-0.820787 1.71126 -0.165874 -0.710247 1.74624 -0.168415 -0.589204 1.78549 -0.169644 
-0.467844 1.79819 -0.170353 -0.35662 1.80772 -0.170575 -0.239926 1.80686 -0.170523 
-0.122602 1.79359 -0.170222 -0.00872402 1.79903 -0.169666 0.100509 1.79923 -0.169056 
0.217312 1.8032 -0.168368 0.330503 1.79974 -0.167664 0.446058 1.78018 -0.166825 
0.552672 1.72337 -0.165942 0.658043 1.68866 -0.164503 0.758889 1.64187 -0.162696 
0.860215 1.59058 -0.160464 0.998888 1.61549 -0.156356 1.16683 1.67103 -0.150928 
-1.02506 10.9831 -0.141168 -0.0244587 21.2168 -0.228544 -0.624133 15.7026 -0.143424 
-0.660456 16.8885 -0.155822 -0.613404 15.1026 -0.138069 -0.631522 14.5007 -0.133872 
-0.657586 13.9068 -0.130422 -0.699866 13.2771 -0.128573 -0.768409 12.6137 -0.128957 
-0.881262 11.8311 -0.133159 -1.15591 9.90888 -0.151564 0.990128 10.5027 -0.129795 
0.897482 11.2714 -0.118174 0.645711 9.489 -0.155437 0.551785 13.9771 -0.113049 
0.515943 15.6694 -0.125669 0.518699 16.1993 -0.130306 0.538718 16.7952 -0.13623 
0.599447 17.3924 -0.143597 0.681115 18.086 -0.154163 0.790572 18.8378 -0.168998 
0.18529 9.28187 -0.165452 -1.10957 20.6708 -0.217593 -3.46131 29.2241 -0.254409 
-0.641896 17.4103 -0.161145 0.531462 14.5496 -0.116892 0.523875 15.109 -0.121149 
-1.5121 2.01212 -0.13094 -3.55742 29.9166 -0.25721 0.977237 21.3326 -0.207531 
-1.02873 21.5344 -0.224091 -1.04664 19.7559 -0.204698 -0.794532 8.44191 -0.161233 
0.670068 12.7377 -0.108676 -0.912363 18.9218 -0.189592 -1.19629 8.72479 -0.156795 
1.00725 9.64513 -0.140948 0.591666 13.3927 -0.110048 -0.817899 22.4851 -0.223724 
-1.2667 11.2527 -0.140991 2.63865 28.5994 -0.193352 2.24691 28.5993 -0.196582 
1.91076 28.4506 -0.19906 1.56621 28.3094 -0.201687 1.24737 28.3029 -0.204291 
0.928896 28.3277 -0.206937 0.633281 28.2865 -0.209393 0.318129 28.2525 -0.2121 
-0.0162987 28.2208 -0.215062 -0.345221 28.2048 -0.218113 -0.657887 28.2704 -0.221198 
-0.951645 28.3394 -0.224232 -1.25173 28.4013 -0.22745 -1.58888 28.4628 -0.231165 
-1.91104 28.4599 -0.234745 -2.22658 28.4902 -0.238365 -2.54207 28.5755 -0.242129 
-2.85707 28.7394 -0.246107 -3.16579 28.9471 -0.2502 1.49066 2.41135 -0.140037 
1.35699 21.3554 -0.194567 -1.47806 21.6208 -0.219466 -0.893443 15.4617 -0.149127 
-1.46746 20.62 -0.212055 1.84573 3.27322 -0.128011 2.07981 4.0103 -0.120058 
2.27641 4.76929 -0.113589 2.44227 5.52008 -0.108097 2.54301 6.19862 -0.104745 
2.59521 6.85233 -0.102846 2.64119 7.53719 -0.100893 2.66203 8.24583 -0.0995204 
2.64926 8.9139 -0.0990502 2.61612 9.59597 -0.0990999 2.57096 10.2865 -0.0996615 
2.52066 10.9911 -0.100786 2.46381 11.642 -0.102669 2.40559 12.3408 -0.105416 
2.35892 13.0364 -0.108818 2.3224 13.6866 -0.112579 2.29565 14.3447 -0.116816 
2.27152 15.0294 -0.121617 2.25436 15.7283 -0.126811 2.24977 16.4424 -0.132317 
2.27311 17.1571 -0.137886 2.31835 17.8346 -0.143125 2.39617 18.468 -0.147725 
2.51212 19.027 -0.151201 2.50973 19.6328 -0.156063 2.56416 20.2882 -0.160526 
2.62698 20.9365 -0.164445 2.67353 21.5669 -0.168022 2.72093 22.2772 -0.171582 
2.76049 22.9671 -0.174584 2.79931 23.6458 -0.177084 2.84783 24.3127 -0.17908 
2.87453 25.014 -0.181223 2.89119 25.7506 -0.183385 2.91246 26.5278 -0.18546 
2.94267 27.3247 -0.187399 2.96165 28.0972 -0.18931 2.98677 28.8905 -0.191199 
0.943115 8.65093 -0.145895 0.770539 14.2036 -0.116762 -1.46822 2.22001 -0.140553 
-0.925379 16.0885 -0.155268 -2.9844 27.2465 -0.244152 -2.95632 26.4202 -0.241764 
-2.94044 25.6261 -0.239462 -2.94639 24.9753 -0.237597 -2.80911 24.2463 -0.234255 
-2.76808 23.4654 -0.23121 -2.82103 22.8464 -0.22909 -2.73308 22.2084 -0.225681 
-2.66244 21.5193 -0.221815 -2.58998 20.8194 -0.217444 -2.50707 20.0696 -0.212225 
-2.43537 19.344 -0.206805 -2.4443 18.7292 -0.202774 -2.31945 18.0976 -0.196804 
-2.25546 17.3862 -0.190758 -2.26617 16.6729 -0.185603 -2.27713 15.9741 -0.180582 
-2.2852 15.308 -0.175672 -2.32014 14.6538 -0.171269 -2.35852 13.9538 -0.166668 
-2.38477 13.2614 -0.162109 -2.42347 12.6203 -0.158389 -2.48086 11.9137 -0.154861 
-2.54377 11.2176 -0.15184 -2.60076 10.5161 -0.149247 -2.64326 9.86505 -0.147162 
-2.67669 9.19847 -0.145248 -2.70617 8.52225 -0.143403 -2.71667 7.83125 -0.141685 
-2.67195 7.12109 -0.140391 -2.57293 6.42834 -0.139867 -2.45967 5.70326 -0.139442 
-2.33989 5.00307 -0.138982 -2.19292 4.28002 -0.138386 -2.00569 3.60859 -0.138431 
-1.77241 2.92174 -0.138833 -1.2005 18.6325 -0.187542 0.275857 22.2553 -0.217798 
-1.17268 2.36298 -0.157328 -1.03827 2.45358 -0.161663 -0.87796 2.5079 -0.164799 
-0.718743 2.56028 -0.166459 -0.56496 2.60376 -0.167419 -0.405664 2.57759 -0.167867 
-0.244439 2.52466 -0.167983 -0.0900097 2.52606 -0.167613 0.0578875 2.55697 -0.166802 
0.217263 2.59428 -0.16569 0.375471 2.59884 -0.164432 0.529313 2.56912 -0.162953 
0.679447 2.49996 -0.161176 0.831602 2.44425 -0.158811 0.968904 2.37555 -0.156218 
1.10081 2.28461 -0.153123 1.19444 2.15266 -0.150355 -0.291874 22.3409 -0.221867 
-3.07244 28.1177 -0.2472 -0.895868 14.7753 -0.143967 -0.978094 16.8233 -0.163434 
-0.93637 14.1517 -0.140639 -0.981137 13.4913 -0.137972 -1.03936 12.8187 -0.136721 
-1.13412 12.0692 -0.137706 1.30281 9.85234 -0.126514 1.17435 19.4531 -0.174017 
0.737572 15.9873 -0.130116 0.923054 17.8642 -0.150698 1.0369 18.6312 -0.161507 
1.31833 20.4047 -0.185871 0.836879 22.3138 -0.209167 0.753558 16.5606 -0.135473 
-0.501265 7.40392 -0.161287 -1.44624 10.2595 -0.146224 0.819502 17.225 -0.142748 
-1.34622 19.5791 -0.200456 1.32843 8.95295 -0.132521 -1.34254 22.6011 -0.223331 
1.04126 12.2021 -0.111333 1.14185 11.4674 -0.11355 0.757795 14.8025 -0.120798 
-1.0001 17.6207 -0.172185 -1.04342 7.2898 -0.158704 0.815554 13.5892 -0.11354 
-1.32066 2.28511 -0.150125 1.2385 10.665 -0.119421 -1.6134 9.10971 -0.150452 
0.522934 8.35296 -0.154714 1.29102 22.3473 -0.199549 0.738541 15.4169 -0.125361 
0.0104769 7.86679 -0.161317 1.17719 23.3885 -0.20204 2.08662 27.7534 -0.196396 
1.73968 27.4046 -0.198997 1.37742 27.0616 -0.201933 1.07461 27.526 -0.205086 
0.783327 27.4364 -0.207615 0.470658 27.3965 -0.210372 0.140219 27.3704 -0.213306 
-0.219654 27.2762 -0.216481 -0.555811 27.2035 -0.219617 -0.822564 27.4952 -0.222365 
-1.11573 27.3845 -0.225214 -1.40953 27.6415 -0.228425 -1.71626 27.5781 -0.23153 
-2.06579 27.6278 -0.235243 -2.39065 27.6389 -0.238722 -2.72795 27.8082 -0.242696 
-1.89708 22.6628 -0.223871 0.929548 12.8988 -0.111547 -1.97591 21.6144 -0.219006 
1.47016 2.83165 -0.141264 1.70772 3.58243 -0.133461 1.89164 4.34778 -0.127308 
2.05409 5.13719 -0.121564 2.23567 5.84482 -0.115183 2.24452 6.46059 -0.114325 
2.29319 7.16035 -0.111838 2.3473 7.88161 -0.108906 2.35438 8.61817 -0.106999 
2.31727 9.29595 -0.106127 2.25457 10.0006 -0.105708 2.20094 10.7121 -0.105364 
2.15916 11.3803 -0.105695 2.11208 12.054 -0.107087 2.05194 12.7431 -0.109595 
2.00777 13.4067 -0.112776 1.99886 14.0575 -0.116394 1.97506 14.7432 -0.12087 
1.94 15.4355 -0.125926 1.91713 16.1402 -0.131438 1.92456 16.847 -0.137192 
1.95467 17.5772 -0.143354 2.02773 18.2798 -0.149164 2.16164 19.0032 -0.154511 
2.20607 19.7419 -0.160638 2.28578 20.4705 -0.165816 2.3539 21.1011 -0.169723 
2.40998 21.7638 -0.173398 2.4251 22.4429 -0.177157 2.42465 23.1341 -0.180505 
2.46562 23.8304 -0.182638 2.56584 24.522 -0.183571 2.498 25.1606 -0.186351 
2.53358 25.9598 -0.188059 2.60261 26.8199 -0.189468 2.65863 27.6683 -0.190976 
1.75962 21.2896 -0.182731 -0.689339 5.78566 -0.161091 -1.24467 15.7651 -0.160175 
-1.10848 23.728 -0.223354 -2.6602 25.8641 -0.237602 -2.5675 24.9625 -0.234585 
-2.3297 23.7764 -0.229558 -2.42715 22.6968 -0.226071 -2.40385 21.8762 -0.222087 
-2.26451 21.1041 -0.216982 -2.24766 20.3668 -0.212082 -2.09772 19.5971 -0.205331 
-2.05216 18.6847 -0.197793 -1.89483 17.7986 -0.188664 -1.82006 16.9153 -0.180424 
-1.9826 16.2402 -0.177794 -1.95001 15.5811 -0.172223 -1.97003 14.9221 -0.167623 
-2.07128 14.2893 -0.164702 -2.03594 13.6591 -0.159886 -2.06772 12.9705 -0.156052 
-2.11434 12.2964 -0.153107 -2.18383 11.5963 -0.150837 -2.26202 10.8802 -0.149129 
-2.30557 10.1939 -0.147843 -2.33183 9.52177 -0.147023 -2.36401 8.81645 -0.146288 
-2.38337 8.12281 -0.145575 -2.43291 7.44181 -0.144232 -2.29138 6.77473 -0.145081 
-2.16679 6.02182 -0.145749 -2.07825 5.2758 -0.145665 -1.95568 4.50494 -0.145889 
-1.79003 3.75189 -0.146591 -1.38723 3.14688 -0.154731 0.996984 16.3374 -0.134276 
1.69748 22.3666 -0.190357 -2.60157 26.7734 -0.239152 -1.59468 7.672 -0.153128 
0.00855789 23.3737 -0.216237 -1.20067 3.28269 -0.159182 -0.985458 3.24586 -0.162454 
-0.843913 3.50555 -0.163512 -0.628025 3.50421 -0.164858 -0.403968 3.43582 -0.16538 
-0.210354 3.25435 -0.165764 -0.0440511 3.48949 -0.164493 0.164257 3.52323 -0.16312 
0.390776 3.54375 -0.161222 0.600468 3.54817 -0.158907 0.777759 3.38429 -0.156655 
0.96915 3.26428 -0.15366 1.15545 3.19481 -0.149862 1.3331 3.05359 -0.145482 
-1.30783 13.8132 -0.147562 -1.32059 16.5276 -0.168114 -1.35149 13.0928 -0.144693 
-1.51791 11.6085 -0.143779 -0.54189 23.5101 -0.219828 -1.41664 12.377 -0.143218 
0.851066 7.50322 -0.148372 1.60754 20.0376 -0.17322 0.641002 23.3773 -0.209601 
-1.26211 14.5076 -0.151147 -1.84992 20.2962 -0.209197 -1.1712 15.1294 -0.153472 
-1.65935 19.1916 -0.198027 2.39322 27.9567 -0.194042 -1.65815 10.7955 -0.145376 
-1.59297 3.04351 -0.147657 1.64188 9.30676 -0.121427 0.396609 7.02706 -0.155788 
1.58075 10.1405 -0.11733 -1.69718 23.8003 -0.226459 1.3741 12.4704 -0.111678 
-1.31515 5.97311 -0.156812 1.27904 7.91495 -0.137803 1.42834 19.1033 -0.163916 
1.0198 13.8389 -0.11603 1.42394 11.7082 -0.111493 0.996859 15.7586 -0.12929 
1.66525 23.4255 -0.19389 1.0029 16.9195 -0.13983 -1.40969 17.3717 -0.177282 
1.05529 14.4379 -0.119691 1.29892 18.2774 -0.154446 -1.52986 18.2522 -0.187498 
-0.121347 6.16666 -0.160215 1.2061 17.5294 -0.146203 2.06827 23.3136 -0.186942 
1.72803 26.0383 -0.197251 1.0099 26.5902 -0.205029 0.65006 26.5326 -0.208427 
0.292118 26.4902 -0.211708 -0.0559062 26.4899 -0.214851 -0.452936 26.0122 -0.218064 
-0.917427 26.3386 -0.222446 -1.41369 26.5014 -0.227298 -1.83134 26.7407 -0.231531 
-2.20007 26.676 -0.234996 1.1682 13.2145 -0.113599 1.5061 10.9231 -0.113525 
1.51955 3.85876 -0.139222 1.6653 4.77781 -0.133619 1.86146 5.79276 -0.126612 
1.98126 7.55025 -0.119787 2.07935 8.27374 -0.115056 2.00265 8.96498 -0.114347 
1.88135 10.4323 -0.110695 1.77437 11.8418 -0.109436 1.77373 12.464 -0.110255 
1.61171 13.1146 -0.113007 1.67172 13.7691 -0.115895 1.67297 14.487 -0.120078 
1.62283 15.1705 -0.124759 1.59156 15.8448 -0.129996 1.58073 16.4989 -0.135455 
1.5763 17.242 -0.142233 1.72261 18.6551 -0.155483 1.82047 19.3661 -0.161986 
1.9611 20.0301 -0.166785 1.98119 20.6665 -0.172552 2.11428 21.2928 -0.175259 
2.14248 21.893 -0.178916 2.13582 24.2881 -0.188767 2.09856 25.3066 -0.191682 
2.2044 26.2557 -0.192384 1.0105 15.123 -0.124365 -1.56092 15.1617 -0.161997 
-1.69043 13.4349 -0.152871 -1.99914 10.5832 -0.147354 -1.91123 9.93503 -0.14749 
-2.04194 9.15382 -0.147979 -1.99728 8.34868 -0.14883 -2.06821 7.46799 -0.148284 
-1.84297 6.56969 -0.1509 -1.71865 5.53775 -0.152071 -1.71023 4.74322 -0.151329 
-1.54344 3.94631 -0.153327 1.7024 8.32267 -0.124705 1.59463 24.5983 -0.196848 
-0.921315 4.59007 -0.161101 -0.588918 4.38325 -0.163124 -0.288951 4.47617 -0.163057 
0.0372503 4.66669 -0.161238 0.320002 4.49491 -0.159431 0.636785 4.84584 -0.155024 
0.891868 4.49941 -0.151662 1.05907 4.11292 -0.149595 1.3074 4.08622 -0.144239 
-1.39524 25.0279 -0.225837 2.33005 27.184 -0.193006 -0.259057 24.521 -0.216809 
0.752761 6.28783 -0.150836 2.00371 26.8486 -0.195631 -2.02438 24.7803 -0.230178 
-1.68013 14.2749 -0.157988 1.28239 25.6952 -0.201691 1.91452 6.71049 -0.123552 
1.93947 9.70262 -0.112608 1.83028 11.1562 -0.109376 1.61555 17.9268 -0.148767 
-2.29743 25.7129 -0.23406 2.06481 22.4702 -0.183574 0.390801 24.4789 -0.211132 
1.18595 6.81978 -0.142176 -1.27569 4.34584 -0.158079 -1.63465 16.0131 -0.169999 
-1.73632 12.7094 -0.149806 -1.80457 11.9822 -0.148137 -1.89213 11.2653 -0.147452 
0.994711 24.4286 -0.204306 1.27675 16.136 -0.132725 1.26874 16.795 -0.138727 
-0.80293 24.8609 -0.220931 0.33479 5.66504 -0.157459 0.437239 25.6716 -0.210444 
1.30615 13.7236 -0.115928 1.34766 5.10034 -0.14129 1.06891 5.679 -0.146055 
1.50745 6.2246 -0.135309 1.28878 15.5074 -0.127606 0.82616 25.5182 -0.206408 
1.39293 14.2586 -0.119031 0.0336028 25.4963 -0.214121 -1.85239 25.7469 -0.230122 
1.60261 7.26492 -0.130851 1.31736 14.8796 -0.123071 3.89143 31.1303 0.0755571 
3.60382 31.0336 0.0729961 3.30953 30.9909 0.0701399 3.01396 30.9506 0.0671328 
2.70994 30.903 0.063929 2.41384 30.8288 0.0608298 2.10478 30.7551 0.057575 
1.8033 30.687 0.0544075 1.46144 30.6559 0.0507217 1.12721 30.6107 0.0472965 
0.80687 30.5857 0.0440771 0.493251 30.5905 0.040947 0.141412 30.5747 0.0376974 
-0.17994 30.5614 0.0349297 -0.514266 30.5672 0.032126 -0.842804 30.5892 0.0294519 
-1.15447 30.6087 0.0269845 -1.46584 30.6395 0.0245508 -1.78427 30.6811 0.0220406 
-2.09348 30.746 0.0195048 -2.38789 30.806 0.0170322 -2.69483 30.8442 0.0143947 
-2.97119 30.9145 0.0118247 -3.26611 30.9972 0.00893204 -3.54778 31.0782 0.00597948 
-3.8354 31.1386 0.00283544 -4.08453 31.231 -3.91284e-05 0.957836 0.972174 0.187149 
1.59325 1.81733 0.166052 2.02083 2.50824 0.162258 2.40397 3.24777 0.161024 
2.69815 3.94531 0.160485 2.9244 4.58627 0.160459 3.10978 5.25247 0.160513 
3.25903 5.93819 0.160846 3.3541 6.57818 0.160987 3.42561 7.23169 0.161094 
3.46055 7.86037 0.161043 3.46822 8.50391 0.160791 3.4611 9.14077 0.160418 
3.44237 9.76486 0.159811 3.39534 10.3965 0.158773 3.3435 11.0569 0.157347 
3.29273 11.6953 0.155601 3.23757 12.3585 0.153301 3.18752 13.0074 0.150593 
3.1453 13.7286 0.147195 3.11784 14.4318 0.143478 3.0969 15.129 0.139288 
3.09776 15.8105 0.135052 3.10519 16.5202 0.130242 3.12833 17.2488 0.125154 
3.16546 17.9627 0.120125 3.21393 18.6347 0.115475 3.27065 19.3437 0.110644 
3.33619 20.0288 0.106296 3.41084 20.7523 0.102071 3.46456 21.4277 0.0983379 
3.52358 22.1205 0.0950515 3.58058 22.787 0.0923805 3.6289 23.4859 0.0899761 
3.67419 24.1802 0.0880313 3.71689 24.8888 0.0864181 3.75466 25.6057 0.0850729 
3.78271 26.2972 0.0839398 3.799 27.0093 0.0828103 3.82645 27.7247 0.0818257 
3.85456 28.4603 0.0808 3.90132 29.1992 0.0798762 3.95634 29.9258 0.0789298 
-3.99299 30.5667 0.00195772 -3.99153 29.8002 0.00309893 -3.94518 29.0752 0.00453554 
-3.91003 28.3622 0.00577958 -3.87622 27.6748 0.00696295 -3.85012 26.941 0.00814378 
-3.81286 26.2285 0.0095232 -3.78316 25.5584 0.0108863 -3.75312 24.8632 0.0124912 
-3.70722 24.1525 0.0146028 -3.66024 23.4573 0.0170237 -3.61448 22.7425 0.0198571 
-3.56166 22.0555 0.0231273 -3.50688 21.3944 0.0267281 -3.43621 20.6624 0.0312662 
-3.37626 19.9829 0.0358037 -3.30783 19.2843 0.0408051 -3.25008 18.552 0.0461814 
-3.20047 17.842 0.0514581 -3.16571 17.1102 0.0568227 -3.13967 16.3272 0.0623806 
-3.13865 15.601 0.067264 -3.15052 14.8799 0.0718003 -3.17811 14.1715 0.0759042 
-3.21859 13.4829 0.0795241 -3.25823 12.8308 0.0826471 -3.30891 12.146 0.0856048 
-3.36447 11.4922 0.0881468 -3.41534 10.8334 0.090555 -3.45554 10.1831 0.0929025 
-3.4884 9.48273 0.095462 -3.50662 8.85582 0.0978376 -3.51024 8.25616 0.100256 
-3.49433 7.64177 0.102994 -3.44391 7.0221 0.106323 -3.36527 6.38441 0.110273 
-3.25616 5.76306 0.114817 -3.12313 5.16447 0.119883 -2.93915 4.52045 0.126532 
-2.72218 3.9064 0.134471 -2.43513 3.24579 0.145653 -2.06768 2.55083 0.162242 
-1.60321 1.8187 0.186972 -0.999096 1.01883 0.230824 -0.470654 0.483645 0.223149 
-0.459222 0.514892 0.212605 -0.401523 0.503545 0.196144 -0.331807 0.466372 0.188594 
-0.286695 0.467928 0.169072 -0.271384 0.479826 0.169647 -0.236928 0.499673 0.177098 
-0.206577 0.517399 0.179017 -0.170525 0.526642 0.179304 -0.130565 0.531062 0.17906 
-0.092547 0.53576 0.180851 -0.0514262 0.513646 0.182132 -0.0147046 0.509722 0.183044 
0.0203669 0.502279 0.183911 0.0559113 0.508952 0.183957 0.0916915 0.509315 0.182491 
0.130485 0.517119 0.180454 0.168521 0.52089 0.179401 0.205141 0.51329 0.178254 
0.239836 0.504732 0.177519 0.282144 0.508772 0.177183 0.321708 0.50636 0.177877 
0.362601 0.504243 0.17972 0.410397 0.506609 0.184149 0.434223 0.478605 0.1892 
0.448724 0.441134 0.186774 -0.0261553 19.043 0.147418 -0.353292 18.6665 0.0497169 
-0.235145 18.0281 0.0352603 -0.216785 17.4971 0.0398878 -0.210773 17.0111 0.0451135 
-0.209428 16.5303 0.0505296 -0.213583 16.0873 0.0556464 -0.213558 15.6167 0.0607288 
-0.216005 15.149 0.0655471 -0.218912 14.6826 0.0700909 -0.213057 14.2164 0.074536 
-0.211525 13.7628 0.0794586 -0.218426 13.2621 0.0868984 -0.2409 12.7327 0.0983137 
-0.356945 12.0609 0.129161 0.00997059 11.7693 0.242599 0.310949 12.1414 0.134475 
0.210239 12.8418 0.10084 0.193721 13.3768 0.0898437 0.19729 13.8558 0.0845894 
0.196524 14.3515 0.0794733 0.194586 14.7997 0.0751965 0.193778 15.2689 0.0709262 
0.192796 15.7076 0.0667052 0.188357 16.1477 0.0620664 0.189363 16.5988 0.0577121 
0.190377 17.0571 0.0531584 0.189725 17.5121 0.0484448 0.216413 18.0353 0.0453295 
0.307076 18.6454 0.051785 0.545825 11.2182 0.171745 -0.493327 19.3714 0.0922148 
4.03077 30.6033 0.0781162 0.420731 19.2646 0.104585 -0.487049 11.4267 0.178521 
3.45518 30.2998 0.0731247 3.74557 30.4456 0.0756698 2.84375 30.28 0.0669677 
2.53628 30.1763 0.0640277 2.23581 30.0589 0.0611925 1.91973 29.9789 0.0581028 
1.60681 29.8927 0.0551254 1.2768 29.8688 0.0518189 0.956808 29.8495 0.0486686 
0.632989 29.8153 0.0456234 0.310609 29.7968 0.0426515 -0.0185746 29.8231 0.0395316 
-0.347023 29.8069 0.036703 -0.674332 29.8127 0.0338681 -0.988962 29.8436 0.0311017 
-1.30092 29.8652 0.0284171 -1.59979 29.893 0.0258234 -1.91114 29.9588 0.023003 
-2.21331 30.0095 0.0202573 -2.51962 30.0866 0.0173462 -2.80647 30.1924 0.0145 
-3.10223 30.2822 0.0115005 -3.39053 30.3938 0.00845284 -3.67296 30.5099 0.00538707 
1.89692 2.54554 0.163111 -3.78661 30.0118 0.00489958 0.270157 10.5519 0.179765 
1.47991 1.80595 0.166612 0.983375 1.08179 0.173719 2.23433 3.2832 0.161697 
2.51014 4.00759 0.160834 2.72614 4.72299 0.160491 2.89097 5.41799 0.16021 
3.01426 6.12902 0.160167 3.09544 6.81454 0.160005 3.15448 7.48181 0.159784 
3.18648 8.12937 0.159424 3.19098 8.76865 0.158844 3.17096 9.42126 0.157952 
3.1309 10.0907 0.156649 3.08102 10.7328 0.154994 3.02003 11.3905 0.152818 
2.95472 12.0433 0.150148 2.8984 12.7051 0.147089 2.85124 13.3826 0.14361 
2.81524 14.0757 0.139733 2.78879 14.7813 0.135436 2.77318 15.4577 0.131022 
2.76892 16.1443 0.12634 2.78337 16.8359 0.121635 2.81667 17.5469 0.116886 
2.87078 18.2355 0.112548 2.92712 18.9305 0.108175 2.98546 19.6243 0.103972 
3.04135 20.3116 0.100052 3.11557 21.0099 0.0966852 3.18296 21.695 0.0937178 
3.24751 22.3984 0.0910565 3.28807 23.0728 0.088709 3.33073 23.7679 0.0866874 
3.38156 24.4775 0.0850203 3.42314 25.1851 0.0835532 3.45471 25.9197 0.0821519 
3.47755 26.6439 0.0808482 3.50981 27.3586 0.0797238 3.53915 28.115 0.0785136 
3.57851 28.9022 0.0773164 3.64025 29.6855 0.0762754 -0.566307 18.8415 0.0475565 
0.210643 20.0988 0.0984209 0.68237 11.3659 0.150525 -3.72605 29.3683 0.00643569 
-3.67117 28.6826 0.00797217 -3.63487 27.9507 0.00938617 -3.59071 27.2359 0.010902 
-3.5467 26.4825 0.0125504 -3.51724 25.7948 0.0140227 -3.47899 25.08 0.0157944 
-3.43844 24.3449 0.0178131 -3.40078 23.6685 0.0198913 -3.35913 22.9687 0.022314 
-3.30787 22.2691 0.0251973 -3.24867 21.5788 0.0284821 -3.17705 20.8585 0.0323753 
-3.11622 20.1776 0.0363549 -3.05109 19.4833 0.0407702 -2.99072 18.774 0.0455287 
-2.93798 18.0649 0.0504468 -2.8966 17.3347 0.055577 -2.87213 16.6023 0.0606985 
-2.86424 15.864 0.0657415 -2.87501 15.1786 0.0702513 -2.90302 14.4503 0.0747965 
-2.93544 13.7655 0.0788129 -2.98168 13.085 0.0825192 -3.03808 12.4273 0.0858146 
-3.09562 11.7608 0.0889233 -3.15196 11.1039 0.0917856 -3.18491 10.4382 0.0947612 
-3.22298 9.76665 0.0975948 -3.2577 9.09719 0.100323 -3.26515 8.46921 0.103086 
-3.25498 7.83798 0.106012 -3.20993 7.19222 0.109479 -3.14209 6.55 0.113382 
-3.04958 5.88444 0.117792 -2.92987 5.2634 0.122801 -2.76586 4.6016 0.129006 
-2.57184 3.96762 0.136459 -2.30213 3.2785 0.146942 -1.97407 2.58427 0.161132 
-1.55214 1.86307 0.181261 -1.00005 1.10237 0.208453 -0.759839 1.06236 0.178747 
-0.976022 1.21157 0.189814 -0.632341 1.01466 0.166237 -0.576484 1.05744 0.159553 
-0.520501 1.10132 0.158383 -0.447315 1.12798 0.159685 -0.370249 1.13157 0.161491 
-0.295382 1.13486 0.162916 -0.218416 1.1498 0.164036 -0.142747 1.14441 0.165489 
-0.0650537 1.12123 0.166777 0.00825808 1.10188 0.167578 0.0803739 1.11469 0.167699 
0.15437 1.1186 0.167204 0.232098 1.14062 0.166194 0.308769 1.15481 0.165024 
0.379154 1.12372 0.164134 0.456543 1.11354 0.163301 0.541108 1.11949 0.162761 
0.631178 1.1302 0.162693 0.732699 1.1416 0.163852 0.831585 1.14601 0.166046 
0.928667 1.13849 0.169561 -0.705888 19.568 0.0598662 -0.724091 11.1774 0.139576 
-0.299944 10.5813 0.174789 -0.471671 18.1604 0.0455274 -0.429592 17.5616 0.0471995 
-0.408996 16.9878 0.0508368 -0.393624 16.4256 0.055532 -0.391199 15.8996 0.0602875 
-0.391531 15.3776 0.0651608 -0.395494 14.8527 0.0702398 -0.399935 14.3417 0.0753835 
-0.416355 13.7814 0.0819099 -0.448792 13.1942 0.0899206 -0.479516 12.6127 0.10085 
-0.580029 11.902 0.11799 0.44875 12.768 0.110305 0.410913 13.3728 0.0992234 
0.396363 13.9321 0.0913958 0.382664 14.477 0.0850888 0.378934 14.9906 0.0801008 
0.374275 15.4856 0.0755311 0.371213 15.9951 0.0710194 0.377893 16.5109 0.0670625 
0.383819 17.0405 0.0630233 0.403775 17.5956 0.0596311 0.457058 18.2162 0.0580856 
0.541369 18.865 0.0595649 -0.325769 20.1649 0.0951718 3.1511 30.2938 0.0700816 
0.548504 12.0607 0.129004 0.65493 19.5643 0.0748367 0.715455 10.0315 0.161209 
0.64023 20.2858 0.0868067 0.971754 10.4404 0.153664 -0.727056 10.4047 0.150034 
-0.73075 20.347 0.0709287 0.416309 9.51912 0.161134 2.07273 29.2452 0.0619641 
2.69878 29.5044 0.0674551 1.75198 29.1712 0.0590378 1.42466 29.1172 0.0560314 
1.10273 29.063 0.053131 0.777434 29.0457 0.0501035 0.462993 29.0247 0.0472474 
0.151817 29.0107 0.0444519 -0.183854 29.0002 0.0414559 -0.5051 29.0054 0.038541 
-0.828781 29.0155 0.0355811 -1.13588 29.0298 0.0327387 -1.44008 29.0892 0.0297561 
-1.74738 29.1362 0.0267716 -2.05452 29.1958 0.0237183 -2.34655 29.272 0.0207309 
-2.65558 29.3881 0.0174534 -2.95975 29.5103 0.0141866 -3.25667 29.6451 0.010927 
-3.53698 29.8098 0.00777883 -0.545657 9.48277 0.152436 2.03861 3.35552 0.160826 
0.88572 19.6424 0.0688714 0.431553 21.1478 0.083529 1.72856 2.5853 0.162114 
2.47412 4.86607 0.159437 2.63209 5.633 0.15914 2.75183 6.36546 0.1589 
2.82385 7.05868 0.158545 2.86743 7.73178 0.15807 2.88699 8.40259 0.157374 
2.88202 9.06071 0.156391 2.85502 9.73565 0.154982 2.80543 10.3958 0.153089 
2.7328 11.0592 0.150555 2.66985 11.7165 0.147652 2.60716 12.3766 0.14425 
2.54688 13.0264 0.140456 2.50035 13.7196 0.136213 2.45269 14.4146 0.131491 
2.43189 15.1051 0.126865 2.43007 15.7684 0.122439 2.44096 16.4535 0.117837 
2.46216 17.1586 0.113111 2.5018 17.8372 0.108818 2.55962 18.5087 0.104909 
2.62271 19.2169 0.100941 2.68734 19.9097 0.0973607 2.7579 20.5743 0.0943849 
2.83162 21.2764 0.0916244 2.88435 21.9758 0.0890559 2.93489 22.6645 0.0868898 
2.98979 23.3516 0.0850824 3.04267 24.0367 0.0835136 3.08493 24.7575 0.0819584 
3.11429 25.5071 0.0803986 3.13459 26.2569 0.0788742 3.15914 26.9665 0.077535 
3.19994 27.728 0.0762616 3.25201 28.5452 0.0749895 3.29228 29.4841 0.0733278 
0.930397 11.3146 0.141419 -3.32027 27.5676 0.0135806 -3.27703 26.7767 0.0153978 
-3.23385 26.0738 0.0171358 -3.19227 25.3399 0.0190121 -3.15416 24.5952 0.0209672 
-3.12218 23.8662 0.0229649 -3.0979 23.2106 0.0248339 -3.05947 22.5108 0.0272173 
-2.99883 21.7983 0.0301416 -2.92347 21.119 0.0333728 -2.85795 20.4204 0.0368967 
-2.78847 19.7206 0.0408126 -2.72089 19.0172 0.0450536 -2.65324 18.286 0.0497477 
-2.60397 17.6025 0.054294 -2.584 16.8871 0.0591334 -2.56611 16.1429 0.0642199 
-2.57411 15.4317 0.0690321 -2.59241 14.7481 0.0735643 -2.63733 14.0459 0.078007 
-2.68544 13.3441 0.0822615 -2.73031 12.6696 0.0861961 -2.79519 12.0466 0.0895132 
-2.8765 11.4155 0.0925569 -2.90725 10.7165 0.096206 -2.92157 10.0904 0.0995369 
-2.96124 9.40145 0.102721 -3.00018 8.72253 0.1056 -2.99808 8.07242 0.108695 
-2.95406 7.39421 0.112413 -2.89699 6.7376 0.116173 -2.81999 6.06679 0.120226 
-2.72015 5.41584 0.124826 -2.57528 4.74963 0.130523 -2.38539 4.06843 0.137332 
-2.13684 3.36009 0.14639 -1.82145 2.61575 0.158494 -1.51474 1.98945 0.172585 
-0.904777 1.60935 0.159519 -0.982095 1.54655 0.165953 -0.92871 19.6134 0.0512543 
-1.04282 10.3595 0.132576 0.929189 20.408 0.0758704 -0.842158 1.73327 0.155775 
-0.769078 1.85978 0.154585 -0.630702 1.84658 0.15566 -0.50205 1.80686 0.157314 
-0.381744 1.80874 0.158746 -0.275677 1.84614 0.159894 -0.162908 1.83505 0.161193 
-0.0474776 1.79591 0.162356 0.0671881 1.79367 0.162915 0.17841 1.82365 0.162825 
0.294201 1.84726 0.162336 0.411348 1.85545 0.161642 0.517852 1.83504 0.161007 
0.64256 1.83174 0.160335 0.783714 1.85051 0.159815 0.927094 1.87349 0.159808 
1.07385 1.88362 0.16077 1.21924 1.86791 0.162247 1.35424 1.83438 0.16469 
0.809695 12.1092 0.127538 -1.0071 20.3946 0.0567773 2.28116 4.12154 0.160072 
-0.0537854 9.54807 0.163149 -0.745288 18.1434 0.0492832 -0.699571 17.4987 0.0517955 
-0.665385 16.8717 0.0559329 -0.633468 16.2349 0.0604147 -0.616739 15.6499 0.0650241 
-0.617236 15.0795 0.0703176 -0.627557 14.5123 0.0758169 -0.662021 13.9021 0.0820165 
-0.720676 13.2371 0.0899782 -0.773607 12.5905 0.0988418 0.717522 12.8539 0.114436 
-0.579997 21.2286 0.0748883 0.666216 13.4922 0.104852 0.640674 14.1008 0.097335 
0.627421 14.6612 0.0914584 0.612774 15.2241 0.086003 0.609689 15.7738 0.08129 
0.618406 16.3579 0.0769138 0.636269 16.9367 0.0730283 0.672958 17.5724 0.0695348 
0.724403 18.2312 0.0670669 0.796385 18.9081 0.066146 -0.0875486 21.1713 0.0831236 
2.37924 29.3622 0.0646666 -3.38248 28.3396 0.0116464 -0.819509 18.8604 0.0479704 
-3.45301 29.0875 0.00972975 2.98751 29.6829 0.0698864 -0.996479 9.44311 0.139551 
-0.962548 11.1837 0.122742 1.06523 9.3617 0.153427 -1.31513 1.90043 0.168089 
0.854055 21.2092 0.0801134 -0.992591 21.2716 0.060925 -0.797259 11.9559 0.109941 
0.722116 8.87159 0.156598 1.92276 28.348 0.063221 0.93139 28.1773 0.0548431 
0.611907 28.2028 0.0518649 0.298677 28.1859 0.0491176 -0.0202658 28.1466 0.0463899 
-0.345297 28.1342 0.0434587 -0.655867 28.1204 0.0405996 -0.981199 28.1246 0.0374461 
-1.28154 28.1201 0.0344836 -1.59184 28.2267 0.0310121 -1.90611 28.3184 0.0275347 
-2.20871 28.3861 0.0242296 -2.51021 28.5036 0.020802 -2.8315 28.6552 0.0170883 
-3.14991 28.8485 0.013345 -1.1286 18.7282 0.0492572 1.17396 19.6145 0.0726566 
-2.88989 25.6626 0.0222327 2.42572 6.60114 0.157157 2.34504 5.88231 0.157594 
2.20721 5.05112 0.158106 2.49266 7.33411 0.156637 2.51968 8.04232 0.155861 
2.53856 8.70125 0.154907 2.52506 9.37068 0.153499 2.49861 10.025 0.151633 
2.43634 10.7177 0.148894 2.35159 11.3528 0.145601 2.27232 12.0192 0.141641 
2.21114 12.7015 0.137265 2.14043 13.3602 0.132446 2.09058 14.0466 0.127416 
2.06886 14.7295 0.12261 2.05634 15.3875 0.117926 2.0647 16.0475 0.113454 
2.08499 16.7437 0.108856 2.11116 17.4402 0.104311 2.15159 18.0984 0.100347 
2.21391 18.7935 0.0966882 2.31086 19.4862 0.0938775 2.37732 20.1864 0.090887 
2.44113 20.8198 0.0885642 2.51632 21.5381 0.0865289 2.56558 22.2279 0.084618 
2.60766 22.9164 0.0829001 2.66047 23.6095 0.0814516 2.72907 24.3039 0.080249 
2.76354 25.0709 0.0786826 2.76154 25.8339 0.076856 2.78794 26.5577 0.0753646 
2.82232 27.3229 0.0738746 2.8786 28.1326 0.0724894 2.94203 28.9541 0.0711554 
-1.27187 20.3165 0.049759 0.700803 22.2182 0.0768214 -0.965925 2.68219 0.150439 
-1.19129 19.5208 0.0483261 -0.282214 8.45733 0.152037 -1.34108 21.2385 0.0512263 
-2.93852 26.4015 0.0202044 -2.98611 27.1973 0.018135 -2.84521 24.8913 0.0243462 
-2.81164 24.1314 0.0263107 -2.80413 23.4554 0.0278716 -2.7994 22.7881 0.0294791 
-2.75166 22.0668 0.0318548 -2.66641 21.3681 0.0347503 -2.59367 20.6997 0.0376294 
-2.519 19.9949 0.0409777 -2.43668 19.2832 0.0447658 -2.35666 18.5523 0.0489662 
-2.30034 17.874 0.0531348 -2.26605 17.1927 0.0575661 -2.24343 16.4364 0.062632 
-2.2496 15.731 0.0674847 -2.26539 15.0399 0.0722731 -2.29937 14.3529 0.0769406 
-2.35541 13.6291 0.0817665 -2.39194 12.9061 0.0865003 -2.44762 12.2408 0.090713 
-2.59481 11.6884 0.0932145 -2.63223 11.0959 0.0966679 -2.57196 10.5038 0.101054 
-2.61248 9.79203 0.104931 -2.68562 9.07288 0.108007 -2.70572 8.36699 0.111296 
-2.66587 7.66412 0.115199 -2.61323 6.99129 0.118837 -2.555 6.30835 0.122542 
-2.47153 5.60128 0.126785 -2.36218 4.93894 0.131455 -2.17621 4.21362 0.137567 
-1.94846 3.49175 0.144807 -1.68234 2.71988 0.154492 1.38706 9.76547 0.14998 
-1.28238 2.17611 0.158214 -1.18118 2.69409 0.150182 -1.37023 10.5573 0.119072 
1.19216 21.1861 0.0761664 1.54792 2.63307 0.160528 -0.858299 22.2982 0.0625545 
-1.14954 2.23921 0.154326 -0.752422 2.61156 0.152127 -0.569169 2.44428 0.15447 
-0.456377 2.62265 0.155018 -0.305695 2.66403 0.156243 -0.142723 2.58186 0.157878 
0.0115693 2.51831 0.159028 0.164944 2.57607 0.159255 0.316826 2.65324 0.159092 
0.477221 2.66405 0.15893 0.626043 2.64987 0.15875 0.784661 2.61829 0.158437 
0.961817 2.61805 0.158226 1.16504 2.68617 0.158281 1.35884 2.68126 0.159159 
1.19178 11.5407 0.1365 1.25064 28.2182 0.0575586 1.30363 10.6888 0.145155 
1.20415 20.3974 0.0735585 -3.05972 28.0367 0.0157523 1.58408 28.2702 0.0603802 
-0.357979 22.2737 0.0708087 -1.03485 17.3256 0.0555029 -0.95834 16.6584 0.0596733 
-0.913498 15.977 0.0644589 -0.897555 15.3773 0.0693759 -0.890978 14.7423 0.0749384 
-0.935431 14.1134 0.0808097 -1.01436 13.3857 0.0882574 -1.11123 12.5805 0.0968239 
1.08264 12.3437 0.126233 0.94401 13.7081 0.108956 0.917589 14.3394 0.102308 
0.897079 14.9247 0.0966863 0.894623 15.5322 0.0915561 0.911137 16.1437 0.0871546 
0.928131 16.7672 0.0828511 0.966228 17.4181 0.0789574 1.02097 18.1175 0.0757809 
1.10257 18.879 0.0736489 0.182868 22.2642 0.0753313 0.261827 8.51768 0.155581 
-1.08417 18.01 0.0519409 0.996494 13.0428 0.116972 -1.37662 9.55019 0.127371 
-0.793898 8.43092 0.143625 2.59193 28.6877 0.0684997 2.0201 4.26427 0.158664 
-1.32325 22.2288 0.0520585 1.41615 8.76129 0.15215 -1.19781 11.6417 0.108535 
2.25046 28.502 0.0658033 1.81528 3.44198 0.159525 1.11526 22.1437 0.0768055 
1.04812 8.18101 0.153763 -1.25478 8.53105 0.134099 -1.52564 2.91511 0.149925 
0.743662 27.1786 0.0569315 -0.180254 27.3085 0.0483247 -0.496931 27.104 0.0461182 
-0.807353 27.2791 0.0423832 -1.10879 27.0595 0.0399185 -1.44941 27.1206 0.0360126 
-1.76033 27.4567 0.031567 -2.06978 27.417 0.0282514 -2.38394 27.5858 0.0242745 
-2.72657 27.7746 0.0199978 1.56043 19.5334 0.0801862 -1.33653 3.53581 0.145144 
2.08361 6.90255 0.15536 2.17235 8.43315 0.153655 2.23996 9.04446 0.152719 
2.1457 9.68488 0.150597 2.1417 10.3332 0.148269 1.99441 10.9567 0.144507 
1.89984 11.6167 0.140043 1.82181 12.3106 0.134745 1.7592 13.0174 0.128954 
1.71339 13.681 0.123551 1.66785 14.3464 0.11797 1.65885 15.0081 0.11287 
1.65397 15.6442 0.108132 1.65222 16.3236 0.103083 1.68449 17.0071 0.0988477 
1.7396 17.6904 0.0951061 1.79457 18.3755 0.0915255 1.86674 19.0805 0.0884398 
2.00597 19.7636 0.0870589 1.98019 20.3919 0.0835988 2.1874 21.0916 0.0839485 
2.18523 21.7301 0.0819533 2.21924 22.4483 0.0805355 2.25616 23.1817 0.079187 
2.31428 23.9106 0.0779228 2.42352 24.6239 0.0771394 2.40194 25.3337 0.0752995 
2.40843 26.1511 0.0732962 2.42478 26.932 0.0714628 2.50145 27.8068 0.069912 
-2.46062 24.4581 0.0302488 -2.58932 26.0673 0.0252066 1.82298 9.18965 0.15109 
-2.52255 25.2685 0.0276975 -2.63999 26.8866 0.0228418 -2.45604 23.6486 0.0319107 
-2.48152 22.9719 0.0329211 -2.52456 22.3636 0.0336525 -2.40155 21.6969 0.0364286 
-2.31263 21.0332 0.0388255 -2.22624 20.2985 0.0415602 -2.15137 19.5677 0.0446271 
-2.04769 18.8501 0.0481997 -1.94466 18.1673 0.051987 -1.89529 17.4733 0.0560821 
-1.89203 16.7639 0.0607888 -1.8788 16.0277 0.0657579 -1.87162 15.3375 0.0707871 
-1.92709 14.6172 0.0760013 -1.99354 13.9261 0.0809473 -2.08771 13.2296 0.0857217 
-2.00205 12.4717 0.091999 -2.22167 11.3881 0.0986509 -2.20509 10.3589 0.106468 
-2.30331 9.46805 0.110935 -2.42989 8.74339 0.113141 -2.36333 8.08044 0.117355 
-2.29442 7.35114 0.121472 -2.23377 6.61278 0.125217 -2.16515 5.82653 0.129094 
-2.09703 5.10253 0.132928 -2.012 4.45853 0.137026 -1.69784 3.66023 0.143406 
-1.73035 10.9138 0.108565 1.53807 20.3362 0.0771587 1.50744 21.1102 0.0762266 
-1.04803 3.51613 0.146997 -1.17931 23.3923 0.0524514 0.614763 7.59194 0.153032 
-0.50041 3.57868 0.151337 -0.270004 3.59251 0.153016 -0.0752447 3.30499 0.155324 
0.0977648 3.27231 0.156309 0.279105 3.56864 0.155878 0.484495 3.55292 0.156248 
0.696083 3.52632 0.156656 0.896327 3.52632 0.156552 1.05373 3.35908 0.156911 
1.33257 3.55634 0.157075 1.58165 3.55606 0.158006 -0.516971 7.25027 0.14608 
0.0621311 7.30492 0.150537 -0.738525 3.41059 0.149795 -1.62084 11.9051 0.100013 
-1.6417 21.0045 0.0456401 1.07365 27.2745 0.0593355 2.01716 6.12929 0.155941 
1.28976 14.0142 0.113311 -1.42107 17.0379 0.0585056 -1.22176 16.3491 0.0629263 
-1.36753 15.6347 0.0687331 -1.17171 15.0354 0.0730055 -1.22962 14.4323 0.0782432 
-1.31915 13.7061 0.0844639 -1.46921 12.8452 0.092021 1.48242 11.9079 0.134367 
2.14557 7.69189 0.154668 -1.8189 9.80833 0.11622 -1.74886 22.0495 0.044233 
-0.661463 23.4464 0.0602083 1.25831 14.6296 0.107697 1.25555 15.2691 0.102417 
1.25014 15.908 0.0973345 1.26942 16.5413 0.0931152 1.30825 17.2189 0.0890318 
1.3699 17.9462 0.0854825 1.44062 18.6937 0.0822561 0.135166 27.1171 0.0519542 
0.441559 27.3454 0.0537354 -1.66889 23.1771 0.0441984 -1.05407 7.37561 0.139073 
1.47821 21.9764 0.076207 -1.54369 20.0819 0.0464188 1.71486 4.4674 0.156897 
1.77474 27.3823 0.0648171 -1.67994 8.74137 0.125084 1.97982 5.37473 0.15663 
1.78916 8.22383 0.152837 2.12856 27.5365 0.0673818 1.3288 13.3351 0.119742 
-1.49213 19.3116 0.0477146 0.991958 23.2411 0.0732606 -1.47404 17.7709 0.0541706 
1.4175 27.3532 0.0619287 -1.54777 18.524 0.0504269 1.39241 12.6385 0.126973 
1.42156 7.58804 0.15311 -0.0965139 23.444 0.0662863 0.471297 23.3956 0.0702909 
-1.57831 24.5898 0.0422362 1.59483 11.1161 0.141503 -1.28311 25.9214 0.0420432 
-1.82046 26.1577 0.0345975 -2.2688 26.6306 0.0278789 0.871725 26.1538 0.0618744 
-0.179085 5.97498 0.149148 1.82889 21.7977 0.0781502 1.83519 22.6738 0.0770387 
1.86838 23.6095 0.07563 2.00329 24.6042 0.0743028 2.07385 25.5975 0.0721656 
2.00228 26.469 0.0693264 -2.08898 24.9352 0.0341475 -0.415611 24.6966 0.0570945 
-2.10431 23.0237 0.0379181 -2.05731 23.9109 0.0371435 1.74829 10.2251 0.147384 
-2.24405 25.7656 0.0302895 -2.03032 21.4378 0.040794 -2.08683 8.80196 0.117827 
-1.97954 7.93284 0.123574 -1.88006 7.02534 0.128102 -1.81647 6.1312 0.131951 
-1.78173 5.21523 0.13528 -1.71516 4.38226 0.139197 1.43364 22.9664 0.0748285 
1.00517 6.72823 0.15264 -0.97309 24.6503 0.0508442 -1.39244 4.39727 0.141563 
1.84628 21.0436 0.0796953 -0.750958 4.55399 0.146315 0.415621 26.1404 0.0583234 
0.420253 4.65226 0.153671 0.682065 4.36797 0.154748 0.953852 4.48724 0.154894 
1.27587 4.38371 0.155685 1.61104 5.3939 0.155112 1.58581 6.41986 0.154208 
0.385717 6.09481 0.151758 -0.402488 4.69135 0.148986 -0.761984 26.0831 0.0474926 
1.23011 26.4859 0.0633659 -1.06002 4.41235 0.144244 1.79313 7.3501 0.15392 
0.164321 24.6752 0.0624295 1.58404 26.3648 0.0663994 -0.162543 26.0536 0.0536571 
-1.92546 20.6258 0.0428628 -2.19642 22.2601 0.0378056 -1.84722 19.88 0.0450152 
-1.80259 19.1915 0.0472996 -1.56255 16.3599 0.0635621 -1.60798 14.1772 0.0800105 
-1.7324 13.3498 0.0863338 0.0175593 4.4746 0.152314 -1.05258 5.43394 0.141787 
-1.51838 14.9111 0.0742878 1.41855 24.1994 0.0718238 0.783186 24.6506 0.0668867 
-1.5312 7.65286 0.131274 -0.756849 6.04103 0.143939 1.68776 25.3988 0.0700371 
-1.37723 6.50609 0.136212 -1.42317 5.39979 0.137988 0.800164 5.40369 0.153288 
1.24717 25.4387 0.0668009 1.2223 5.51221 0.154155 -0.649399 13.013 -0.0157884 
0 0 0 0 0 0 0 0 0 
0 0 0 0 0 0 0 0 0 
0 0 0 0 0 0 0 0 0 
0 0 0 0 0 0 0 0 0 
0 0 0 0 0 0 0 0 0 
0 0 0 0 0 0 0 0 0 
0 0 0 0 0 0 0 0 0 
0 0 0 0 0 0 0 0 0 
0 0 0 0 0 0 0 0 0 
0 0 0 0 0 0 0 0 0 
0 0 0 0 0 0 0 0 0 
0 0 0 0 0 0 0 0 0 
0 0 0 0 0 0 0 0 0 
0 0 0 0 0 0 0 0 0 
0 0 0 0 0 0 0 0 0 
0 0 0 0 0 0 0 0 0 
0 0 0 0 0 0 0 0 0 
0 0 0 0 0 0 0 0 0 
0 0 0 0 0 0 0 0 0 
4.15451 31.7699 -0.190419 3.85504 31.7288 -0.192933 3.57108 31.6872 -0.195073 
3.27705 31.6411 -0.196992 2.98771 31.5935 -0.198638 2.70649 31.5461 -0.200047 
2.41205 31.4968 -0.201394 2.10345 31.447 -0.202738 1.7932 31.4005 -0.204094 
1.48612 31.3593 -0.20552 1.17854 31.3241 -0.20704 0.843575 31.2939 -0.208915 
0.509466 31.2731 -0.211116 0.18238 31.2624 -0.213567 -0.159606 31.2616 -0.216484 
-0.491466 31.2712 -0.219708 -0.830353 31.2911 -0.223411 -1.15636 31.3193 -0.227321 
-1.47322 31.3545 -0.231401 -1.81572 31.3997 -0.236116 -2.13838 31.4477 -0.240725 
-2.44192 31.4962 -0.245168 -2.74399 31.5461 -0.249623 -3.03676 31.5944 -0.253895 
-3.32129 31.64 -0.25792 -3.59877 31.6822 -0.261674 -3.88659 31.723 -0.265301 
-4.16619 31.7603 -0.268623 0.61581 0.524345 -0.19596 1.43731 1.6157 -0.138976 
2.00752 2.38334 -0.0991454 2.42038 3.04936 -0.0824195 2.75771 3.69694 -0.0725463 
3.03297 4.33914 -0.0666289 3.25064 4.97018 -0.0631231 3.41653 5.5819 -0.0611948 
3.53741 6.16426 -0.0605375 3.62966 6.77523 -0.0608077 3.69086 7.38915 -0.0618822 
3.72422 7.9938 -0.0636963 3.73477 8.59046 -0.0661975 3.72673 9.19453 -0.0693583 
3.70278 9.82209 -0.0732215 3.66483 10.4899 -0.0779673 3.61723 11.1851 -0.0834176 
3.56692 11.8777 -0.0892141 3.51966 12.5507 -0.0950481 3.47697 13.2337 -0.101011 
3.44133 13.9416 -0.107116 3.41733 14.6243 -0.112836 3.40465 15.3283 -0.118491 
3.40486 16.0191 -0.12373 3.41775 16.7111 -0.128617 3.44584 17.4684 -0.133545 
3.48708 18.2232 -0.138011 3.53674 18.9412 -0.141852 3.59245 19.6383 -0.145241 
3.65258 20.3305 -0.148331 3.71297 21.0021 -0.151138 3.77126 21.6541 -0.153745 
3.82833 22.3192 -0.156345 3.88248 22.9987 -0.159002 3.93029 23.6624 -0.16162 
3.97278 24.3275 -0.164283 4.01186 25.0272 -0.167098 4.04614 25.731 -0.169926 
4.07611 26.4235 -0.172676 4.10388 27.121 -0.17538 4.13147 27.84 -0.178057 
4.15903 28.5475 -0.180532 4.18913 29.2758 -0.182878 4.22294 30.0241 -0.185036 
4.25763 30.7242 -0.186756 4.29468 31.4246 -0.188302 -4.27967 31.4275 -0.269383 
-4.24177 30.6937 -0.26767 -4.20732 29.9769 -0.265776 -4.17746 29.2952 -0.263687 
-4.14954 28.5999 -0.261305 -4.12167 27.8593 -0.258527 -4.09451 27.1239 -0.255575 
-4.06841 26.4428 -0.2527 -4.03952 25.7504 -0.249676 -4.00552 25.0309 -0.246455 
-3.96737 24.3317 -0.243258 -3.92461 23.6513 -0.24012 -3.87376 22.9408 -0.236855 
-3.81837 22.2462 -0.233685 -3.76265 21.5974 -0.230719 -3.70441 20.9458 -0.227704 
-3.64412 20.2746 -0.224519 -3.58153 19.5503 -0.220912 -3.52292 18.8044 -0.216925 
-3.47392 18.0697 -0.212674 -3.43729 17.3641 -0.208261 -3.41288 16.6729 -0.203598 
-3.40043 15.9319 -0.198226 -3.40242 15.209 -0.192616 -3.41657 14.5387 -0.187114 
-3.44307 13.8411 -0.181087 -3.48059 13.1348 -0.174744 -3.52583 12.438 -0.168301 
-3.57528 11.7519 -0.16184 -3.62596 11.0623 -0.155307 -3.6711 10.4 -0.149107 
-3.70667 9.76402 -0.143282 -3.73002 9.12382 -0.137599 -3.73617 8.50732 -0.132336 
-3.72281 7.9125 -0.127454 -3.68484 7.29555 -0.122569 -3.61509 6.65538 -0.117613 
-3.51307 6.03187 -0.112876 -3.37652 5.42258 -0.108343 -3.20731 4.83888 -0.104152 
-2.98852 4.23573 -0.0999658 -2.71518 3.62179 -0.0958998 -2.37535 2.98869 -0.0920734 
-1.92709 2.29122 -0.0889737 -1.36141 1.57342 -0.0994297 -0.653662 0.526445 -0.190261 
0.0013515 17.8935 -0.136363 -0.0599622 17.7919 -0.115352 -0.0632386 17.4598 -0.116703 
-0.0700334 17.0907 -0.118332 -0.0743017 16.7227 -0.117893 -0.0777047 16.338 -0.115759 
-0.0797149 15.9399 -0.112878 -0.0807044 15.5468 -0.109219 -0.0809824 15.1375 -0.104713 
-0.0804975 14.7388 -0.0996311 -0.0783989 14.3353 -0.0936502 -0.075979 13.9462 -0.0857058 
-0.0727194 13.5939 -0.0763814 -0.0667871 13.2669 -0.0631674 -0.0550483 13.0029 -0.040663 
-0.00730049 12.9135 -0.0353624 0.0373731 12.9812 -0.0464834 0.042227 13.297 -0.0640892 
0.0510885 13.627 -0.0759547 0.0562746 13.9808 -0.0845617 0.059479 14.3543 -0.0917369 
0.0613174 14.7334 -0.0974893 0.0625113 15.1349 -0.102425 0.062795 15.5497 -0.106785 
0.0621226 15.954 -0.110415 0.0605387 16.3654 -0.113118 0.0580716 16.7566 -0.114773 
0.0539722 17.1272 -0.114679 0.045497 17.4772 -0.111901 0.0465528 17.8012 -0.115476 
4.1683 31.7706 0.0764727 3.88074 31.7312 0.0741373 3.59687 31.69 0.0715821 
3.31927 31.6468 0.0688427 3.03872 31.601 0.0658565 2.75417 31.5532 0.062689 
2.45639 31.5032 0.0592879 2.14869 31.4531 0.0557277 1.84373 31.4067 0.0522022 
1.5062 31.3607 0.0483571 1.14873 31.3199 0.0444517 0.813317 31.2904 0.0409725 
0.49283 31.271 0.0377917 0.151522 31.2605 0.0346238 -0.195208 31.2607 0.0316581 
-0.522341 31.2711 0.0290571 -0.847153 31.2907 0.026627 -1.17303 31.3193 0.0242745 
-1.49419 31.3552 0.0220468 -1.81432 31.3976 0.0198186 -2.12851 31.4443 0.0175863 
-2.43238 31.4927 0.0153348 -2.7264 31.5411 0.0130181 -3.01543 31.5889 0.0105578 
-3.30025 31.6347 0.00791904 -3.58195 31.6777 0.00501762 -3.87782 31.7198 0.00169169 
-4.16532 31.7582 -0.00179187 0.61708 0.512514 0.229281 1.35155 1.55044 0.161995 
1.91396 2.26817 0.153259 2.34252 2.93694 0.156354 2.69386 3.58624 0.15773 
2.97548 4.21517 0.158569 3.19535 4.81882 0.159419 3.37257 5.43066 0.160294 
3.5109 6.05411 0.161036 3.61148 6.67812 0.161542 3.67885 7.30496 0.161942 
3.71709 7.93664 0.162205 3.7299 8.54649 0.162321 3.72338 9.14966 0.162299 
3.70132 9.76138 0.162063 3.66736 10.3829 0.161596 3.62528 11.0149 0.160815 
3.58009 11.6422 0.159678 3.53332 12.2954 0.158045 3.48769 12.9904 0.15577 
3.44904 13.6952 0.152911 3.42034 14.4079 0.149452 3.40397 15.1104 0.145532 
3.40049 15.8333 0.141035 3.4113 16.5746 0.136021 3.43488 17.283 0.130942 
3.46939 17.9731 0.125798 3.51715 18.709 0.120217 3.57354 19.4403 0.11473 
3.63135 20.1181 0.109834 3.69302 20.8073 0.105176 3.75461 21.4923 0.100998 
3.81254 22.1583 0.0974446 3.86909 22.8541 0.0943114 3.92029 23.5495 0.0917567 
3.96565 24.2463 0.0897416 4.00453 24.9298 0.0882019 4.03869 25.617 0.0870091 
4.06983 26.3249 0.0860356 4.0972 27.0055 0.0852485 4.12421 27.7073 0.0844996 
4.15286 28.447 0.0836905 4.18263 29.1747 0.0827865 4.21521 29.906 0.0816708 
4.25367 30.6893 0.080152 4.2934 31.4399 0.0784309 -4.28198 31.4093 -0.00254285 
-4.24245 30.642 -0.000711502 -4.20593 29.8754 0.000861707 -4.17442 29.1443 0.00209811 
-4.14698 28.4497 0.00310883 -4.12057 27.7428 0.00405373 -4.09397 27.0245 0.00502067 
-4.06762 26.344 0.00601915 -4.03828 25.6522 0.00721286 -4.00528 24.9651 0.00868488 
-3.96846 24.2977 0.010498 -3.92321 23.5855 0.0129445 -3.87175 22.8749 0.0159634 
-3.81847 22.2115 0.0193437 -3.75971 21.5306 0.0233684 -3.69837 20.8465 0.0279283 
-3.6367 20.1583 0.0329306 -3.57465 19.4329 0.0385117 -3.51942 18.7185 0.04417 
-3.47147 17.9832 0.049987 -3.43471 17.2443 0.0556918 -3.41004 16.4541 0.0614811 
-3.40171 15.6641 0.0668539 -3.40837 14.9587 0.0712156 -3.42891 14.2252 0.0752931 
-3.46002 13.5307 0.0787055 -3.4981 12.8761 0.0815071 -3.54517 12.1832 0.0840831 
-3.59387 11.5168 0.0862612 -3.63915 10.892 0.0881161 -3.6823 10.2328 0.0899905 
-3.71604 9.57042 0.0919238 -3.73424 8.94759 0.0939205 -3.73509 8.34757 0.0961065 
-3.71519 7.74031 0.0986561 -3.67099 7.13859 0.10162 -3.60113 6.5546 0.105011 
-3.50154 5.9726 0.108986 -3.36476 5.3768 0.113789 -3.18778 4.7784 0.119551 
-2.96992 4.18792 0.126644 -2.69225 3.5719 0.136207 -2.34694 2.93525 0.149517 
-1.92582 2.27731 0.169877 -1.37501 1.54993 0.210069 -0.575374 0.621438 0.306129 
-0.00313335 17.866 -0.00720092 -0.0515773 17.7823 -0.00529497 -0.068731 17.4891 0.00913509 
-0.0730328 17.1275 0.0205673 -0.0770447 16.7694 0.0285676 -0.0800112 16.3863 0.0354778 
-0.0818729 15.9946 0.0413026 -0.082869 15.6076 0.0463101 -0.0830546 15.1842 0.0510788 
-0.0824925 14.7653 0.055004 -0.0808201 14.3611 0.0581952 -0.0780995 13.9763 0.0609753 
-0.0742858 13.6187 0.0629444 -0.0686272 13.2859 0.0646047 -0.0630585 12.9782 0.0694371 
0.0050588 12.8787 0.0954152 0.0448638 12.974 0.0698657 0.0435723 13.3298 0.0640472 
0.0509612 13.6997 0.0636168 0.0552043 14.0747 0.0623369 0.0583035 14.4739 0.0594185 
0.0598776 14.886 0.056153 0.0604888 15.2888 0.0523677 0.0603707 15.6753 0.0479174 
0.0596104 16.0586 0.0427469 0.0573537 16.4379 0.0374661 0.0545713 16.8061 0.0309401 
0.05058 17.1545 0.0227811 0.0423744 17.4892 0.0132692 0.0379877 17.8016 0.00106657 
-4.29972 31.7768 -0.136788 4.31333 31.7906 -0.0557166 0.0771308 12.82 0.0240676 
0.0770579 17.9559 -0.0633267 -0.10882 12.8145 0.0315255 -0.104228 17.9598 -0.0733351 
0 0 0 0 0 0 0 0 0 
0 0 0 0 0 0 0 0 0 
0 0 0 0 0 0 0 0 0 
0 0 0 0 0 0 0 0 0 
0 0 0 0 0 0 0 0 0 
0 0 0 0 0 0 0 0 0 
0 0 0 0 0 0 0 0 0 
0 0 0 0 0 0 0 0 0 
0 0 0 0 0 0 0 0 0 
0 0 0 0 0 0 0 0 0 
0 0 0 0 0 0 0 0 0 
0 0 0 0 0 0 0 0 0 
0 0 0 0 0 0 0 0 0 
0 0 0 0 0 0 0 0 0 
0 0 0 0 0 0 0 0 0 
0 0 0 0 0 0 0 0 0 
0 0 0 0 0 0 0 0 0 
0 0 0 0 0 0 0 0 0 
4.13464 31.4033 -0.189583 3.93506 31.4432 -0.191328 3.79493 31.4235 -0.192429 
3.64648 31.4191 -0.193601 3.50166 31.3971 -0.194603 3.72694 31.1341 -0.192041 
3.34702 31.3741 -0.195646 3.19683 31.3498 -0.196572 3.42348 31.1066 -0.194249 
3.0557 31.2959 -0.197333 2.91601 31.2722 -0.198106 3.12755 31.0292 -0.196074 
2.76805 31.2277 -0.198872 2.62636 31.2034 -0.199584 2.8388 30.9302 -0.197647 
2.4792 31.1779 -0.200348 2.32678 31.1521 -0.20107 2.5442 30.8593 -0.19924 
2.1673 31.1222 -0.201867 2.01219 31.0973 -0.202585 2.23856 30.8028 -0.200869 
1.8578 31.0678 -0.203356 1.70447 31.0452 -0.204087 1.92611 30.7423 -0.202499 
1.54227 31.018 -0.204938 1.39094 30.9985 -0.205704 1.61158 30.6844 -0.204183 
1.23419 30.9853 -0.206583 1.08078 30.969 -0.207431 1.29504 30.643 -0.205983 
0.920117 30.9529 -0.20842 0.742112 30.9388 -0.209544 0.980305 30.613 -0.207901 
0.580304 30.9289 -0.210647 0.428441 30.9213 -0.211761 0.660901 30.5863 -0.210061 
0.263731 30.9222 -0.213041 0.0927494 30.919 -0.214439 0.337778 30.5766 -0.212491 
-0.0749495 30.9227 -0.215896 -0.241343 30.925 -0.217433 0.00891218 30.581 -0.21523 
-0.407186 30.9299 -0.219039 -0.568297 30.9373 -0.220706 -0.321093 30.5897 -0.21829 
-0.738504 30.9473 -0.222531 -0.911951 30.9606 -0.224502 -0.653691 30.605 -0.221697 
-1.06713 30.9761 -0.226326 -1.21615 30.9914 -0.228169 -0.975858 30.6315 -0.225311 
-1.38176 31.0185 -0.230231 -1.54648 31.0393 -0.232398 -1.29385 30.6749 -0.229117 
-1.71202 31.0648 -0.234582 -1.88716 31.0903 -0.23701 -1.62256 30.7287 -0.233314 
-2.04289 31.1099 -0.23914 -2.1892 31.1332 -0.241233 -1.94209 30.775 -0.237559 
-2.34644 31.1533 -0.243431 -2.5029 31.1794 -0.245697 -2.25404 30.8158 -0.241823 
-2.65303 31.2025 -0.247815 -2.79863 31.227 -0.249918 -2.56077 30.8601 -0.246076 
-2.94373 31.2622 -0.251974 -3.09138 31.2866 -0.25407 -2.85575 30.9192 -0.250193 
-3.2317 31.3249 -0.256036 -3.36955 31.3466 -0.257931 -3.14122 30.9934 -0.254168 
-3.50031 31.3897 -0.25975 -3.6411 31.4105 -0.26158 -3.4126 31.0752 -0.257901 
-3.77737 31.399 -0.263277 -3.92552 31.4194 -0.265097 -3.68019 31.1072 -0.261393 
-4.04556 31.3837 -0.266497 -4.17756 31.4009 -0.26808 -4.15924 31.0509 -0.267256 
-3.93695 31.0602 -0.2645 0.463604 0.392699 -0.190225 1.04123 1.05678 -0.184456 
1.40593 1.51554 -0.140271 1.73178 1.96474 -0.119312 1.97569 2.34044 -0.107223 
1.39472 1.51002 -0.14142 2.19736 2.70814 -0.0970204 2.38063 3.03985 -0.0903759 
1.94491 2.34472 -0.111605 2.55884 3.3928 -0.084273 2.71797 3.73946 -0.0798763 
2.35002 3.08758 -0.0957741 2.8487 4.05705 -0.07649 2.96991 4.37953 -0.0738473 
2.66012 3.7785 -0.08614 3.08008 4.70465 -0.0714427 3.17943 5.03598 -0.0697262 
2.90374 4.44091 -0.0798342 3.26338 5.36348 -0.0684147 3.33283 5.66341 -0.0675648 
3.09979 5.11139 -0.075642 3.39216 5.97362 -0.0670225 3.44391 6.27264 -0.0667251 
3.24305 5.76544 -0.0734254 3.49139 6.56864 -0.0663268 3.53114 6.8959 -0.0664668 
3.34891 6.38602 -0.0721637 3.55962 7.20543 -0.0667578 3.58188 7.50536 -0.0672874 
3.42496 7.00353 -0.0717144 3.59818 7.82505 -0.0679553 3.60858 8.14132 -0.0688996 
3.46947 7.64399 -0.0723277 3.61419 8.44831 -0.0698334 3.61384 8.73832 -0.0710389 
3.49007 8.28044 -0.0736184 3.61234 9.04553 -0.0721962 3.60297 9.36784 -0.0738836 
3.49269 8.90281 -0.075466 3.58929 9.69664 -0.0756005 3.5733 10.0083 -0.0775092 
3.47584 9.54535 -0.0780637 3.55096 10.3377 -0.0795938 3.52687 10.6991 -0.0820929 
3.43752 10.2086 -0.0815751 3.50308 11.0458 -0.0844759 3.47797 11.3822 -0.0870352 
3.38905 10.888 -0.0857177 3.45512 11.7059 -0.0894486 3.42826 12.0628 -0.0923221 
3.34019 11.5604 -0.0902286 3.40227 12.4069 -0.0950702 3.38026 12.7214 -0.0976924 
3.28929 12.2281 -0.095122 3.3547 13.0739 -0.100588 3.33291 13.44 -0.103656 
3.23583 12.9231 -0.100527 3.31664 13.7815 -0.106443 3.30139 14.1191 -0.109249 
3.19244 13.6147 -0.106007 3.29058 14.4554 -0.111966 3.28085 14.7955 -0.114723 
3.16407 14.2892 -0.11136 3.2753 15.149 -0.117507 3.2718 15.5074 -0.120292 
3.14661 14.9748 -0.116757 3.27258 15.8565 -0.12293 3.27565 16.1833 -0.125336 
3.14125 15.673 -0.122118 3.28225 16.5515 -0.127974 3.29258 16.9112 -0.13045 
3.14843 16.3855 -0.127375 3.30375 17.2694 -0.132861 3.32231 17.6612 -0.135349 
3.16696 17.1073 -0.132439 3.34564 18.0204 -0.137562 3.36845 18.3784 -0.139639 
3.20214 17.8204 -0.137119 3.39584 18.7187 -0.141566 3.423 19.0751 -0.143459 
3.25353 18.5163 -0.141331 3.45192 19.432 -0.14534 3.48077 19.7703 -0.146983 
3.3104 19.2108 -0.145234 3.50898 20.1202 -0.148713 3.54078 20.4727 -0.150302 
3.36839 19.9156 -0.148943 3.56847 20.7953 -0.151789 3.59753 21.1143 -0.153139 
3.42516 20.5871 -0.152247 3.63086 21.4491 -0.154539 3.66044 21.7827 -0.155889 
3.48688 21.2442 -0.155211 3.68554 22.1155 -0.157307 3.71328 22.4484 -0.158623 
3.54584 21.9121 -0.158078 3.73673 22.7862 -0.160025 3.76316 23.1349 -0.161391 
3.59472 22.5836 -0.160921 3.7862 23.4776 -0.162761 3.80756 23.795 -0.164004 
3.64127 23.2654 -0.163696 3.82934 24.1339 -0.165318 3.84993 24.484 -0.16669 
3.68575 23.9486 -0.16636 3.87165 24.8321 -0.167997 3.88954 25.1839 -0.169374 
3.72863 24.6372 -0.168942 3.90757 25.5232 -0.170639 3.9233 25.8769 -0.172013 
3.76758 25.3261 -0.171465 3.93681 26.2286 -0.173337 3.95037 26.5684 -0.174633 
3.79831 26.0182 -0.174003 3.96338 26.9318 -0.175961 3.97679 27.2902 -0.177283 
3.82386 26.734 -0.176596 3.99104 27.6536 -0.178541 4.00444 28.0143 -0.179809 
3.85008 27.4613 -0.17912 4.01554 28.3618 -0.18097 4.02899 28.7081 -0.182109 
3.8745 28.1723 -0.181486 4.04573 29.0783 -0.183232 4.06187 29.4594 -0.184384 
3.9015 28.8898 -0.183729 4.08104 29.809 -0.18535 4.09822 30.1748 -0.186341 
3.93684 29.6092 -0.185791 4.12577 30.5035 -0.187121 4.14286 30.8367 -0.187906 
3.98317 30.2871 -0.18752 0.00142552 17.8729 -0.0710139 -4.13967 30.6676 -0.266293 
-4.10693 30.0604 -0.264606 -4.09193 29.7279 -0.263643 -4.06991 29.4293 -0.262607 
-4.05561 29.0813 -0.261485 -3.96947 29.5122 -0.261506 -4.0363 28.725 -0.260234 
-4.02326 28.3786 -0.259011 -3.92867 28.8577 -0.259254 -4.00451 28.0175 -0.257656 
-3.99042 27.6241 -0.256163 -3.89144 28.1405 -0.256689 -3.9748 27.2516 -0.254724 
-3.96246 26.9097 -0.253348 -3.85802 27.4068 -0.253951 -3.945 26.5508 -0.25188 
-3.93189 26.2112 -0.250458 -3.82588 26.6752 -0.251104 -3.91752 25.8643 -0.249025 
-3.90225 25.5107 -0.247499 -3.79485 25.9687 -0.248261 -3.88699 25.1521 -0.245982 
-3.86862 24.7847 -0.244357 -3.7659 25.2622 -0.245368 -3.84938 24.4329 -0.242808 
-3.82995 24.099 -0.241302 -3.73186 24.5505 -0.242354 -3.80651 23.7561 -0.239746 
-3.78314 23.4074 -0.238157 -3.68936 23.8544 -0.239284 -3.7585 23.0578 -0.236557 
-3.7308 22.6937 -0.234894 -3.6412 23.1604 -0.236141 -3.70275 22.3615 -0.233328 
-3.67494 22.0289 -0.2318 -3.58817 22.4774 -0.232963 -3.64472 21.6948 -0.230185 
-3.61652 21.3772 -0.228698 -3.5295 21.8103 -0.229755 -3.58892 21.0435 -0.227066 
-3.55843 20.7087 -0.225455 -3.47104 21.1422 -0.226454 -3.52872 20.3511 -0.22364 
-3.49854 20.0146 -0.221948 -3.41295 20.4511 -0.222929 -3.46515 19.6542 -0.219967 
-3.43269 19.2674 -0.217893 -3.34917 19.734 -0.219035 -3.40165 18.9131 -0.215792 
-3.37533 18.5566 -0.213743 -3.28428 19.0212 -0.214849 -3.34939 18.1987 -0.211493 
-3.32694 17.8244 -0.209173 -3.22699 18.3119 -0.210409 -3.30683 17.467 -0.20678 
-3.29262 17.1406 -0.204611 -3.18087 17.6004 -0.205697 -3.28276 16.7863 -0.202168 
-3.27366 16.4269 -0.199615 -3.15134 16.8932 -0.200815 -3.27046 16.0732 -0.19704 
-3.26844 15.6978 -0.194206 -3.1393 16.1899 -0.195787 -3.27465 15.3575 -0.191648 
-3.27944 15.0159 -0.18893 -3.14348 15.5007 -0.190676 -3.29021 14.672 -0.1862 
-3.30058 14.3485 -0.183511 -3.16149 14.8209 -0.185454 -3.31495 13.9789 -0.180414 
-3.33311 13.61 -0.177235 -3.18813 14.1116 -0.179744 -3.35014 13.268 -0.174275 
-3.37112 12.9347 -0.171329 -3.22189 13.4037 -0.173849 -3.39319 12.5964 -0.168386 
-3.41929 12.236 -0.165156 -3.26311 12.7259 -0.168153 -3.44641 11.8923 -0.162177 
-3.47126 11.5678 -0.159248 -3.31442 12.0453 -0.162479 -3.49472 11.2124 -0.156164 
-3.5218 10.8473 -0.152919 -3.36703 11.3461 -0.156693 -3.54397 10.5314 -0.150266 
-3.56344 10.2316 -0.147651 -3.41439 10.6735 -0.151272 -3.58377 9.90273 -0.144961 
-3.60021 9.56274 -0.142101 -3.45839 10.0256 -0.14623 -3.61212 9.24453 -0.139594 
-3.61967 8.93805 -0.137114 -3.49153 9.37403 -0.141349 -3.62231 8.62412 -0.134755 
-3.62058 8.30645 -0.1323 -3.50657 8.73563 -0.136802 -3.61462 7.99233 -0.130023 
-3.60271 7.70601 -0.127896 -3.50328 8.09969 -0.132493 -3.58564 7.39616 -0.125725 
-3.55678 7.05473 -0.12328 -3.4792 7.46652 -0.128362 -3.52418 6.7407 -0.121151 
-3.48206 6.4288 -0.118969 -3.42823 6.83199 -0.124373 -3.42832 6.11385 -0.117054 
-3.36591 5.78739 -0.114844 -3.34042 6.19091 -0.120624 -3.29237 5.46434 -0.112989 
-3.21621 5.16463 -0.111043 -3.21147 5.53853 -0.117186 -3.12766 4.85487 -0.109349 
-3.03032 4.55206 -0.107489 -3.04612 4.88928 -0.113997 -2.92914 4.26046 -0.105868 
-2.80165 3.93798 -0.104004 -2.85171 4.27008 -0.111027 -2.66288 3.61491 -0.10243 
-2.51073 3.29828 -0.100799 -2.60841 3.6362 -0.108177 -2.33024 2.95691 -0.100183 
-2.13101 2.60878 -0.0989658 -2.28272 2.95087 -0.106235 -1.89955 2.23977 -0.0992245 
-1.63098 1.84471 -0.0999471 -1.86174 2.21643 -0.106378 -1.33715 1.44587 -0.106214 
-1.02119 1.06152 -0.12543 -1.32776 1.43065 -0.112631 -0.457304 0.360495 -0.167329 
-0.239161 0.186595 -0.147189 -0.217599 0.178863 -0.146375 -0.223904 0.188279 -0.140505 
-0.206897 0.189176 -0.14117 -0.45469 0.469843 -0.154146 -0.196625 0.188725 -0.142958 
-0.187835 0.191399 -0.132996 -0.412415 0.476996 -0.155212 -0.17489 0.198678 -0.140634 
-0.162496 0.193429 -0.145998 -0.350856 0.43661 -0.172814 -0.154639 0.233525 -0.164027 
-0.145373 0.230597 -0.157939 -0.305595 0.45114 -0.18685 -0.138759 0.213382 -0.149864 
-0.128275 0.208301 -0.148961 -0.275177 0.4647 -0.18638 -0.120587 0.215644 -0.145723 
-0.111325 0.211649 -0.145547 -0.235347 0.462718 -0.187918 -0.103398 0.216421 -0.146671 
-0.091314 0.213904 -0.147588 -0.198372 0.466721 -0.187914 -0.08364 0.218617 -0.148232 
-0.07084 0.215523 -0.149521 -0.162106 0.470306 -0.188085 -0.0647788 0.222007 -0.147298 
-0.0554157 0.219368 -0.147887 -0.127511 0.476805 -0.188107 -0.0475102 0.22167 -0.147319 
-0.0363286 0.218697 -0.149906 -0.0909513 0.480399 -0.188303 -0.0275165 0.218814 -0.147989 
-0.0173314 0.215501 -0.148917 -0.0534287 0.476703 -0.187168 -0.00970688 0.221187 -0.148576 
-0.000470868 0.218615 -0.149192 -0.0178635 0.477172 -0.186644 0.00849388 0.225142 -0.149918 
0.0178371 0.222285 -0.149969 0.0177397 0.485249 -0.185506 0.0260934 0.222815 -0.149806 
0.0370078 0.22143 -0.150227 0.0537437 0.487802 -0.185723 0.0456425 0.220833 -0.149734 
0.0573223 0.219471 -0.149694 0.0886402 0.482651 -0.185693 0.0643835 0.217143 -0.147664 
0.0748867 0.216572 -0.147163 0.123707 0.475409 -0.186218 0.0813428 0.213657 -0.147791 
0.0937062 0.212916 -0.147779 0.15851 0.467434 -0.18631 0.0991137 0.209582 -0.145904 
0.10963 0.209936 -0.145658 0.191657 0.459392 -0.185977 0.115936 0.207053 -0.146231 
0.128017 0.207316 -0.145176 0.225702 0.452116 -0.185222 0.133034 0.202801 -0.145401 
0.146125 0.204036 -0.144322 0.260018 0.445053 -0.185542 0.154716 0.203531 -0.145945 
0.167867 0.206498 -0.144491 0.296907 0.442674 -0.185532 0.179681 0.206209 -0.148794 
0.196112 0.211609 -0.147519 0.342922 0.448776 -0.185558 0.206816 0.207701 -0.150234 
0.223866 0.214665 -0.15464 0.396286 0.457581 -0.187344 0.230888 0.208213 -0.157865 
0.259659 0.22079 -0.164987 0.452553 0.466227 -0.192028 -0.105405 18.4965 -0.324829 
0.0822197 18.4696 -0.316692 -0.152177 18.1792 -0.158324 -0.223695 18.4696 -0.184458 
-0.136695 17.6508 -0.142016 -0.140772 17.9089 -0.1425 -0.281509 18.3954 -0.172668 
-0.138032 17.1666 -0.135421 -0.135359 17.3892 -0.136328 -0.234886 17.767 -0.15121 
-0.140447 16.7386 -0.13224 -0.138061 16.9382 -0.133141 -0.219699 17.2136 -0.142822 
-0.143172 16.3061 -0.129084 -0.141048 16.5273 -0.130507 -0.215842 16.7304 -0.138405 
-0.145697 15.8803 -0.125396 -0.144445 16.0855 -0.127096 -0.216394 16.2657 -0.134413 
-0.146884 15.4604 -0.121339 -0.146133 15.6726 -0.123474 -0.217537 15.8094 -0.130503 
-0.145042 15.0195 -0.116483 -0.144946 15.2407 -0.118828 -0.216822 15.3564 -0.126036 
-0.143641 14.5975 -0.111354 -0.144078 14.8002 -0.113835 -0.214814 14.8913 -0.121272 
-0.141412 14.1501 -0.105251 -0.142748 14.3822 -0.108932 -0.214831 14.4277 -0.116337 
-0.140503 13.7226 -0.098441 -0.141793 13.9227 -0.10249 -0.217586 13.9487 -0.111099 
-0.136725 13.3023 -0.0905854 -0.137592 13.5161 -0.0954003 -0.221912 13.4652 -0.105717 
-0.138612 12.8468 -0.0825658 -0.134322 13.0698 -0.087669 -0.231238 12.9576 -0.100941 
-0.244583 12.244 -0.109661 -0.147386 12.5677 -0.0878123 -0.277996 12.3437 -0.107471 
0.12607 12.2343 -0.253855 -0.091169 12.251 -0.252529 0.121388 12.6401 -0.0817613 
0.190469 12.3125 -0.095514 0.106848 13.1447 -0.0854339 0.109391 12.9124 -0.080518 
0.232642 12.4775 -0.0919461 0.109981 13.5684 -0.0921148 0.10757 13.3667 -0.0882543 
0.192766 13.0563 -0.0938821 0.114604 13.9807 -0.0982633 0.112486 13.7751 -0.0950605 
0.18341 13.5437 -0.0995887 0.116864 14.3897 -0.103995 0.115511 14.1864 -0.101019 
0.18163 13.9971 -0.104957 0.117731 14.7981 -0.108899 0.116872 14.5969 -0.10647 
0.180151 14.4404 -0.109899 0.119074 15.2451 -0.113783 0.118806 15.0224 -0.11144 
0.180069 14.8971 -0.11465 0.119118 15.6797 -0.117968 0.119498 15.4663 -0.115955 
0.180819 15.3663 -0.119171 0.118315 16.0983 -0.12158 0.119405 15.8859 -0.11988 
0.181149 15.8161 -0.123242 0.116397 16.5497 -0.124613 0.118027 16.3248 -0.123494 
0.181247 16.2736 -0.126965 0.113682 16.9613 -0.126784 0.116106 16.7615 -0.126205 
0.18157 16.7423 -0.130464 0.109331 17.4013 -0.129334 0.112949 17.1806 -0.128745 
0.183833 17.2134 -0.134197 0.109436 17.8616 -0.13549 0.110005 17.6395 -0.132951 
0.193519 17.7314 -0.140569 0.175532 18.4051 -0.170314 0.124374 18.1091 -0.149317 
0.235012 18.3167 -0.158458 4.07535 31.0983 -0.189181 0.512772 0.477176 -0.17819 
0.274935 19.0967 -0.280883 0.333547 18.7279 -0.242244 -0.367718 18.8003 -0.251711 
-0.299764 19.143 -0.284142 -0.486377 0.399027 -0.135074 -0.469347 19.0706 -0.228202 
-0.265096 11.5458 -0.207856 -0.372221 11.9297 -0.179663 -0.480058 11.6378 -0.160819 
0.389312 11.9792 -0.166912 0.303167 11.6066 -0.204202 0.433211 11.7644 -0.14012 
0.400202 18.9709 -0.219133 -0.709027 0.702875 -0.142395 0.731577 0.733039 -0.189323 
0.135699 19.6114 -0.271795 0.380084 19.6759 -0.254452 3.49735 30.8604 -0.192936 
3.34237 30.8371 -0.193984 3.20149 30.7467 -0.194737 3.06062 30.6924 -0.195523 
3.27686 30.5013 -0.193456 2.91774 30.6204 -0.196309 2.77034 30.5752 -0.197135 
2.99393 30.3385 -0.195013 2.62038 30.5217 -0.197995 2.47394 30.4953 -0.198819 
2.70218 30.2122 -0.196692 2.31301 30.4558 -0.199765 2.15484 30.4249 -0.200626 
2.39264 30.1182 -0.198542 1.99406 30.4042 -0.20159 1.84141 30.3737 -0.202434 
2.07241 30.0567 -0.200502 1.67929 30.3506 -0.203407 1.51933 30.3224 -0.204325 
1.75112 30.0115 -0.202502 1.35572 30.2927 -0.205331 1.20139 30.2788 -0.206285 
1.42729 29.9575 -0.204548 1.04695 30.2623 -0.207315 0.889127 30.2457 -0.208349 
1.11132 29.9105 -0.206642 0.732245 30.2377 -0.209496 0.573591 30.2272 -0.210632 
0.802234 29.8853 -0.208851 0.417551 30.2281 -0.211873 0.256215 30.2287 -0.213143 
0.491641 29.8777 -0.211222 0.0920222 30.2243 -0.214564 -0.0721401 30.2279 -0.216001 
0.173883 29.8738 -0.21384 -0.239783 30.2401 -0.217581 -0.402205 30.2453 -0.219148 
-0.155246 29.8815 -0.216786 -0.568468 30.2435 -0.220855 -0.735275 30.2542 -0.222621 
-0.48657 29.8923 -0.220012 -0.892518 30.2778 -0.224359 -1.04488 30.2939 -0.226098 
-0.807463 29.915 -0.223381 -1.19783 30.3172 -0.227897 -1.36076 30.3451 -0.229884 
-1.11535 29.9627 -0.226842 -1.53372 30.3697 -0.232021 -1.69702 30.3963 -0.234122 
-1.43921 30.0113 -0.23069 -1.85476 30.4077 -0.23613 -2.00912 30.4282 -0.238186 
-1.76799 30.0486 -0.23477 -2.16377 30.441 -0.240201 -2.32008 30.4622 -0.24232 
-2.07897 30.0741 -0.238726 -2.47473 30.4903 -0.244388 -2.62442 30.5143 -0.246434 
-2.38714 30.1162 -0.242735 -2.77305 30.5506 -0.248431 -2.91792 30.5865 -0.250432 
-2.68946 30.1818 -0.246747 -3.05875 30.638 -0.252372 -3.19919 30.6768 -0.254292 
-2.97817 30.2704 -0.250623 -3.33201 30.7347 -0.256139 -3.46305 30.7781 -0.257913 
-3.25129 30.3803 -0.254346 -3.59006 30.839 -0.259665 -3.72689 30.828 -0.261364 
-3.51077 30.4995 -0.257915 -0.357015 17.8426 -0.157614 -0.386792 18.1778 -0.166981 
-1.00668 1.05368 -0.124312 -0.751618 0.786201 -0.138768 -1.30799 1.44941 -0.116482 
3.94301 30.8769 -0.189577 1.69448 2.0166 -0.126567 1.92407 2.4008 -0.116499 
2.12545 2.7813 -0.108285 2.30758 3.15361 -0.101621 1.90149 2.48645 -0.119344 
2.45819 3.50019 -0.0964703 2.59206 3.8369 -0.0925635 2.25092 3.22256 -0.10692 
2.70958 4.1654 -0.0890637 2.82248 4.50884 -0.0861911 2.51901 3.90982 -0.0983561 
2.92574 4.86417 -0.0834658 3.01123 5.20916 -0.0818727 2.74145 4.60736 -0.0918901 
3.08784 5.55436 -0.0802004 3.14723 5.87932 -0.0792202 2.9214 5.32123 -0.087108 
3.19905 6.19054 -0.0782235 3.24647 6.49906 -0.0775449 3.04888 5.98944 -0.0843358 
3.28234 6.8116 -0.0770504 3.31087 7.13291 -0.077065 3.13638 6.62398 -0.0826927 
3.33249 7.45437 -0.0770227 3.34825 7.78469 -0.0774074 3.19354 7.26807 -0.0819774 
3.35998 8.1183 -0.0776682 3.36472 8.43394 -0.0783484 3.22646 7.93236 -0.0819863 
3.36131 8.73723 -0.079029 3.35861 9.0519 -0.0799653 3.23337 8.57675 -0.0827546 
3.35011 9.38697 -0.0809417 3.33481 9.72171 -0.0823748 3.22054 9.22148 -0.0841719 
3.31428 10.061 -0.0838137 3.29001 10.3946 -0.0855986 3.18974 9.90109 -0.0863345 
3.26585 10.738 -0.0873255 3.24024 11.0874 -0.0893817 3.14298 10.5877 -0.0892276 
3.2194 11.4075 -0.0911979 3.19496 11.7322 -0.0933276 3.09584 11.2537 -0.0925094 
3.16884 12.07 -0.0955474 3.14123 12.4133 -0.0980097 3.04709 11.9126 -0.0962752 
3.11293 12.771 -0.100583 3.08607 13.1216 -0.103225 2.99084 12.6079 -0.1008 
3.06528 13.4581 -0.105746 3.04783 13.7968 -0.108331 2.94035 13.3009 -0.105654 
3.03085 14.1268 -0.110877 3.01909 14.4594 -0.113438 2.90145 13.9654 -0.110523 
3.0085 14.8003 -0.116079 3.00228 15.1494 -0.118744 2.87288 14.6333 -0.115542 
2.99804 15.5011 -0.121444 2.99844 15.8455 -0.124011 2.85734 15.3223 -0.120755 
3.00398 16.2088 -0.126725 3.01089 16.5721 -0.129336 2.85834 16.0333 -0.126081 
3.02714 16.9289 -0.131884 3.03887 17.2827 -0.134311 2.88044 16.7493 -0.131295 
3.05838 17.6394 -0.136749 3.08213 17.9946 -0.139016 2.9167 17.4592 -0.136278 
3.10276 18.3176 -0.141111 3.13051 18.6547 -0.143123 2.95771 18.1357 -0.14084 
3.15706 18.9899 -0.145151 3.18643 19.3443 -0.147152 3.00543 18.791 -0.145044 
3.2222 19.7052 -0.149134 3.25101 20.0536 -0.150985 3.06837 19.4847 -0.149177 
3.27642 20.3938 -0.152808 3.30462 20.7157 -0.154397 3.13039 20.1841 -0.153107 
3.33063 21.0285 -0.155937 3.36438 21.3632 -0.157429 3.18254 20.8359 -0.156587 
3.39308 21.7029 -0.15897 3.41846 22.0362 -0.160453 3.23788 21.4878 -0.15978 
3.4468 22.3754 -0.161877 3.47029 22.7142 -0.163313 3.29528 22.1664 -0.162826 
3.49493 23.0639 -0.164724 3.51778 23.408 -0.166099 3.34833 22.8555 -0.16571 
3.53622 23.7355 -0.167383 3.55755 24.0759 -0.168679 3.39103 23.5332 -0.168425 
3.57832 24.4256 -0.169948 3.59942 24.7752 -0.171212 3.42981 24.2112 -0.170975 
3.61989 25.1209 -0.172394 3.63723 25.4615 -0.173611 3.47028 24.9075 -0.173394 
3.6523 25.8118 -0.17482 3.66501 26.1644 -0.176083 3.50494 25.6044 -0.175738 
3.68038 26.5244 -0.177276 3.6925 26.8885 -0.178532 3.53437 26.3156 -0.17808 
3.70267 27.2662 -0.179795 3.71606 27.6299 -0.180979 3.55884 27.054 -0.180466 
3.72494 27.9797 -0.182107 3.73529 28.3271 -0.183204 3.57684 27.7819 -0.182778 
3.75035 28.6953 -0.184291 3.76646 29.0652 -0.185365 3.59983 28.5001 -0.184913 
3.78883 29.4376 -0.18637 3.80759 29.7869 -0.187309 3.63646 29.241 -0.186944 
3.82922 30.1953 -0.18839 3.85667 30.5238 -0.189178 3.67993 30.0221 -0.189002 
-0.582373 19.2565 -0.211752 -0.636718 19.5924 -0.231519 1.04313 1.10871 -0.162144 
1.3785 1.55219 -0.142323 1.39309 1.64934 -0.141828 -3.8686 29.6784 -0.260598 
-3.84694 29.38 -0.259579 -3.81442 29.0207 -0.258254 -3.79573 28.6647 -0.25704 
-3.71297 29.1853 -0.257419 -3.76647 28.296 -0.255664 -3.74849 27.9349 -0.25436 
-3.65186 28.4569 -0.254752 -3.72619 27.5491 -0.252954 -3.71143 27.1763 -0.251581 
-3.60124 27.7018 -0.252017 -3.69659 26.7946 -0.25021 -3.6799 26.4352 -0.248807 
-3.56522 26.9337 -0.249292 -3.66874 26.0929 -0.247549 -3.65501 25.7451 -0.246174 
-3.54019 26.2092 -0.246709 -3.63913 25.376 -0.244734 -3.62434 25.0164 -0.243259 
-3.51408 25.497 -0.244059 -3.60299 24.6581 -0.24177 -3.58407 24.3049 -0.240263 
-3.4775 24.7689 -0.24118 -3.56564 23.9709 -0.23885 -3.5423 23.6266 -0.237317 
-3.43813 24.0758 -0.238304 -3.51729 23.2777 -0.235752 -3.49252 22.9268 -0.234167 
-3.39501 23.3922 -0.23533 -3.46751 22.5828 -0.232546 -3.43925 22.2498 -0.230967 
-3.345 22.6989 -0.232123 -3.4108 21.9085 -0.229264 -3.38017 21.574 -0.227612 
-3.29122 22.0135 -0.228792 -3.3491 21.2455 -0.225861 -3.32098 20.9118 -0.22417 
-3.23111 21.3441 -0.225319 -3.28403 20.5547 -0.222136 -3.25376 20.1979 -0.220222 
-3.1624 20.6594 -0.221503 -3.22285 19.8406 -0.218113 -3.18914 19.4818 -0.216021 
-3.09369 19.9465 -0.217294 -3.15828 19.1176 -0.213724 -3.12714 18.7658 -0.211529 
-3.03118 19.227 -0.212818 -3.0993 18.4307 -0.209261 -3.07345 18.0762 -0.206932 
-2.97226 18.5301 -0.208185 -3.04848 17.7187 -0.204397 -3.02866 17.3655 -0.20195 
-2.91923 17.8406 -0.203335 -3.01948 17.0291 -0.199604 -3.01033 16.6792 -0.197129 
-2.88542 17.1501 -0.19841 -3.00622 16.3154 -0.194498 -3.00413 15.9664 -0.191931 
-2.87234 16.4535 -0.193423 -3.00715 15.6321 -0.189454 -3.01431 15.2963 -0.18694 
-2.87238 15.7591 -0.188328 -3.02424 14.9544 -0.184361 -3.03627 14.6149 -0.181722 
-2.88638 15.0866 -0.183318 -3.04844 14.2604 -0.17894 -3.06473 13.895 -0.175999 
-2.9099 14.3937 -0.178045 -3.08534 13.5319 -0.173172 -3.10419 13.1928 -0.170401 
-2.9445 13.6792 -0.172571 -3.12291 12.8669 -0.167842 -3.14676 12.5305 -0.165127 
-2.98598 12.9925 -0.167347 -3.17196 12.1851 -0.162496 -3.20077 11.8422 -0.159791 
-3.03178 12.3223 -0.162353 -3.22854 11.497 -0.157246 -3.25352 11.1406 -0.154484 
-3.08675 11.6319 -0.157422 -3.27946 10.7998 -0.15208 -3.30277 10.4816 -0.149711 
-3.14226 10.9448 -0.152727 -3.32459 10.1584 -0.147534 -3.3456 9.82578 -0.14516 
-3.19129 10.2786 -0.148409 -3.36188 9.49297 -0.143017 -3.3741 9.1692 -0.140823 
-3.23034 9.61902 -0.144362 -3.38503 8.85672 -0.13889 -3.38749 8.53574 -0.136839 
-3.25771 8.9688 -0.140573 -3.38789 8.20583 -0.13491 -3.38121 7.88323 -0.132938 
-3.26919 8.3202 -0.136987 -3.36832 7.5704 -0.13124 -3.34968 7.2507 -0.129376 
-3.25573 7.67003 -0.133627 -3.31621 6.91375 -0.127758 -3.28183 6.58784 -0.125953 
-3.20861 7.01132 -0.130587 -3.23495 6.26521 -0.124522 -3.17871 5.93663 -0.122946 
-3.12592 6.34082 -0.127846 -3.11427 5.60129 -0.121578 -3.03769 5.26267 -0.120096 
-3.01239 5.6706 -0.125337 -2.95685 4.93056 -0.118792 -2.86396 4.60426 -0.117477 
-2.86414 4.98976 -0.123089 -2.76737 4.29556 -0.11652 -2.66146 3.98659 -0.115304 
-2.68279 4.33581 -0.121081 -2.53679 3.65967 -0.114453 -2.39186 3.31619 -0.113388 
-2.45854 3.68734 -0.119561 -2.22814 2.96121 -0.112737 -2.03789 2.59981 -0.112775 
-2.16698 2.9921 -0.118414 -1.81748 2.21911 -0.112754 -1.5733 1.83083 -0.115452 
-1.29485 1.49202 -0.123673 -1.77907 2.24878 -0.119033 3.78844 30.7845 -0.190478 
-0.710761 0.778978 -0.136605 0.785369 0.842169 -0.17261 -0.427858 19.7814 -0.257667 
-0.181322 19.6465 -0.26597 -0.0316712 20.1131 -0.246424 -0.696747 0.814711 -0.143227 
-0.648351 0.798214 -0.144622 -0.562315 0.731425 -0.154408 -0.51152 0.711755 -0.162015 
-0.820452 1.06578 -0.147533 -0.489521 0.723997 -0.167653 -0.461691 0.733131 -0.17309 
-0.68015 1.00275 -0.160167 -0.439606 0.750923 -0.176885 -0.406523 0.758818 -0.180336 
-0.606956 1.03009 -0.169462 -0.387628 0.77613 -0.176701 -0.354183 0.778439 -0.176873 
-0.538977 1.06731 -0.172392 -0.325416 0.775743 -0.175895 -0.293547 0.7785 -0.17613 
-0.462709 1.08348 -0.172923 -0.269234 0.787152 -0.175183 -0.236767 0.79112 -0.175611 
-0.381761 1.09114 -0.173103 -0.21299 0.793531 -0.175021 -0.183075 0.798176 -0.175993 
-0.305576 1.10402 -0.173315 -0.158473 0.799602 -0.175628 -0.126732 0.799858 -0.175848 
-0.232059 1.10948 -0.173445 -0.100601 0.79789 -0.175092 -0.0686581 0.795115 -0.175206 
-0.155572 1.11081 -0.173166 -0.0438939 0.794952 -0.174507 -0.0142568 0.79935 -0.174713 
-0.0782947 1.10945 -0.172704 0.0094607 0.80385 -0.173935 0.0405851 0.809311 -0.174036 
-0.0049905 1.11521 -0.17201 0.0644613 0.800899 -0.173685 0.0940853 0.79901 -0.17384 
0.0677138 1.11246 -0.171457 0.11818 0.800181 -0.173445 0.149464 0.797299 -0.173707 
0.140396 1.10573 -0.171196 0.173286 0.790766 -0.173657 0.203797 0.785652 -0.173997 
0.214924 1.10051 -0.171191 0.226938 0.776229 -0.173909 0.257513 0.772492 -0.173533 
0.288349 1.08372 -0.171198 0.280205 0.768048 -0.173245 0.309406 0.762837 -0.173302 
0.360238 1.06896 -0.170762 0.330771 0.750252 -0.173161 0.362365 0.74771 -0.172816 
0.430804 1.05125 -0.170202 0.382651 0.734324 -0.172747 0.41343 0.730723 -0.172515 
0.5 1.02592 -0.16935 0.440069 0.729045 -0.172195 0.476274 0.733056 -0.171888 
0.575398 1.01282 -0.168105 0.5085 0.737134 -0.17132 0.553094 0.746773 -0.170747 
0.665158 1.02057 -0.166218 0.585201 0.744728 -0.170924 0.636084 0.755913 -0.171632 
0.765986 1.03155 -0.164036 0.727781 0.818755 -0.171373 -0.0982884 10.913 -0.193457 
-0.360029 10.8013 -0.192088 -0.430884 18.5196 -0.175576 -0.492122 18.8632 -0.193477 
-0.695809 19.3175 -0.204588 -0.56437 18.5685 -0.179956 -0.302528 16.7099 -0.141917 
-0.306147 16.957 -0.144286 -0.302514 16.2066 -0.137071 -0.302672 16.4582 -0.139278 
-0.402466 16.6644 -0.145017 -0.302004 15.73 -0.132499 -0.302016 15.9637 -0.134603 
-0.398454 16.1408 -0.139894 -0.297106 15.2395 -0.12775 -0.298831 15.4855 -0.130108 
-0.39293 15.6267 -0.134938 -0.297991 14.7445 -0.123088 -0.297475 14.9919 -0.125407 
-0.390325 15.1091 -0.130118 -0.302401 14.2445 -0.118605 -0.300095 14.4921 -0.120877 
-0.395297 14.5819 -0.125637 -0.315711 13.7118 -0.114072 -0.308086 13.9816 -0.116688 
-0.408285 14.0367 -0.121533 -0.33269 13.1861 -0.110343 -0.324062 13.4444 -0.112931 
-0.431266 13.4743 -0.11853 -0.380811 12.5565 -0.110772 -0.353741 12.8664 -0.111101 
-0.474888 12.8531 -0.117961 -0.504857 11.8396 -0.127483 -0.427945 12.1986 -0.114931 
-0.562307 12.1417 -0.123834 -0.644273 11.0694 -0.163437 -0.607162 11.4136 -0.142833 
0.57832 19.4737 -0.22063 0.513012 19.141 -0.198485 0.522565 11.6424 -0.120013 
0.583061 11.2906 -0.143539 0.357356 12.3755 -0.101012 0.423822 12.0267 -0.106504 
0.258754 14.0341 -0.10749 0.262475 13.7936 -0.105389 0.253936 14.5095 -0.111947 
0.256291 14.2749 -0.109753 0.344974 14.0937 -0.110311 0.254353 15.0023 -0.116473 
0.254607 14.7521 -0.114229 0.339084 14.6038 -0.114545 0.251309 15.4978 -0.120823 
0.251485 15.2531 -0.118717 0.33433 15.1232 -0.11888 0.251164 15.9576 -0.124744 
0.250808 15.7289 -0.122917 0.32988 15.6282 -0.12311 0.253642 16.4559 -0.128823 
0.25302 16.201 -0.126968 0.331909 16.1256 -0.127365 0.26006 16.9544 -0.133128 
0.257431 16.7089 -0.131345 0.340305 16.6478 -0.132089 0.276203 17.4894 -0.139159 
0.269208 17.2222 -0.136561 0.359328 17.1983 -0.13808 0.320843 18.1126 -0.151868 
0.297584 17.8018 -0.145374 0.401209 17.8136 -0.147772 0.426924 18.7714 -0.17809 
0.362687 18.4389 -0.16267 0.481446 18.4905 -0.164664 0.440386 10.9558 -0.177851 
0.220746 11.0252 -0.192173 0.0824711 10.3979 -0.178165 3.6396 30.78 -0.191606 
-0.315261 17.2267 -0.147933 -0.324811 17.5058 -0.151722 -0.41832 17.2169 -0.151334 
0.29565 12.9934 -0.100513 0.319848 12.7027 -0.0993042 0.472684 12.3395 -0.103828 
0.27051 13.5364 -0.103221 0.278075 13.2812 -0.101458 0.400799 12.9875 -0.103077 
0.363002 13.5659 -0.10643 0.932003 1.10671 -0.161053 -0.471756 17.8557 -0.162188 
-3.84282 30.7069 -0.262584 -3.96313 30.6713 -0.264019 -4.04648 30.315 -0.264372 
-3.75381 30.4396 -0.260864 -0.504181 10.0171 -0.171477 -0.62538 10.4695 -0.172001 
-0.973033 1.12697 -0.135513 -3.93059 30.0647 -0.262296 0.587359 19.8544 -0.231474 
0.714607 19.9494 -0.214471 -0.625464 19.9875 -0.24012 -0.551041 20.338 -0.239416 
0.50501 20.2133 -0.234305 -3.80722 29.9315 -0.26041 3.55991 30.5116 -0.191388 
-0.715361 11.3463 -0.138619 -0.79169 10.3639 -0.160851 0.615356 19.2068 -0.191804 
0.729139 10.8362 -0.140729 0.60715 10.877 -0.156491 0.611753 11.6104 -0.11713 
0.571125 10.461 -0.16428 -0.770523 20.0912 -0.225905 0.598642 12.3507 -0.10638 
0.652541 12.0028 -0.109533 0.796952 19.603 -0.194142 0.734593 19.2328 -0.182768 
3.09188 30.047 -0.193515 2.95009 29.9746 -0.194335 2.7913 29.8751 -0.195247 
2.64259 29.8209 -0.196154 2.89159 29.5846 -0.193766 2.48355 29.7746 -0.197195 
2.32407 29.7341 -0.198201 2.57551 29.438 -0.195774 2.14986 29.6927 -0.199351 
1.99062 29.6709 -0.200391 2.24405 29.349 -0.198034 1.82482 29.6241 -0.201479 
1.66454 29.5998 -0.202537 1.90585 29.2593 -0.200346 1.49769 29.5785 -0.20368 
1.33623 29.5479 -0.204774 1.57518 29.1896 -0.202666 1.17918 29.5441 -0.205893 
1.02682 29.5269 -0.206984 1.25298 29.1633 -0.205024 0.87362 29.512 -0.208134 
0.71895 29.5034 -0.209288 0.944309 29.1436 -0.207361 0.566716 29.4994 -0.210517 
0.412977 29.4998 -0.211736 0.640501 29.1238 -0.209758 0.249167 29.4911 -0.213137 
0.0875254 29.4866 -0.214509 0.326157 29.1103 -0.212361 -0.0762956 29.4767 -0.216011 
-0.241265 29.4891 -0.217535 0.000296372 29.0916 -0.215213 -0.40819 29.4951 -0.219178 
-0.571872 29.4939 -0.220802 -0.328571 29.088 -0.218286 -0.721652 29.5155 -0.222379 
-0.876503 29.5397 -0.224029 -0.643384 29.1165 -0.221427 -1.03501 29.5739 -0.225796 
-1.18579 29.598 -0.227502 -0.949874 29.173 -0.224676 -1.34529 29.6191 -0.229357 
-1.51606 29.6447 -0.23139 -1.26606 29.2295 -0.228201 -1.68472 29.6682 -0.233416 
-1.84087 29.6808 -0.235348 -1.59248 29.2755 -0.23199 -1.99828 29.6902 -0.237272 
-2.15166 29.7041 -0.23921 -1.91692 29.31 -0.235871 -2.30702 29.7245 -0.241157 
-2.46054 29.7536 -0.243141 -2.22828 29.3412 -0.239665 -2.61398 29.7913 -0.245113 
-2.7617 29.8285 -0.247056 -2.53569 29.4006 -0.243504 -2.91014 29.8892 -0.249015 
-3.05021 29.9413 -0.250899 -2.83619 29.5001 -0.247373 -3.19456 30.0182 -0.252867 
-3.3268 30.0764 -0.254668 -3.12772 29.6384 -0.251244 -1.22983 1.48662 -0.129344 
1.66804 2.2015 -0.130676 1.86698 2.58487 -0.123165 2.02947 2.93729 -0.117073 
2.18124 3.29313 -0.111833 1.81706 2.67207 -0.126284 2.32035 3.65659 -0.107146 
2.43856 3.99616 -0.103496 2.11516 3.39078 -0.116263 2.54457 4.34771 -0.100231 
2.6487 4.71616 -0.0972875 2.35743 4.11215 -0.108397 2.7448 5.08535 -0.094423 
2.82193 5.44297 -0.0924635 2.5583 4.84164 -0.102203 2.88987 5.79206 -0.0905336 
2.94178 6.11394 -0.0893938 2.72119 5.56861 -0.0972927 2.98207 6.43018 -0.0883883 
3.01785 6.75297 -0.0877488 2.82821 6.24239 -0.0942679 3.04327 7.07992 -0.0871887 
3.06465 7.41092 -0.0869562 2.89364 6.894 -0.0925535 3.07863 7.74681 -0.086704 
3.08995 8.089 -0.0867385 2.93264 7.56493 -0.0915551 3.09447 8.42461 -0.0867543 
3.09018 8.73444 -0.0872378 2.95047 8.24364 -0.0911049 3.0791 9.05395 -0.0877187 
3.06938 9.39506 -0.0884247 2.94257 8.90452 -0.0913899 3.05297 9.74049 -0.0891683 
3.0309 10.0843 -0.0903123 2.91374 9.57429 -0.0923371 3.01419 10.4277 -0.0912703 
2.98837 10.7741 -0.0926977 2.87862 10.2669 -0.0937422 2.96699 11.0999 -0.0939809 
2.94473 11.4216 -0.0955256 2.83848 10.9386 -0.0957067 2.92057 11.7581 -0.0971831 
2.89301 12.0964 -0.0991294 2.79106 11.6022 -0.098368 2.86133 12.4453 -0.101221 
2.8317 12.8022 -0.10352 2.73336 12.288 -0.101853 2.80692 13.151 -0.105794 
2.78514 13.4859 -0.108093 2.67521 12.9851 -0.105971 2.76887 13.811 -0.110349 
2.75109 14.1386 -0.112718 2.63306 13.6578 -0.110308 2.73859 14.4732 -0.115152 
2.72748 14.811 -0.117654 2.60342 14.3156 -0.114846 2.71827 15.1609 -0.120276 
2.7138 15.5089 -0.122878 2.58116 14.9975 -0.119792 2.71114 15.8594 -0.12553 
2.71681 16.2187 -0.128184 2.56928 15.6948 -0.124996 2.72135 16.5772 -0.130882 
2.73793 16.9302 -0.133416 2.57136 16.4005 -0.130316 2.75217 17.2882 -0.136044 
2.77231 17.6412 -0.138515 2.59078 17.1134 -0.135657 2.80189 17.9761 -0.14082 
2.82308 18.2961 -0.142979 2.63573 17.803 -0.140644 2.85625 18.6065 -0.144996 
2.88333 18.9391 -0.147125 2.69957 18.4455 -0.145043 2.91252 19.2656 -0.149189 
2.94881 19.6243 -0.151315 2.76278 19.0802 -0.149236 2.9724 19.9701 -0.15344 
2.99842 20.3088 -0.155413 2.81649 19.7504 -0.153582 3.02818 20.6319 -0.15718 
3.05466 20.9437 -0.158841 2.87091 20.4174 -0.157645 3.08099 21.2588 -0.160457 
3.11007 21.5979 -0.162106 2.92779 21.0541 -0.16117 3.13962 21.9456 -0.163712 
3.16806 22.2846 -0.165201 2.98437 21.7157 -0.164509 3.18951 22.6299 -0.166734 
3.21396 22.9798 -0.168179 3.03565 22.4078 -0.167718 3.23519 23.3275 -0.169569 
3.2532 23.6554 -0.170853 3.07817 23.1002 -0.170671 3.27525 23.9861 -0.172026 
3.2954 24.3366 -0.173261 3.12072 23.7785 -0.173214 3.31748 24.684 -0.174398 
3.33721 25.0305 -0.175529 3.16402 24.4569 -0.175475 3.35402 25.3843 -0.176674 
3.36821 25.7354 -0.177817 3.20187 25.1586 -0.177688 3.37937 26.0962 -0.178985 
3.39379 26.4571 -0.180099 3.22869 25.8739 -0.179906 3.4018 26.8349 -0.181299 
3.41093 27.2131 -0.18247 3.24654 26.6131 -0.182182 3.42104 27.5964 -0.183616 
3.42903 27.9466 -0.184663 3.2632 27.3749 -0.184433 3.44027 28.3062 -0.185673 
3.45452 28.6749 -0.186706 3.28333 28.1187 -0.186496 3.47404 29.0476 -0.187653 
3.49579 29.4204 -0.18862 3.313 28.8519 -0.188398 3.52127 29.7769 -0.189475 
3.54252 30.1856 -0.190533 3.39955 30.265 -0.191859 3.35723 29.5819 -0.190177 
-0.51365 16.0687 -0.143319 -0.517545 16.3394 -0.145835 -0.28262 9.53393 -0.170752 
-0.566581 9.34852 -0.167831 1.18802 1.42718 -0.151198 1.48435 1.86689 -0.138044 
1.47972 1.98723 -0.13886 1.05462 1.33804 -0.155091 0.8632 20.4087 -0.210174 
0.85368 20.0271 -0.202975 -3.53004 28.6357 -0.253778 -3.50147 28.2664 -0.252444 
-3.46824 27.8767 -0.251032 -3.44687 27.4901 -0.249682 -3.34596 28.0529 -0.250122 
-3.42726 27.0872 -0.248342 -3.41342 26.7048 -0.24703 -3.29438 27.2591 -0.247429 
-3.4034 26.3338 -0.245819 -3.39307 25.9909 -0.244617 -3.26614 26.4842 -0.244939 
-3.37923 25.6337 -0.243345 -3.36413 25.2638 -0.24197 -3.24349 25.7553 -0.242529 
-3.34613 24.8957 -0.240567 -3.32539 24.5365 -0.239128 -3.21284 25.0293 -0.239939 
-3.29565 24.1891 -0.237648 -3.27768 23.8544 -0.23627 -3.16606 24.3131 -0.23712 
-3.26177 23.5035 -0.234803 -3.23695 23.1541 -0.233252 -3.1213 23.6143 -0.234217 
-3.21705 22.8154 -0.231706 -3.19204 22.4713 -0.230088 -3.0858 22.9249 -0.231213 
-3.15879 22.1406 -0.228369 -3.13011 21.7996 -0.22665 -3.03267 22.256 -0.227954 
-3.09931 21.4548 -0.224762 -3.06781 21.127 -0.222981 -2.96845 21.5814 -0.22434 
-3.02912 20.7796 -0.220878 -2.99158 20.4238 -0.218775 -2.89828 20.8906 -0.220321 
-2.95856 20.066 -0.216503 -2.92706 19.7105 -0.214311 -2.82552 20.1871 -0.215886 
-2.90211 19.35 -0.211955 -2.8709 18.9882 -0.20957 -2.76636 19.4711 -0.211177 
-2.84293 18.6521 -0.207185 -2.81499 18.3197 -0.204857 -2.71265 18.7768 -0.206355 
-2.78195 17.9721 -0.202187 -2.75713 17.618 -0.199598 -2.651 18.0957 -0.201234 
-2.74347 17.2796 -0.197114 -2.7346 16.9466 -0.194736 -2.60406 17.4128 -0.196012 
-2.72525 16.5977 -0.192128 -2.7218 16.2378 -0.189493 -2.58105 16.7287 -0.190879 
-2.72803 15.8949 -0.187051 -2.73188 15.5642 -0.184602 -2.57839 16.0404 -0.185823 
-2.73978 15.2369 -0.182206 -2.75073 14.8986 -0.179695 -2.59331 15.3734 -0.18101 
-2.76485 14.535 -0.177034 -2.77856 14.1838 -0.174375 -2.61601 14.6855 -0.176015 
-2.7958 13.8324 -0.171823 -2.81802 13.472 -0.169165 -2.649 13.9732 -0.170918 
-2.83629 13.1281 -0.166709 -2.85656 12.8036 -0.164335 -2.68622 13.2797 -0.166053 
-2.88276 12.4748 -0.162157 -2.90955 12.13 -0.159769 -2.73256 12.6081 -0.161608 
-2.93644 11.7861 -0.157588 -2.96568 11.4404 -0.155329 -2.78752 11.9357 -0.157479 
-2.99288 11.084 -0.153215 -3.02 10.7413 -0.151114 -2.84357 11.2345 -0.153458 
-3.04372 10.4184 -0.149356 -3.0663 10.0923 -0.147473 -2.89602 10.5536 -0.149881 
-3.08672 9.75882 -0.145767 -3.10334 9.42147 -0.143933 -2.94148 9.89443 -0.146735 
-3.12029 9.09014 -0.142322 -3.13104 8.77219 -0.140674 -2.9796 9.22565 -0.143738 
-3.1371 8.45127 -0.139223 -3.1369 8.11419 -0.137609 -3.00257 8.56843 -0.14095 
-3.12954 7.77946 -0.136218 -3.11555 7.45847 -0.134808 -3.00115 7.90654 -0.13841 
-3.0844 7.11033 -0.133643 -3.0488 6.76287 -0.132312 -2.9618 7.21624 -0.136172 
-3.00704 6.43152 -0.131343 -2.95779 6.09762 -0.130287 -2.88677 6.52777 -0.134388 
-2.89705 5.75157 -0.129454 -2.82962 5.40352 -0.128469 -2.78286 5.84097 -0.13282 
-2.75706 5.05594 -0.12748 -2.67306 4.71095 -0.126756 -2.64793 5.13727 -0.131578 
-2.58881 4.3864 -0.12596 -2.48904 4.06603 -0.125371 -2.48921 4.45513 -0.130368 
-2.37989 3.74094 -0.124919 -2.25127 3.40234 -0.124524 -2.29476 3.79708 -0.129464 
-2.10975 3.05675 -0.124265 -1.94194 2.69097 -0.124175 -2.04455 3.12016 -0.129175 
-0.662652 20.909 -0.232118 -0.43872 20.8041 -0.2353 -1.03763 1.35555 -0.141428 
-0.91732 1.27171 -0.147929 0.394616 20.7098 -0.232634 0.628457 20.7752 -0.221145 
-0.594124 17.7955 -0.16473 -0.643397 18.1608 -0.172645 -0.878746 1.29192 -0.153237 
-0.827497 1.29811 -0.158665 -1.0706 1.57384 -0.148235 -0.790654 1.33019 -0.163073 
-0.742898 1.34552 -0.166576 -0.971283 1.6205 -0.15729 -0.703326 1.37649 -0.168685 
-0.659207 1.39434 -0.169818 -0.871491 1.68044 -0.163933 -0.61448 1.41234 -0.170847 
-0.560694 1.40974 -0.171151 -0.765178 1.7279 -0.16744 -0.511818 1.42933 -0.171607 
-0.46161 1.43932 -0.171671 -0.649599 1.76521 -0.16921 -0.411343 1.44554 -0.171965 
-0.36422 1.44869 -0.172052 -0.528259 1.79163 -0.1701 -0.318128 1.45307 -0.172197 
-0.271788 1.45607 -0.172144 -0.412122 1.80295 -0.170518 -0.223083 1.45542 -0.17211 
-0.173109 1.45422 -0.171934 -0.298122 1.80744 -0.170627 -0.124117 1.44754 -0.171767 
-0.0766732 1.44775 -0.171461 -0.181014 1.8005 -0.170422 -0.0293063 1.45035 -0.17119 
0.0160344 1.45604 -0.170884 -0.0657079 1.79664 -0.169986 0.0616447 1.45626 -0.170611 
0.107454 1.4475 -0.170349 0.0458767 1.79945 -0.169387 0.155993 1.44976 -0.170118 
0.202588 1.45111 -0.169909 0.158798 1.80152 -0.168737 0.249705 1.4498 -0.169735 
0.297244 1.44237 -0.16953 0.273826 1.80167 -0.168061 0.34498 1.43314 -0.169334 
0.391375 1.4228 -0.169074 0.388302 1.79 -0.167314 0.434431 1.39523 -0.168815 
0.480085 1.38977 -0.168374 0.499795 1.75161 -0.166446 0.523015 1.37254 -0.167905 
0.568106 1.36031 -0.167324 0.605287 1.70564 -0.165312 0.608436 1.33663 -0.166751 
0.653714 1.3243 -0.166125 0.708317 1.66456 -0.163742 0.693353 1.29757 -0.165153 
0.746012 1.29968 -0.164239 0.809141 1.61506 -0.161867 0.804286 1.30897 -0.162443 
0.865465 1.32067 -0.161049 0.927351 1.60094 -0.158748 0.936609 1.3427 -0.158598 
1.00567 1.3534 -0.156657 1.22651 1.65773 -0.148917 1.07923 1.63948 -0.153985 
-0.899418 10.9368 -0.144118 -0.837085 11.3556 -0.136663 -0.160969 20.7119 -0.239085 
0.102724 20.6709 -0.23767 -0.300342 21.2592 -0.229401 -0.501677 15.5287 -0.138019 
-0.506135 15.7997 -0.14047 -0.632292 15.9826 -0.146261 -0.523519 16.6374 -0.149129 
-0.529229 16.9201 -0.152153 -0.649896 16.575 -0.152398 -0.498463 14.9672 -0.132979 
-0.496695 15.2415 -0.135244 -0.617914 15.4021 -0.140591 -0.512253 14.3978 -0.128656 
-0.505723 14.679 -0.130787 -0.621379 14.803 -0.135783 -0.535486 13.8187 -0.125593 
-0.521668 14.1131 -0.127121 -0.642901 14.2059 -0.132012 -0.572415 13.217 -0.123876 
-0.551471 13.5168 -0.124168 -0.676168 13.5951 -0.129348 -0.641152 12.5443 -0.124472 
-0.601675 12.8952 -0.123365 -0.730292 12.9491 -0.128326 -0.755354 11.7825 -0.131044 
-0.695802 12.1575 -0.126298 -0.819376 12.2268 -0.130483 -0.967825 9.83015 -0.158005 
-0.971582 10.3958 -0.150706 0.843886 10.8514 -0.130068 0.867294 10.4527 -0.139109 
0.721809 11.6135 -0.113821 0.788232 11.2345 -0.121908 0.949412 10.8887 -0.123626 
0.832428 11.6614 -0.11338 0.702562 9.97055 -0.156572 0.509767 9.95375 -0.164158 
0.440221 14.166 -0.112552 0.448889 13.8973 -0.110936 0.419051 15.7756 -0.125384 
0.419471 15.5218 -0.123399 0.423778 16.2978 -0.129935 0.419665 16.0296 -0.12774 
0.516624 15.934 -0.12789 0.440285 16.8646 -0.135442 0.431302 16.5835 -0.132884 
0.527318 16.4953 -0.133095 0.485276 17.4526 -0.14284 0.465725 17.152 -0.139176 
0.566456 17.0898 -0.13975 0.559336 18.1361 -0.154886 0.519479 17.7877 -0.148268 
0.635415 17.734 -0.148675 0.6677 18.8541 -0.172341 0.610058 18.505 -0.162781 
0.729484 18.4571 -0.161403 0.265589 9.86532 -0.168918 0.0054534 9.76899 -0.173629 
-0.0943506 9.09943 -0.165871 0.42426 9.40777 -0.160524 -0.93813 20.2049 -0.217277 
-0.934694 20.5974 -0.223704 3.2596 30.1748 -0.192623 -3.6035 29.3852 -0.256545 
-3.57139 29.0254 -0.255251 -3.41966 28.8335 -0.252961 -0.517363 17.1677 -0.154773 
-0.537022 17.4685 -0.158874 -0.699596 17.7378 -0.166891 -0.649772 17.1494 -0.158354 
0.430351 14.7088 -0.11674 0.432871 14.4403 -0.114771 0.540325 14.2654 -0.114879 
0.422924 15.2531 -0.121088 0.427891 14.9772 -0.118996 0.526878 14.8302 -0.118964 
0.519223 15.3897 -0.123332 0.849799 19.2154 -0.177894 -1.5278 1.93253 -0.126229 
-1.23476 1.57736 -0.134319 -1.31103 1.77761 -0.13679 -1.74905 2.31081 -0.124046 
-3.47041 30.1773 -0.256692 -3.59697 30.2382 -0.258435 0.840313 20.8543 -0.212505 
1.00537 20.882 -0.20448 -1.07979 21.0936 -0.222041 -0.887015 21.0312 -0.226151 
-0.89895 19.7531 -0.208991 -1.08652 20.2099 -0.211905 -0.584797 8.65991 -0.163718 
-0.775687 9.09814 -0.163285 -3.71364 30.1181 -0.259635 -3.65162 29.731 -0.25796 
-1.71439 2.39243 -0.129838 -0.805504 21.4386 -0.225959 0.516191 13.0108 -0.106295 
0.551788 12.6903 -0.106551 0.715796 12.3969 -0.10873 0.767225 21.2801 -0.214365 
-0.833808 18.4944 -0.181135 -0.714365 18.5809 -0.18098 0.261359 21.1999 -0.225527 
-3.41451 29.8163 -0.255195 -0.954268 11.4086 -0.136772 -0.767747 18.9418 -0.19057 
-0.843555 19.3594 -0.199552 -1.10258 10.4501 -0.146971 -0.979822 9.21517 -0.159334 
-1.18674 9.32271 -0.155234 -1.00244 8.5865 -0.159601 1.00878 10.0802 -0.136141 
0.87093 10.0171 -0.145125 3.21636 29.8121 -0.191919 0.969168 20.0204 -0.194505 
-3.50882 29.5702 -0.255811 0.839642 9.57277 -0.149093 0.464233 13.6169 -0.108832 
0.483569 13.3279 -0.10787 0.626449 13.0702 -0.108825 0.569426 13.6882 -0.111309 
-0.930787 21.9969 -0.224437 -0.68832 21.9322 -0.224979 -1.14263 11.108 -0.140706 
-1.07689 11.5313 -0.13732 -0.979096 19.3376 -0.197325 2.68502 29.0417 -0.194026 
2.52776 28.9944 -0.195137 2.33092 28.9953 -0.196695 2.15848 28.9526 -0.197925 
2.44352 28.5994 -0.194977 1.98932 28.879 -0.199123 1.82554 28.8307 -0.200301 
2.07925 28.5248 -0.197807 1.65216 28.7611 -0.201564 1.4872 28.7382 -0.202814 
1.73896 28.3794 -0.20036 1.32699 28.7359 -0.20406 1.17159 28.7309 -0.205274 
1.40731 28.3052 -0.202981 1.01173 28.744 -0.206558 0.860112 28.7282 -0.207745 
1.08859 28.314 -0.205582 0.711725 28.7081 -0.20897 0.561045 28.7034 -0.210197 
0.781367 28.3059 -0.208153 0.402908 28.6867 -0.211555 0.240805 28.6776 -0.212933 
0.475912 28.268 -0.210728 0.0730427 28.6619 -0.214432 -0.0890681 28.6522 -0.215873 
0.150994 28.2348 -0.213555 -0.254102 28.6439 -0.217437 -0.419195 28.6505 -0.219005 
-0.180855 28.211 -0.216558 -0.576137 28.6828 -0.220583 -0.724223 28.7052 -0.222071 
-0.501762 28.2361 -0.219634 -0.871769 28.739 -0.223638 -1.0284 28.7743 -0.225302 
-0.805019 28.3037 -0.222679 -1.17919 28.8045 -0.226966 -1.33689 28.8269 -0.228708 
-1.10204 28.3693 -0.225815 -1.50635 28.8568 -0.230632 -1.67318 28.8817 -0.232552 
-1.42081 28.431 -0.229286 -1.83502 28.8794 -0.234395 -1.99094 28.8903 -0.236226 
-1.75051 28.4607 -0.23296 -2.14952 28.9046 -0.238085 -2.30341 28.9263 -0.23994 
-2.0693 28.4748 -0.236561 -2.46205 28.9683 -0.24187 -2.61403 29.007 -0.24376 
-2.38473 28.533 -0.240251 -2.77246 29.0886 -0.245786 -2.91952 29.15 -0.247692 
-2.69985 28.6579 -0.244117 -3.07472 29.2537 -0.249766 -3.21783 29.3308 -0.251688 
-3.01162 28.8439 -0.248147 1.56734 2.35851 -0.136562 1.72538 2.70878 -0.131088 
1.17226 21.3496 -0.200719 1.18447 20.9118 -0.197075 -1.29394 21.1544 -0.218324 
-1.2581 21.5856 -0.221581 -0.749204 15.2751 -0.143715 -0.754934 15.5874 -0.146549 
-1.26069 20.1968 -0.208918 -1.28749 20.658 -0.214306 -1.47973 21.1171 -0.216471 
1.90834 3.14269 -0.124641 2.04382 3.50932 -0.11999 1.67826 2.84124 -0.133532 
2.16366 3.8768 -0.116271 2.26731 4.23507 -0.112868 1.96972 3.64183 -0.123634 
2.3677 4.61251 -0.109587 2.46239 4.98938 -0.106585 2.18458 4.39022 -0.116712 
2.54651 5.36207 -0.103837 2.61386 5.71954 -0.10182 2.36487 5.14542 -0.110726 
2.66464 6.05553 -0.100163 2.70453 6.37991 -0.099044 2.49684 5.85989 -0.106338 
2.73088 6.70323 -0.0981428 2.75612 7.03839 -0.0974184 2.57269 6.5258 -0.103705 
2.77918 7.37765 -0.0965119 2.79293 7.72096 -0.096063 2.62176 7.1953 -0.101757 
2.80345 8.07244 -0.0954716 2.8075 8.41434 -0.0952643 2.65508 7.89201 -0.10008 
2.80133 8.74602 -0.0951464 2.78921 9.07051 -0.0953865 2.65838 8.58013 -0.0991714 
2.77322 9.40969 -0.0955484 2.75544 9.75931 -0.0959843 2.63509 9.25507 -0.0989502 
2.73357 10.1032 -0.0964237 2.71525 10.4496 -0.0970593 2.5954 9.94126 -0.0992537 
2.69101 10.8009 -0.0978088 2.66799 11.1285 -0.0988065 2.547 10.6387 -0.100094 
2.64048 11.4535 -0.0998865 2.61466 11.791 -0.101265 2.49261 11.3164 -0.101608 
2.58641 12.1403 -0.102774 2.55325 12.4891 -0.104605 2.43442 11.9912 -0.103918 
2.53049 12.8372 -0.106406 2.5046 13.1851 -0.108473 2.38135 12.6884 -0.107007 
2.48673 13.5109 -0.110416 2.46973 13.8344 -0.112526 2.33946 13.3614 -0.110612 
2.45651 14.1645 -0.114686 2.44363 14.4968 -0.117019 2.3075 14.0156 -0.114621 
2.43152 14.8405 -0.119443 2.4223 15.1874 -0.122002 2.28173 14.687 -0.119155 
2.41353 15.5386 -0.124605 2.41118 15.8857 -0.127233 2.26088 15.3788 -0.124169 
2.40849 16.2447 -0.129972 2.41365 16.5995 -0.132681 2.2499 16.0854 -0.129537 
2.42474 16.9588 -0.135428 2.43996 17.3132 -0.138116 2.25939 16.7997 -0.135094 
2.46197 17.6536 -0.140675 2.49254 17.9854 -0.143085 2.2941 17.4958 -0.140507 
2.53085 18.3034 -0.145324 2.56498 18.6114 -0.147446 2.35612 18.1511 -0.145445 
2.62255 18.8917 -0.14913 2.65244 19.216 -0.151326 2.45358 18.7473 -0.149496 
2.65073 19.5201 -0.153663 2.67519 19.8637 -0.155987 2.51026 19.3302 -0.153658 
2.7019 20.1926 -0.158107 2.73242 20.514 -0.160047 2.53676 19.9605 -0.158337 
2.76338 20.8391 -0.161914 2.7903 21.1527 -0.163659 2.59581 20.6123 -0.162538 
2.81327 21.4688 -0.16538 2.8432 21.8153 -0.167082 2.65079 21.2516 -0.166283 
2.86679 22.1713 -0.168821 2.88821 22.5157 -0.170395 2.69818 21.9218 -0.169842 
2.9082 22.8612 -0.171904 2.92896 23.2084 -0.173281 2.74176 22.6217 -0.173108 
2.94881 23.548 -0.174568 2.97001 23.8787 -0.175686 2.78088 23.306 -0.175881 
2.9949 24.2121 -0.176724 3.01602 24.5599 -0.177783 2.82435 23.9788 -0.178115 
3.03006 24.9103 -0.178909 3.04573 25.2648 -0.179961 2.86194 24.6628 -0.180156 
3.05487 25.6327 -0.181105 3.06475 25.9943 -0.18218 2.88348 25.3818 -0.182307 
3.07627 26.3823 -0.183269 3.08287 26.7609 -0.184371 2.9022 26.1387 -0.184429 
3.09878 27.1586 -0.185388 3.1076 27.5428 -0.18643 2.92762 26.9258 -0.186434 
3.11778 27.9285 -0.187433 3.12796 28.289 -0.188383 2.95198 27.7105 -0.188364 
3.14108 28.685 -0.189355 3.15977 29.0587 -0.190261 2.97375 28.4934 -0.190261 
0.982218 9.15502 -0.143866 0.798858 9.05652 -0.149618 1.40343 1.98636 -0.142337 
0.646633 14.3793 -0.116669 0.659286 14.0828 -0.115083 -1.67821 2.48853 -0.134921 
-1.49109 2.11136 -0.13597 -1.30275 1.88865 -0.141761 -0.76976 15.8906 -0.149579 
-0.780672 16.1827 -0.15234 -0.907693 15.774 -0.152053 -3.14883 27.4557 -0.246415 
-3.13049 27.0516 -0.24514 -3.11565 26.6392 -0.243912 -3.10692 26.2673 -0.242779 
-2.97045 26.8328 -0.242967 -3.09819 25.8707 -0.241565 -3.08544 25.5128 -0.240389 
-2.94885 26.0225 -0.240628 -3.08782 25.1876 -0.239406 -3.07094 24.8188 -0.238097 
-2.94399 25.3002 -0.238547 -3.00136 24.4554 -0.236356 -2.97293 24.1071 -0.234962 
-2.87819 24.6106 -0.235941 -2.95147 23.7167 -0.233393 -2.9363 23.3659 -0.231977 
-2.78978 23.8551 -0.232748 -2.96261 23.0557 -0.230901 -2.94306 22.7173 -0.229373 
-2.79558 23.1557 -0.230181 -2.89864 22.3982 -0.227653 -2.86567 22.0681 -0.225957 
-2.77785 22.527 -0.227399 -2.83021 21.723 -0.224015 -2.79918 21.3795 -0.222105 
-2.69866 21.8635 -0.22379 -2.76316 21.0287 -0.219942 -2.72384 20.6829 -0.217789 
-2.62686 21.1692 -0.219679 -2.68292 20.3068 -0.21522 -2.64895 19.9512 -0.212856 
-2.54875 20.4445 -0.214896 -2.6137 19.587 -0.210208 -2.58785 19.2291 -0.207748 
-2.47083 19.7069 -0.209567 -2.59289 18.9202 -0.20578 -2.56429 18.5866 -0.203322 
-2.43897 19.037 -0.204803 -2.50226 18.2697 -0.200393 -2.46857 17.9252 -0.197626 
-2.38097 18.4132 -0.199816 -2.43712 17.5676 -0.194651 -2.42309 17.2327 -0.192102 
-2.28575 17.7417 -0.193774 -2.42863 16.874 -0.189579 -2.41954 16.5286 -0.186943 
-2.25872 17.0297 -0.188164 -2.42489 16.1772 -0.184428 -2.43163 15.8379 -0.181997 
-2.26957 16.3236 -0.183068 -2.43539 15.5031 -0.179526 -2.44407 15.1789 -0.177173 
-2.27927 15.641 -0.178094 -2.46109 14.8503 -0.174936 -2.47623 14.4897 -0.17238 
-2.30092 14.9809 -0.173427 -2.49507 14.1384 -0.170012 -2.51351 13.7893 -0.167605 
-2.33751 14.3036 -0.16892 -2.52617 13.4422 -0.165254 -2.54574 13.0997 -0.162974 
-2.37011 13.6074 -0.164328 -2.56455 12.7787 -0.161024 -2.59219 12.4505 -0.159061 
-2.40315 12.9407 -0.160186 -2.62008 12.0971 -0.157152 -2.64858 11.7529 -0.155281 
-2.45159 12.2668 -0.156549 -2.67918 11.4052 -0.153569 -2.70794 11.0474 -0.151826 
-2.51246 11.5654 -0.153292 -2.73564 10.6974 -0.150332 -2.76047 10.3724 -0.14885 
-2.57317 10.8667 -0.150481 -2.78128 10.048 -0.147653 -2.80243 9.71108 -0.146285 
-2.62339 10.1905 -0.148139 -2.81886 9.37952 -0.145187 -2.83616 9.04359 -0.143938 
-2.66204 9.53183 -0.146159 -2.85086 8.70782 -0.142838 -2.85656 8.38126 -0.1417 
-2.69409 8.86055 -0.144325 -2.86224 8.03869 -0.140637 -2.8541 7.69694 -0.139526 
-2.71462 8.17696 -0.142505 -2.83241 7.34522 -0.138739 -2.79957 6.98884 -0.137916 
-2.69807 7.47677 -0.140982 -2.75045 6.6456 -0.137523 -2.70727 6.3054 -0.136917 
-2.62626 6.77563 -0.140096 -2.65106 5.94649 -0.13651 -2.58858 5.59102 -0.136071 
-2.52087 6.06657 -0.139575 -2.52862 5.24448 -0.135501 -2.45513 4.88758 -0.135248 
-2.40449 5.35354 -0.139125 -2.38106 4.52963 -0.134569 -2.29596 4.19679 -0.134418 
-2.27224 4.64169 -0.138596 -2.20174 3.86341 -0.134166 -2.09193 3.53211 -0.134155 
-2.10497 3.94446 -0.138351 -1.97433 3.18998 -0.13409 -1.83323 2.84089 -0.134415 
-1.62809 2.57034 -0.139537 -1.89599 3.26512 -0.138548 -0.982055 18.3626 -0.180907 
-1.054 18.7882 -0.188173 0.131058 21.741 -0.224341 0.400551 21.742 -0.219994 
-1.05567 2.00503 -0.158954 -0.993237 2.03277 -0.16155 -0.937015 2.07909 -0.163651 
-0.870846 2.09583 -0.165129 -1.10541 2.40662 -0.159817 -0.801784 2.12334 -0.166534 
-0.729772 2.143 -0.167357 -0.957774 2.47943 -0.163507 -0.6608 2.16887 -0.16807 
-0.589245 2.17552 -0.16847 -0.79832 2.5333 -0.165814 -0.522587 2.19661 -0.168803 
-0.456977 2.20191 -0.169029 -0.641999 2.58169 -0.167011 -0.386751 2.18856 -0.16917 
-0.318406 2.18857 -0.169208 -0.484826 2.59072 -0.167722 -0.24717 2.16219 -0.169259 
-0.178955 2.15576 -0.169101 -0.324302 2.55137 -0.167964 -0.111052 2.15622 -0.168893 
-0.044635 2.15909 -0.168611 -0.167198 2.52572 -0.167857 0.0202516 2.17423 -0.16825 
0.0842819 2.17425 -0.167907 -0.016409 2.54193 -0.167228 0.154063 2.19277 -0.167419 
0.222876 2.19446 -0.16697 0.137098 2.57606 -0.166271 0.292015 2.19712 -0.166451 
0.358769 2.1949 -0.165948 0.29622 2.59686 -0.165132 0.425782 2.18081 -0.165376 
0.494009 2.1704 -0.164747 0.45254 2.58403 -0.163768 0.558938 2.13678 -0.164108 
0.622807 2.10758 -0.16342 0.60487 2.53422 -0.162146 0.688369 2.08018 -0.162545 
0.751483 2.0627 -0.161705 0.755604 2.47141 -0.160166 0.8098 2.02822 -0.160625 
0.871012 2.00533 -0.159499 0.900244 2.40895 -0.157654 0.925888 1.95893 -0.158226 
0.987855 1.93474 -0.156739 1.03479 2.32859 -0.154844 1.02436 1.86765 -0.155754 
1.10317 1.88284 -0.153494 1.14809 2.21699 -0.151815 -0.423279 21.8411 -0.225923 
-0.165166 21.7859 -0.22584 -0.00882199 22.2759 -0.220225 -3.22578 28.2814 -0.249336 
-3.19337 27.8904 -0.24797 -3.02804 27.6817 -0.245674 -3.36633 29.4695 -0.253804 
-0.760666 14.6304 -0.138998 -0.750165 14.9428 -0.140892 -0.892686 15.1187 -0.146293 
-0.80379 16.5388 -0.156444 -0.816207 16.8636 -0.159855 -0.948927 16.4539 -0.159291 
-0.794531 14.0201 -0.135779 -0.779031 14.3276 -0.137202 -0.914315 14.465 -0.142137 
-0.838938 13.3736 -0.133235 -0.81434 13.6987 -0.134323 -0.956416 13.8234 -0.139025 
-0.903 12.7054 -0.132952 -0.865746 13.0442 -0.132659 -1.00752 13.1572 -0.137226 
-1.00613 11.9403 -0.135297 -0.95005 12.3342 -0.133483 -1.19981 11.6622 -0.139176 
1.14734 10.1667 -0.128544 1.15936 9.74337 -0.133693 1.04098 19.5361 -0.179567 
0.984253 19.1544 -0.17207 0.625287 16.099 -0.130122 0.623158 15.8239 -0.127924 
0.80096 17.9847 -0.152587 0.756439 17.6305 -0.147369 0.912149 18.744 -0.165144 
0.856719 18.3643 -0.158422 0.975959 18.2448 -0.156174 1.10348 19.0407 -0.167895 
1.16307 20.4395 -0.192593 1.11977 20.011 -0.186534 0.684054 21.7927 -0.215058 
0.914327 21.812 -0.20803 0.566822 22.2677 -0.213787 0.644002 16.6852 -0.135799 
0.631844 16.3765 -0.132903 0.744155 16.273 -0.132716 -0.43386 8.12267 -0.16241 
-0.647985 7.931 -0.161607 -1.30165 10.0757 -0.14855 -1.23894 10.6074 -0.144476 
-1.36184 10.757 -0.14377 0.708042 17.3162 -0.143158 0.67377 17.0086 -0.139532 
0.783793 16.8897 -0.139029 0.86817 17.5415 -0.146784 -1.13126 19.26 -0.195508 
-1.19318 19.6789 -0.202038 -1.27115 19.1044 -0.194052 -3.31362 29.0863 -0.252292 
-1.23909 1.89882 -0.146399 1.32291 9.40646 -0.130254 1.16839 9.28716 -0.136226 
1.14324 8.80223 -0.139817 2.86033 29.1872 -0.192979 2.81288 28.7456 -0.192275 
1.3402 2.03992 -0.14496 1.34484 20.8766 -0.190734 -1.41816 22.1044 -0.22224 
-1.18437 22.0761 -0.222942 -3.27266 28.6953 -0.250859 0.853221 12.4621 -0.10974 
0.906019 12.1136 -0.110862 1.08986 11.8363 -0.112019 0.959128 11.7472 -0.112109 
1.01642 11.3584 -0.115173 3.19124 29.4547 -0.191097 0.641938 14.6692 -0.118953 
0.762744 14.5041 -0.118663 0.636791 14.9598 -0.120858 -0.817246 17.5228 -0.16688 
-0.881459 17.8577 -0.172629 -1.09467 18.1223 -0.179776 -0.778596 7.34954 -0.160312 
-0.923146 7.85532 -0.15994 -1.08867 22.5398 -0.222933 0.790924 13.8987 -0.114933 
0.678918 13.7839 -0.113019 0.702351 13.4824 -0.112057 -1.11759 1.96337 -0.155378 
-1.24579 2.32128 -0.154137 -1.17886 1.93694 -0.151404 -1.12813 8.01514 -0.158363 
-0.563482 22.3992 -0.22295 1.24334 2.00589 -0.14865 -3.11849 28.5321 -0.248697 
-1.41009 20.0984 -0.2066 1.24906 19.9278 -0.180424 -1.08372 12.4462 -0.137128 
1.11213 10.5733 -0.123971 1.27659 10.2608 -0.122875 1.07163 10.958 -0.119032 
-1.39283 2.24832 -0.145654 -1.4103 8.91208 -0.1537 -1.38458 9.49101 -0.150996 
-1.53907 9.68637 -0.148936 3.01727 29.2869 -0.192019 0.739731 8.51146 -0.151127 
0.584182 8.92344 -0.155917 1.33682 2.27644 -0.145464 1.13343 21.8487 -0.20272 
1.33236 21.8442 -0.197012 0.736908 15.7021 -0.127653 0.62383 15.548 -0.125427 
0.628207 15.2572 -0.123318 0.0916282 8.56474 -0.161988 -0.167938 8.37662 -0.164446 
-0.253111 7.64487 -0.162081 0.36256 8.81099 -0.160274 1.07198 22.3277 -0.204189 
1.00725 22.8592 -0.205505 1.23854 22.8615 -0.20063 -2.96504 28.4282 -0.24667 
2.16587 28.1765 -0.196474 1.99887 28.1012 -0.197752 1.82395 27.9279 -0.199008 
1.65294 27.856 -0.200369 1.91334 27.579 -0.197684 1.47027 27.6863 -0.201775 
1.31172 27.6815 -0.203156 1.55895 27.2327 -0.20046 1.1604 27.9148 -0.204673 
1.00161 27.9264 -0.206032 1.22667 27.292 -0.203534 0.855515 27.8825 -0.207254 
0.708161 27.8612 -0.208501 0.92933 27.4801 -0.206346 0.551551 27.842 -0.209877 
0.394319 27.8245 -0.211232 0.627326 27.4149 -0.208989 0.228962 27.8117 -0.212711 
0.0620205 27.7958 -0.214191 0.305645 27.3815 -0.21183 -0.117959 27.7485 -0.215812 
-0.28222 27.7411 -0.21732 -0.0397616 27.3209 -0.214868 -0.450447 27.7038 -0.218861 
-0.606288 27.7379 -0.220382 -0.388005 27.2377 -0.218032 -0.740166 27.8824 -0.221785 
-0.886525 27.9177 -0.223273 -0.689358 27.3485 -0.220976 -1.03346 27.8613 -0.224745 
-1.18277 27.8935 -0.226297 -0.969587 27.4385 -0.223782 -1.33056 28.0207 -0.227965 
-1.4984 28.0524 -0.22976 -1.26291 27.5124 -0.226814 -1.65232 28.0197 -0.231367 
-1.81272 28.0193 -0.233092 -1.56349 27.6089 -0.229968 -1.98842 28.0429 -0.235025 
-2.14531 28.0591 -0.236774 -1.89168 27.6024 -0.233362 -2.30869 28.0636 -0.238572 
-2.46541 28.1072 -0.240401 -2.22876 27.6332 -0.23698 -2.63521 28.1911 -0.242436 
-2.79166 28.2736 -0.244388 -2.55959 27.724 -0.240704 -1.68666 22.1472 -0.221417 
-1.62307 22.6385 -0.223335 0.799087 12.8077 -0.110361 0.982259 12.5531 -0.110988 
0.755207 13.1426 -0.110484 -1.72234 21.1237 -0.215597 -1.72588 21.6286 -0.218972 
-1.94179 22.1364 -0.221718 1.48538 2.61835 -0.140615 1.65376 3.0471 -0.134831 
1.33701 2.49026 -0.145786 1.77858 3.42334 -0.130825 1.89118 3.79207 -0.126842 
1.59521 3.20591 -0.137247 1.98754 4.17365 -0.123879 2.08243 4.55479 -0.120554 
1.80586 3.9645 -0.130014 2.16699 4.9477 -0.117814 2.24737 5.32533 -0.115016 
1.97848 4.74241 -0.124188 2.34014 5.67865 -0.111749 2.38956 6.02047 -0.11004 
2.14865 5.49163 -0.118339 2.39419 6.32462 -0.109676 2.4203 6.6549 -0.108626 
2.24324 6.15241 -0.114751 2.4447 7.00182 -0.107427 2.46774 7.34731 -0.106355 
2.27245 6.81098 -0.113019 2.4948 7.70571 -0.10495 2.50518 8.06266 -0.10416 
2.32387 7.52185 -0.110275 2.50879 8.42877 -0.103322 2.50191 8.76487 -0.102961 
2.35438 8.25062 -0.107847 2.48384 9.10197 -0.102678 2.46651 9.44466 -0.102535 
2.33853 8.95745 -0.106485 2.43604 9.79554 -0.102512 2.41225 10.142 -0.102571 
2.28837 9.64855 -0.105815 2.38682 10.4971 -0.102627 2.36022 10.85 -0.10303 
2.22944 10.3565 -0.105413 2.34067 11.1841 -0.103425 2.311 11.5099 -0.104163 
2.18063 11.0462 -0.105427 2.28858 11.847 -0.105029 2.2584 12.1963 -0.106242 
2.13544 11.7171 -0.106314 2.22913 12.5414 -0.107627 2.20505 12.8886 -0.109219 
2.08119 12.3986 -0.108279 2.18342 13.2214 -0.110887 2.16475 13.5456 -0.112685 
2.02857 13.075 -0.11115 2.1604 13.8724 -0.114545 2.14691 14.2002 -0.11661 
2.00174 13.732 -0.114555 2.13482 14.5448 -0.118883 2.12293 14.8856 -0.121247 
1.98503 14.4004 -0.118609 2.10499 15.2338 -0.123794 2.09679 15.5814 -0.126368 
1.95542 15.0895 -0.123372 2.08479 15.9362 -0.129138 2.08308 16.291 -0.131882 
1.92632 15.788 -0.128647 2.08612 16.6469 -0.134763 2.09854 17.0021 -0.137552 
1.91862 16.4936 -0.134272 2.11268 17.3696 -0.140594 2.13639 17.7065 -0.14326 
1.93739 17.212 -0.140229 2.17168 18.0596 -0.146082 2.21187 18.3749 -0.148466 
1.98951 17.9282 -0.146236 2.27733 18.7377 -0.151039 2.3365 19.0165 -0.152848 
2.09358 18.6411 -0.151863 2.33563 19.3178 -0.155416 2.3572 19.6889 -0.158307 
2.38518 20.0153 -0.160668 2.18299 19.3727 -0.157602 2.42417 20.381 -0.163114 
2.45626 20.704 -0.165183 2.24597 20.1061 -0.163296 2.48974 21.0204 -0.167046 
2.5135 21.3345 -0.168882 2.32037 20.7856 -0.167835 2.54125 21.6669 -0.170669 
2.56522 22.0211 -0.172455 2.38283 21.4322 -0.171612 2.57263 22.3617 -0.174328 
2.59228 22.7059 -0.17581 2.41875 22.103 -0.175308 2.59246 23.0524 -0.177535 
2.61119 23.3915 -0.178727 2.42627 22.7879 -0.178852 2.63272 23.7395 -0.179882 
2.65603 24.0732 -0.180794 2.44623 23.4815 -0.181573 2.70723 24.4181 -0.181346 
2.71978 24.769 -0.182382 2.51627 24.1758 -0.183108 2.68683 25.0884 -0.183812 
2.69407 25.4572 -0.184841 2.53281 24.8407 -0.184983 2.71313 25.8559 -0.185747 
2.72264 26.2452 -0.186737 2.51624 25.5596 -0.187211 2.75826 26.674 -0.18749 
2.7724 27.0732 -0.188421 2.56813 26.3894 -0.188774 2.80127 27.4965 -0.189216 
2.81 27.8833 -0.190142 1.55808 21.3314 -0.188302 1.54026 20.8535 -0.184376 
-0.605829 6.58154 -0.160565 -0.866233 6.54174 -0.16028 -1.06541 15.6098 -0.154608 
-1.08218 15.9322 -0.157898 -1.23142 23.1551 -0.223681 -0.963094 23.1139 -0.222651 
-2.80794 26.143 -0.239658 -2.80084 25.7455 -0.238549 -2.75345 25.2957 -0.236962 
-2.75704 24.9703 -0.236084 -2.61428 25.4127 -0.236108 -2.69025 24.604 -0.234489 
-0.0713268 13.4337 -0.00361773 -0.0748676 13.6045 -0.00681814 -2.56835 24.0143 -0.231799 
-2.54972 23.6233 -0.23039 -2.44925 24.3689 -0.232097 -2.59734 23.0818 -0.228628 
-2.62312 22.774 -0.227516 -2.38241 23.2348 -0.227954 -2.58059 22.4546 -0.22588 
-0.0765123 13.7845 -0.00973696 -0.0783285 13.959 -0.0124986 -2.56781 22.0434 -0.223856 
-2.53287 21.6995 -0.221938 -2.41736 22.2858 -0.224168 -2.46275 21.3133 -0.219368 
-2.42608 20.9646 -0.21715 -2.33546 21.4896 -0.219605 -2.41869 20.5938 -0.214773 
-2.37647 20.2202 -0.212128 -2.25672 20.7356 -0.214601 -2.30237 19.8344 -0.20882 
-2.2653 19.4734 -0.205993 -2.17298 19.9816 -0.208784 -2.24368 19.0144 -0.202439 
-2.24789 18.709 -0.200275 -2.07317 19.1412 -0.201583 -2.18376 18.394 -0.197221 
-0.0794744 14.1401 -0.0149246 -0.0809939 14.3518 -0.0178119 -2.10701 17.9492 -0.192798 
-2.07379 17.5957 -0.189688 -1.97133 18.2409 -0.19327 -2.03702 17.1505 -0.185667 
-2.04237 16.7972 -0.183056 -1.85425 17.3563 -0.184469 -2.1237 16.456 -0.181752 
-2.12945 16.1084 -0.179186 -1.8991 16.5793 -0.179027 -2.11291 15.7768 -0.176431 
-2.11722 15.4457 -0.173968 -1.96441 15.9104 -0.174969 -2.12699 15.1141 -0.17167 
-2.14486 14.7888 -0.169521 -1.9581 15.2517 -0.169859 -2.19518 14.4708 -0.167978 
-2.21469 14.1219 -0.165703 -2.01904 14.6061 -0.16614 -2.19687 13.8055 -0.163248 
-2.21026 13.4604 -0.161095 -2.05207 13.9739 -0.16221 -2.22588 13.1149 -0.159107 
-2.24585 12.795 -0.157359 -2.05029 13.3148 -0.157892 -2.26845 12.4573 -0.155717 
-2.29815 12.1041 -0.154107 -2.09002 12.6334 -0.154535 -2.33178 11.7539 -0.152826 
-2.36454 11.4057 -0.151523 -2.14882 11.9463 -0.151895 -2.40243 11.0481 -0.150444 
-2.43205 10.6967 -0.149315 -2.22355 11.2382 -0.149942 -2.45274 10.3539 -0.148452 
-2.47489 10.0274 -0.147576 -2.28513 10.5372 -0.148383 -2.48735 9.69217 -0.146982 
-2.50458 9.35733 -0.146215 -2.32071 9.85815 -0.147389 -2.5206 9.00642 -0.1457 
-2.53527 8.66602 -0.145007 -2.35075 9.16956 -0.146619 -2.5454 8.32168 -0.144436 
-2.55032 7.97309 -0.143711 -2.37677 8.47016 -0.145912 -2.57565 7.63617 -0.142881 
-2.55315 7.27846 -0.142352 -2.41133 7.78223 -0.144894 -2.48199 6.94575 -0.142681 
-2.43305 6.59673 -0.142599 -2.36532 7.10936 -0.144589 -2.36993 6.22245 -0.142792 
-2.3141 5.85662 -0.142808 -2.23327 6.39923 -0.145366 -2.26854 5.48694 -0.142513 
-2.20984 5.13374 -0.142583 -2.12706 5.64888 -0.145611 -2.147 4.75118 -0.142337 
-2.07471 4.38672 -0.142444 -2.02252 4.89019 -0.145695 -1.98976 4.01203 -0.142443 
-1.89729 3.67475 -0.142764 -1.87882 4.12792 -0.146231 -2.90028 27.9638 -0.244934 
-2.85685 27.527 -0.243441 -1.28799 2.75271 -0.155976 -1.21053 2.79673 -0.158131 
0.873322 16.454 -0.134841 0.864181 16.1594 -0.132263 1.49709 22.3602 -0.194952 
1.52759 21.8648 -0.192074 1.73545 21.8248 -0.186916 -2.79281 27.0111 -0.241613 
-2.77995 26.597 -0.240488 -2.6315 26.3177 -0.238421 -1.32407 7.47917 -0.156115 
-1.3988 8.18269 -0.154626 -0.139087 22.8558 -0.21968 0.138581 22.8142 -0.217656 
-1.12792 2.86502 -0.160432 -1.03713 2.89187 -0.161992 -1.29414 3.21243 -0.15719 
-0.937838 2.87398 -0.163663 -0.84895 2.90047 -0.164559 -1.09182 3.26288 -0.160963 
-0.787877 3.02819 -0.164975 -0.700385 3.05094 -0.165404 -0.916908 3.37445 -0.163089 
-0.602479 3.04942 -0.165903 -0.512784 3.03676 -0.166277 -0.735656 3.50466 -0.164346 
-0.411062 3.00231 -0.166628 -0.320388 2.97587 -0.166692 -0.515082 3.47024 -0.165184 
-0.231888 2.88628 -0.166895 -0.145897 2.88731 -0.166624 -0.305316 3.34538 -0.165612 
-0.0711597 3.0024 -0.166008 0.0132658 3.01839 -0.165602 -0.129485 3.37202 -0.165184 
0.106488 3.03494 -0.164994 0.197139 3.05372 -0.164371 0.0597517 3.5071 -0.163858 
0.299024 3.06452 -0.163503 0.388957 3.0661 -0.162718 0.277297 3.53419 -0.162336 
0.483299 3.06925 -0.161696 0.571183 3.0533 -0.160717 0.495513 3.54626 -0.160163 
0.649777 2.97354 -0.159896 0.735228 2.93779 -0.158895 0.690559 3.46576 -0.157872 
0.820558 2.87901 -0.15759 0.906772 2.85072 -0.156212 0.874223 3.32332 -0.155286 
0.990396 2.81611 -0.154546 1.06902 2.78202 -0.153034 1.0622 3.22827 -0.151897 
1.14693 2.7106 -0.151117 1.22344 2.66662 -0.149316 1.24455 3.12205 -0.147862 
1.28061 2.55354 -0.147501 -1.14285 13.6442 -0.142934 -1.11883 13.9816 -0.14429 
-1.11874 16.3054 -0.161919 -1.14687 16.6823 -0.165878 -1.27977 16.1447 -0.163961 
-0.985527 17.2205 -0.167488 -0.823106 17.2495 -0.164148 -1.19435 12.9476 -0.140764 
-1.16402 13.2895 -0.141492 -1.32731 13.454 -0.145991 -1.39015 11.4242 -0.142109 
-1.32715 11.8324 -0.141085 -0.681101 22.9895 -0.221912 -0.41986 22.9326 -0.221219 
-0.269981 23.4291 -0.218317 -1.27388 12.2157 -0.140654 -1.22715 12.5933 -0.140341 
-1.38205 12.7359 -0.143988 -1.46627 11.9936 -0.143454 0.899366 8.07897 -0.146785 
0.693345 7.92034 -0.151691 -1.54242 2.59678 -0.144392 1.46045 20.2296 -0.179046 
1.39208 19.7526 -0.173755 0.462236 22.8223 -0.214316 0.740207 22.8394 -0.209544 
0.915935 23.3753 -0.205963 0.329041 23.3578 -0.213283 -1.09698 14.3222 -0.146077 
-1.07546 14.6417 -0.14752 -1.28273 14.1614 -0.149196 -1.59942 19.9446 -0.205076 
-1.65577 20.4682 -0.210271 -1.03107 14.9472 -0.148824 -1.02938 15.2993 -0.151452 
-1.20597 15.4457 -0.156654 -1.2146 14.8201 -0.152167 -1.43028 18.9179 -0.193047 
-1.49964 19.3935 -0.198861 2.51542 28.2784 -0.19369 2.32013 28.2775 -0.19533 
2.24015 27.8552 -0.195216 0.265733 8.12698 -0.158851 -1.55135 10.5231 -0.145685 
-1.46378 11.0163 -0.143443 -1.58944 11.2023 -0.144538 -1.46482 2.66278 -0.148809 
-1.3791 2.69804 -0.152452 -1.48918 3.09131 -0.151526 -1.68193 2.97768 -0.143599 
1.47247 9.57141 -0.124049 1.48767 9.12592 -0.127147 0.457465 7.68607 -0.156253 
0.211577 7.44756 -0.158927 1.44142 9.98996 -0.121584 1.6161 9.72518 -0.119315 
1.41089 10.3954 -0.118489 -1.80388 23.2263 -0.225345 -1.51838 23.206 -0.224478 
1.15027 12.6763 -0.111666 1.20641 12.3261 -0.111488 -1.91795 20.9534 -0.214572 
1.19225 11.0671 -0.116138 2.63038 27.2437 -0.190235 1.68872 20.6617 -0.178583 
2.8009 28.3481 -0.191369 0.746805 15.1107 -0.122968 -1.0042 5.87985 -0.159287 
-1.18932 6.61943 -0.157609 -0.0815008 14.5584 -0.0205042 -0.0822588 14.7476 -0.0227578 
1.3103 8.43806 -0.135424 1.11408 8.27191 -0.141179 1.06955 7.71274 -0.143554 
-0.831585 23.6118 -0.221627 -1.69772 3.39701 -0.1472 -1.79675 3.32118 -0.14297 
1.51815 19.5699 -0.168855 1.29854 19.2854 -0.168587 1.23304 18.8731 -0.163113 
-2.66419 27.2904 -0.240917 1.40274 2.93981 -0.143619 0.892331 14.0225 -0.116192 
0.916736 13.7092 -0.114883 1.23332 11.9487 -0.111436 1.28106 11.5799 -0.112308 
1.39725 12.09 -0.111257 0.995443 16.0478 -0.131702 0.864612 15.8771 -0.129622 
0.864798 15.5834 -0.127396 -1.67745 10.085 -0.146996 -1.76632 9.51896 -0.148384 
-1.468 6.8287 -0.155039 -1.75503 19.7431 -0.203896 0.624921 7.27345 -0.152725 
1.47695 22.8924 -0.196225 1.68572 22.8921 -0.192515 0.87537 16.7384 -0.137718 
0.998285 16.628 -0.137023 0.910103 17.0765 -0.141324 -1.36152 16.9478 -0.172553 
-1.18984 17.0974 -0.170778 -1.20259 17.5068 -0.174977 -1.40854 23.7625 -0.224414 
-1.61727 8.39675 -0.152239 0.902728 14.6227 -0.120111 0.910746 14.3142 -0.118345 
1.03598 14.1379 -0.117717 1.4256 23.4068 -0.198189 2.64819 28.1332 -0.192184 
0.868964 13.2478 -0.112165 1.16584 18.4617 -0.158012 1.10951 18.0752 -0.153006 
1.36135 18.6891 -0.159293 -1.36284 18.451 -0.187289 -1.59216 18.721 -0.192801 
2.52646 27.8123 -0.19254 -0.304153 6.78808 -0.160984 -0.413369 5.98018 -0.160973 
-0.061396 7.00387 -0.160236 1.06288 17.7051 -0.148582 1.00964 17.3815 -0.144776 
1.24963 17.9018 -0.150392 0.128548 6.60429 -0.159004 1.86862 23.3712 -0.190553 
1.88197 22.843 -0.188482 -2.11236 23.2224 -0.226551 -2.01608 23.7925 -0.22786 
1.73304 26.7209 -0.198146 1.5544 26.5462 -0.199681 1.04171 27.0587 -0.205018 
0.896718 27.012 -0.206339 0.716399 26.9854 -0.207972 0.560176 26.9642 -0.209386 
0.83078 26.5593 -0.206747 0.381317 26.9441 -0.211013 0.215969 26.9306 -0.212502 
0.471558 26.5089 -0.210021 0.0422479 26.9303 -0.214048 -0.137866 26.8834 -0.215598 
0.118189 26.4875 -0.213276 -0.335762 26.6443 -0.217346 -0.504097 26.6098 -0.218883 
-0.254474 26.2475 -0.216501 -0.736996 26.7678 -0.221001 -0.869393 26.9171 -0.222411 
-0.686513 26.172 -0.220308 -1.01601 26.8627 -0.223801 -0.0824855 14.9466 -0.0248937 
-0.0828049 15.1551 -0.0272342 -1.26539 26.9404 -0.226332 -1.41078 27.0715 -0.227849 
-1.16725 26.417 -0.224952 -1.56396 27.0409 -0.22932 -0.082661 15.3754 -0.029471 
-0.0825398 15.5758 -0.0318547 -1.77386 27.1586 -0.231548 -1.9478 27.1848 -0.233336 
-1.62336 26.6204 -0.229443 -2.13327 27.1507 -0.23515 -2.29458 27.1577 -0.236834 
-2.01662 26.708 -0.233269 -2.49693 27.2049 -0.238975 0.988739 13.3988 -0.113407 
1.04793 13.0502 -0.112641 1.26872 12.8444 -0.112373 1.09156 13.5292 -0.114572 
-2.05819 20.7015 -0.213287 -2.11987 21.363 -0.217926 1.32622 11.1884 -0.113698 
1.36998 10.7863 -0.115987 1.4654 11.3162 -0.112194 1.51668 3.31408 -0.139676 
1.615 3.71671 -0.136478 1.70294 4.09999 -0.133348 1.4327 3.4544 -0.142272 
1.78132 4.5574 -0.130667 1.85773 4.9539 -0.127923 1.59979 4.31679 -0.136229 
1.96237 5.45988 -0.124184 2.04752 5.81388 -0.12115 1.76998 5.28521 -0.130077 
2.05448 6.12576 -0.120539 -0.0820082 15.7785 -0.0340004 -0.0815643 15.9716 -0.0361605 
2.13771 7.35026 -0.115916 2.16455 7.71304 -0.11434 2.21381 8.0743 -0.112028 
2.21728 8.44433 -0.110943 2.03378 7.91326 -0.11736 2.17841 8.78682 -0.110781 
2.15978 9.12757 -0.110172 2.04398 8.61962 -0.114735 2.06863 10.2125 -0.108294 
2.04004 10.5686 -0.107929 1.96762 11.6084 -0.107737 1.94254 11.9446 -0.108271 
1.9433 12.2574 -0.10881 1.91227 12.6013 -0.109957 1.77305 12.1528 -0.109713 
1.83191 12.9267 -0.111481 1.80901 13.2566 -0.112946 1.69173 12.7898 -0.111591 
1.83938 13.5875 -0.114433 1.83468 13.9109 -0.116159 1.64 13.4412 -0.114335 
1.83501 14.273 -0.118304 1.82349 14.6136 -0.120496 1.67025 14.128 -0.117854 
1.79769 14.9584 -0.122919 1.78078 15.3019 -0.125384 1.6458 14.8293 -0.122329 
1.7644 15.6425 -0.128029 1.7536 15.9918 -0.130737 1.60505 15.508 -0.127294 
1.74769 16.3224 -0.133519 1.75183 16.6727 -0.136336 1.5841 16.172 -0.132655 
1.74891 17.0484 -0.139735 1.76489 17.4104 -0.142806 1.57587 16.8705 -0.138766 
1.87362 18.4711 -0.152216 1.94204 18.8316 -0.155069 1.98917 19.189 -0.158072 
2.01329 19.5559 -0.161348 1.77051 19.0102 -0.158726 2.08252 19.8883 -0.163605 
2.12353 20.2513 -0.166333 1.89092 19.6977 -0.16445 2.13225 20.5716 -0.169117 
2.16711 20.8856 -0.171113 1.97144 20.3484 -0.169712 2.23349 21.1988 -0.172438 
2.26194 21.5292 -0.174309 2.04872 20.9792 -0.173986 2.27574 21.8304 -0.176092 
2.2836 22.1687 -0.177967 2.12947 21.5925 -0.177153 2.24707 23.2258 -0.183723 
2.26604 23.5745 -0.18476 2.35061 24.4073 -0.186199 2.31614 24.7259 -0.187533 
2.29949 25.2341 -0.189043 2.31558 25.6352 -0.189815 2.11886 24.7955 -0.190243 
2.37005 26.1076 -0.190242 2.40323 26.539 -0.190915 2.15136 25.7809 -0.192045 
0.871294 15.2736 -0.124746 0.881781 14.9574 -0.122668 1.03073 14.7819 -0.12187 
1.00195 15.4412 -0.126702 -2.20178 22.1573 -0.222575 -2.16127 22.6862 -0.224724 
-1.58531 3.44519 -0.150614 -1.79078 18.4726 -0.19283 -1.85257 18.9456 -0.197698 
-1.75413 15.369 -0.167178 -1.76461 15.0428 -0.164871 -1.8628 13.5446 -0.156376 
-1.87873 13.202 -0.154632 -2.1299 10.7296 -0.148119 -2.15307 10.3862 -0.147811 
-2.10709 10.0592 -0.147535 -2.12176 9.72267 -0.147407 -1.95629 10.2589 -0.147295 
-2.18688 9.33536 -0.147361 -2.203 8.98125 -0.147245 -1.98038 9.54474 -0.147701 
-2.18151 8.57969 -0.1474 -2.18973 8.22992 -0.147281 -2.02388 8.75268 -0.148408 
-2.22848 7.79512 -0.146776 -2.25 7.45024 -0.146312 -2.03765 7.90849 -0.148621 
-2.18293 7.11732 -0.146843 -0.080689 16.1551 -0.0380219 -0.0797276 16.3611 -0.040428 
-2.06654 6.66691 -0.147966 -2.00718 6.2884 -0.148408 -1.9606 7.02074 -0.149474 
-1.94175 5.77617 -0.148858 -1.89878 5.39947 -0.149128 -1.78745 6.05423 -0.151356 
-1.89362 5.00762 -0.148567 -1.83351 4.61964 -0.148839 -1.71987 5.13881 -0.15165 
-1.74689 4.22185 -0.149601 -1.66678 3.84403 -0.150199 -1.63185 4.34392 -0.152256 
1.67851 8.81668 -0.123357 1.51591 8.62733 -0.128521 1.49468 8.11596 -0.131513 
1.38525 23.9993 -0.199037 1.63267 24.0083 -0.195555 -1.13366 3.79188 -0.16007 
-1.05328 3.92309 -0.160751 -0.889941 4.04298 -0.162083 -0.771698 4.04385 -0.162821 
-1.10063 4.46432 -0.159737 -0.614907 3.93963 -0.163876 -0.493541 3.90596 -0.164241 
-0.753257 4.48674 -0.16239 -0.356017 3.95044 -0.164172 -0.249584 3.85791 -0.164242 
-0.440256 4.43079 -0.16323 -0.157414 3.97946 -0.163726 -0.0782575 16.567 -0.0424077 
-0.0769085 16.7478 -0.0444846 -0.00764556 4.07133 -0.162815 0.1085 4.08857 -0.162115 
-0.12834 4.57323 -0.16232 0.237764 4.00518 -0.161309 0.361675 4.01466 -0.1602 
0.180585 4.5819 -0.160359 0.509634 4.18909 -0.158241 0.626548 4.18931 -0.156598 
0.475286 4.67153 -0.157399 0.741987 4.02133 -0.155366 0.840872 3.93665 -0.154181 
0.767838 4.67115 -0.153464 0.915451 3.74676 -0.153244 1.01995 3.68551 -0.151614 
0.978611 4.30418 -0.150724 1.13588 3.6726 -0.14913 1.23798 3.63779 -0.146948 
1.18273 4.09789 -0.147126 1.33429 3.52377 -0.144699 -2.47901 25.7894 -0.235833 
-2.43459 25.3364 -0.234424 -1.5513 24.4068 -0.22638 -1.2511 24.3822 -0.224321 
2.46708 27.0016 -0.191272 2.49416 27.4268 -0.191995 2.36121 27.5702 -0.193539 
2.26675 26.7198 -0.192715 -0.399634 24.0127 -0.218577 -0.127759 23.9496 -0.216962 
-1.2622 17.9415 -0.180423 1.8705 20.9815 -0.177583 1.79505 20.3544 -0.17296 
-1.80022 8.00872 -0.150765 -1.80673 8.7207 -0.149926 0.803122 6.89377 -0.150319 
0.581991 6.65391 -0.153943 2.20904 27.4679 -0.194746 -1.51994 13.2584 -0.148857 
-1.49781 13.6231 -0.150342 2.04457 27.301 -0.196009 1.87256 27.1253 -0.197339 
1.86529 26.4444 -0.196388 2.167 27.0167 -0.194309 -2.40144 26.7253 -0.237079 
-1.47249 3.54486 -0.153998 -0.074892 16.9225 -0.0461968 -0.0730368 17.1124 -0.0486328 
-1.4663 17.8103 -0.182323 1.89931 23.8613 -0.191143 2.1036 23.7994 -0.187962 
-2.18207 24.2753 -0.229983 -1.85981 24.2925 -0.227903 1.79076 9.50043 -0.116829 
1.76033 9.91568 -0.115019 -1.49227 14.0381 -0.152897 -1.46945 14.3902 -0.15457 
-1.36999 3.61207 -0.156151 1.19414 26.8253 -0.203469 1.32885 26.3794 -0.201761 
1.1469 26.14 -0.203429 1.50635 25.8665 -0.199453 -1.68245 13.855 -0.155276 
1.54626 10.5326 -0.115152 2.10458 6.93331 -0.117738 1.95242 7.1315 -0.121614 
2.07962 6.58017 -0.119093 2.12861 9.49453 -0.10955 2.09622 9.8482 -0.109012 
2.01659 10.931 -0.107549 1.99377 11.2648 -0.107513 1.82134 18.105 -0.149015 
1.66726 18.2902 -0.152035 1.78373 17.756 -0.146028 -2.44868 26.2439 -0.236533 
-0.0698149 17.2914 -0.0510382 -0.066696 17.4766 -0.0545055 -2.24959 26.193 -0.23459 
2.24399 22.8039 -0.181964 2.06889 22.8904 -0.185365 1.88075 22.4223 -0.18688 
2.24435 22.4596 -0.180283 0.0660588 24.486 -0.214035 0.20252 23.9268 -0.214124 
0.514996 23.9253 -0.210733 1.02331 7.1545 -0.145328 0.970037 6.55751 -0.146913 
1.23676 7.36902 -0.139726 -0.819082 5.17883 -0.161112 -1.11975 5.28178 -0.159147 
-1.65117 17.5873 -0.183278 -1.71014 18.0314 -0.188039 1.86964 24.4423 -0.192975 
1.71107 19.7066 -0.167255 1.62436 19.2393 -0.163021 -0.0549957 17.6493 -0.0563881 
-0.056735 17.7936 -0.0616185 -1.25019 3.80969 -0.158366 -0.0703022 13.2751 1.25327e-05 
-0.0592733 13.1309 0.00469289 -2.18826 21.7496 -0.220412 -2.04742 20.3358 -0.210565 
-1.97128 19.9513 -0.207083 -1.8786 19.3977 -0.201741 -1.61255 17.1501 -0.17895 
-1.80813 16.1264 -0.173924 -1.79097 15.7993 -0.171036 -1.71159 13.0726 -0.151334 
-1.90151 12.8371 -0.153045 -1.92561 12.5011 -0.151721 -1.54349 12.8984 -0.147542 
-1.8756 14.2808 -0.161415 -1.85656 13.9679 -0.158994 -1.95869 12.1365 -0.150623 
-1.99483 11.7867 -0.149597 -1.76936 12.3462 -0.148986 -2.03704 11.428 -0.148998 
-2.07783 11.0699 -0.148401 -1.9469 10.9243 -0.147339 -1.84838 11.624 -0.147663 
1.82168 9.1292 -0.117919 1.85577 8.64243 -0.11951 1.08768 23.9039 -0.20332 
1.29936 24.5108 -0.20079 0.819072 23.9074 -0.207353 1.41441 3.96952 -0.141859 
1.89373 6.25166 -0.125081 1.13522 16.24 -0.133542 1.13462 15.9446 -0.131103 
1.91524 21.8791 -0.183284 1.57451 12.153 -0.110585 1.5983 11.7689 -0.110445 
1.10186 17.2218 -0.143117 -1.71534 24.901 -0.227953 -1.43793 15.8881 -0.165036 
-1.47518 16.2749 -0.16907 1.59377 17.5841 -0.145382 -1.57539 12.5378 -0.146663 
1.13466 16.8605 -0.13931 1.13049 16.5639 -0.136562 1.27066 16.4655 -0.135615 
1.23451 17.1633 -0.142281 -1.41283 4.14069 -0.155932 1.85699 10.7945 -0.109813 
1.91295 10.068 -0.111498 1.80222 11.4992 -0.109197 -1.59451 15.5863 -0.16583 
-1.39982 15.4679 -0.161091 -0.957431 24.2875 -0.222161 -0.673242 24.1916 -0.220486 
-1.65984 11.7906 -0.145843 -1.611 12.1757 -0.146097 -1.78873 10.3642 -0.146496 
1.57288 18.8853 -0.159462 1.51049 18.4703 -0.155195 -1.77372 11.0269 -0.146137 
-1.70584 11.4323 -0.145809 0.540332 5.98057 -0.154681 0.365384 6.3395 -0.156389 
-0.534116 24.6845 -0.218926 -1.36403 15.1443 -0.157711 1.4555 18.1081 -0.151582 
1.4095 17.7304 -0.147616 -1.5802 6.26948 -0.153616 -1.72524 7.11371 -0.152009 
0.113034 5.91993 -0.158919 1.38903 13.1578 -0.113438 1.49053 12.7878 -0.112165 
-0.21723 5.3082 -0.16136 -0.479222 5.12998 -0.162074 -1.10314 24.9397 -0.223142 
-1.72375 16.462 -0.175127 -1.56817 16.7219 -0.174474 -1.61698 14.7199 -0.159828 
-1.40886 14.8293 -0.15654 -1.82865 10.6849 -0.146488 0.543819 26.103 -0.209259 
0.364351 26.081 -0.211048 1.16182 13.779 -0.115994 1.23598 13.4668 -0.114673 
1.62864 11.4273 -0.110528 -2.16024 25.2474 -0.231994 -2.29651 24.8739 -0.23228 
1.48493 4.43026 -0.139356 1.50831 4.93367 -0.137793 1.60292 5.44367 -0.134303 
1.33603 4.58995 -0.142559 1.43342 5.66195 -0.13835 1.21323 5.38468 -0.14375 
1.28758 5.95196 -0.141069 1.97434 9.33452 -0.113541 -1.8261 9.12233 -0.149096 
2.30274 24.0595 -0.185756 1.45715 13.4199 -0.114555 1.48828 13.7428 -0.116065 
1.43265 15.9933 -0.131603 1.42732 16.3164 -0.134336 1.42327 16.6509 -0.137257 
1.42088 17.0178 -0.140506 2.10518 22.1814 -0.18128 2.10485 26.5512 -0.194042 
1.38937 17.3925 -0.14435 1.8466 24.9556 -0.194171 1.66067 25.3186 -0.197001 
1.9161 25.6697 -0.194585 1.78291 20.0389 -0.169843 -1.31291 5.15203 -0.156928 
-1.82315 14.5957 -0.162803 -1.49873 4.94053 -0.154779 -1.51976 5.74717 -0.154574 
-1.15937 25.6743 -0.224298 -0.859384 25.6027 -0.221737 -1.83106 7.55981 -0.150784 
-1.48933 4.54097 -0.154965 1.57369 12.4609 -0.111156 1.68645 6.00156 -0.131256 
1.71156 6.46581 -0.129562 0.177941 5.16428 -0.159394 0.32917 5.07419 -0.158148 
1.20449 4.60504 -0.145624 1.1771 14.0844 -0.117809 1.69501 10.6724 -0.112196 
1.72959 10.2808 -0.113627 1.43881 15.6743 -0.129 1.28097 15.8218 -0.13006 
1.45407 15.3412 -0.126419 0.917726 26.056 -0.205565 0.737853 26.0247 -0.207447 
0.632704 25.5911 -0.208419 1.05615 25.6042 -0.204091 1.93546 21.296 -0.178848 
-0.627861 25.4325 -0.219766 -0.356527 25.2715 -0.217523 1.34839 13.9901 -0.117429 
1.53102 14.0146 -0.117425 1.53233 14.3706 -0.11963 1.95034 21.5945 -0.180705 
0.697601 5.56131 -0.152983 0.494812 5.25189 -0.155962 0.163366 25.9937 -0.212701 
-0.0115261 25.9947 -0.214361 -1.40358 25.7648 -0.226445 -1.84188 26.2431 -0.230908 
-2.02552 26.2128 -0.23256 -2.07631 25.7299 -0.232141 1.6665 11.0334 -0.111209 
1.14079 15.6357 -0.128464 1.84437 7.93122 -0.122371 1.89017 8.29188 -0.119903 
1.22243 14.3471 -0.119339 1.14759 15.3114 -0.126094 1.79272 7.40438 -0.125396 
1.65962 7.79702 -0.127858 1.44303 7.58171 -0.134103 1.76042 6.9812 -0.127265 
-1.62418 25.3893 -0.227969 -1.63588 26.1198 -0.228984 1.49348 14.6845 -0.121561 
1.46896 15.0227 -0.124046 1.30132 15.194 -0.125188 1.35342 14.5701 -0.120912 
0.236149 25.58 -0.212079 1.56063 6.74571 -0.133155 -0.111705 25.0078 -0.21535 
-0.210997 25.7495 -0.216207 0.697123 24.4437 -0.207797 1.39639 7.04217 -0.136507 
1.16181 15.0026 -0.123699 1.18459 14.6539 -0.121447 -0.642219 5.07743 -0.162091 
1.44151 25.1413 -0.199474 0.916431 5.97895 -0.148886 0.848552 5.2642 -0.150876 
-0.0357542 5.40751 -0.160445 1.13815 25.0656 -0.202897 1.96718 26.1474 -0.194814 
-1.9405 25.2609 -0.230133 1.11546 4.79884 -0.146879 0.983298 5.08634 -0.148911 
0.610258 24.9999 -0.208656 0.910363 24.9717 -0.205654 1.1312 6.24862 -0.144185 
1.35023 6.51568 -0.138841 0.41364 25.0783 -0.210506 0.210953 24.9852 -0.212662 
4.14937 31.4206 0.0772335 3.81385 31.4206 0.0741858 3.95793 31.4407 0.0754318 
3.52942 31.3511 0.0715986 3.67014 31.3723 0.0729504 3.74779 31.0824 0.0742967 
3.24465 31.3077 0.0687594 3.3825 31.3299 0.0701675 3.45697 31.0127 0.0715863 
2.95351 31.2637 0.0656938 3.09706 31.2878 0.067235 3.16214 30.9711 0.0686488 
2.6601 31.2159 0.0625037 2.80157 31.2402 0.0640707 2.86245 30.9271 0.0655488 
2.35543 31.1527 0.0591604 2.51185 31.1792 0.0609253 2.5624 30.866 0.0623945 
2.04987 31.0918 0.055793 2.20038 31.1163 0.0574984 2.25988 30.7918 0.0592124 
1.74533 31.0353 0.0524489 1.89833 31.0582 0.054171 1.95457 30.7207 0.0559953 
1.39104 30.9965 0.0485559 1.57341 31.0202 0.0505569 1.63306 30.6707 0.052567 
1.05097 30.9563 0.045002 1.22253 30.9743 0.0468001 1.29487 30.6323 0.0490044 
0.729341 30.9318 0.041749 0.88918 30.9442 0.0433631 0.967447 30.5971 0.0456844 
0.414321 30.9269 0.0386465 0.570798 30.9345 0.0401334 0.650385 30.5869 0.0425107 
0.0561672 30.9162 0.0353937 0.236443 30.919 0.0370126 0.317479 30.581 0.039302 
-0.268078 30.9124 0.0326551 -0.106355 30.9097 0.0340143 -0.0193102 30.5667 0.0363017 
-0.598146 30.923 0.0299878 -0.437136 30.9152 0.0312691 -0.347289 30.5629 0.0335172 
-0.923944 30.9462 0.0274298 -0.764212 30.9337 0.0286647 -0.678846 30.577 0.0307781 
-1.24366 30.9724 0.0250583 -1.08125 30.9555 0.0262555 -0.99905 30.598 0.028212 
-1.55638 31.0072 0.0227341 -1.40066 30.9874 0.023872 -1.31065 30.6233 0.025766 
-1.87864 31.0511 0.0203388 -1.71669 31.0275 0.0215206 -1.62564 30.6596 0.0232906 
-2.18471 31.1071 0.0179757 -2.0341 31.0831 0.0191041 -1.93943 30.7131 0.0207729 
-2.48477 31.162 0.0155698 -2.33242 31.1366 0.0167695 -2.24121 30.7758 0.0182709 
-2.77995 31.2045 0.0130905 -2.63838 31.1806 0.0142797 -2.54193 30.8251 0.0157182 
-3.06604 31.2639 0.010498 -2.91821 31.2394 0.0118286 -2.83343 30.8795 0.0131231 
-3.35132 31.3269 0.00771692 -3.21336 31.305 0.00906853 -3.11906 30.9563 0.0103895 
-3.63678 31.3886 0.0047219 -3.49198 31.3671 0.00626921 -3.40725 31.0381 0.00746992 
-3.93252 31.4396 0.00136989 -3.78037 31.4187 0.00312883 -3.69177 31.1088 0.00443369 
-4.19291 31.5035 -0.00173407 -4.05693 31.4857 -0.000106783 -3.96002 31.185 0.00140308 
-4.17362 31.1368 -0.000856 0.412638 0.359083 0.186229 1.32 1.414 0.167658 
0.985247 0.981371 0.209007 1.8808 2.2104 0.161188 1.62566 1.82814 0.162754 
1.30534 1.40691 0.172136 2.27867 2.87749 0.160227 2.08512 2.54133 0.160252 
1.82149 2.16842 0.163364 2.633 3.58367 0.159837 2.46498 3.23357 0.159732 
2.22446 2.88255 0.161197 2.89833 4.22987 0.159928 2.77645 3.91977 0.15968 
2.56002 3.59909 0.160756 3.11118 4.85907 0.160263 3.00959 4.54027 0.159944 
2.81759 4.2675 0.160473 3.28093 5.49765 0.160737 3.20241 5.18239 0.160392 
3.02311 4.92052 0.160504 3.41567 6.15933 0.161137 3.35492 5.83162 0.160888 
3.18995 5.59616 0.160625 3.5036 6.78516 0.161419 3.46282 6.47177 0.161217 
3.31089 6.25839 0.160896 3.56574 7.4336 0.161631 3.53921 7.10512 0.161478 
3.3938 6.90506 0.161033 3.59515 8.05842 0.161684 3.58302 7.7423 0.16161 
3.44629 7.54579 0.161058 3.59973 8.6797 0.161573 3.59897 8.37529 0.161573 
3.46729 8.18164 0.160908 3.58839 9.30153 0.161295 3.59649 8.99404 0.161357 
3.46701 8.82179 0.160601 3.56444 9.92156 0.160824 3.57955 9.61036 0.161033 
3.45349 9.45219 0.160115 3.52133 10.5507 0.159971 3.5416 10.2353 0.160347 
3.42017 10.0798 0.159298 3.47276 11.1993 0.158751 3.49624 10.8794 0.159328 
3.37026 10.7257 0.158076 3.42476 11.8266 0.1572 3.44821 11.5178 0.157958 
3.31837 11.3752 0.156494 3.37299 12.5024 0.155037 3.39799 12.1583 0.15614 
3.26492 12.026 0.154477 3.32638 13.1762 0.152391 3.34871 12.8278 0.153765 
3.21188 12.6822 0.151969 3.28821 13.8906 0.149117 3.30601 13.5384 0.150771 
3.16514 13.3672 0.148929 3.26298 14.5995 0.145402 3.27502 14.2443 0.147319 
3.13005 14.0796 0.145369 3.24765 15.2917 0.141288 3.25292 14.9506 0.14334 
3.10569 14.78 0.141417 3.24979 16.0101 0.13673 3.24828 15.6351 0.139181 
3.09563 15.4695 0.137197 3.26242 16.727 0.131816 3.2538 16.3678 0.134314 
3.09964 16.1653 0.132673 3.28876 17.4368 0.126756 3.27411 17.0941 0.129234 
3.11494 16.8845 0.12772 3.32737 18.138 0.121664 3.30713 17.7962 0.124177 
3.14535 17.6059 0.122651 3.37967 18.8651 0.116418 3.3513 18.476 0.119263 
3.18858 18.2989 0.117801 3.43612 19.56 0.111512 3.40788 19.2212 0.113916 
3.24139 18.9895 0.113048 3.49875 20.2407 0.106982 3.46864 19.9036 0.109243 
3.30295 19.6866 0.10845 3.56791 20.9544 0.102608 3.5358 20.603 0.104767 
3.3734 20.3909 0.104148 3.6245 21.6262 0.0988362 3.59454 21.2921 0.100657 
3.4379 21.0902 0.100158 3.68213 22.3055 0.0955492 3.65388 21.9723 0.0971146 
3.49456 21.7742 0.096645 3.73892 23.0029 0.0927183 3.71065 22.6382 0.0941519 
3.55272 22.4537 0.0936697 3.78605 23.6848 0.0904156 3.76311 23.3515 0.0914796 
3.60554 23.1363 0.09113 3.83087 24.3972 0.0884875 3.80892 24.0311 0.0894191 
3.65233 23.8328 0.088961 3.86903 25.0703 0.0870367 3.85246 24.7505 0.0876788 
3.69628 24.5341 0.0871874 3.90503 25.7976 0.0857774 3.88836 25.4279 0.0863739 
3.73638 25.2468 0.0857158 3.93314 26.4824 0.0847761 3.91947 26.1427 0.0852323 
3.76909 25.951 0.0844872 3.95457 27.18 0.0838259 3.94176 26.8381 0.0842409 
3.7911 26.6527 0.0833632 3.98205 27.8978 0.0829389 3.96875 27.5374 0.0833663 
3.81275 27.3665 0.0823119 4.01106 28.6446 0.0819843 3.9965 28.2655 0.082461 
3.84032 28.092 0.0813143 4.0493 29.3619 0.0810523 4.03476 29.0141 0.081549 
3.87756 28.8293 0.0803466 4.09473 30.1077 0.0799322 4.07698 29.7254 0.0805884 
3.92835 29.5622 0.0794155 0.455244 0.415679 0.151772 -4.10788 30.4047 0.00102933 
-4.12769 30.8045 0.000177227 -4.03845 30.8987 0.000970118 -4.0906 29.6554 0.00229554 
-4.10695 30.0211 0.00161674 -3.99174 30.1832 0.00254314 -4.0525 28.9283 0.00358249 
-4.06716 29.2926 0.00300381 -3.9679 29.4373 0.00383339 -4.02238 28.2421 0.00466325 
-4.03461 28.5716 0.00418905 -3.92728 28.7183 0.00516914 -3.99166 27.5216 0.00576584 
-4.00512 27.8983 0.00523847 -3.89297 28.0181 0.00637536 -3.9658 26.8131 0.00683576 
-3.97824 27.1548 0.00633732 -3.86321 27.3073 0.00755009 -3.93356 26.1178 0.00806842 
-3.94684 26.4572 0.00750657 -3.83172 26.5842 0.00881705 -3.90292 25.4298 0.00943063 
-3.91844 25.7832 0.00873302 -3.7984 25.893 0.0101817 -3.87066 24.7474 0.0110378 
-3.88766 25.0829 0.0102164 -3.76873 25.2103 0.0116577 -3.82798 24.059 0.0131135 
-3.84762 24.3929 0.0120926 -3.73091 24.5075 0.0135047 -3.77872 23.3317 0.0157757 
-3.80457 23.7122 0.0143313 -3.68453 23.8047 0.0157653 -3.73029 22.6425 0.0187493 
-3.75589 22.975 0.0172184 -3.6382 23.0998 0.0183653 -3.67603 21.9668 0.0222068 
-3.70408 22.2996 0.020411 -3.58874 22.399 0.0214228 -3.61767 21.2871 0.0261918 
-3.64889 21.6366 0.0240423 -3.53471 21.7251 0.0248636 -3.55202 20.586 0.0308005 
-3.58259 20.9211 0.0285156 -3.47177 21.0287 0.0289314 -3.49077 19.893 0.0357017 
-3.52224 20.2459 0.0331184 -3.40608 20.323 0.0334854 -3.4259 19.1719 0.0410958 
-3.45664 19.5428 0.0382568 -3.34152 19.634 0.0382718 -3.37244 18.4638 0.046501 
-3.39703 18.8043 0.043844 -3.27795 18.9185 0.0434736 -3.3247 17.7162 0.0522013 
-3.34732 18.107 0.0491895 -3.22398 18.1972 0.0488211 -3.29321 17.0051 0.0574884 
-3.30707 17.348 0.0549285 -3.18143 17.4762 0.0541578 -3.27068 16.1699 0.0634042 
-3.27932 16.6109 0.0603087 -3.15056 16.7186 0.0596418 -3.27035 15.4618 0.0680912 
-3.26984 15.8041 0.0658644 -3.13724 15.9639 0.0648736 -3.28314 14.7416 0.0724845 
-3.2756 15.0987 0.0703626 -3.14272 15.2401 0.0695934 -3.31084 14.0144 0.0765016 
-3.29614 14.3851 0.0745248 -3.16266 14.5252 0.0739178 -3.348 13.3488 0.0797913 
-3.3304 13.6682 0.0782857 -3.19703 13.8265 0.0777802 -3.38914 12.6897 0.0826997 
-3.36702 13.0214 0.0813182 -3.2375 13.1561 0.0811402 -3.44031 11.9878 0.0854502 
-3.41364 12.3464 0.0841344 -3.28299 12.4874 0.0841781 -3.49086 11.3533 0.0876792 
-3.46738 11.6608 0.0866742 -3.33663 11.8181 0.0869169 -3.53864 10.7062 0.0898106 
-3.51568 11.0244 0.0888419 -3.39037 11.1618 0.0893805 -3.5793 10.039 0.0919791 
-3.55835 10.3825 0.0909416 -3.43645 10.5073 0.0917373 -3.60888 9.36737 0.0942399 
-3.59547 9.69124 0.0932098 -3.47383 9.83195 0.0941706 -3.62294 8.75141 0.0964601 
-3.61803 9.0569 0.095393 -3.49955 9.16856 0.0966257 -3.62054 8.15264 0.0988341 
-3.62497 8.45512 0.0976455 -3.51074 8.55542 0.0990123 -3.59661 7.53542 0.10161 
-3.613 7.84978 0.100185 -3.50514 7.94849 0.101577 -3.54337 6.93215 0.104852 
-3.57189 7.23082 0.103269 -3.47242 7.33186 0.104587 -3.46193 6.32142 0.108676 
-3.50504 6.61952 0.106817 -3.40855 6.70336 0.108207 -3.34955 5.71906 0.113124 
-3.40894 6.01763 0.11093 -3.31496 6.07413 0.112437 -3.20345 5.11287 0.118386 
-3.28488 5.42725 0.115631 -3.19411 5.46427 0.117235 -3.01403 4.49634 0.124918 
-3.11357 4.79972 0.121645 -3.037 4.84349 0.123018 -2.78417 3.88983 0.133007 
-2.90833 4.19865 0.128779 -2.83679 4.21481 0.130237 -2.48247 3.23694 0.144486 
-2.64473 3.57046 0.138428 -2.58683 3.57865 0.139642 -2.1104 2.56631 0.160713 
-2.30445 2.90159 0.152379 -2.26243 2.90276 0.153088 -1.64034 1.84542 0.187964 
-1.88756 2.21119 0.172921 -1.85164 2.19185 0.172882 -1.01019 1.04416 0.242073 
-1.35072 1.45704 0.207916 -1.32339 1.42834 0.206468 -0.457655 0.442854 0.224997 
-0.217057 0.234109 0.187238 -0.253574 0.249048 0.186499 -0.21316 0.251449 0.181525 
-0.232465 0.256644 0.185661 -0.464199 0.495505 0.218529 -0.182975 0.247647 0.171365 
-0.201922 0.247964 0.176503 -0.428748 0.507871 0.208061 -0.147667 0.205166 0.143877 
-0.158203 0.202058 0.147693 -0.366346 0.481081 0.195077 -0.135658 0.183142 0.141096 
-0.141428 0.202036 0.141066 -0.308753 0.447686 0.17633 -0.117898 0.212079 0.141212 
-0.131628 0.194467 0.147119 -0.278549 0.475321 0.163706 -0.103786 0.21922 0.145293 
-0.113322 0.214897 0.143486 -0.253697 0.47146 0.17515 -0.0908724 0.227206 0.146824 
-0.0987753 0.222828 0.145688 -0.221934 0.489615 0.176574 -0.0751097 0.2309 0.149389 
-0.0831072 0.226849 0.148184 -0.188151 0.501672 0.177162 -0.0550813 0.232229 0.151241 
-0.0657066 0.229164 0.150112 -0.150355 0.506748 0.178406 -0.0356748 0.234621 0.151757 
-0.0455249 0.231624 0.149835 -0.111884 0.511197 0.179196 -0.0163932 0.225735 0.149963 
-0.0254497 0.22257 0.148256 -0.0715526 0.503229 0.180662 0.00298081 0.223446 0.149896 
-0.00735089 0.221126 0.149562 -0.0329979 0.49025 0.181851 0.0210174 0.220706 0.147789 
0.0112744 0.218157 0.148374 0.00287561 0.484667 0.183185 0.0384304 0.223109 0.148415 
0.029272 0.22143 0.148539 0.0379091 0.484527 0.183623 0.0544166 0.222993 0.148339 
0.0461997 0.22159 0.148058 0.0738612 0.488169 0.182654 0.0716631 0.225629 0.149354 
0.0631733 0.225287 0.148905 0.11097 0.491905 0.180882 0.0893098 0.226891 0.149307 
0.081073 0.226814 0.149379 0.149475 0.497433 0.178662 0.106844 0.223077 0.149279 
0.097458 0.223401 0.148893 0.187373 0.495038 0.177993 0.123805 0.219613 0.147524 
0.114867 0.219838 0.147541 0.222866 0.487155 0.176646 0.14303 0.220575 0.148113 
0.134369 0.22147 0.148103 0.261361 0.485255 0.175955 0.160857 0.219475 0.147669 
0.151941 0.219962 0.147893 0.30258 0.486722 0.175513 0.178848 0.218054 0.147739 
0.168728 0.218617 0.148221 0.343209 0.484698 0.176604 0.199757 0.219103 0.15007 
0.186413 0.218701 0.149447 0.387261 0.484123 0.180189 0.212222 0.207081 0.154296 
0.193286 0.205434 0.149211 0.423501 0.4703 0.185668 0.221142 0.186935 0.167608 
0.196107 0.188785 0.147178 0.43973 0.438706 0.191698 0.677995 0.678624 0.185632 
0.102326 18.3918 0.177053 -0.126582 18.4239 0.165536 -0.219329 18.4639 0.0424204 
-0.138066 18.1464 0.0214941 -0.133379 17.8932 0.0253458 -0.134195 17.6397 0.0296071 
-0.266421 18.329 0.0410222 -0.134794 17.4176 0.0327327 -0.135763 17.2026 0.0363029 
-0.221773 17.7567 0.0376693 -0.137587 16.9863 0.0386912 -0.139135 16.7899 0.0418112 
-0.214369 17.2514 0.0429735 -0.140502 16.569 0.0445529 -0.141831 16.3451 0.0478561 
-0.211529 16.7696 0.0478935 -0.144455 16.1379 0.0503256 -0.145261 15.942 0.0529311 
-0.213051 16.3089 0.0532017 -0.145658 15.7201 0.0554315 -0.145923 15.5054 0.0579822 
-0.215038 15.852 0.0582545 -0.14729 15.2843 0.0604211 -0.146921 15.0512 0.062845 
-0.216339 15.3832 0.063228 -0.148118 14.8316 0.0649101 -0.147063 14.6196 0.0668475 
-0.219004 14.9164 0.0678292 -0.144022 14.4021 0.0688641 -0.14238 14.1799 0.070506 
-0.217591 14.4496 0.072203 -0.140472 13.9717 0.0728284 -0.138164 13.7712 0.0743897 
-0.213548 13.9904 0.0767709 -0.137821 13.5479 0.0779218 -0.135294 13.3366 0.0799412 
-0.215444 13.5157 0.0826038 -0.136772 13.1123 0.0856392 -0.134698 12.8952 0.0904912 
-0.227249 13.004 0.0913773 -0.152617 12.6316 0.106171 -0.216194 12.3291 0.136345 
-0.272629 12.4156 0.10944 -0.108871 12.3844 0.269305 0.0957149 12.3677 0.249625 
0.176407 12.3664 0.126179 0.129295 12.6665 0.106281 0.109617 12.9516 0.0908981 
0.110879 13.2061 0.0855701 0.239287 12.511 0.112711 0.111822 13.4345 0.0814252 
0.114759 13.6462 0.0796032 0.20002 13.1156 0.0939933 0.119375 13.8595 0.0779006 
0.121649 14.0765 0.0762956 0.195919 13.6185 0.087273 0.12291 14.3041 0.0743272 
0.12457 14.5247 0.0725585 0.197851 14.1053 0.0820536 0.124256 14.7341 0.0706243 
0.125014 14.9553 0.0686001 0.196618 14.5765 0.0773879 0.12477 15.1764 0.0665525 
0.12498 15.3827 0.0643795 0.195301 15.0348 0.0731118 0.124514 15.5899 0.0623336 
0.124111 15.7928 0.0598984 0.194354 15.4885 0.0688038 0.12186 16.0001 0.0574781 
0.120962 16.2045 0.0547469 0.191687 15.928 0.0643275 0.120423 16.415 0.0525395 
0.118948 16.6183 0.0495381 0.189935 16.3728 0.0597491 0.117603 16.8279 0.0473013 
0.115707 17.0303 0.0439159 0.190843 16.8268 0.0552013 0.11155 17.232 0.0413823 
0.110016 17.4332 0.0375036 0.190589 17.2826 0.0505676 0.109573 17.6538 0.0360837 
0.113525 17.8932 0.0325507 0.198721 17.7659 0.0467217 0.116742 18.1334 0.0332039 
0.190849 18.4517 0.0487423 0.232607 18.3211 0.0454652 4.08307 31.1103 0.0773897 
0.383227 11.879 0.18584 0.45376 11.6863 0.163822 -0.320888 19.1335 0.116492 
-0.406516 18.7967 0.0908783 4.15251 30.8464 0.0787014 4.13206 30.4466 0.07953 
-0.498481 0.492134 0.215596 -0.71227 0.719273 0.229491 0.357102 18.7106 0.10781 
0.24412 19.043 0.132689 -0.448248 19.0169 0.0676591 0.352193 11.5487 0.199953 
-0.460541 11.7526 0.162005 -0.394931 12.0148 0.182447 -0.295419 11.6876 0.204992 
3.96093 30.8669 0.0768136 0.413902 18.9424 0.0893255 3.99312 30.2644 0.0785366 
3.38179 30.6452 0.0716246 3.52892 30.6667 0.0730599 3.67439 30.7396 0.0743201 
3.81815 30.7879 0.0756005 3.88825 30.5249 0.0768961 3.60056 30.3732 0.0744007 
2.77622 30.5913 0.0654589 2.92814 30.6154 0.0670314 2.47435 30.5022 0.0624386 
2.62204 30.5397 0.0639572 2.69045 30.2283 0.065502 2.16958 30.4065 0.0593968 
2.32347 30.4439 0.0609932 2.38645 30.1176 0.0626116 1.86084 30.3325 0.0562795 
2.01078 30.367 0.0578223 2.07826 30.0187 0.0596503 1.5336 30.2737 0.052963 
1.70345 30.2898 0.0547492 1.76372 29.9353 0.0566097 1.20177 30.2391 0.0495947 
1.36755 30.2623 0.0512563 1.44234 29.8799 0.053466 0.881847 30.217 0.0463805 
1.04063 30.2299 0.0479728 1.11724 29.8581 0.0502366 0.563294 30.2024 0.0432828 
0.718655 30.2002 0.0448561 0.795193 29.8312 0.0471363 0.226622 30.1852 0.0401754 
0.400729 30.1932 0.041805 0.471978 29.8047 0.0441255 -0.0984596 30.1919 0.0372189 
0.060629 30.1985 0.0386349 0.146121 29.8084 0.0410761 -0.429567 30.1868 0.0344006 
-0.264041 30.1836 0.0358423 -0.182923 29.8135 0.0381039 -0.757266 30.2008 0.0316388 
-0.594549 30.1894 0.0330289 -0.510918 29.8084 0.0352728 -1.07032 30.226 0.0290274 
-0.915823 30.2158 0.0303063 -0.831954 29.827 0.0324743 -1.38188 30.2523 0.0264641 
-1.22741 30.2363 0.0277389 -1.14535 29.8534 0.029751 -1.69044 30.287 0.0239101 
-1.53226 30.2657 0.0252149 -1.45079 29.8784 0.0271179 -2.00078 30.3524 0.0212295 
-1.84704 30.3194 0.0225305 -1.75593 29.9253 0.0244133 -2.29914 30.4078 0.0186187 
-2.15257 30.3773 0.0198893 -2.0627 29.9839 0.0216349 -2.60605 30.4655 0.0158431 
-2.45295 30.4459 0.0171983 -2.36693 30.048 0.0188082 -2.88791 30.5535 0.0131386 
-2.74993 30.518 0.0144345 -2.6634 30.1396 0.0159254 -3.18345 30.6398 0.0101953 
-3.03613 30.5981 0.0116687 -2.95473 30.2376 0.0130128 -3.46865 30.736 0.00721861 
-3.32785 30.6954 0.00868968 -3.24667 30.3384 0.00998613 -3.7539 30.8243 0.00411169 
-3.61005 30.794 0.00566806 -3.53196 30.4524 0.00692727 2.1541 2.89076 0.162604 
1.95786 2.51222 0.163393 -3.88913 29.9064 0.00398993 -3.8895 30.2893 0.00342845 
0.165536 11.1115 0.197247 0.444336 10.9459 0.175741 1.75168 2.14434 0.165369 
1.53279 1.7933 0.167299 1.70173 2.17839 0.164277 1.28352 1.42505 0.171267 
0.968525 1.01707 0.176562 0.72587 0.759224 0.176564 1.24682 1.44619 0.168741 
2.46992 3.61189 0.161215 2.31928 3.25403 0.161328 2.07632 2.91676 0.162084 
2.72034 4.29621 0.160761 2.60491 3.96761 0.160638 2.38057 3.6472 0.161384 
2.92082 4.98837 0.160646 2.82683 4.6468 0.160456 2.62512 4.36665 0.160757 
3.078 5.68027 0.160636 3.00216 5.32876 0.16056 2.81431 5.07147 0.160389 
3.18649 6.35591 0.160601 3.13847 6.02863 0.16044 2.95795 5.7742 0.160209 
3.26255 7.02584 0.160562 3.22662 6.69235 0.160437 3.05925 6.47218 0.160074 
3.30908 7.6739 0.160411 3.29169 7.35394 0.160368 3.12865 7.14855 0.159879 
3.32859 8.31953 0.160099 3.32496 7.99308 0.160166 3.17354 7.80576 0.159589 
3.32698 8.95764 0.159597 3.33077 8.63546 0.159764 3.1913 8.44893 0.159122 
3.30724 9.59596 0.158833 3.31708 9.28091 0.159118 3.18319 9.09466 0.158399 
3.26334 10.2461 0.157646 3.28768 9.92821 0.158182 3.15271 9.75549 0.15731 
3.21225 10.8972 0.15609 3.23904 10.5656 0.156848 3.10705 10.4112 0.15584 
3.15617 11.5451 0.154116 3.18244 11.2251 0.155063 3.0511 11.0611 0.153939 
3.09575 12.2027 0.151618 3.12425 11.8712 0.152864 2.98741 11.7163 0.151516 
3.04247 12.8577 0.148736 3.06829 12.5339 0.15019 2.92605 12.3736 0.148647 
2.99758 13.5565 0.145307 3.01944 13.1972 0.14711 2.87382 13.0434 0.145375 
2.96577 14.2542 0.141527 2.98014 13.9043 0.143466 2.83181 13.7287 0.141697 
2.9421 14.9551 0.137304 2.95299 14.6087 0.139459 2.80027 14.4282 0.137608 
2.93473 15.6337 0.132997 2.9346 15.2952 0.135159 2.77924 15.1193 0.133246 
2.93633 16.3314 0.128272 2.93274 15.9791 0.130697 2.7692 15.8009 0.128695 
2.95514 17.0412 0.123398 2.94363 16.6794 0.125935 2.77433 16.49 0.123997 
2.9905 17.7535 0.118532 2.97184 17.3988 0.121013 2.79827 17.1914 0.119263 
3.04196 18.4338 0.114055 3.01751 18.0997 0.116325 2.84234 17.8912 0.114711 
3.09859 19.1359 0.109473 3.06987 18.783 0.111805 2.89786 18.5831 0.110344 
3.16062 19.8255 0.105213 3.12747 19.4842 0.107288 2.95557 19.2776 0.106043 
3.22595 20.5311 0.101157 3.18823 20.1702 0.103145 3.01309 19.9681 0.101969 
3.28997 21.2184 0.0975967 3.26279 20.8811 0.0993553 3.07856 20.6608 0.0983223 
3.35322 21.9077 0.0944614 3.3235 21.5614 0.0960028 3.14967 21.3525 0.0951526 
3.41397 22.5931 0.0917805 3.38546 22.2596 0.0930317 3.21592 22.0466 0.0923386 
3.45841 23.2801 0.0893963 3.43439 22.9302 0.0905277 3.26857 22.7354 0.0898406 
3.50237 23.9751 0.0873959 3.48001 23.6274 0.0883256 3.31027 23.4201 0.0876633 
3.54915 24.6844 0.0857375 3.5282 24.3294 0.0865228 3.35697 24.1224 0.0858281 
3.58881 25.3968 0.0843163 3.5704 25.0377 0.0849895 3.40305 24.8309 0.0842675 
3.61861 26.1099 0.0830405 3.60512 25.7636 0.0836221 3.4395 25.5519 0.0828395 
3.63816 26.8279 0.0818157 3.6306 26.4715 0.0824084 3.46648 26.2813 0.081494 
3.66801 27.5428 0.0807516 3.6548 27.1848 0.0812799 3.49378 27.0008 0.0802858 
3.69676 28.2886 0.0796469 3.68316 27.9206 0.0801842 3.52436 27.7363 0.0791223 
3.7399 29.0516 0.0785891 3.71679 28.6819 0.0790654 3.55844 28.5081 0.0779206 
3.79835 29.8064 0.0775902 3.7709 29.4428 0.0780754 3.6088 29.2935 0.076804 
-0.459529 18.7795 0.0477278 -0.385982 18.4434 0.0411059 0.334238 19.6435 0.102522 
0.107839 19.5917 0.113652 0.617369 11.2808 0.164126 0.514372 11.7208 0.145101 
-3.83571 29.2222 0.00546983 -3.85859 29.5846 0.00474864 -3.75591 29.6898 0.00567521 
-3.79077 28.5231 0.00686395 -3.808 28.8795 0.00623201 -3.69821 29.0251 0.00720975 
-3.75575 27.8135 0.00816711 -3.77226 28.1573 0.00756485 -3.65274 28.3162 0.00868422 
-3.72071 27.0892 0.00952406 -3.73329 27.4564 0.00892089 -3.6127 27.5929 0.0101419 
-3.68009 26.3563 0.0110462 -3.69827 26.7129 0.0103418 -3.56884 26.8587 0.0117142 
-3.65049 25.6773 0.0124714 -3.66497 26.0129 0.0117774 -3.53231 26.1382 0.013272 
-3.61631 24.9723 0.0141495 -3.63105 25.3204 0.0133474 -3.49868 25.4369 0.0148873 
-3.573 24.2493 0.0162123 -3.59583 24.6052 0.0151664 -3.45951 24.712 0.0167725 
-3.53063 23.5633 0.0184547 -3.55408 23.9114 0.017273 -3.4204 24.0064 0.018817 
-3.48686 22.8557 0.0211183 -3.50982 23.2136 0.0197168 -3.38084 23.3184 0.0210437 
-3.4347 22.1622 0.0241939 -3.46129 22.506 0.0225893 -3.33432 22.6188 0.0237 
-3.37758 21.4864 0.0276337 -3.40526 21.817 0.0258696 -3.2789 21.9239 0.0267834 
-3.30634 20.7602 0.0318367 -3.34205 21.126 0.0296238 -3.21325 21.2188 0.0303709 
-3.24588 20.0801 0.0360829 -3.27616 20.4192 0.0338641 -3.14664 20.5183 0.0343137 
-3.17905 19.3837 0.0407762 -3.21348 19.732 0.0383263 -3.08326 19.8307 0.0385229 
-3.11993 18.6632 0.0458258 -3.14888 19.0278 0.0431874 -3.02006 19.1289 0.0431232 
-3.06875 17.9539 0.0509125 -3.09346 18.3071 0.0483174 -2.96312 18.4196 0.0479751 
-3.0307 17.2231 0.0561528 -3.04771 17.5869 0.053508 -2.91564 17.6999 0.0530117 
-3.0054 16.4658 0.0614846 -3.01789 16.8549 0.0587371 -2.88245 16.9685 0.0581535 
-3.00104 15.7338 0.0664462 -3.00094 16.0946 0.0640207 -2.8661 16.233 0.0632475 
-3.0124 15.0309 0.070973 -3.00587 15.3892 0.0687064 -2.86782 15.5211 0.0680314 
-3.04036 14.3125 0.0753011 -3.02576 14.6647 0.0732415 -2.88708 14.8141 0.0725714 
-3.07696 13.626 0.0791269 -3.05587 13.9687 0.0772972 -2.91772 14.1074 0.0768513 
-3.12005 12.9596 0.0825482 -3.09933 13.2845 0.0809642 -2.95738 13.4247 0.0807129 
-3.17373 12.2882 0.0856901 -3.1475 12.63 0.0841825 -3.00916 12.7556 0.084211 
-3.23043 11.6279 0.0885292 -3.20184 11.9547 0.0872311 -3.06657 12.0934 0.0874087 
-3.28418 10.9697 0.0911807 -3.25803 11.2998 0.0899527 -3.12404 11.4316 0.0903922 
-3.32091 10.3116 0.0938569 -3.30025 10.6382 0.0926577 -3.16923 10.7705 0.0932885 
-3.35662 9.62488 0.0965714 -3.33978 9.97762 0.095262 -3.20541 10.1019 0.0961785 
-3.38311 8.97625 0.0991235 -3.37385 9.29265 0.0979253 -3.24242 9.43138 0.0989498 
-3.38873 8.36195 0.101717 -3.387 8.66533 0.100509 -3.26373 8.78294 0.101678 
-3.37583 7.73846 0.10456 -3.38415 8.0501 0.103193 -3.26282 8.15345 0.104504 
-3.32818 7.10501 0.107976 -3.35417 7.42029 0.106322 -3.23574 7.5153 0.107681 
-3.25512 6.46401 0.111906 -3.29541 6.78924 0.109931 -3.17969 6.87148 0.111366 
-3.15421 5.81991 0.116431 -3.21018 6.13732 0.114178 -3.1003 6.21763 0.11546 
-3.02781 5.20903 0.121471 -3.09585 5.51542 0.118949 -2.99412 5.57451 0.120165 
-2.85375 4.55476 0.128004 -2.94802 4.88496 0.124647 -2.85355 4.93346 0.125704 
-2.64802 3.92934 0.135807 -2.75884 4.24454 0.131773 -2.67481 4.28568 0.132486 
-2.3691 3.25223 0.146815 -2.51639 3.59167 0.141121 -2.44506 3.62506 0.141302 
-2.02087 2.5556 0.162298 -2.20921 2.91151 0.153971 -2.14821 2.93395 0.153459 
-1.57659 1.82646 0.184802 -1.8145 2.1984 0.171582 -1.77626 2.22735 0.170196 
-0.994322 1.04877 0.219295 -1.29885 1.43582 0.198195 -1.29158 1.48307 0.194165 
-0.741706 0.786813 0.221616 -0.536431 0.753935 0.177585 -0.588219 0.779097 0.185195 
-0.675216 0.841705 0.19142 -0.727348 0.857039 0.199667 -0.860296 1.12986 0.184249 
3.85088 30.186 0.0772788 -0.712717 0.789158 0.210971 -0.45283 0.736002 0.163654 
-0.49007 0.73651 0.171261 -0.692458 1.036 0.171464 -0.417702 0.765088 0.161351 
-0.43992 0.758293 0.160476 -0.604413 1.03464 0.162344 -0.373324 0.793735 0.161569 
-0.402314 0.78627 0.160522 -0.549405 1.08004 0.157488 -0.322072 0.816395 0.163544 
-0.350181 0.808531 0.163503 -0.483992 1.1145 0.158552 -0.265514 0.823003 0.164832 
-0.296115 0.819184 0.164715 -0.408635 1.12993 0.160222 -0.207716 0.82651 0.165575 
-0.240172 0.825072 0.16568 -0.332834 1.13389 0.161583 -0.149708 0.836233 0.166817 
-0.182761 0.833928 0.166663 -0.257233 1.1431 0.162762 -0.0911657 0.82211 0.168144 
-0.124182 0.834881 0.168066 -0.180415 1.14802 0.164032 -0.0334317 0.808417 0.169275 
-0.0648168 0.811733 0.169333 -0.103509 1.13362 0.165447 0.0204145 0.795217 0.170304 
-0.00931197 0.800071 0.170372 -0.0280752 1.11253 0.166444 0.0746295 0.805064 0.170165 
0.0444267 0.802384 0.170586 0.044052 1.10914 0.167039 0.129001 0.807607 0.169451 
0.0993662 0.807972 0.170122 0.117225 1.11758 0.16687 0.187477 0.822604 0.167865 
0.155862 0.818808 0.168802 0.192676 1.13043 0.166124 0.246287 0.831126 0.166578 
0.213642 0.829705 0.167273 0.269973 1.14849 0.164953 0.299408 0.811882 0.16566 
0.268409 0.816424 0.166316 0.34425 1.13988 0.163891 0.355759 0.802666 0.164835 
0.324246 0.806689 0.165349 0.417545 1.11914 0.162938 0.419515 0.808062 0.164313 
0.383877 0.804857 0.164541 0.498069 1.11665 0.162291 0.484453 0.812519 0.164581 
0.449642 0.811723 0.164252 0.585011 1.12453 0.162196 0.555392 0.817467 0.166088 
0.517907 0.814184 0.165004 0.680055 1.13478 0.162721 0.628955 0.821606 0.168917 
0.586321 0.812918 0.167131 0.779831 1.14189 0.164439 0.69351 0.803778 0.172827 
0.655544 0.805823 0.170315 0.876761 1.13914 0.167098 -0.59911 19.4956 0.0718288 
-0.550255 19.1442 0.0555221 -0.564339 11.5931 0.137448 -0.606384 11.2681 0.15568 
-0.419701 11.0478 0.176651 -0.171158 11.1412 0.190477 -0.351437 18.1231 0.041745 
-0.329373 17.8246 0.0418724 -0.506979 18.492 0.0447039 -0.318764 17.5473 0.0443127 
-0.309487 17.2796 0.0464689 -0.445039 17.8554 0.0458856 -0.305222 17.0118 0.0482655 
-0.301164 16.7512 0.0506792 -0.416674 17.2713 0.0487456 -0.297015 16.4869 0.0529645 
-0.297902 16.2501 0.0553903 -0.400115 16.7043 0.0530161 -0.298042 16.0012 0.0577867 
-0.297262 15.7516 0.0601943 -0.391909 16.1618 0.0577544 -0.297851 15.5042 0.0626775 
-0.299417 15.2567 0.0650832 -0.391176 15.6385 0.0626639 -0.300601 15.0077 0.067652 
-0.303034 14.7606 0.0699741 -0.393223 15.1157 0.0675653 -0.30361 14.5186 0.0725261 
-0.302088 14.2697 0.0748662 -0.397284 14.5981 0.0726306 -0.306644 14.0059 0.0780301 
-0.308333 13.7592 0.0802608 -0.407147 14.0639 0.0782211 -0.318155 13.486 0.0846454 
-0.328105 13.2088 0.0880837 -0.430147 13.4919 0.0855713 -0.335484 12.94 0.0940115 
-0.357751 12.6451 0.0991107 -0.459466 12.9078 0.094896 -0.396599 12.3088 0.108839 
-0.470482 11.9572 0.124948 -0.654788 11.5415 0.129632 -0.517712 12.2663 0.109616 
0.3268 12.7799 0.107576 0.308257 13.0761 0.100642 0.298281 13.3575 0.0950998 
0.294859 13.6196 0.0911132 0.425638 13.0755 0.103903 0.292511 13.8817 0.0878985 
0.288697 14.149 0.0847152 0.401953 13.6554 0.0948736 0.285297 14.4056 0.0820155 
0.282494 14.6448 0.0795506 0.388637 14.2068 0.0880388 0.282304 14.8876 0.0773251 
0.280954 15.1367 0.0749587 0.380437 14.7347 0.0824981 0.279396 15.3712 0.0728164 
0.278746 15.6037 0.0705969 0.376391 15.2386 0.0777364 0.277053 15.8451 0.0684305 
0.275166 16.079 0.0660484 0.372521 15.7404 0.0731679 0.276833 16.3225 0.0641813 
0.27912 16.564 0.0618197 0.374115 16.252 0.0688956 0.279087 16.8128 0.0600984 
0.283066 17.0606 0.0575715 0.379952 16.7741 0.0648733 0.287282 17.3203 0.0563794 
0.293184 17.5714 0.0536137 0.391559 17.3148 0.0612129 0.308944 17.8615 0.0532583 
0.33516 18.1513 0.0514921 0.424374 17.8998 0.0588318 0.36623 18.4614 0.054097 
0.42602 18.7884 0.0578898 0.488555 18.5333 0.0578643 -0.197591 19.64 0.110036 
-0.437219 19.7271 0.0919854 -0.0671661 20.0756 0.0971488 3.08192 30.622 0.0686068 
3.22967 30.6424 0.0701131 3.30349 30.2973 0.0716153 2.99785 30.2872 0.0685479 
0.431903 12.0731 0.131768 0.36501 12.4436 0.117907 0.613579 11.7155 0.141001 
0.507609 19.1339 0.0664715 0.544287 19.438 0.0854641 -0.987048 1.1497 0.198172 
-3.91397 30.8527 0.00238338 -3.72962 30.2608 0.00513852 -3.83316 30.5389 0.00367074 
0.513904 10.2898 0.168161 0.634453 10.614 0.165182 0.533542 19.8043 0.0926346 
0.451634 20.1635 0.0923867 3.69229 30.0653 0.075975 -0.636766 19.2027 0.0525554 
0.488751 12.4219 0.118472 0.667541 19.9075 0.0800025 0.756796 10.774 0.157379 
0.838333 10.8935 0.15014 0.857553 10.2397 0.156146 -0.611185 10.8846 0.159348 
-0.541016 10.5102 0.157227 0.693601 0.75787 0.175511 0.952629 1.10576 0.170051 
-0.614662 19.8897 0.0759958 -0.736572 19.9448 0.06555 -0.742724 10.8032 0.146451 
-0.0137729 10.6321 0.17721 -0.555352 20.2419 0.0785563 0.599517 19.2129 0.0662908 
0.350058 10.0168 0.16798 0.57483 9.7958 0.161847 1.99584 29.6114 0.0600604 
2.15301 29.6521 0.061562 2.61718 29.8399 0.0657513 2.77026 29.8922 0.0672034 
1.67907 29.5313 0.0571074 1.8346 29.5751 0.0585549 1.91283 29.2078 0.0604975 
1.35047 29.4924 0.0539524 1.51458 29.505 0.0555582 1.58883 29.1434 0.0575254 
1.02958 29.4557 0.0509128 1.1886 29.4659 0.0524538 1.26413 29.0891 0.0545709 
0.7052 29.4301 0.0478653 0.866057 29.4475 0.0493762 0.940457 29.053 0.0516214 
0.387005 29.4104 0.0449419 0.547138 29.4199 0.0464346 0.620451 29.0338 0.0486729 
0.0671099 29.4167 0.0419824 0.230593 29.4036 0.0435556 0.307517 29.0163 0.0458428 
-0.264766 29.4034 0.0390584 -0.101663 29.4114 0.040506 -0.016046 29.0037 0.0429458 
-0.588832 29.409 0.0361805 -0.426262 29.4058 0.037639 -0.344642 29.0013 0.0399863 
-0.907786 29.4296 0.0333131 -0.751536 29.4136 0.0347537 -0.667238 29.009 0.0370523 
-1.21716 29.4475 0.0305522 -1.06218 29.4362 0.0319535 -0.98269 29.0215 0.0341499 
-1.51871 29.4911 0.0277679 -1.37015 29.4766 0.0291179 -1.28836 29.0586 0.0312365 
-1.82795 29.5476 0.0248634 -1.6732 29.514 0.0263245 -1.59418 29.1121 0.0282575 
-2.13267 29.6027 0.0219647 -1.98236 29.5767 0.0233771 -1.9014 29.1656 0.0252521 
-2.43189 29.6793 0.0190132 -2.27944 29.6402 0.0205056 -2.20092 29.2338 0.0222316 
-2.72995 29.7902 0.0159528 -2.58717 29.7369 0.0174074 -2.50143 29.3301 0.0190971 
-3.0301 29.8962 0.0128264 -2.88272 29.851 0.0143364 -2.80799 29.4495 0.0158212 
-3.32287 30.0194 0.0096811 -3.17916 29.9634 0.0112169 -3.10847 29.5782 0.0125556 
-3.60442 30.1598 0.00658026 -3.46353 30.1017 0.0081142 -3.397 29.7281 0.00934948 
-3.66186 29.9113 0.00633181 -0.648494 9.96399 0.152852 -0.432946 10.01 0.158769 
2.27539 3.67718 0.160853 2.13562 3.31093 0.161165 0.72041 19.2662 0.0642219 
0.766037 19.6224 0.0692218 0.54489 20.6939 0.0855383 0.330698 20.6422 0.0917221 
1.98171 2.92725 0.162204 1.81051 2.55575 0.162867 1.89348 2.97108 0.161288 
1.19707 1.45699 0.167331 3.54756 29.9926 0.0747041 2.68427 5.14084 0.159933 
2.60066 4.78724 0.159903 2.82494 5.881 0.159693 2.76268 5.51918 0.159652 
2.55917 5.2504 0.159377 2.92526 6.59077 0.159461 2.88421 6.24246 0.159462 
2.69691 6.0001 0.159051 2.99063 7.27143 0.159151 2.96068 6.93301 0.159182 
2.79188 6.71265 0.158731 3.02814 7.932 0.158716 3.01188 7.60405 0.158826 
2.84907 7.3957 0.158303 3.03981 8.58709 0.158069 3.03762 8.26394 0.158309 
2.88024 8.06752 0.157717 3.02703 9.2425 0.157114 3.03734 8.91332 0.157536 
2.88702 8.7318 0.156879 2.99321 9.91458 0.15574 3.0138 9.57769 0.156394 
2.87066 9.39815 0.155698 2.94323 10.5656 0.153953 2.96886 10.2431 0.15481 
2.83174 10.0655 0.154057 2.87623 11.226 0.151586 2.9076 10.8963 0.152737 
2.77007 10.7271 0.151856 2.81199 11.8808 0.148794 2.84553 11.5541 0.150208 
2.70162 11.3875 0.149138 2.75241 12.5416 0.145566 2.78138 12.2108 0.147188 
2.63822 12.0463 0.145978 2.69857 13.205 0.141941 2.72293 12.8669 0.143772 
2.57625 12.7013 0.142371 2.65728 13.8979 0.137902 2.67589 13.5524 0.13992 
2.52227 13.3728 0.138348 2.62018 14.5979 0.13341 2.63389 14.2467 0.13562 
2.47485 14.0669 0.133857 2.60202 15.2812 0.128913 2.61011 14.9448 0.131155 
2.44041 14.7597 0.129173 2.59896 15.9558 0.124382 2.60128 15.6145 0.126735 
2.42916 15.4366 0.124645 2.61168 16.6442 0.119753 2.60448 16.3003 0.122095 
2.43358 16.1108 0.120134 2.63901 17.3521 0.115029 2.62217 16.9986 0.117371 
2.44961 16.806 0.115469 2.68596 18.0357 0.11073 2.65865 17.6932 0.112846 
2.48036 17.4979 0.110948 2.7431 18.719 0.106604 2.71458 18.3731 0.108719 
2.52945 18.1729 0.106839 2.80388 19.4201 0.102531 2.77421 19.0746 0.10454 
2.59016 18.8628 0.102887 2.86415 20.1104 0.0987859 2.83569 19.7679 0.10064 
2.6545 19.5634 0.0991042 2.93652 20.792 0.0956163 2.89902 20.4437 0.097191 
2.72256 20.2421 0.0958279 3.00702 21.4858 0.0927414 2.97307 21.144 0.0941208 
2.79511 20.9253 0.0929541 3.06556 22.1876 0.0901131 3.03325 21.8363 0.0913426 
2.85866 21.626 0.0902936 3.11108 22.8693 0.0878393 3.09096 22.5324 0.0889374 
2.91049 22.3199 0.0879383 3.15991 23.5606 0.0859096 3.13895 23.213 0.0868718 
2.96326 23.0077 0.0859668 3.21182 24.2582 0.084277 3.18688 23.9031 0.0850897 
3.01709 23.6938 0.0842875 3.25377 24.9725 0.082755 3.23357 24.6183 0.0834877 
3.06464 24.3967 0.0827296 3.28428 25.7147 0.0812683 3.26921 25.3469 0.0819817 
3.10034 25.1318 0.0811745 3.30592 26.4517 0.0798541 3.29522 26.0891 0.0805333 
3.12491 25.8815 0.0796228 3.33436 27.1638 0.0786118 3.31888 26.8059 0.0792121 
3.14704 26.6112 0.0782003 3.36947 27.9226 0.0773781 3.35541 27.5439 0.0780123 
3.17948 27.3468 0.0769039 3.41525 28.7245 0.0761503 3.396 28.3305 0.0767664 
3.22558 28.1361 0.075626 3.46651 29.5857 0.0748082 3.43568 29.1934 0.0753363 
3.27134 29.0141 0.0741607 0.804502 11.3236 0.144584 0.743905 11.6733 0.136517 
-3.63155 29.5892 0.00709856 -3.45588 27.4023 0.0122345 -3.47747 27.7602 0.0114708 
-3.41224 26.6302 0.0139711 -3.4337 27.0074 0.0131407 -3.29866 27.1717 0.0144814 
-3.37595 25.935 0.0155871 -3.39012 26.2793 0.0148387 -3.25565 26.4248 0.0162618 
-3.33598 25.2107 0.0174056 -3.35457 25.5686 0.016517 -3.21355 25.7064 0.0180664 
-3.29656 24.4708 0.0193959 -3.3164 24.8387 0.0183896 -3.17398 24.967 0.0199783 
-3.26153 23.768 0.0214222 -3.28014 24.1064 0.0204065 -3.13911 24.2302 0.0219334 
-3.22852 23.0902 0.0235918 -3.24922 23.4401 0.0223948 -3.11091 23.538 0.0238618 
-3.18355 22.3904 0.026225 -3.20922 22.7401 0.024815 -3.07965 22.8604 0.0259904 
-3.12349 21.689 0.029332 -3.15328 22.0338 0.0277272 -3.03 22.1544 0.0286298 
-3.04987 20.9892 0.0328819 -3.08597 21.3488 0.0309862 -2.9617 21.4585 0.0317159 
-2.98661 20.2995 0.0366297 -3.01739 20.6391 0.0346816 -2.89094 20.7697 0.0350801 
-2.91928 19.6024 0.0407849 -2.9522 19.9485 0.0386184 -2.82301 20.0706 0.0388066 
-2.8553 18.8962 0.0452764 -2.88575 19.2495 0.042939 -2.75401 19.369 0.0428992 
-2.79517 18.1762 0.0500753 -2.82157 18.5291 0.0476592 -2.68586 18.6516 0.0473744 
-2.7498 17.4695 0.0549049 -2.77045 17.8328 0.05237 -2.62718 17.9443 0.0520063 
-2.72761 16.7458 0.0598806 -2.73966 17.11 0.0573429 -2.59212 17.2448 0.0567081 
-2.71482 16.0047 0.0649455 -2.71831 16.3718 0.0624357 -2.57286 16.5149 0.06168 
-2.72435 15.3064 0.0696064 -2.71837 15.6472 0.0673519 -2.56804 15.7872 0.0666375 
-2.74755 14.6006 0.0741476 -2.73287 14.963 0.0718625 -2.5814 15.0897 0.0713194 
-2.78638 13.907 0.0783823 -2.76943 14.248 0.076355 -2.6131 14.3968 0.0758153 
-2.8337 13.2157 0.082367 -2.8097 13.555 0.080492 -2.65991 13.6946 0.0801677 
-2.88447 12.5496 0.0859819 -2.85537 12.8778 0.0843116 -2.70687 13.0064 0.0842563 
-2.9458 11.9046 0.0892161 -2.91621 12.2379 0.0876257 -2.76233 12.3577 0.0878781 
-3.01472 11.2602 0.0921828 -2.98585 11.5891 0.0907186 -2.83593 11.7306 0.0910664 
-3.04664 10.5776 0.0955062 -3.02955 10.9116 0.0939977 -2.89248 11.0656 0.0943987 
-3.0731 9.92824 0.0985921 -3.0534 10.266 0.097153 -2.91541 10.4033 0.0978804 
-3.11039 9.24848 0.101554 -3.09259 9.58581 0.100178 -2.94335 9.74575 0.101117 
-3.13349 8.59466 0.104389 -3.12974 8.91161 0.103018 -2.9832 9.06176 0.104139 
-3.12742 7.95336 0.107406 -3.13275 8.27261 0.105965 -3.00183 8.39755 0.10712 
-3.0829 7.29067 0.11101 -3.10615 7.61807 0.109292 -2.97942 7.73382 0.110518 
-3.02047 6.64062 0.114759 -3.05526 6.96655 0.112894 -2.92904 7.06639 0.114232 
-2.93584 5.97134 0.119122 -2.98311 6.30975 0.116938 -2.86259 6.40268 0.118095 
-2.82594 5.33477 0.123916 -2.88674 5.65061 0.121496 -2.77444 5.74176 0.122423 
-2.67142 4.66967 0.129868 -2.75482 5.00664 0.126674 -2.65286 5.0835 0.127525 
-2.47894 4.0106 0.137157 -2.57738 4.33331 0.133492 -2.48643 4.40998 0.133663 
-2.21913 3.31053 0.147035 -2.3561 3.66014 0.141914 -2.26856 3.71535 0.141575 
-1.89596 2.59002 0.160382 -2.06299 2.94062 0.153467 -1.98891 2.98907 0.152026 
-1.53312 1.92059 0.176934 -1.74439 2.2792 0.167041 -1.67689 2.30371 0.165047 
-1.25129 1.51496 0.186167 -0.736317 1.32935 0.159502 -0.775674 1.30957 0.162275 
-0.803004 1.2758 0.166263 -0.878879 1.30338 0.171511 -0.943053 1.57654 0.16227 
-0.813488 19.6072 0.0546203 -0.75347 19.2402 0.0495236 -0.888442 10.7518 0.136948 
-0.892311 10.3715 0.141729 0.797389 19.9991 0.074567 0.792757 20.3523 0.0801575 
-0.677 1.41332 0.156898 -0.716639 1.39175 0.157785 -0.874351 1.67024 0.157252 
-0.603465 1.48943 0.156775 -0.652052 1.47628 0.156641 -0.806603 1.7957 0.155034 
-0.496875 1.48521 0.1582 -0.545757 1.48336 0.157692 -0.698939 1.85249 0.155058 
-0.394955 1.46761 0.159854 -0.44209 1.46565 0.159215 -0.56543 1.82642 0.156474 
-0.296336 1.47635 0.161245 -0.34458 1.46825 0.160568 -0.441624 1.80772 0.158043 
-0.204831 1.49181 0.162474 -0.252356 1.4943 0.16178 -0.329037 1.82752 0.159362 
-0.108927 1.47453 0.163735 -0.157686 1.48614 0.163119 -0.219063 1.84081 0.160561 
-0.0146102 1.44538 0.164766 -0.0606888 1.45523 0.16434 -0.104627 1.81578 0.161835 
0.078337 1.45077 0.165126 0.0330493 1.44429 0.165011 0.00989683 1.79512 0.162713 
0.171562 1.46735 0.164846 0.124857 1.46564 0.165004 0.122401 1.80892 0.162951 
0.268628 1.49015 0.164073 0.219856 1.47917 0.164475 0.235927 1.83565 0.162657 
0.365507 1.50142 0.163126 0.31754 1.49444 0.163575 0.352505 1.85144 0.162051 
0.455211 1.47548 0.162252 0.409678 1.49167 0.162685 0.464615 1.84519 0.161376 
0.556563 1.46882 0.161473 0.506845 1.47389 0.16179 0.57977 1.83309 0.160677 
0.669587 1.48115 0.160901 0.615277 1.47732 0.161057 0.712001 1.84035 0.160005 
0.78699 1.498 0.161025 0.729101 1.4908 0.160614 0.853958 1.86081 0.159765 
0.912411 1.5093 0.16207 0.846853 1.49977 0.161105 0.998557 1.87659 0.16021 
1.0347 1.50438 0.164021 0.969744 1.49615 0.16262 1.14448 1.8726 0.161439 
1.15195 1.48551 0.166297 1.085 1.47867 0.164849 1.28395 1.84578 0.163426 
0.678463 12.0695 0.12828 0.624813 12.4297 0.119402 0.867761 11.714 0.134754 
-0.875014 20.3776 0.0635907 -0.861387 19.9939 0.0586544 -0.974313 20.0016 0.0538463 
2.50505 4.41955 0.160292 2.39564 4.05618 0.160376 2.16816 3.73926 0.160302 
2.38418 4.49455 0.159837 1.62323 2.17871 0.1642 1.41364 1.81112 0.165535 
-0.170811 10.0666 0.167704 0.103909 10.0601 0.16895 -0.607626 18.1691 0.0475219 
-0.57922 17.855 0.0477532 -0.561979 17.5459 0.0500236 -0.546132 17.242 0.0518549 
-0.718437 17.8179 0.0503455 -0.533556 16.9416 0.0536463 -0.521641 16.6437 0.0557084 
-0.679723 17.1825 0.0536813 -0.50927 16.3398 0.0581394 -0.506298 16.0619 0.0603705 
-0.647578 16.5511 0.0580317 -0.499492 15.7823 0.0627905 -0.499274 15.5076 0.065147 
-0.624005 15.9414 0.0626203 -0.499327 15.2349 0.0677784 -0.502161 14.9589 0.0703254 
-0.616124 15.3649 0.0675768 -0.505838 14.6875 0.0731037 -0.509897 14.4183 0.0756992 
-0.621343 14.7969 0.072928 -0.523597 14.1265 0.0790274 -0.536088 13.8307 0.0820926 
-0.643122 14.2097 0.0788349 -0.559875 13.5105 0.0862005 -0.582415 13.2018 0.0901674 
-0.688274 13.5734 0.0859955 -0.60301 12.8899 0.0948819 -0.625503 12.5824 0.0997426 
-0.743547 12.9169 0.094311 0.582133 12.7943 0.112945 0.557346 13.1104 0.106614 
0.758611 12.4856 0.120492 -0.462173 20.7214 0.081427 -0.667383 20.7686 0.0738433 
0.536281 13.4186 0.10238 0.524299 13.7134 0.0978265 0.68869 13.1763 0.109141 
0.515278 14.0053 0.0946009 0.504894 14.2924 0.090931 0.651424 13.7988 0.100762 
0.500753 14.5602 0.0884097 0.497059 14.8312 0.0855344 0.63284 14.3823 0.0942129 
0.491304 15.1003 0.0831169 0.488262 15.3609 0.0805313 0.619122 14.9437 0.0885814 
0.486826 15.6237 0.0784444 0.485711 15.8922 0.075952 0.610402 15.4991 0.0835328 
0.488676 16.1712 0.0740158 0.49412 16.4433 0.071735 0.61294 16.0651 0.0790084 
0.500232 16.72 0.07015 0.506708 17.0002 0.0679068 0.625799 16.6458 0.0749417 
0.520278 17.3047 0.0664931 0.536093 17.5982 0.0645865 0.651814 17.2518 0.0713276 
0.555942 17.9152 0.0633655 0.590002 18.2391 0.0625132 0.694392 17.8986 0.0684476 
0.623357 18.5705 0.0621559 0.668833 18.9023 0.0631426 0.755235 18.5666 0.0662865 
0.0543567 20.6356 0.092023 -0.203727 20.6634 0.088966 0.178224 21.129 0.0838097 
2.30713 29.71 0.0629439 2.45655 29.7693 0.0643268 2.53938 29.4335 0.0660652 
2.22636 29.3036 0.0633224 -3.50899 28.1456 0.0105091 -3.52676 28.5119 0.00979626 
-3.3511 27.9532 0.0126111 -0.69243 18.8645 0.0476405 -0.640919 18.5183 0.0457531 
-0.776765 18.4982 0.0479232 -1.25077 1.59561 0.181145 -3.41728 28.7132 0.0106867 
-3.56226 28.8853 0.00884199 -3.58953 29.2285 0.00807025 2.84339 29.594 0.0686699 
2.91532 29.9812 0.0684329 3.0688 29.9884 0.0699846 -0.861975 9.90641 0.142549 
-0.785415 9.46773 0.145945 -1.03287 9.91148 0.137603 1.55248 2.20992 0.163008 
0.838888 19.2739 0.066963 0.916147 20.0217 0.0718502 -0.309249 9.54059 0.155588 
0.959056 10.8799 0.147774 -0.778539 11.5251 0.121899 -0.838798 11.1607 0.130332 
-3.49443 29.4484 0.00875308 0.892682 9.67733 0.155807 1.0298 9.90549 0.15344 
-1.0385 1.47237 0.17352 -1.16103 1.55564 0.177107 -1.0107 10.7747 0.128569 
0.903442 20.7967 0.0772593 0.746044 20.7591 0.0823378 3.37291 29.8919 0.0732089 
-0.800061 21.2445 0.0665637 -0.8603 20.8232 0.0646835 -1.41046 1.93845 0.170399 
-1.01107 20.8237 0.0595226 0.657173 21.1649 0.0826222 0.188858 9.55962 0.163276 
-0.633479 12.2789 0.105547 -0.687658 11.9166 0.114094 -0.879671 11.5713 0.116736 
-0.781553 12.275 0.104791 -0.345559 21.175 0.0782064 0.574995 9.19044 0.159453 
0.720604 9.45205 0.15873 0.904344 9.1261 0.155955 -0.871608 19.2355 0.0491197 
-1.14082 1.71617 0.167281 1.83719 28.7587 0.0611643 1.99656 28.7967 0.0625799 
0.854237 28.6111 0.0524883 1.01613 28.6204 0.0539606 0.537412 28.6135 0.0495582 
0.693974 28.6244 0.0509764 0.772026 28.1885 0.053362 0.225362 28.5983 0.0467727 
0.380344 28.6055 0.0481775 0.455499 28.1928 0.0504914 -0.10176 28.5734 0.0439125 
0.0654346 28.5786 0.0454241 0.139257 28.1646 0.0477485 -0.424656 28.57 0.0409931 
-0.264667 28.5671 0.0424727 -0.182902 28.1386 0.0449138 -0.741562 28.5682 0.0380606 
-0.580403 28.5627 0.0395756 -0.500826 28.1258 0.042041 -1.05758 28.5775 0.0350559 
-0.904768 28.5696 0.036546 -0.81894 28.121 0.0390247 -1.35958 28.605 0.0320853 
-1.20837 28.5744 0.0336471 -1.13181 28.1213 0.0359521 -1.66843 28.6817 0.0288665 
-1.51566 28.6572 0.030419 -1.43711 28.1727 0.0327336 -1.97919 28.7572 0.0256094 
-1.82653 28.7265 0.0271813 -1.74943 28.272 0.0292837 -2.27651 28.829 0.0224621 
-2.1314 28.7902 0.0239974 -2.05784 28.352 0.0258972 -2.58182 28.9457 0.0191054 
-2.42824 28.8871 0.0207791 -2.35979 28.4449 0.0225236 -2.89469 29.0826 0.0156183 
-2.74346 29.021 0.0172781 -2.67115 28.5797 0.0189437 -3.20255 29.2466 0.0121264 
-3.05482 29.1791 0.0137659 -2.99092 28.7524 0.0152123 -3.35487 29.3662 0.0103253 
-0.972555 18.8066 0.0486759 -0.934988 18.4421 0.0489215 0.987684 19.2696 0.0694157 
1.02693 19.6412 0.0701537 -3.0417 25.5018 0.0206293 -3.06162 25.8694 0.0196834 
2.62581 6.82883 0.157837 2.58925 6.47781 0.157938 2.54929 6.12233 0.158242 
2.4892 5.75185 0.158312 2.38961 6.24225 0.157412 2.4205 5.3401 0.15861 
2.34086 4.95248 0.158735 2.28232 5.4673 0.157881 2.68084 7.53215 0.15732 
2.65881 7.19173 0.157487 2.46324 6.96839 0.156915 2.70384 8.22176 0.156559 
2.69412 7.88297 0.156843 2.50969 7.68883 0.156249 2.71059 8.88062 0.155576 
2.71322 8.54885 0.156018 2.53187 8.37234 0.155386 2.69009 9.55298 0.154136 
2.704 9.21334 0.154825 2.53429 9.03632 0.154206 2.65185 10.2103 0.152246 
2.67724 9.87872 0.153207 2.51371 9.69805 0.15259 2.58423 10.8882 0.149628 
2.62148 10.5555 0.150938 2.46895 10.3714 0.150317 2.51024 11.5343 0.146514 
2.54277 11.2052 0.148055 2.39473 11.0352 0.147337 2.43924 12.1974 0.142833 
2.47168 11.8673 0.14464 2.31206 11.6859 0.143711 2.37862 12.8633 0.138781 
2.40962 12.5389 0.140778 2.24109 12.3602 0.139531 2.31992 13.5391 0.134265 
2.34393 13.1935 0.136481 2.17471 13.0309 0.134921 2.27112 14.2297 0.129413 
2.29551 13.8837 0.131834 2.1139 13.7034 0.129964 2.24983 14.9165 0.124717 
2.26059 14.573 0.127051 2.07786 14.388 0.125021 2.24265 15.5772 0.120179 
2.24382 15.2476 0.122384 2.06074 15.0585 0.120263 2.25226 16.2499 0.115665 
2.24698 15.9094 0.117936 2.0586 15.7174 0.115672 2.27309 16.9508 0.110982 
2.26243 16.6004 0.113354 2.07274 16.3955 0.111113 2.30618 17.6387 0.106577 
2.28604 17.3013 0.108701 2.09609 17.0919 0.106537 2.35541 18.3038 0.102681 
2.32599 17.9698 0.104567 2.12983 17.7693 0.102279 2.41818 19.0055 0.098881 
2.38584 18.6532 0.100767 2.18143 18.4459 0.0984648 2.49897 19.6983 0.0957056 
2.46589 19.3533 0.0973881 2.26166 19.1397 0.0952417 2.56731 20.381 0.0927087 
2.53134 20.0499 0.0940787 2.34379 19.8363 0.0923226 2.63598 21.0488 0.0901893 
2.59859 20.6989 0.0914425 2.40944 20.5031 0.0896754 2.69979 21.7578 0.0878149 
2.6732 21.4091 0.0890099 2.47947 21.1787 0.0874944 2.74956 22.4473 0.0857698 
2.72447 22.1036 0.0867785 2.54195 21.8827 0.0855164 2.79798 23.1353 0.0840036 
2.77111 22.792 0.0848626 2.58774 22.5717 0.0837099 2.85089 23.8246 0.0824851 
2.82526 23.4819 0.0832493 2.63511 23.2623 0.0821785 2.90652 24.532 0.0811093 
2.88624 24.1713 0.0818765 2.69558 23.9562 0.0808571 2.93855 25.2903 0.0795309 
2.92488 24.915 0.0803208 2.74715 24.6867 0.0794516 2.94781 26.0467 0.0778598 
2.93872 25.6712 0.0786385 2.76321 25.4517 0.0777487 2.9734 26.7633 0.07645 
2.96201 26.4079 0.077137 2.77498 26.1953 0.0761052 3.01107 27.5266 0.0750613 
2.9915 27.1451 0.0757278 2.80511 26.9399 0.0746234 3.06529 28.3399 0.0737321 
3.03994 27.9305 0.0743965 2.85011 27.7274 0.0731838 3.11697 29.2199 0.072232 
3.09756 28.7498 0.0730929 2.90969 28.543 0.0718257 -1.13853 20.365 0.0529549 
-1.10373 19.9731 0.0510047 0.782204 21.7026 0.0786306 0.570026 21.6955 0.0805494 
-0.79426 2.25975 0.152979 -0.875292 2.26709 0.152698 -1.0571 19.5782 0.0494692 
-1.00754 19.1983 0.0483467 -1.15734 19.1238 0.0484592 -1.23304 19.9181 0.0488182 
-0.412644 8.9786 0.153315 -0.174321 8.99525 0.15485 3.22114 29.8885 0.0717195 
-1.17199 21.2595 0.0560651 -1.17444 20.8251 0.0540919 -3.08679 26.2381 0.0186723 
-3.10763 26.5903 0.0177858 -2.91448 26.0316 0.0212197 -3.13222 26.9873 0.0167557 
-3.15311 27.3835 0.0158449 -2.96238 26.7989 0.0191635 -3.00021 24.7441 0.0226452 
-3.01839 25.1169 0.0216737 -2.86815 25.2764 0.023257 -2.96719 23.9998 0.0246361 
-2.98247 24.3644 0.0236559 -2.82937 24.5107 0.0253024 -2.95105 23.334 0.0263506 
-2.96277 23.6617 0.0254199 -2.80889 23.7929 0.0270521 -2.92938 22.6504 0.0283306 
-2.94834 22.9999 0.0271836 -2.80281 23.1213 0.0286297 -2.875 21.9335 0.0309972 
-2.90531 22.2892 0.0295778 -2.77664 22.4271 0.0306255 -2.79446 21.2445 0.0340654 
-2.83233 21.5835 0.0325048 -2.70988 21.7171 0.0332707 -2.72516 20.5612 0.0372643 
-2.75837 20.9095 0.0355561 -2.63053 21.0337 0.036151 -2.65302 19.8589 0.0408933 
-2.68834 20.2077 0.0389793 -2.55643 20.3473 0.0392565 -2.57809 19.1514 0.0449016 
-2.61245 19.5018 0.0428266 -2.47739 19.639 0.042835 -2.5043 18.4205 0.0493473 
-2.53858 18.7845 0.0470713 -2.39564 18.9177 0.0468283 -2.4516 17.7396 0.0537152 
-2.47652 18.0797 0.0514589 -2.32716 18.2131 0.0510195 -2.42446 17.0414 0.0583419 
-2.43462 17.3972 0.055935 -2.28151 17.5333 0.0553238 -2.40434 16.2911 0.0634245 
-2.41306 16.6611 0.0608971 -2.2524 16.8145 0.0600794 -2.41152 15.5826 0.0682535 
-2.40722 15.9363 0.0658406 -2.24436 16.0837 0.0650572 -2.42871 14.8951 0.0729137 
-2.41915 15.2353 0.0706301 -2.25545 15.3854 0.0698763 -2.4683 14.2003 0.0774775 
-2.44527 14.55 0.0752291 -2.2805 14.6964 0.0746351 -2.52057 13.4873 0.0820076 
-2.4957 13.8372 0.0798425 -2.32555 13.991 0.0793597 -2.56145 12.7883 0.0863535 
-2.53798 13.1249 0.0843534 -2.3722 13.2674 0.0841425 -2.62182 12.144 0.0901305 
-2.58839 12.4553 0.0883997 -2.41905 12.5733 0.0886473 -2.73605 11.552 0.0929307 
-2.69471 11.8677 0.0913694 -2.52131 11.9644 0.0920022 -2.77041 10.9057 0.0964705 
-2.75422 11.2562 0.0945904 -2.61374 11.392 0.0949756 -2.7477 10.296 0.100295 
-2.73936 10.6103 0.0986249 -2.60251 10.7999 0.0988849 -2.78777 9.595 0.103786 
-2.76695 9.94145 0.102211 -2.59399 10.148 0.103025 -2.84374 8.89555 0.106819 
-2.82374 9.23758 0.105375 -2.65165 9.4324 0.106456 -2.85261 8.21712 0.110051 
-2.85357 8.54516 0.108523 -2.69866 8.72016 0.10962 -2.81063 7.52596 0.113752 
-2.833 7.86859 0.111996 -2.68914 8.01624 0.113226 -2.75581 6.86047 0.117452 
-2.78469 7.19266 0.115681 -2.64293 7.32836 0.116981 -2.6883 6.18281 0.121449 
-2.72712 6.52266 0.119449 -2.58793 6.6503 0.120639 -2.59638 5.50343 0.1259 
-2.64689 5.83329 0.12369 -2.51783 5.9552 0.124562 -2.46929 4.839 0.130989 
-2.54217 5.17613 0.12817 -2.4214 5.27043 0.129005 -2.28079 4.13472 0.137531 
-2.37637 4.47904 0.134115 -2.27507 4.57693 0.134353 -2.0421 3.41879 0.145731 
-2.16616 3.77499 0.141516 -2.06873 3.85283 0.141113 -1.75085 2.6617 0.156567 
-1.90877 3.0341 0.151034 -1.82491 3.10565 0.149329 -1.56703 2.24997 0.164021 
-3.26649 28.594 0.0124929 -3.30157 28.9687 0.0115296 1.23179 9.55919 0.152093 
1.1799 10.0839 0.15063 -1.08847 1.88738 0.159243 -1.13803 1.85934 0.161892 
-0.969571 2.27129 0.152449 -1.01973 2.20833 0.153305 -1.07186 2.68615 0.15015 
-1.16936 10.8564 0.121086 -1.20532 10.444 0.125761 1.06109 20.8038 0.0755063 
1.03006 21.1994 0.0776464 1.47028 2.21774 0.162476 1.63605 2.60297 0.161347 
1.39337 2.24888 0.161491 -0.721761 21.7771 0.0673906 -0.932724 21.7737 0.0625085 
-0.991765 1.98279 0.155135 -1.03316 1.92202 0.15694 -1.21503 2.2054 0.156013 
-1.17103 2.46508 0.152007 -0.624851 2.20515 0.154651 -0.698862 2.22536 0.153956 
-0.857316 2.64579 0.151189 -0.472009 2.12392 0.156609 -0.540889 2.12272 0.155831 
-0.658604 2.52743 0.153315 -0.361562 2.23074 0.157403 -0.424429 2.21121 0.156826 
-0.514611 2.5331 0.154745 -0.229529 2.24531 0.158669 -0.295868 2.2506 0.15806 
-0.381388 2.64349 0.155628 -0.0902904 2.18489 0.160048 -0.157745 2.20469 0.159465 
-0.2232 2.62329 0.157066 0.0442118 2.15247 0.160925 -0.0225586 2.15364 0.160622 
-0.0647868 2.55045 0.15851 0.176594 2.19598 0.160989 0.111576 2.18094 0.160977 
0.0875683 2.54754 0.159205 0.311473 2.24581 0.160656 0.243493 2.23416 0.160791 
0.239999 2.61492 0.159223 0.450456 2.25532 0.160226 0.38176 2.25161 0.160442 
0.396769 2.65879 0.159054 0.578592 2.23806 0.159803 0.515616 2.24883 0.159994 
0.551579 2.65687 0.158874 0.72079 2.22106 0.159288 0.647588 2.22274 0.159521 
0.705273 2.63361 0.15858 0.880489 2.23084 0.159115 0.798666 2.22063 0.159081 
0.872436 2.61719 0.158341 1.05512 2.27646 0.15926 0.971679 2.26311 0.15892 
1.06147 2.65051 0.158226 1.22593 2.27998 0.15991 1.13997 2.27132 0.159469 
1.26031 2.68122 0.158695 1.05834 11.4164 0.138285 1.00228 11.8155 0.13233 
1.79182 2.98792 0.160854 1.17643 28.64 0.0553752 1.33656 28.668 0.0567621 
1.09146 28.1966 0.0561924 1.13552 10.5475 0.148289 1.12029 10.9909 0.14338 
1.2494 11.1157 0.141244 1.3518 10.2294 0.14804 1.0493 20.027 0.0711467 
1.06615 20.4131 0.0735596 1.20511 20.7881 0.0743569 -3.19049 27.8023 0.0146611 
-3.22113 28.189 0.0136884 -3.02261 27.6166 0.0169363 1.50413 28.6929 0.0582408 
1.66685 28.7209 0.0596892 1.75397 28.3085 0.0617918 1.4179 28.2432 0.0589624 
-0.227568 21.7305 0.0773305 -0.469386 21.743 0.073474 -0.617296 22.2729 0.0662759 
-0.86478 17.4248 0.0539429 -0.844053 17.0993 0.0557208 -0.808758 16.7743 0.0577065 
-0.790112 16.4434 0.0600818 -0.993939 16.9896 0.0575186 -0.76973 16.1134 0.0623864 
-0.760283 15.8085 0.0649735 -0.933628 16.3159 0.062017 -0.75274 15.5188 0.0674009 
-0.753399 15.2219 0.0699617 -0.904025 15.6767 0.0668388 -0.749284 14.9151 0.0725827 
-0.756237 14.6202 0.0754622 -0.892602 15.0598 0.0720436 -0.775805 14.3153 0.0784123 
-0.79644 13.9988 0.0816182 -0.911109 14.4298 0.0777021 -0.832096 13.6438 0.0855582 
-0.866198 13.3014 0.0893112 -0.971669 13.7526 0.0844193 -0.910986 12.9057 0.0939182 
-0.941831 12.5735 0.097995 -1.05893 12.986 0.0926984 0.944849 12.2156 0.126598 
0.898092 12.5924 0.120477 1.13525 11.9437 0.131436 0.803446 13.5904 0.107063 
0.787622 13.9048 0.102972 0.776624 14.2117 0.0999767 0.767933 14.5022 0.0966892 
0.92882 14.0251 0.105445 0.759136 14.7862 0.0941793 0.750436 15.0784 0.0910993 
0.905852 14.633 0.0993343 0.749687 15.3724 0.0888491 0.748038 15.6583 0.086209 
0.894387 15.2287 0.0939797 0.755449 15.954 0.084287 0.761105 16.2582 0.0818451 
0.901312 15.8373 0.0892631 0.768093 16.56 0.0799552 0.779437 16.8607 0.0778048 
0.917799 16.4546 0.0849516 0.795978 17.1769 0.0761619 0.81782 17.5054 0.0743611 
0.944798 17.0911 0.0809735 0.842802 17.8474 0.0727883 0.871554 18.1854 0.0714817 
0.99047 17.766 0.0775617 0.911901 18.5611 0.0704123 0.948528 18.9056 0.0699981 
1.05832 18.4966 0.074798 0.304892 21.702 0.0808092 0.0542331 21.7218 0.0801644 
-0.0891195 22.2485 0.0732642 0.449288 22.2235 0.0765446 0.113175 9.02948 0.159456 
0.337785 9.01934 0.159328 -0.913478 18.0905 0.0506666 -0.887637 17.7589 0.0520305 
-1.05662 17.6663 0.0534375 -1.10311 18.3678 0.0503245 0.856041 12.9379 0.115809 
0.827295 13.2649 0.110802 0.967698 13.3775 0.112695 1.0369 12.6953 0.121407 
-1.5114 2.30936 0.160737 2.82064 29.2289 0.0693252 2.96412 29.3182 0.0705206 
-1.21152 9.94378 0.129842 -1.19151 9.48803 0.13392 -1.30119 2.03483 0.16261 
-1.47825 2.44194 0.15684 1.1366 19.2461 0.0729739 -0.674359 8.94391 0.147235 
-0.545691 8.45544 0.148601 -3.10425 28.4423 0.0145412 1.19098 20.0057 0.0727555 
-0.0103941 8.50943 0.154131 2.48569 29.0243 0.0665975 2.64443 29.0959 0.0679728 
2.76721 28.8214 0.06983 2.11969 4.658 0.158265 2.24672 4.56136 0.158986 
2.15015 4.18575 0.159234 -1.31314 20.7743 0.0507094 0.498227 8.71259 0.157052 
-1.38215 10.0575 0.124033 3.14032 29.5839 0.0716045 -1.15667 21.7602 0.0559691 
-1.33934 21.7276 0.0521869 1.24157 9.04895 0.152346 1.40954 9.26697 0.151421 
-1.07535 11.4007 0.115004 -1.28755 11.1011 0.114328 2.087 28.4249 0.0645112 
2.16153 28.8728 0.0639141 2.31377 28.9321 0.0652229 2.04738 3.77695 0.159571 
1.92561 3.39209 0.160272 1.69104 3.0366 0.159945 1.92596 3.85272 0.159004 
1.1617 21.6565 0.0761649 0.98399 21.6847 0.0779689 0.916261 22.1742 0.0771108 
1.3069 2.25122 0.160519 -1.1002 22.2604 0.0567164 1.45169 2.65313 0.159939 
-1.15052 12.1132 0.102629 -0.983755 12.1111 0.104417 0.889006 8.51662 0.15483 
1.06338 8.77561 0.154137 1.2395 8.47427 0.153354 -0.902756 8.94866 0.141939 
-1.3255 9.04754 0.131401 -1.12717 8.97746 0.135833 -1.03227 8.48191 0.13854 
-1.41338 2.54419 0.153819 -1.60403 2.81201 0.151967 -1.73371 3.1978 0.147759 
0.677429 27.6907 0.0544137 0.836878 27.6787 0.0558627 -0.262561 27.7217 0.0459049 
-0.100323 27.7276 0.0473531 -0.575966 27.613 0.0433686 -0.420868 27.6193 0.0448256 
-0.338763 27.2042 0.047282 -0.893758 27.7023 0.0398695 -0.731438 27.6995 0.0414991 
-0.65248 27.19 0.044292 -1.19423 27.5907 0.0371646 -1.04455 27.5917 0.0387269 
-0.958595 27.1677 0.0411692 -1.51943 27.6742 0.0334855 -1.36532 27.6193 0.0352887 
-1.27982 27.0888 0.0380167 -1.8324 27.8878 0.0295464 -1.67618 27.8408 0.0313178 
-1.60508 27.2885 0.0337724 -2.13827 27.9016 0.0262193 -1.98803 27.8666 0.0279281 
-1.91568 27.4364 0.0299031 -2.44622 28.0446 0.0225216 -2.29653 27.985 0.0242685 
-2.22718 27.5015 0.0262627 -2.77833 28.2146 0.0185291 -2.61878 28.1383 0.0204077 
-2.55553 27.6807 0.0221305 -2.94598 28.3456 0.0164198 1.33262 19.2133 0.0770773 
1.3647 19.5854 0.0762569 -1.14896 3.10516 0.14784 -1.26791 3.11224 0.14775 
-0.590935 3.01392 0.152314 -0.65647 2.92239 0.152096 2.2887 7.11576 0.155962 
2.25494 6.74597 0.156197 2.35518 8.56429 0.15419 2.34633 8.23305 0.154633 
2.3825 9.20608 0.153024 2.3896 8.86995 0.153702 2.20843 8.73947 0.153215 
2.32148 9.85231 0.150967 2.33543 9.52411 0.151908 2.19518 9.3648 0.151702 
2.2884 10.5235 0.148476 2.32046 10.1764 0.14987 2.14538 10.0094 0.149539 
2.17186 11.1517 0.144921 2.21553 10.8335 0.146676 2.06955 10.6448 0.146501 
2.08491 11.8146 0.140697 2.1262 11.4813 0.142847 1.9477 11.2868 0.142392 
2.01552 12.5026 0.135877 2.04764 12.1621 0.138272 1.86041 11.9638 0.137484 
1.94913 13.1859 0.13062 1.98545 12.8574 0.133242 1.78927 12.6643 0.131904 
1.90125 13.8611 0.125401 1.92675 13.5197 0.128094 1.73471 13.3495 0.126265 
1.86748 14.5355 0.12021 1.87867 14.1965 0.122749 1.68875 14.0141 0.120728 
1.85668 15.1959 0.115375 1.86314 14.8695 0.117831 1.66141 14.6773 0.115407 
1.85835 15.8445 0.110764 1.85434 15.5174 0.113113 1.65456 15.3261 0.110463 
1.86764 16.5331 0.105949 1.85748 16.1881 0.10835 1.65094 15.9839 0.105538 
1.89712 17.2238 0.101543 1.88379 16.8785 0.103881 1.66624 16.665 0.100885 
1.94527 17.8953 0.0977117 1.92448 17.5685 0.0997115 1.71008 17.3483 0.0968711 
2.00416 18.5859 0.0941166 1.97195 18.2404 0.0958987 1.76537 18.0327 0.0932102 
2.08873 19.2854 0.0912108 2.03893 18.9406 0.0924914 1.82938 18.7278 0.0898904 
2.19156 19.9763 0.0889877 2.15715 19.6278 0.0904066 1.93613 19.4217 0.0876889 
2.20996 20.6087 0.0862092 2.17682 20.2937 0.0871489 1.99278 20.0783 0.0852468 
2.35153 21.3159 0.0852656 2.31351 20.9578 0.0862194 2.0847 20.7414 0.0837619 
2.37462 21.9807 0.0833056 2.34989 21.6369 0.084138 2.18729 21.4107 0.0828809 
2.41244 22.6844 0.0817112 2.39207 22.3408 0.0824704 2.20381 22.0885 0.0811841 
2.45735 23.3978 0.0803137 2.43231 23.0511 0.0809615 2.23926 22.8141 0.0797805 
2.52093 24.1095 0.0791083 2.48824 23.7614 0.0796597 2.28633 23.5453 0.0785374 
2.59307 24.8487 0.0779013 2.57717 24.4646 0.0786639 2.3693 24.2669 0.0775661 
2.58136 25.5851 0.0760745 2.58372 25.2029 0.0769729 2.4135 24.9781 0.0762018 
2.59806 26.3556 0.074352 2.58609 25.9927 0.0750965 2.40566 25.7417 0.0743048 
2.62357 27.1285 0.0726745 2.6075 26.7448 0.0734474 2.41668 26.5411 0.0723948 
2.69017 27.9705 0.0711981 2.6628 27.5646 0.0719218 2.46268 27.3691 0.0706976 
2.73587 28.4098 0.0705251 1.58491 3.05625 0.159229 -0.998564 11.7836 0.109189 
-2.63706 24.2957 0.0282296 -2.65236 24.6764 0.0272198 -2.74057 25.865 0.0237098 
-2.76383 26.2355 0.0226922 1.62186 8.96868 0.151708 1.60478 9.46558 0.150226 
-2.68496 25.0803 0.0259936 -2.70591 25.467 0.0249909 -2.5562 25.6674 0.0264626 
-2.7902 26.6439 0.0215267 -2.81306 27.0429 0.0204824 -2.61471 26.4765 0.0240315 
-2.63028 23.5536 0.0298774 -2.6332 23.8914 0.0291207 -2.45978 24.0523 0.0310184 
-2.64028 22.8817 0.0311703 -2.64229 23.2147 0.0303984 -2.47012 23.3096 0.0323548 
-2.63808 22.2163 0.0327231 -2.6617 22.5764 0.0315864 -2.50416 22.6675 0.0332385 
-2.53356 21.5343 0.0355491 -2.57595 21.8831 0.034186 -2.46402 22.0298 0.0350332 
-2.45224 20.8686 0.0381962 -2.48892 21.2018 0.0368299 -2.358 21.3647 0.0375885 
-2.37151 20.149 0.0412385 -2.40969 20.5001 0.0396572 -2.27006 20.6656 0.040138 
-2.29304 19.4276 0.04467 -2.3351 19.782 0.0428576 -2.18866 19.9331 0.0430384 
-2.20118 18.7036 0.048575 -2.24213 19.0674 0.0465247 -2.09889 19.2087 0.0463494 
-2.12154 18.0234 0.0525709 -2.15054 18.3606 0.0505176 -1.99502 18.5084 0.0500391 
-2.07986 17.3357 0.0568604 -2.09749 17.674 0.0546862 -1.91816 17.8201 0.0539748 
-2.0669 16.6024 0.0617359 -2.07846 16.9781 0.0591542 -1.89145 17.1187 0.0583823 
-2.06355 15.8811 0.0666335 -2.06036 16.2312 0.0642709 -1.88297 16.3957 0.0632354 
-2.06796 15.1901 0.0715014 -2.05988 15.5332 0.0691442 -1.87301 15.6825 0.0683037 
-2.113 14.4856 0.0764972 -2.09545 14.8273 0.0740976 -1.89701 14.9777 0.0733282 
-2.17445 13.7778 0.081352 -2.14569 14.1382 0.0789075 -1.9584 14.272 0.0784369 
-2.23993 13.0677 0.0861585 -2.22094 13.4284 0.0837278 -2.03908 13.5781 0.0833479 
-2.22541 12.3546 0.0914166 -2.19603 12.6867 0.0892148 -2.04308 12.85 0.0888122 
-2.40762 11.5369 0.0958547 -2.33308 11.8133 0.0945682 -2.11176 11.9299 0.095479 
-2.42757 11.2403 0.0976729 -2.39937 10.9445 0.100044 -2.41027 10.0723 0.105716 
-2.38775 10.429 0.103677 -2.21466 10.8734 0.102619 -2.49503 9.26687 0.109422 
-2.45758 9.62859 0.107897 -2.25777 9.91384 0.108701 -2.56852 8.55254 0.112225 
-2.55804 8.90756 0.110614 -2.36963 9.10545 0.112033 -2.51547 7.86832 0.116208 
-2.53463 8.22197 0.114375 -2.39942 8.41275 0.11526 -2.45448 7.16617 0.120114 
-2.48035 7.50547 0.118388 -2.33253 7.71685 0.119443 -2.39496 6.45479 0.123815 
-2.42386 6.79995 0.122085 -2.26797 6.98274 0.123301 -2.31856 5.70791 0.127974 
-2.36057 6.06551 0.125946 -2.2043 6.22001 0.127077 -2.22952 5.0156 0.132202 
-2.28453 5.35 0.129918 -2.13584 5.46435 0.130921 -2.09496 4.33235 0.137231 
-2.18701 4.69676 0.134239 -2.05883 4.78024 0.134841 -1.82241 3.56871 0.144059 
-1.93316 3.92996 0.140808 -1.85882 4.05866 0.140244 -1.46764 11.2655 0.108742 
-1.54722 10.7244 0.113535 1.35849 19.9798 0.0748762 1.36858 20.3767 0.0747166 
1.54857 19.9359 0.0783494 1.35706 20.7577 0.0746872 1.35059 21.1547 0.0754958 
-0.898765 3.06012 0.149486 -1.01585 3.09566 0.148624 -1.19048 3.52334 0.14609 
-1.01926 22.8538 0.0569062 -1.25727 22.8022 0.0527549 0.446077 8.04981 0.154737 
0.669051 8.23271 0.154711 -0.398523 3.11737 0.153704 -0.484056 3.09549 0.153116 
-0.621394 3.49423 0.150609 -0.202438 3.0817 0.155345 -0.29458 3.12329 0.154536 
-0.385322 3.58614 0.152229 -0.027568 2.90808 0.157178 -0.11353 2.94039 0.156514 
-0.169778 3.44894 0.154222 0.135943 2.92131 0.157775 0.0508698 2.89207 0.157578 
0.0115944 3.2891 0.15584 0.304833 3.10604 0.157367 0.219126 3.067 0.1574 
0.185718 3.42055 0.15607 0.487565 3.10387 0.157503 0.397538 3.09905 0.157449 
0.381932 3.56116 0.156119 0.667109 3.08388 0.157517 0.583572 3.09178 0.157496 
0.590426 3.53959 0.15648 0.847606 3.06812 0.157594 0.758271 3.08465 0.157468 
0.795945 3.52596 0.156596 1.0147 2.98581 0.157728 0.917203 2.98585 0.157611 
0.97613 3.44166 0.156785 1.258 3.11838 0.157947 1.14665 3.08289 0.157584 
1.19023 3.45559 0.157023 1.48033 3.11655 0.158804 1.37255 3.11674 0.158078 
1.4555 3.55312 0.157513 -0.654706 7.84664 0.145616 -0.405907 7.84461 0.148073 
-0.102441 7.88298 0.15155 0.157641 7.90819 0.153119 -0.230463 7.29025 0.148912 
-0.755317 3.00697 0.150902 -0.891083 3.46218 0.148386 -1.36602 12.2348 0.0988433 
-1.407 11.7598 0.104042 -1.4921 21.1271 0.0482953 -1.45758 20.6661 0.0479452 
1.0023 27.7254 0.0571193 1.16136 27.7469 0.0584181 0.909184 27.225 0.0581867 
2.22172 6.36276 0.156505 2.18127 5.99986 0.156722 2.05455 6.51645 0.155701 
1.11504 13.8526 0.111192 1.10025 14.1762 0.107776 -2.85703 27.4857 0.0190608 
-2.89325 27.9065 0.0178643 -1.22554 17.1908 0.0572368 -1.18533 16.8497 0.0592806 
-1.08803 16.5089 0.0612594 -1.06452 16.1601 0.0638448 -1.31857 16.6905 0.0608431 
-1.13541 15.8129 0.0668274 -1.12746 15.5022 0.0690256 -1.29172 15.9951 0.0657457 
-1.03176 15.2096 0.0712978 -1.02895 14.8837 0.0740728 -1.26736 15.3314 0.0708297 
-1.0565 14.5885 0.0765005 -1.08067 14.2663 0.0796081 -1.19875 14.7351 0.0755426 
-1.12357 13.9087 0.0829601 -1.16543 13.5383 0.0865439 -1.27162 14.0712 0.0812563 
-1.23901 13.1113 0.0904413 -1.289 12.7036 0.0945172 -1.39086 13.2779 0.0883698 
1.33475 11.716 0.135033 1.28304 12.1191 0.130405 2.33291 7.86458 0.15521 
2.31944 7.50753 0.155564 2.11883 7.29828 0.155047 2.16257 8.06349 0.154185 
-1.59706 10.1728 0.117644 -1.59662 9.66589 0.121765 -1.78 10.3623 0.112635 
-1.54064 22.1426 0.0480536 -1.54359 21.6511 0.0476248 -0.512362 22.8673 0.0654195 
-0.761258 22.8659 0.0616717 1.08556 14.4778 0.105079 1.07398 14.7787 0.101956 
1.27223 14.3226 0.110356 1.07304 15.091 0.0996371 1.07142 15.4041 0.0968392 
1.25505 14.9495 0.104923 1.06875 15.7159 0.0945568 1.07767 16.0307 0.0921476 
1.25095 15.5886 0.0997979 1.08671 16.3404 0.0901954 1.09628 16.6608 0.087905 
1.25788 16.2242 0.0951398 1.11468 16.9928 0.0860066 1.13539 17.326 0.0841731 
1.28658 16.8793 0.0909949 1.16537 17.684 0.0823227 1.19399 18.0404 0.0806253 
1.33647 17.5815 0.0870664 1.22973 18.4098 0.0791327 1.26989 18.7953 0.0779498 
1.49916 19.1129 0.0810747 0.0573868 27.6324 0.0491801 0.216724 27.6523 0.0505224 
-0.0225843 27.2109 0.0501581 0.37002 27.7657 0.0514135 0.526367 27.7745 0.0527841 
0.288544 27.2296 0.0528422 -1.3364 2.57319 0.152427 0.592927 27.2602 0.0553502 
-1.43058 23.2824 0.0479492 -1.4948 22.7085 0.0479357 -1.16053 7.96098 0.136609 
-0.928379 7.89284 0.1408 -0.791111 7.31978 0.142886 -1.51296 3.59221 0.144236 
-1.43615 3.17051 0.147207 1.49814 21.5401 0.0759984 1.3347 21.5858 0.0759472 
1.30219 22.0601 0.0764451 -2.68289 27.3302 0.0214202 -1.67619 11.4101 0.104394 
1.4029 18.3192 0.0836818 -1.40552 20.2067 0.0477576 -1.36896 19.8061 0.047627 
-1.59564 20.5422 0.0459698 2.42154 28.595 0.0671559 1.95847 4.75401 0.157395 
1.86717 4.35892 0.157817 1.67954 27.825 0.062635 1.84774 27.8654 0.0640125 
-1.75734 9.27727 0.120848 -1.53012 9.13948 0.125929 -1.46992 8.62979 0.129626 
2.1627 5.62694 0.157084 2.09466 5.20845 0.157367 1.85227 4.92116 0.156776 
2.54592 28.247 0.0692049 -2.49228 24.8626 0.028996 1.60307 8.48299 0.152245 
1.81255 8.70923 0.15218 1.69744 3.494 0.15878 2.02596 27.9411 0.0653462 
2.18852 28.0191 0.0665877 1.95217 27.4592 0.0660972 -1.61956 3.28632 0.146702 
1.1614 13.1802 0.118394 1.13361 13.519 0.114388 1.30712 13.6755 0.116396 
-1.33914 19.4244 0.0478249 -1.31091 19.0234 0.0484395 -1.51755 19.6968 0.0468929 
-1.70019 21.5245 0.045143 2.00302 5.75159 0.156343 1.05692 22.6857 0.0750704 
0.847437 22.737 0.0752195 0.836934 7.89697 0.154124 1.52536 20.723 0.0763584 
-0.926913 23.4117 0.0560322 0.339782 7.46262 0.152235 -1.25186 17.5513 0.055125 
-1.44493 17.4036 0.056233 -1.27725 17.9004 0.0530891 -1.5428 12.3766 0.0961075 
1.24622 27.3126 0.0606706 1.334 27.7848 0.0597592 1.4999 27.8121 0.0611359 
-1.51688 18.9193 0.0488121 -1.33622 18.638 0.049865 -1.31489 18.2726 0.0512847 
1.23626 12.4829 0.126391 1.19323 12.8356 0.122034 1.35857 12.9878 0.12329 
1.43613 12.274 0.130658 1.23769 7.87436 0.153245 1.42614 8.1771 0.152914 
1.60957 7.90565 0.153168 -0.2243 22.858 0.0690282 -0.382747 23.4315 0.0633328 
-1.71564 22.6081 0.0446499 0.0399639 22.8559 0.0715031 0.585904 22.8015 0.074209 
0.330924 22.8356 0.0733798 0.189314 23.4051 0.0685736 0.73767 23.3072 0.0721324 
-1.37826 23.9971 0.0470376 -1.62794 23.8779 0.0435228 1.44638 10.8937 0.142934 
1.39452 11.3201 0.139041 -1.36543 26.5223 0.0389132 -1.19605 26.489 0.0410722 
-1.79014 26.806 0.0331287 -1.63683 26.6354 0.0354048 -1.55376 26.0385 0.0381445 
-1.94381 26.7882 0.0313797 -0.0575723 12.9905 0.0180344 -2.32581 27.108 0.026075 
-2.17003 27.0225 0.0280887 -2.04493 26.395 0.0312424 -0.935412 26.5721 0.043672 
-0.783928 26.6825 0.0448878 -1.02495 25.9971 0.0447569 0.80735 26.666 0.0594091 
0.972063 26.7156 0.0605355 1.59689 27.3668 0.0633916 2.37649 28.1535 0.067896 
-0.341156 6.61281 0.147924 -0.0663492 6.63355 0.149463 1.74516 11.3609 0.140494 
1.79432 11.0305 0.142919 1.65043 12.1032 0.134291 1.69165 11.7569 0.137236 
1.57452 12.8216 0.127815 1.60734 12.4699 0.130847 1.51991 13.5018 0.121597 
1.54334 13.1729 0.124546 1.47739 14.1752 0.115675 1.50001 13.8461 0.11846 
1.45662 14.8141 0.110363 1.4611 14.488 0.112773 1.4527 15.4534 0.105378 
1.4552 15.1398 0.107837 1.44894 16.1137 0.100292 1.44997 15.7791 0.102842 
1.47493 16.7736 0.0958344 1.45914 16.4363 0.0981198 1.58176 18.1634 0.088464 
1.55333 17.824 0.0902892 1.65371 18.8909 0.0853733 1.61568 18.5408 0.0868127 
2.02316 22.1258 0.0793931 2.00617 21.768 0.0799392 2.04448 22.9315 0.0780788 
2.02812 22.5643 0.0786626 1.83549 22.2337 0.0777858 2.0911 23.7634 0.0768184 
2.06517 23.3967 0.077285 1.85409 23.1398 0.076471 2.21407 24.6156 0.0756744 
2.16199 24.2563 0.0760762 1.93623 24.1065 0.0749535 2.20187 24.971 0.0747427 
2.24084 25.8754 0.0727744 2.23909 25.4654 0.0737592 2.03886 25.1001 0.0732586 
2.2136 26.7015 0.0703972 2.20698 26.3094 0.071337 2.03857 26.0322 0.0707817 
-2.27711 24.6963 0.0321438 -2.30571 25.1037 0.0309107 -0.258324 24.0736 0.061947 
-0.537627 24.0692 0.0588122 1.79938 3.90627 0.158205 -1.92261 11.6384 0.0995639 
-1.97323 11.1416 0.103283 -2.29274 23.0005 0.0353494 -2.27939 23.3379 0.0348488 
-2.25822 23.7812 0.0343947 -2.25823 24.1868 0.0334744 -2.08355 23.4653 0.0372476 
1.79224 9.70929 0.149464 1.56699 9.98547 0.148554 -2.3847 25.5164 0.0289568 
-2.41668 25.9174 0.0277126 -2.1662 25.3505 0.0322657 -2.43055 26.3481 0.0265656 
-2.45462 26.7593 0.0253562 -2.17093 21.2386 0.0397202 -2.21486 21.5701 0.0386579 
-1.68307 17.6282 0.0552155 -1.70876 17.9718 0.0531836 -2.22777 8.43761 0.117552 
-2.25768 8.76867 0.115444 -2.13844 7.63645 0.122448 -2.17096 8.00222 0.120447 
-2.03827 8.36922 0.12068 -2.05773 6.81212 0.126575 -2.08747 7.18452 0.12485 
-1.93519 7.48106 0.125919 -1.99128 5.97205 0.130432 -2.02531 6.36938 0.128578 
-1.85335 6.57872 0.130029 -1.93884 5.15391 0.134069 -1.97393 5.51941 0.132278 
-1.80547 5.67222 0.13344 -1.86178 4.41662 0.138108 -1.9066 4.74075 0.136229 
-1.75488 4.7974 0.137067 1.52614 10.4456 0.146042 1.53886 11.5125 0.138087 
1.52248 17.4557 0.0920108 1.98468 9.43354 0.150813 1.94803 9.94956 0.14888 
1.65754 4.00994 0.157443 1.6748 10.6711 0.144697 1.27401 22.5606 0.0757007 
1.21951 23.0981 0.0744173 1.46081 22.4665 0.0760186 0.817901 7.15243 0.153105 
1.03196 7.45387 0.153095 1.21778 7.16311 0.153245 -0.818131 24.0535 0.0553624 
-1.07815 24.0157 0.051793 -1.2812 24.615 0.0462269 -0.697681 24.6651 0.0539868 
-1.21904 3.95438 0.14407 -1.373 3.96378 0.143206 1.87068 10.5873 0.14583 
-0.0342707 3.88302 0.153647 -0.138416 4.03093 0.152543 1.69347 20.6914 0.078279 
1.67542 21.0833 0.0775759 -0.621902 4.06356 0.148678 -0.754402 3.97598 0.147876 
0.428152 26.7446 0.0559533 0.579833 26.66 0.0575871 0.644938 26.1427 0.0600844 
0.46079 4.0965 0.154842 0.347398 4.10562 0.154546 0.69481 3.94351 0.155579 
0.580517 3.95816 0.155452 0.554261 4.50983 0.154232 0.931605 4.00295 0.155837 
0.823318 4.00419 0.15563 0.816945 4.42738 0.154893 1.16949 3.86812 0.156428 
1.08191 3.95274 0.155998 1.11526 4.43302 0.155357 -1.34726 2.7991 0.149904 
1.77186 19.9645 0.0820278 1.75673 20.3723 0.0801737 1.81493 5.76062 0.15551 
1.79442 5.37932 0.155972 1.83516 6.65721 0.154694 1.8019 6.26584 0.155021 
1.60532 5.90451 0.154854 2.31529 27.672 0.068646 -1.88887 23.1029 0.0409124 
-1.92623 22.5387 0.0410728 -1.96918 10.6301 0.107359 -2.0106 10.0775 0.11112 
0.233949 6.6944 0.151178 0.497428 6.84159 0.152225 1.98053 8.32353 0.153214 
2.00001 8.80597 0.152326 -1.89224 21.7462 0.0423042 -1.83495 21.2257 0.0432381 
-0.334474 4.13686 0.150912 -0.461564 4.12853 0.149916 -0.578926 4.62337 0.147674 
-0.189553 4.58618 0.150752 0.275112 26.6278 0.0551723 -0.629307 26.5921 0.0468867 
0.00209864 12.9051 0.0307044 1.96808 7.95094 0.153651 1.05161 26.3188 0.0626283 
1.15189 26.8793 0.061402 1.32324 26.9203 0.0625961 -1.06218 3.96043 0.145342 
-1.22549 4.40216 0.142925 -0.896146 3.9085 0.146806 -0.330186 26.5788 0.0499538 
-0.171244 26.6832 0.0509913 -0.463835 26.0606 0.0506781 1.79572 7.78792 0.153449 
1.96993 7.51832 0.154249 1.9393 7.12125 0.154649 1.60788 7.46213 0.153377 
-2.51288 27.2353 0.0235701 -1.5259 3.95645 0.142367 -1.71391 4.01884 0.141177 
0.0362579 24.0621 0.0646056 -0.12625 24.6756 0.0600001 1.50099 26.8576 0.0642306 
1.67855 26.8742 0.0655969 1.40815 26.4238 0.0648993 -1.95857 9.30338 0.117149 
-1.88236 8.76412 0.121288 1.91315 20.7198 0.0814818 -1.82415 24.2467 0.0394983 
-1.83479 24.7644 0.0382583 -2.07451 24.4216 0.0356272 1.9434 10.2726 0.147617 
2.03024 9.10981 0.151712 1.49498 17.1178 0.0939884 1.52471 4.00946 0.156991 
1.49223 4.41942 0.156202 1.31395 3.96568 0.156377 1.78251 19.6542 0.0836685 
1.71083 19.3129 0.0841099 2.01551 21.0714 0.0817656 2.01595 21.3882 0.0808287 
2.27773 27.2332 0.0694607 -1.55233 4.38568 0.140321 -0.0132357 26.5852 0.0527913 
0.127123 26.0893 0.0560671 -1.80915 12.1819 0.0959214 1.88939 26.9238 0.0671225 
2.06461 27.0027 0.0683362 -2.11846 20.8319 0.040928 -1.97974 21.0311 0.041755 
-1.7825 20.8203 0.044121 -2.07433 20.466 0.0421462 -2.25658 26.1975 0.029084 
-2.35969 22.3141 0.0356762 -2.33902 22.6165 0.0354363 -2.29993 21.9799 0.0370092 
-1.99767 19.7277 0.0447019 -2.03662 20.0913 0.0433081 -1.9239 19.0236 0.0477608 
-1.97701 19.3812 0.0460006 -2.19722 9.13463 0.114391 -2.06031 9.6295 0.113403 
-1.6547 16.9069 0.0597701 -1.65679 17.2567 0.0574774 -1.71961 16.1961 0.0647333 
-1.72628 16.5613 0.0620328 -1.61731 15.4891 0.0697313 -1.62087 15.8289 0.0673486 
-1.80023 14.0511 0.0804447 -1.76646 14.3945 0.0779787 -1.91015 13.2883 0.0860533 
-1.86148 13.6355 0.0835982 0.694524 6.42132 0.152181 1.67233 4.92576 0.156014 
0.0446258 17.4794 -0.0482373 0.0493965 17.3154 -0.0465449 0.0632214 3.86616 0.154241 
1.83996 21.42 0.0787962 1.66798 21.4568 0.0771238 -1.50853 18.1467 0.052172 
-0.906755 4.48182 0.14541 -0.899373 4.99363 0.143897 -1.06344 4.91891 0.142609 
0.0531785 17.1517 -0.0452644 0.0554971 16.9609 -0.0436809 1.65495 21.8911 0.0769881 
0.160144 4.01846 0.154209 0.0575735 16.7824 -0.0417245 0.0587961 16.5994 -0.039893 
0.217122 4.56681 0.15313 0.0601601 16.4132 -0.0378189 0.0608437 16.2021 -0.0354967 
1.79426 26.4164 0.0678329 0.0615945 16.0109 -0.0332821 0.0619423 15.8095 -0.0311671 
1.44543 4.88798 0.155435 -1.88693 20.2527 0.04384 -1.69376 15.1218 0.0725597 
-1.44023 15.2753 0.0714299 -1.34319 14.973 0.0736718 -1.72156 14.765 0.0750495 
-1.82426 19.5358 0.0460982 -1.37223 14.6672 0.0762756 0.102177 6.04337 0.150622 
-1.64608 19.2563 0.0474357 -1.67476 18.8575 0.048868 -1.73568 12.6529 0.0921626 
0.315936 24.0335 0.0667894 -1.41696 14.3042 0.0790945 -1.46213 13.937 0.0823087 
-1.52462 13.526 0.0855514 -1.59936 13.0937 0.0891901 1.42828 23.5795 0.073749 
1.20608 23.7255 0.072512 -1.67034 19.5981 0.0463847 -1.86564 12.9115 0.0893084 
1.10834 24.4136 0.0696772 0.888141 23.9409 0.0703077 0.628765 24.0286 0.0688291 
-1.69347 19.9864 0.0455084 -1.39545 8.08446 0.132399 -1.29712 7.51442 0.135234 
-0.906497 6.71277 0.141675 -0.645428 6.63669 0.144777 -1.70746 7.33118 0.129578 
-1.75684 7.78816 0.127505 -0.000732349 25.3652 0.058206 -0.287884 25.3758 0.0553166 
1.29975 6.56412 0.153435 1.51042 6.9984 0.153503 -1.73496 20.3574 0.0448721 
-0.46999 6.01509 0.14646 -1.69826 25.3753 0.0383757 -1.95788 25.5423 0.0345819 
-1.61395 8.20197 0.12835 1.84405 25.9354 0.0695676 1.88147 25.4985 0.0710422 
1.6364 25.8803 0.0682995 0.47674 24.6518 0.0649171 -1.56072 14.5453 0.0770541 
-0.573688 5.36525 0.146464 -0.302189 5.32573 0.148841 -1.46072 7.08269 0.134008 
-1.22093 6.93182 0.136971 -1.06871 6.27567 0.13962 -1.7442 18.352 0.0511884 
-1.66745 13.7648 0.0831784 -1.79756 18.6917 0.0494092 -1.48934 16.7011 0.0610094 
-1.46242 15.9946 0.065967 0.0623236 15.6183 -0.0290281 0.0623351 15.4151 -0.0268402 
-1.43373 25.2497 0.0424048 -1.12794 25.2896 0.0462636 -1.58707 4.8049 0.138306 
-1.41565 4.89569 0.139475 -1.60266 5.30221 0.136735 1.63875 22.8205 0.0761237 
1.65565 22.3293 0.0765035 1.69406 6.88708 0.154091 -1.86206 23.5476 0.0404735 
0.885196 4.94019 0.154348 0.742564 4.88244 0.154047 1.64966 23.9007 0.0740296 
1.65069 23.293 0.075031 -1.63041 6.76309 0.132228 -2.03456 25.9601 0.0324763 
-1.39077 16.3562 0.063294 -0.0723798 5.21613 0.150601 0.186967 5.27877 0.151951 
-0.589639 25.3932 0.052189 1.41535 25.9034 0.066601 1.23818 25.9624 0.0651424 
-0.867158 25.3648 0.0492012 0.290897 25.4114 0.0603633 -1.83216 8.33147 0.124132 
0.0622098 15.2203 -0.0247725 0.0620015 15.0087 -0.0225769 -2.15294 22.641 0.0378446 
0.0613065 14.8009 -0.0204127 0.0607408 14.6112 -0.0184346 1.06092 25.7918 0.0645317 
1.4697 25.4167 0.0686029 1.25977 4.94254 0.154788 1.08892 4.99901 0.154545 
1.0113 5.45725 0.153826 1.41715 5.4487 0.154696 1.84865 24.9983 0.0721947 
0.598891 25.3915 0.0628686 -2.11517 21.8481 0.0392887 0.408408 5.3644 0.152547 
-1.62029 5.76523 0.135174 1.71279 24.4046 0.0729306 1.40567 5.96781 0.153976 
1.12339 6.11107 0.153516 0.0597254 14.4068 -0.0160062 0.0585075 14.2187 -0.0140122 
-1.21712 5.97205 0.139339 -0.910286 5.73295 0.142192 0.604694 5.02959 0.153561 
0.602103 5.74638 0.152576 -1.24091 4.90533 0.141325 0.826486 25.4056 0.0642363 
1.01686 25.0458 0.0669374 -0.762298 5.28854 0.144564 1.33456 24.815 0.0696604 
1.55221 24.8013 0.0708767 -1.97122 22.1607 0.0408249 0.0570239 14.0232 -0.0115321 
0.0547644 13.8395 -0.00936426 -1.40748 5.94922 0.136755 -1.59884 6.30974 0.133709 
0.904314 6.06469 0.153078 0.0522572 13.6586 -0.00675128 0.0480023 13.4908 -0.00479851 
0.0390594 17.6438 -0.0483003 0.0397869 17.799 -0.0614426 -1.2385 5.41457 0.140017 
0.0440818 13.3009 -0.00192026 0.0352735 13.143 0.0024467 -4.2813 31.4267 -0.135985 
-0.638566 0.520911 0.0432807 -1.05124 1.14412 0.0644711 -4.26214 31.0598 -0.13511 
-4.24263 30.6762 -0.134227 -4.22301 30.276 -0.13328 -4.20749 29.9427 -0.132469 
-4.19115 29.5767 -0.131592 -4.17636 29.2279 -0.130746 -4.16153 28.8634 -0.129862 
-4.14799 28.5163 -0.128989 -4.13547 28.1868 -0.128163 -4.12083 27.7926 -0.127135 
-4.10692 27.4163 -0.126144 -4.0942 27.074 -0.125205 -4.08125 26.733 -0.124258 
-4.06793 26.3931 -0.123271 -4.05406 26.0545 -0.122268 -4.03877 25.7011 -0.12117 
-4.02256 25.3489 -0.120043 -4.00441 24.9819 -0.118798 -3.98671 24.6478 -0.117616 
-3.96771 24.3146 -0.116375 -3.94749 23.982 -0.115077 -3.92478 23.6341 -0.113654 
-3.8984 23.2551 -0.11202 -3.87137 22.8921 -0.110392 -3.84546 22.5606 -0.108825 
-3.81828 22.2289 -0.107202 -3.79016 21.8968 -0.105493 -3.7625 21.5799 -0.103818 
-3.73148 21.2307 -0.101873 -3.7014 20.8963 -0.0999726 -3.67125 20.5611 -0.0979749 
-3.64122 20.2247 -0.0959488 -3.61032 19.871 -0.0937184 -3.57763 19.4837 -0.0912519 
-3.54775 19.1112 -0.0887842 -3.52089 18.7535 -0.0863942 -3.49712 18.411 -0.0840484 
-3.47357 18.0348 -0.0814542 -3.45203 17.6412 -0.0786958 -3.43679 17.3125 -0.0763805 
-3.42349 16.967 -0.0739317 -3.41283 16.6047 -0.0713559 -3.40434 16.16 -0.068199 
-3.40131 15.7814 -0.0654966 -3.40183 15.4363 -0.0630599 -3.40557 15.0918 -0.0606189 
-3.41274 14.732 -0.0581098 -3.42209 14.406 -0.0558176 -3.43594 14.0326 -0.0532556 
-3.45286 13.6612 -0.050683 -3.46977 13.3401 -0.0485361 -3.48948 13.0049 -0.0462682 
-3.51078 12.6719 -0.0440997 -3.53557 12.31 -0.0417131 -3.56127 11.951 -0.039438 
-3.58512 11.6261 -0.0373432 -3.60767 11.319 -0.0354445 -3.63399 10.9539 -0.0331539 
-3.6558 10.6373 -0.0312387 -3.67504 10.3382 -0.0294038 -3.69475 9.99729 -0.0273742 
-3.7113 9.65941 -0.0253298 -3.72359 9.33889 -0.0234288 -3.73161 9.03529 -0.0215943 
-3.73557 8.73377 -0.0197957 -3.73489 8.42001 -0.0178857 -3.72925 8.12228 -0.0160766 
-3.71892 7.84023 -0.0143292 -3.70163 7.53139 -0.0124035 -3.67512 7.196 -0.0102342 
-3.64501 6.90354 -0.0083036 -3.60598 6.59803 -0.00621066 -3.56124 6.30691 -0.00416602 
-3.50318 5.98849 -0.00182904 -3.44152 5.69775 0.000373804 -3.37082 5.40687 0.00266158 
-3.28672 5.10145 0.0051393 -3.19573 4.80907 0.00765912 -3.09396 4.51522 0.010302 
-2.97422 4.20547 0.013354 -2.84694 3.90701 0.0164703 -2.70477 3.60525 0.0199538 
-2.53956 3.28411 0.0239124 -2.35366 2.95637 0.0286221 -2.1572 2.63543 0.0333861 
-1.91152 2.27289 0.0396824 -1.6601 1.92443 0.048954 -1.36491 1.54675 0.0558692 
0.608772 0.510094 -0.00537549 4.29451 31.4406 -0.0549452 4.27487 31.0737 -0.0541378 
1.05292 1.16089 0.00180283 1.37644 1.57262 0.00519902 1.70111 1.97006 0.0183144 
1.95703 2.32887 0.0272411 2.18578 2.67457 0.0325342 2.37895 2.99485 0.0368845 
2.55349 3.3071 0.0398248 2.7237 3.64257 0.0425521 2.87586 3.97259 0.0443653 
2.99969 4.27065 0.0459076 3.11609 4.58017 0.0470478 3.21941 4.88783 0.0481178 
3.31496 5.20794 0.0489072 3.39504 5.51334 0.0496028 3.46211 5.80436 0.0500089 
3.52549 6.12305 0.0503284 3.57498 6.41416 0.0504214 3.61855 6.71965 0.050461 
3.65583 7.0397 0.0503302 3.68496 7.36088 0.0501193 3.70506 7.6552 0.0497864 
3.71975 7.965 0.0493483 3.72849 8.27635 0.0487759 3.73157 8.57531 0.048158 
3.73026 8.86172 0.0473969 3.72455 9.16451 0.0465634 3.71463 9.48396 0.0455945 
3.70158 9.79134 0.0445588 3.68563 10.1011 0.0433751 3.6672 10.4135 0.0421268 
3.64375 10.7737 0.0405165 3.62168 11.0918 0.0390556 3.59754 11.4279 0.0373477 
3.57519 11.7361 0.0357646 3.54948 12.0934 0.0337594 3.52551 12.4382 0.031804 
3.50455 12.7539 0.0298814 3.48297 13.1036 0.0277522 3.46237 13.4717 0.0253923 
3.44505 13.826 0.0231054 3.43088 14.1661 0.0208262 3.41892 14.524 0.0184192 
3.41031 14.8669 0.0160548 3.40477 15.211 0.0136787 3.40219 15.5723 0.0111539 
3.40327 15.9508 0.00851165 3.40724 16.2803 0.00620976 3.41497 16.6429 0.00367955 
3.42601 17.0054 0.00118084 3.43964 17.3511 -0.00120702 3.45859 17.7456 -0.00386906 
3.47799 18.0901 -0.00619678 3.50082 18.4501 -0.00854421 3.52834 18.8416 -0.0110898 
3.55562 19.1993 -0.0133135 3.58315 19.5396 -0.0154159 3.61184 19.8787 -0.0174046 
3.64134 20.2165 -0.0193703 3.67281 20.5693 -0.021306 3.70445 20.9209 -0.0232033 
3.73316 21.2396 -0.0248121 3.76288 21.5734 -0.0264636 3.79205 21.9064 -0.0280085 
3.82033 22.2388 -0.0295064 3.84768 22.5709 -0.0309097 3.87624 22.9343 -0.0323929 
3.90225 23.2819 -0.0337286 3.92565 23.6138 -0.0349463 3.94678 23.9303 -0.0360554 
3.96951 24.2947 -0.0372684 3.98988 24.6441 -0.0383855 4.00719 24.9624 -0.0393472 
4.02513 25.3135 -0.0403837 4.04266 25.6818 -0.0414057 4.0585 26.0354 -0.0423715 
4.07289 26.374 -0.0432482 4.08673 26.7138 -0.0441242 4.10019 27.0549 -0.0449613 
4.11404 27.4135 -0.0458445 4.12785 27.7735 -0.046688 4.14175 28.1347 -0.0475412 
4.15665 28.5136 -0.0483975 4.17064 28.8606 -0.0491883 4.18525 29.2085 -0.0499625 
4.20193 29.5905 -0.050817 4.21956 29.9732 -0.051672 4.23721 30.3398 -0.0524881 
4.25745 30.7401 -0.0533934 4.16941 31.7713 -0.0568869 -4.16775 31.7594 -0.135234 
-4.0319 31.7415 -0.133616 4.00966 31.7496 -0.0582338 3.86594 31.7296 -0.0594098 
3.72613 31.7096 -0.0605744 3.58605 31.6888 -0.0617309 3.44152 31.6666 -0.0629465 
3.30437 31.6449 -0.0640793 3.1543 31.6205 -0.0653122 3.01135 31.5968 -0.0664887 
2.87151 31.5734 -0.067624 2.73055 31.5496 -0.0687679 2.58843 31.5257 -0.0699011 
2.43234 31.4997 -0.0711611 2.279 31.4746 -0.0723769 2.12847 31.4505 -0.0735833 
1.97216 31.4264 -0.0748134 1.81871 31.4037 -0.0760484 1.66385 31.3821 -0.077273 
1.48066 31.3583 -0.078749 1.17295 31.3232 -0.0811602 0.99906 31.3065 -0.0825667 
0.819328 31.2918 -0.0840187 0.657167 31.2808 -0.0853363 0.503598 31.2726 -0.0866072 
0.344828 31.2662 -0.0879626 0.171661 31.2619 -0.0894209 -0.0110905 31.2603 -0.0909761 
-0.179779 31.2616 -0.0924375 -0.343578 31.2653 -0.0938771 -0.506989 31.2715 -0.0953429 
-0.669844 31.28 -0.0968258 -0.845854 31.2918 -0.0984902 -1.00703 31.3048 -0.100019 
-1.15802 31.3189 -0.10147 -1.32164 31.3361 -0.103075 -1.48844 31.3556 -0.104767 
-1.64486 31.3755 -0.106364 -1.80867 31.3979 -0.108063 -1.98401 31.4233 -0.109926 
-2.13586 31.4465 -0.111556 -2.28199 31.4694 -0.113161 -2.43525 31.4942 -0.114858 
-2.59127 31.5198 -0.116621 -2.73332 31.5432 -0.118236 -2.87833 31.5673 -0.119914 
-3.02627 31.5916 -0.121628 -3.17311 31.6154 -0.123353 -3.31089 31.6373 -0.124981 
-3.44797 31.6585 -0.126603 -3.59246 31.6801 -0.128333 -3.73246 31.7005 -0.130002 
-3.88421 31.7216 -0.131846 1.32741 31.34 -0.079964 -0.00396804 17.7626 -0.106332 
-0.0110186 17.6185 -0.109403 -0.00756264 17.4683 -0.112755 -0.0080184 17.2847 -0.113959 
-0.00750044 17.1015 -0.114482 -0.00803562 16.913 -0.115009 -0.00785904 16.7345 -0.114574 
-0.00818673 16.5543 -0.114122 -0.00796568 16.3465 -0.113077 -0.00826472 16.1408 -0.111854 
-0.00821056 15.9413 -0.110331 -0.00840149 15.7485 -0.108777 -0.00839789 15.5464 -0.106817 
-0.00853387 15.3465 -0.104925 -0.00866126 15.1381 -0.102421 -0.00889935 14.9276 -0.0998653 
-0.00900495 14.7376 -0.0972752 -0.00949922 14.3604 -0.0910913 -0.00985767 14.1499 -0.0873774 
-0.010062 13.9648 -0.0832028 -0.0105592 13.7919 -0.0792363 -0.0110498 13.6218 -0.0741223 
-0.0123101 13.4539 -0.0684066 -0.0135862 13.2941 -0.0613253 -0.016985 13.155 -0.0516105 
-0.0166544 13.0387 -0.031212 -0.00936024 14.5494 -0.0943515 -0.0169647 17.7451 -0.0147228 
-0.0165517 17.6305 0.00198566 -0.0111556 17.3023 0.0159605 -0.0120211 17.4797 0.00961724 
-0.0109265 16.9572 0.0244966 -0.0113388 17.1391 0.0200426 -0.0109741 16.6034 0.0316013 
-0.0110135 16.7798 0.02806 -0.0113213 16.2111 0.0381555 -0.0111582 16.4182 0.034604 
-0.0115915 15.8367 0.0434607 -0.011631 16.0205 0.0408777 -0.011674 15.4437 0.0482379 
-0.0117897 15.6461 0.0457806 -0.0118419 15.0301 0.0525154 -0.011851 15.2494 0.0502269 
-0.0119459 14.6252 0.0560144 -0.0120753 14.8227 0.054282 -0.0116855 14.2174 0.0587771 
-0.0121787 14.4211 0.0574757 -0.0117 13.8454 0.0606932 -0.0119249 14.0226 0.0598219 
-0.0125702 13.4919 0.0611762 -0.0124357 13.6651 0.0611705 -0.0140155 13.1603 0.0620631 
-0.015123 13.3047 0.0610046 -0.00668807 13.0073 0.0650546 0.0402893 12.9823 0.0179245 
-0.0101469 15.4149 -0.028562 -0.0101714 15.2204 -0.0263854 -0.0116959 13.6524 -0.00706257 
-0.0107287 14.1656 -0.0143242 -0.0105516 14.4122 -0.0174774 -0.00965707 16.5794 -0.0410396 
-0.00983809 16.3937 -0.0388864 -0.0106202 14.6159 -0.0197953 -0.00987182 16.1887 -0.0368286 
-0.00924996 17.1252 -0.0472245 -0.0100926 15.6147 -0.0306582 -0.00948052 16.7591 -0.043061 
-0.0136174 17.622 -0.0527489 -0.0103257 17.4715 -0.0507627 -0.00994421 15.9979 -0.0347798 
-0.0119317 13.0255 0.0140173 -0.0104652 17.7528 -0.0597403 -0.010423 14.805 -0.0218518 
-0.0109407 14.0062 -0.0122015 -0.0112102 13.8037 -0.00936213 -0.0100191 15.8054 -0.0327148 
-0.0104301 15.0123 -0.0242519 -0.0100876 17.289 -0.0490965 -0.00938754 16.9347 -0.0450396 
-0.0138702 13.2987 -6.16759e-05 -0.0126104 13.4613 -0.0037888 -0.0150076 13.1603 0.00351893 
-2.82909 6.12931 -0.00682707 -2.63919 5.88382 -0.00644974 -2.77012 5.77892 -0.00524189 
0.576796 30.9359 -0.0852363 0.735279 30.9332 -0.08388 0.496933 30.5842 -0.0851328 
0.654042 30.5807 -0.0837748 -2.83002 21.6593 -0.0957281 -2.70747 21.7926 -0.0952331 
-2.66441 21.4436 -0.093463 1.7598 29.964 -0.0729554 1.85714 30.3611 -0.073093 
1.5982 29.9408 -0.0742712 1.69519 30.3378 -0.0744031 1.78788 30.7 -0.0745078 
1.7659 12.7412 0.00997246 1.79798 12.3876 0.0120342 1.5834 12.5474 0.00935895 
1.68582 13.0659 0.00749607 1.50106 12.8737 0.00699551 -0.142754 17.1919 -0.0488751 
-0.139424 16.9616 -0.046618 1.41678 29.143 -0.0739638 1.34261 29.5184 -0.0754593 
1.25613 29.1151 -0.0752763 -1.30655 30.6555 -0.101786 -1.39685 31.0197 -0.103306 
-1.46187 30.6717 -0.103365 -2.63525 24.3533 -0.10265 -2.82763 24.5682 -0.105116 
-2.81024 24.1888 -0.103951 -0.0648059 25.775 -0.0795965 -0.109127 26.2722 -0.0810375 
0.0653111 26.2682 -0.0794372 -1.7182 31.0649 -0.106631 -1.55267 31.0394 -0.104902 
1.94703 22.1341 -0.0526406 2.14173 22.4597 -0.0511664 1.98465 21.8479 -0.0510739 
2.18141 22.1699 -0.0495207 -0.837466 22.3918 -0.080604 -0.594114 22.3711 -0.078103 
-0.708714 21.8393 -0.0789868 -0.456047 21.8114 -0.0771701 -1.45611 29.9508 -0.102002 
-1.60524 29.9653 -0.103557 -1.53812 30.3381 -0.103551 2.16376 21.8114 -0.0482594 
-1.36249 29.5585 -0.100297 -1.51125 29.5728 -0.101845 1.51083 1.95563 0.0137221 
1.32392 1.74695 0.0099471 1.5831 1.95502 0.0165415 1.38208 1.72672 0.0116081 
2.58457 17.9865 -0.0166105 2.74089 17.8426 -0.0135298 2.76917 18.1858 -0.0157624 
-1.1611 2.30214 -0.00176908 -1.00462 2.04513 -0.00334624 -1.04013 1.94535 -0.00121704 
-0.881715 1.69296 -0.00330412 -2.03603 31.1079 -0.109993 -2.09523 30.7708 -0.110086 
-2.18667 31.1318 -0.111634 -3.67778 26.4002 -0.118838 -3.82941 26.6282 -0.121099 
-3.54862 26.5172 -0.117672 -3.70021 26.7477 -0.119919 2.12395 2.6047 0.0302142 
-2.61669 10.8062 -0.0258576 -2.75162 10.9867 -0.0277483 -2.75359 10.6167 -0.025762 
-2.88891 10.7971 -0.027594 3.49866 26.2991 -0.0483488 3.65074 26.1272 -0.046422 
3.48681 25.9376 -0.0474229 3.4505 9.82112 0.0400751 3.30574 10.0035 0.0372491 
3.32562 9.66434 0.0382775 -2.73009 3.93806 0.0123348 -2.91516 4.22918 0.0113631 
-2.78894 3.90857 0.0145217 1.64125 5.08479 0.011005 1.82227 5.07599 0.0137758 
1.73537 5.59329 0.012477 1.92179 5.58227 0.0155001 -3.29775 27.2114 -0.116458 
-3.43286 27.047 -0.117604 -3.27613 26.8163 -0.115338 -2.05985 26.1904 -0.10064 
-2.04911 25.7563 -0.0995722 -1.83641 25.9522 -0.0976798 -2.05134 26.6852 -0.101581 
-1.8257 26.4492 -0.0986707 -2.23439 26.6533 -0.103524 -2.28343 26.1708 -0.103037 
2.07154 29.2763 -0.0686511 1.91156 29.239 -0.069942 1.99082 28.8481 -0.0683456 
1.8313 28.8104 -0.0696372 0.260395 15.3248 -0.0234909 0.259975 15.5544 -0.0255778 
0.353231 15.4351 -0.0233706 -2.27064 25.7392 -0.101945 1.96773 6.4185 0.0164405 
1.93902 5.96151 0.0158704 1.74948 6.5639 0.0130195 1.7262 6.10068 0.0125254 
-3.94634 31.0817 -0.131478 -4.07084 31.1277 -0.133011 -3.93493 31.4408 -0.131974 
-4.05937 31.4869 -0.133497 -1.56936 5.46717 -0.00877585 -1.76887 5.83523 -0.00898132 
-1.37147 5.68481 -0.00930779 -1.56493 6.04736 -0.00958275 1.42385 25.0135 -0.0649389 
1.6407 24.9989 -0.0629252 1.26459 25.5673 -0.0676521 1.48721 25.5443 -0.0654896 
0.633468 29.0823 -0.0805926 0.475953 29.073 -0.0819548 0.704796 28.6666 -0.079041 
0.548234 28.6555 -0.0803903 -2.44656 10.987 -0.025553 -2.41749 10.691 -0.0238568 
-2.58607 10.5101 -0.0241627 3.3155 17.5449 -0.00412451 3.3155 17.9125 -0.00684994 
3.17245 17.7133 -0.00715348 2.7123 17.5082 -0.0113668 2.55432 17.6538 -0.0144676 
-2.3355 9.14284 -0.017188 -2.31708 9.49521 -0.0182258 -2.39643 8.7801 -0.0163433 
-2.3839 9.13289 -0.0173806 -3.13371 30.9761 -0.121896 -3.08084 31.2838 -0.121784 
-2.98594 30.9344 -0.120152 2.81796 15.2155 0.00659901 2.81424 15.5648 0.00414954 
2.67388 15.4019 0.00358619 -2.58796 11.1568 -0.0275349 2.98031 19.0275 -0.0192953 
2.83076 18.8424 -0.0198704 2.85963 19.1686 -0.0218811 3.0469 11.4827 0.0293435 
2.9178 11.3286 0.0281125 2.89365 11.6648 0.0266697 3.27867 17.1616 -0.00174209 
3.15456 17.3559 -0.00472045 3.14233 17.0003 -0.00223397 -3.12895 23.9158 -0.10634 
-3.28684 24.1561 -0.108644 -3.26846 23.8176 -0.107437 -2.6741 30.1687 -0.115368 
-2.61695 30.4946 -0.1153 -2.53034 30.1157 -0.113691 -1.91973 17.9826 -0.0687195 
-2.09782 17.8378 -0.0690849 -2.13203 18.1345 -0.0713618 -2.31012 17.9856 -0.0717227 
1.26584 18.9958 -0.0439645 1.0702 18.7539 -0.0448457 1.13766 19.1645 -0.0482273 
3.88504 25.1188 -0.0410576 3.85514 24.7833 -0.0401908 3.73296 24.9375 -0.0419068 
0.813926 30.5921 -0.0824371 0.882406 30.2399 -0.0810486 0.72551 30.232 -0.0823796 
2.96605 24.5355 -0.0483855 3.13478 24.7812 -0.0474059 3.11399 24.4331 -0.046505 
2.76516 23.9743 -0.0487688 2.59682 24.0678 -0.0509251 2.72967 23.6278 -0.0480082 
2.56323 23.7203 -0.0502019 3.58298 24.726 -0.0426682 3.71206 24.5882 -0.040901 
3.56212 24.3711 -0.0416329 3.69018 24.2343 -0.039826 -2.51315 20.0321 -0.0856039 
-2.55058 20.3843 -0.0877232 -2.68234 20.2451 -0.0880179 1.57913 27.3783 -0.0686111 
1.66093 26.8854 -0.0668177 1.75718 27.3936 -0.0670928 -0.219243 17.2378 -0.0497085 
-0.215701 16.9864 -0.0473233 -0.315146 17.255 -0.050454 -0.991264 4.50105 -0.00803589 
-1.16779 4.99524 -0.00849395 -1.16729 4.37858 -0.00797576 -1.3545 4.87154 -0.00823351 
0.996123 10.0483 0.00786232 1.0351 9.50363 0.00658051 1.13648 10.1346 0.0109806 
1.18951 9.60789 0.00921733 0.560289 12.7443 0.00330112 0.606171 12.4067 0.00686553 
0.443448 12.7221 0.00393644 3.28088 10.3215 0.0361228 3.12425 10.4875 0.0333203 
3.25724 10.6646 0.0348701 3.09879 10.8329 0.0320709 -2.24202 11.1345 -0.0247395 
-2.3828 11.3019 -0.0267646 -3.34773 28.0009 -0.11872 -3.38082 28.3915 -0.119906 
-3.50315 28.2144 -0.120927 -3.16447 17.1777 -0.0732441 -3.30617 17.4159 -0.0760124 
-3.18075 17.5436 -0.0758356 -3.7034 29.0969 -0.125011 -3.59384 29.2967 -0.124143 
-3.73594 29.4566 -0.126083 3.06111 30.0466 -0.0619804 2.99035 30.3455 -0.0633696 
2.91918 29.9741 -0.0630376 2.8476 30.2729 -0.0644135 1.24836 2.87 0.00499507 
1.1357 2.48565 0.00340729 1.34913 2.86663 0.00664817 1.227 2.4816 0.0048274 
-2.61196 17.6759 -0.0720555 -2.43003 17.4943 -0.0693616 -2.59739 17.3392 -0.069668 
0.312417 1.82428 -0.00269633 0.336379 2.22005 -0.00268839 0.255216 1.82599 -0.00274146 
-3.67619 28.7543 -0.124014 -3.56733 28.9571 -0.123173 -3.87474 27.7272 -0.124138 
-4.00373 27.9508 -0.126117 -3.89154 28.0706 -0.125074 1.30689 11.6205 0.0119684 
1.16685 11.505 0.0119767 1.35102 11.2296 0.0133573 3.47974 8.54791 0.0430685 
3.35138 8.38891 0.04081 3.47625 8.23598 0.0435489 0.991927 1.16672 0.00504525 
0.738191 0.821412 0.00107829 0.685169 0.803594 -0.000679256 0.431644 0.469031 -0.000897747 
2.66921 16.094 -0.00138018 2.67006 15.7518 0.00108733 2.49953 15.9058 -0.00207019 
3.18219 7.53823 0.0385443 3.33607 7.72922 0.0414644 3.20024 7.86147 0.0385217 
-3.3798 20.0383 -0.0926733 -3.52572 20.3013 -0.0953409 -3.40964 20.3782 -0.0947336 
0.808866 2.53177 -0.000236399 0.671174 2.16643 -0.00150522 0.731043 2.55954 -0.000813202 
0.242171 1.11768 -0.00292307 0.279703 1.12458 -0.00322273 0.331822 1.47063 -0.00293721 
-1.23222 2.26093 0.000711473 -1.0967 1.91102 0.00172037 -1.30127 2.23192 0.00368386 
-3.41172 21.8638 -0.101754 -3.53039 21.7657 -0.102439 -3.25527 21.6256 -0.0993045 
-3.37343 21.5272 -0.0999484 -2.82675 13.332 -0.0432106 -2.97467 13.2013 -0.0435128 
-2.95116 13.5415 -0.0457073 -2.91361 14.2456 -0.050409 -2.78134 14.0444 -0.0478552 
-2.93014 13.9032 -0.0480999 0.843791 10.9252 0.0110158 0.965064 10.9135 0.0125098 
0.979977 10.4732 0.0113696 -0.913704 1.63207 -0.00091346 -0.683508 3.45782 -0.00727844 
-0.564328 3.54193 -0.00709893 -0.540801 3.06017 -0.00671601 3.31978 7.40999 0.041625 
-2.53546 13.303 -0.0405622 -2.6957 13.1403 -0.0408017 -2.38826 13.0837 -0.0378007 
-2.54945 12.9218 -0.0380906 -2.91342 10.4731 -0.0260055 -2.92008 10.1601 -0.0244259 
-2.76185 10.3024 -0.0242188 3.27293 14.3591 0.0177269 -0.438278 3.02579 -0.00641011 
-0.354095 3.04732 -0.00609283 -0.451412 3.50783 -0.00660047 2.46259 5.19074 0.0260992 
2.56076 5.04083 0.0285491 2.37388 4.81658 0.024703 3.47871 20.002 -0.0198918 
-1.2666 28.2609 -0.0966678 -1.34559 27.8806 -0.0966792 -1.43535 28.2912 -0.0984665 
1.64157 3.13505 0.0120068 1.50943 2.73116 0.0100522 1.41335 2.75712 0.00803407 
-3.46749 6.36596 -0.00515073 1.03841 25.4755 -0.0693139 0.848683 25.8369 -0.0716324 
1.0786 25.9206 -0.0698544 3.52983 10.6219 0.0392235 -2.26105 17.2894 -0.0665797 
-2.07294 17.074 -0.0635503 -2.07549 17.4315 -0.0660714 -3.35151 5.73554 -0.000799165 
-3.26729 5.81614 -0.0021727 -3.41896 6.06944 -0.0031333 -2.36584 20.1858 -0.0853399 
3.12099 15.9151 0.00538092 3.25041 15.7513 0.00811626 3.11976 15.5685 0.00780529 
-3.114 23.5645 -0.10512 -2.95421 23.3605 -0.102928 -3.10115 23.2371 -0.103953 
-3.12562 5.18595 0.00215667 -3.28681 5.44822 0.00129597 -3.19598 5.48558 4.40843e-05 
-0.574305 1.05339 -0.00674142 -0.745657 1.35099 -0.00355313 -0.608469 1.03517 -0.00429281 
-0.13761 0.188653 -0.00376809 -0.290158 0.451836 -0.0101749 -0.15583 0.181493 -0.00876118 
2.97651 15.7414 0.00487425 1.19383 1.77105 0.0062137 1.10553 1.74039 0.0043973 
1.35833 2.13997 0.00871713 0.0988863 0.4926 -0.00191666 0.137092 0.801012 -0.00127107 
0.0813516 0.49509 -0.00184877 -2.59185 20.7594 -0.0898644 -2.72585 20.6226 -0.0902499 
-3.48259 9.58893 -0.0239304 -3.58914 9.79697 -0.0256107 -3.60456 9.45686 -0.0236541 
3.29189 28.8849 -0.057018 3.27321 28.5121 -0.0562439 3.11982 28.7179 -0.0581274 
2.02971 11.4977 0.017428 2.07618 11.1678 0.0187369 1.86471 11.3866 0.0162754 
1.91248 11.0563 0.0174575 -2.01436 11.6827 -0.0255604 -1.90239 12.2256 -0.0277355 
-2.16781 11.8423 -0.027941 -2.05836 12.3842 -0.0302746 3.52956 27.017 -0.0500393 
3.67386 26.8436 -0.048239 3.51322 26.6602 -0.0492207 3.01245 10.0073 0.0326156 
3.03394 9.67044 0.0334783 3.17071 9.82476 0.0354165 3.18964 9.49061 0.0362927 
0.197863 1.81419 -0.00281034 0.187207 1.45832 -0.0025117 1.53383 3.19325 0.00974753 
3.40587 27.9376 -0.0535942 3.56231 28.1235 -0.0526621 3.55377 27.7732 -0.0518278 
3.41538 24.5196 -0.0436598 3.28346 24.6414 -0.0454252 3.26131 24.294 -0.0444783 
1.86515 3.92313 0.0154036 1.6433 3.56943 0.0113304 1.95507 4.30531 0.0165916 
1.73918 3.95144 0.0129135 -2.59793 14.8978 -0.0524018 -2.43483 15.0443 -0.0520399 
-2.58853 15.2397 -0.0547897 -0.960651 1.60011 0.00243064 -1.00123 1.57096 0.00618725 
-1.15599 1.88443 0.00521282 0.120741 15.9464 -0.0315345 0.186091 16.0905 -0.031752 
0.18858 15.8715 -0.029568 -0.128321 0.19435 0.000362147 -0.262092 0.468704 -0.0102501 
-0.121958 0.187351 -0.00231453 -2.37237 4.49736 -0.000262592 -2.18357 4.24766 -0.000586973 
-2.28579 4.16431 0.00141968 -1.86443 3.20771 0.00460511 -1.64509 2.91318 0.00332818 
-1.72712 2.8221 0.00700719 -2.07778 13.1002 -0.0350737 -2.23661 13.2451 -0.0375355 
-2.0616 13.4446 -0.0373138 0.225467 25.8165 -0.0769682 0.426286 25.9066 -0.0755821 
0.353812 26.3153 -0.0769885 -0.215379 14.4377 -0.0221094 -0.145754 14.3919 -0.0199806 
-0.215738 14.2059 -0.0196567 0.542191 3.55125 -0.00166696 0.648069 3.53772 -0.000859776 
0.642747 3.95569 -0.000801473 -0.280562 18.3554 -0.0641603 -0.401562 18.4625 -0.0674331 
-0.250153 18.053 -0.059954 1.36484 5.86974 0.00719344 1.28636 5.30533 0.00620311 
1.14576 5.59506 0.00465716 -2.31124 5.76063 -0.00737644 -2.12327 5.55186 -0.00740528 
-2.1655 5.92459 -0.00843226 0.337726 18.6936 -0.0492829 0.0927945 18.42 -0.0745907 
1.63103 19.0309 -0.0382259 1.68956 19.4526 -0.0408875 1.84349 19.2232 -0.0365479 
-0.980792 2.96277 -0.00686357 -0.921264 2.59565 -0.00657392 -1.08235 2.98135 -0.00631483 
-3.25237 18.61 -0.0832882 -3.22569 18.2539 -0.080831 -3.37384 18.4986 -0.0835948 
-0.226226 0.479009 -0.00645868 -0.365096 0.787063 -0.00657603 -0.245597 0.478486 -0.00654828 
-0.998781 1.02021 0.060495 -0.703497 0.698695 0.0551433 -0.489236 0.425774 0.0203273 
-0.0143038 19.0392 -0.0818922 -0.12059 18.4241 -0.0785806 0.954408 20.043 -0.0622966 
0.899215 19.6176 -0.0597752 0.783124 19.6199 -0.0639733 3.38161 27.1758 -0.0518253 
3.22692 27.3592 -0.0537257 3.20639 26.9791 -0.0529312 2.77412 11.1624 0.0267126 
2.74301 11.4909 0.0253241 3.45632 25.2195 -0.045548 3.47269 25.5863 -0.0465173 
3.32061 25.3493 -0.0472885 3.33593 25.717 -0.0482269 0.186465 16.332 -0.0337514 
0.124527 16.1531 -0.0334625 3.28223 14.6958 0.0156719 3.13633 14.5277 0.0149779 
0.127936 14.8643 -0.0205874 -2.28108 4.61067 -0.00201459 -2.10167 4.36639 -0.00228641 
3.47647 22.9963 -0.0370135 3.45156 22.6465 -0.03568 3.5989 22.8545 -0.0350061 
-0.0886576 0.189975 -0.00211903 -0.104091 0.205779 -0.00216445 -0.192729 0.490728 -0.00499601 
3.17669 25.871 -0.050215 3.16583 25.5102 -0.0492927 3.34704 26.0778 -0.0491581 
-1.69391 10.8551 -0.0178988 -1.51184 10.6699 -0.0151829 -1.49903 11.0723 -0.0165563 
-1.32016 10.9066 -0.0133939 3.59098 31.0813 -0.0600734 3.65272 30.7321 -0.0586138 
3.73989 31.0861 -0.0587987 0.125144 14.0186 -0.0116487 -0.202144 2.17745 -0.00496502 
-0.274461 2.59491 -0.00552041 -0.266772 2.1829 -0.00530772 -0.925677 18.0524 -0.0627307 
-0.731239 17.7832 -0.0587421 -1.04202 17.8141 -0.0611878 -0.848659 17.5658 -0.0577779 
2.12534 8.35373 0.0200498 2.11393 7.98297 0.019605 1.93323 8.24586 0.0171346 
-2.40076 18.6406 -0.076656 -2.58275 18.873 -0.0794946 -2.54814 18.5087 -0.0769604 
3.30563 19.455 -0.0182362 3.27616 19.0997 -0.0160713 3.15195 19.2337 -0.0186001 
-3.50328 11.1034 -0.0332862 0.268127 16.9988 -0.0380457 0.366763 16.9783 -0.0365697 
0.264994 16.7544 -0.0359532 3.01374 17.1762 -0.00511659 2.8412 16.9699 -0.00570963 
3.00096 16.8137 -0.00259142 3.70532 22.3679 -0.0314586 3.54697 22.1829 -0.032276 
3.66186 22.0531 -0.0302973 2.76508 8.98725 0.029886 2.58772 9.14209 0.0270958 
2.59351 8.80774 0.0272595 -2.92325 26.0409 -0.109698 -2.77262 26.2449 -0.108517 
-2.94734 26.4108 -0.110797 0.054247 0.196015 -0.000796604 0.118131 0.496496 -0.00269906 
2.12984 5.09312 0.0193563 2.05091 4.69967 0.0181332 2.24187 4.90976 0.0217622 
2.22693 5.44737 0.020974 2.10771 5.61 0.0187287 2.28947 5.86366 0.0220241 
-2.20282 11.4924 -0.0262712 -2.05626 11.324 -0.0239866 2.14852 4.51715 0.0202441 
-1.23223 16.0574 -0.0485171 -1.27155 16.438 -0.0519231 -1.07192 16.2176 -0.0483721 
2.32618 29.7245 -0.0675336 2.39811 29.3767 -0.0660666 2.47554 29.7837 -0.0663935 
2.71618 29.4944 -0.0636017 2.86068 29.584 -0.0625649 2.83792 29.219 -0.0618633 
2.86635 21.0083 -0.0341261 2.72925 21.1063 -0.0365437 2.89276 21.3225 -0.0356104 
-1.7856 22.9186 -0.0907572 -1.68315 23.4883 -0.0913829 -1.50453 22.893 -0.0880984 
0.171424 4.11269 -0.00376458 0.221324 3.54655 -0.00343668 0.0272593 4.57084 -0.00466789 
0.0981592 3.99509 -0.0041659 0.0984281 25.087 -0.076702 -2.78593 23.4603 -0.10163 
-2.96954 23.7114 -0.104159 -0.424701 28.6055 -0.0891066 -0.58157 28.6379 -0.0906501 
-0.499741 29.0509 -0.0907719 -2.43544 26.7025 -0.105825 0.974501 30.6035 -0.0811047 
1.04124 30.2528 -0.0797166 -2.30915 30.447 -0.111846 -2.39927 30.8213 -0.113448 
-2.46389 30.4751 -0.113581 0.957295 29.8724 -0.0795631 0.560288 29.4682 -0.0820922 
0.712476 29.4722 -0.0807754 0.784574 29.0878 -0.0792854 0.639667 29.8471 -0.0822495 
-1.98298 4.48223 -0.00401834 -2.17577 4.73028 -0.00369762 3.22033 5.69298 0.0435041 
3.31244 5.59276 0.0465421 3.14323 5.35021 0.0427377 -1.76152 29.9976 -0.105236 
-1.69645 30.3593 -0.105215 -1.91788 30.0101 -0.106899 -1.85411 30.3707 -0.106872 
-2.53143 21.6093 -0.0930624 -2.40266 21.7863 -0.0927125 -2.57676 21.973 -0.0948229 
-3.09777 18.3731 -0.0805343 -2.75765 30.5377 -0.116932 -2.84123 30.8991 -0.118466 
-2.70269 30.8638 -0.116859 1.08602 17.4754 -0.0321161 1.28777 17.7367 -0.0317428 
1.11146 17.8281 -0.0350103 -3.04229 29.9214 -0.119045 -3.11042 30.3019 -0.120492 
-2.97016 30.2505 -0.118821 -2.07192 19.2235 -0.0779417 -1.95051 19.395 -0.0782 
-2.12467 19.5822 -0.0804072 2.67499 6.60623 0.0291292 2.64657 6.28171 0.0287843 
2.50993 6.72695 0.0258964 2.4849 6.3987 0.0255295 -1.73109 19.1917 -0.0756051 
-1.92568 18.9414 -0.0751797 -2.21614 21.659 -0.0907739 -2.3003 22.0692 -0.0928968 
-2.00303 21.526 -0.0888008 -2.08639 21.9371 -0.0907691 -2.92916 31.2421 -0.119995 
-2.90351 30.5664 -0.118609 -2.822 30.2053 -0.117079 2.53607 5.57596 0.0271579 
2.64093 5.42312 0.0296876 2.77886 21.7713 -0.0395281 2.80257 22.127 -0.0410094 
2.5947 21.5527 -0.040864 2.61936 21.9071 -0.0423298 0.380563 13.6095 -0.00632134 
0.396626 13.33 -0.00318598 0.272683 13.8408 -0.00939267 0.281298 13.5825 -0.006624 
3.27729 6.01084 0.0438162 3.17956 6.11714 0.0409928 3.12569 5.80557 0.0404444 
3.05462 6.2178 0.0377546 3.00452 5.90034 0.037277 2.50655 12.3588 0.0192528 
2.3387 12.1798 0.0181026 2.53819 12.0283 0.020956 2.98755 12.1472 0.026019 
3.15714 11.9738 0.0289706 3.12905 12.3059 0.027173 -2.22808 3.34966 0.010995 
-2.4521 3.66229 0.0108476 -2.31122 3.3164 0.0138737 -2.94206 18.1306 -0.0777134 
-2.91631 17.7748 -0.075193 -3.07025 18.0103 -0.0779895 3.27698 12.1213 0.0299521 
3.2503 12.4651 0.0280148 3.58891 21.0331 -0.0252628 2.25274 25.73 -0.0587641 
2.4711 26.0554 -0.0574883 2.25051 25.3207 -0.0577974 2.46757 25.6468 -0.0564978 
2.33428 6.53059 0.0227352 2.29704 6.16976 0.0220722 2.44358 6.04076 0.024867 
3.43199 20.8308 -0.0258863 3.28346 20.6375 -0.0265053 3.40404 20.5086 -0.0241801 
3.16209 21.079 -0.0307447 3.13591 20.7668 -0.0291627 3.30949 20.9504 -0.0281319 
2.81141 15.9086 0.00167971 3.358 26.4402 -0.050067 3.36593 26.818 -0.051014 
-0.947947 21.9077 -0.0812576 3.24678 28.1032 -0.0554469 3.08119 27.9126 -0.056458 
3.23636 27.7435 -0.0546287 1.43836 15.2202 -0.0093877 1.64127 15.0894 -0.00609142 
1.28635 15.075 -0.00991566 1.48772 14.942 -0.00671383 -0.48078 11.9208 0.000948629 
-0.407473 12.2746 -0.00221223 -0.606998 11.8363 -0.00437216 3.19408 26.624 -0.0521073 
-1.79981 18.6099 -0.0722151 -1.60282 18.8568 -0.0726603 1.15439 13.9224 -0.0028309 
1.17134 14.2277 -0.00478242 1.29828 13.8694 -0.00099904 -3.90344 25.4788 -0.119032 
-3.88598 25.1029 -0.117802 -3.76703 25.2304 -0.116826 0.853666 19.2495 -0.0561993 
0.987456 19.1895 -0.0518075 0.794012 18.871 -0.0519657 2.68988 4.96388 0.0319181 
2.78153 4.84655 0.0346866 2.58971 4.59331 0.0305079 -3.64035 25.3441 -0.115726 
-3.78162 25.59 -0.117952 2.03243 14.393 0.00290165 2.18214 14.5378 0.00364097 
2.02243 14.7364 0.000516094 2.77689 4.41366 0.0365779 2.85652 4.34639 0.0395437 
2.66575 4.08692 0.0350794 2.7401 4.02574 0.0380374 -2.52367 3.62821 0.0131929 
-2.59476 3.60605 0.0156665 -3.53806 26.1742 -0.116731 -3.52304 25.8308 -0.115712 
-3.40134 26.2988 -0.115513 -3.38713 25.9545 -0.114527 -3.13516 8.35805 -0.0166451 
-3.2664 8.22788 -0.0162037 -3.00133 8.15865 -0.0155688 -3.13177 8.02872 -0.0151486 
3.50021 23.3462 -0.0382816 3.62354 23.2037 -0.0363277 0.424891 30.9284 -0.0865252 
0.244542 18.3221 -0.055337 0.370584 18.4463 -0.0557987 0.216288 18.026 -0.051294 
2.15949 15.8886 -0.00601921 2.15533 15.5574 -0.00369264 2.34268 15.7484 -0.00283557 
-3.67078 26.0487 -0.117894 -3.79679 25.9246 -0.118989 -3.64891 25.709 -0.116787 
-2.63576 18.0178 -0.0745068 -2.79947 18.2415 -0.0772647 -2.66958 18.3639 -0.0769953 
1.99865 15.4116 -0.00446297 2.01438 15.0647 -0.0018105 2.16381 15.2091 -0.00110185 
-3.15788 28.8978 -0.118409 -3.00377 28.7944 -0.116475 -3.06292 29.2285 -0.117985 
-2.90771 29.1247 -0.116045 2.91761 8.82137 0.0324906 2.90488 9.14383 0.0320253 
1.797 15.5408 -0.00771396 1.63797 15.4071 -0.00847019 1.79898 15.2202 -0.00533405 
-2.51946 29.3753 -0.112216 -2.67191 29.4134 -0.113973 -2.45021 29.7245 -0.112106 
-2.60368 29.7622 -0.113863 3.33815 19.7978 -0.0202292 3.36683 20.1468 -0.0222449 
-1.53899 18.3876 -0.0689388 1.38355 12.555 0.00791502 1.58355 12.2396 0.0108914 
2.54213 23.3721 -0.049324 2.5162 23.0257 -0.0484066 2.71155 23.2879 -0.0470214 
2.68381 22.9419 -0.0460296 2.51625 22.6796 -0.0471075 -3.02187 16.962 -0.0706001 
-3.15405 16.8257 -0.0707568 -2.87538 16.7088 -0.0676367 -3.00814 16.5721 -0.0677919 
-3.09558 26.2473 -0.112038 -3.08682 25.8507 -0.111017 -3.24504 26.0935 -0.113315 
-2.77874 17.9066 -0.0749322 -3.33364 10.071 -0.026012 -3.46685 9.93875 -0.0258814 
-3.44565 10.2698 -0.0277333 3.5474 20.7167 -0.0237754 -2.15646 3.41492 0.00818835 
-2.06076 3.47359 0.00526524 -2.28563 3.76956 0.00580298 -2.51399 24.7102 -0.102262 
-2.7064 24.9276 -0.104791 -2.54508 25.1153 -0.103556 -3.47506 21.1015 -0.0989119 
-3.3531 21.2048 -0.098302 -3.50269 21.4352 -0.100716 -0.651492 3.00455 -0.00700018 
-0.510484 2.61387 -0.00653076 -1.97256 25.3388 -0.0977652 3.03294 13.6835 0.0188817 
3.17776 13.5016 0.0216993 3.16124 13.8416 0.0195159 -0.634426 18.1903 -0.0627665 
-0.498324 18.1887 -0.0619521 -0.668626 18.5408 -0.0669372 -0.175271 0.494728 -0.00568155 
-0.28112 0.801668 -0.00627036 0.109987 0.805512 -0.00258441 0.0634845 0.495134 -0.00116656 
0.128584 1.11165 -0.00218531 0.0831426 0.799053 -0.000892095 -0.213846 16.5163 -0.0427536 
-0.142051 16.5413 -0.0426128 -0.214742 16.7442 -0.0449156 -2.67237 22.6056 -0.0978597 
-2.47604 22.5303 -0.0958894 -2.62855 22.2866 -0.0963854 -2.05012 18.7672 -0.0749304 
4.00089 27.9477 -0.0482813 3.97229 27.6034 -0.0476141 3.8452 27.7749 -0.0492133 
2.64777 25.8971 -0.0553894 2.66034 26.2593 -0.0561918 2.15201 29.6832 -0.0689303 
2.22525 29.3347 -0.0674587 3.7686 23.4161 -0.0357256 -2.61227 14.5359 -0.0499255 
-2.45672 14.7011 -0.0497529 -3.73302 24.5302 -0.11445 -3.86983 24.7644 -0.116649 
-3.84974 24.4156 -0.115382 -1.04925 1.55091 0.0106345 -0.857941 1.27047 0.00866669 
2.38465 30.1273 -0.0680249 2.54445 30.1672 -0.0667526 -3.48831 25.1039 -0.113434 
-3.35458 25.2395 -0.112362 -3.33651 24.8714 -0.111183 0.544306 18.8494 -0.0584921 
0.427365 18.7758 -0.0611496 -0.815359 2.55989 -0.00690683 -0.752107 2.17517 -0.0067711 
-0.735213 2.58663 -0.00699128 -0.682238 2.20076 -0.0068456 -2.97851 9.14672 -0.0198097 
-2.81847 9.30021 -0.0199495 -2.96045 9.48046 -0.0213165 -2.39521 24.1169 -0.0996318 
-1.65211 17.4264 -0.0627796 -1.89508 17.6358 -0.066128 -1.85691 17.1937 -0.0626636 
-2.25506 10.2765 -0.0207617 -2.10211 10.4705 -0.0204012 -2.23369 10.6197 -0.0220381 
-0.31626 1.82777 -0.00552749 -0.409556 2.21147 -0.00607758 -0.338753 2.20918 -0.00568464 
-0.430674 2.60076 -0.00621583 -1.44174 17.5706 -0.0621825 -1.41542 17.2045 -0.0591922 
-1.37012 16.7814 -0.0556023 -1.44152 16.4452 -0.0533998 -0.648744 29.0717 -0.0922366 
-0.810473 29.0778 -0.0938153 -0.742783 28.6433 -0.092227 -1.04318 28.6849 -0.0952937 
-1.19373 28.7154 -0.0968756 -1.12154 29.1195 -0.0969815 1.17979 3.72149 0.00421325 
1.06272 3.73352 0.00291147 1.0107 3.3122 0.00212367 -2.4084 8.43412 -0.0153044 
-2.23662 8.45867 -0.0148363 -2.37267 8.10194 -0.0142613 -2.17928 8.20958 -0.0140108 
-1.98893 8.14157 -0.0132222 -2.04272 8.57616 -0.0144054 -0.75934 14.6148 -0.0315606 
-0.624343 14.7916 -0.0313387 -0.630587 14.5067 -0.0289317 -1.84799 2.19747 0.0334162 
-1.60163 1.82572 0.0396768 -1.88339 2.21878 0.0368536 0.896267 30.9506 -0.0825772 
1.09315 1.43193 0.00601734 0.87373 1.08935 0.00287346 1.1131 1.39749 0.00704722 
-2.22433 8.80686 -0.0156892 -0.408599 14.0497 -0.0214528 -0.303475 14.2561 -0.021777 
-0.308628 13.9941 -0.0193915 -2.21736 7.77444 -0.0130363 -2.02443 7.70022 -0.0124182 
-1.97998 2.60768 0.0214716 -2.15197 2.95661 0.0175347 -1.9022 2.61457 0.0178707 
0.456451 14.5105 -0.0142476 0.362514 14.4111 -0.0142273 0.361142 14.6706 -0.0166342 
-0.866586 2.92731 -0.00721073 -1.01661 3.38151 -0.00711178 -0.80525 3.05501 -0.00718987 
-0.945134 3.51073 -0.00745322 -0.368369 27.2536 -0.0855184 -0.526348 27.154 -0.0868246 
-0.450496 27.6687 -0.0872397 -1.73857 7.34302 -0.0112264 -1.78726 7.79909 -0.0120909 
-1.56218 7.6626 -0.0113675 0.411746 13.0342 9.99578e-05 0.306969 13.0344 -3.40381e-05 
3.95637 29.9423 -0.0538978 4.08123 29.7925 -0.0524079 3.93704 29.5927 -0.0531438 
-3.70265 22.3441 -0.106524 -3.5604 22.1001 -0.104143 -3.67591 21.9843 -0.104766 
-0.790429 3.45871 -0.00742762 -2.7445 17.2049 -0.0699624 -2.58831 16.9814 -0.0671365 
-0.396699 14.5957 -0.0265049 -0.394696 14.8501 -0.0288198 -0.302554 14.7582 -0.0265875 
3.02383 26.3925 -0.0530931 2.83684 26.1808 -0.0543205 3.01259 26.0043 -0.0521678 
2.82635 25.7923 -0.0534002 2.08846 8.69822 0.0197928 2.26275 8.52523 0.0221757 
0.597014 14.0375 -0.00873127 0.607508 13.7389 -0.00598546 0.473819 13.951 -0.00905155 
0.622597 28.2449 -0.0788263 0.121004 15.5386 -0.0273815 4.05798 29.3922 -0.051559 
0.801956 29.863 -0.0808813 0.873391 29.4896 -0.0794182 -0.604943 12.8852 -0.0148636 
-0.645498 12.5339 -0.0118184 -0.460939 12.9044 -0.0108023 -0.499248 12.5611 -0.0081649 
-0.135425 17.6255 -0.0540446 -0.137035 17.4006 -0.0498996 -0.235173 17.7773 -0.0561993 
2.20653 13.867 0.00811028 2.04798 13.7262 0.0072194 2.23127 13.523 0.010355 
2.07446 13.3835 0.00948404 2.17874 4.06432 0.0217183 2.05003 4.13698 0.0188485 
2.28426 4.44279 0.0234224 0.725882 13.8492 -0.0059867 0.741396 13.5383 -0.00324119 
-0.142092 13.9526 -0.0144456 -0.218367 13.7295 -0.0141704 -0.215344 13.9798 -0.0172354 
-0.952228 3.95695 -0.0077366 -1.16275 3.92957 -0.00749807 2.31226 28.9808 -0.0658657 
2.15988 28.9217 -0.0670457 -0.824234 18.5275 -0.0667519 -0.866727 18.8905 -0.0705809 
1.5831 29.1643 -0.072588 1.74636 29.1919 -0.0712506 1.49521 28.7129 -0.0723087 
1.65803 28.7407 -0.0709735 -2.39072 4.09761 0.00367302 -2.4806 4.03856 0.00582357 
0.269446 14.1046 -0.0121118 0.19018 14.2847 -0.0144863 0.190946 14.0397 -0.0120016 
0.120632 15.1125 -0.0231443 0.189024 14.9679 -0.0211666 1.87357 31.0551 -0.0746833 
-3.40978 23.705 -0.108513 -3.25239 23.4667 -0.106181 -3.38554 23.3555 -0.107117 
0.790028 2.99813 -5.35552e-05 0.876776 2.94 0.00065165 -1.75795 4.06397 -0.00408407 
-1.74287 3.70657 -0.00233247 -1.62916 4.16463 -0.00559862 -1.62172 3.80106 -0.00416372 
1.69069 4.62235 0.011731 1.46673 4.57866 0.00808806 -1.00571 17.0729 -0.0548189 
-1.19721 16.9341 -0.0551773 -0.968967 16.7404 -0.0516274 -0.337999 3.51469 -0.00622772 
-0.545072 3.97864 -0.00716857 -0.421177 3.98731 -0.00670268 -0.597086 18.8827 -0.0720985 
-0.538979 18.535 -0.0673106 -0.723165 18.9012 -0.0713331 -0.833321 3.99586 -0.00772984 
-1.98201 28.8281 -0.10532 -1.90858 28.3893 -0.103651 -1.82923 28.7975 -0.103632 
-1.05774 30.2744 -0.0986374 -1.14199 30.6288 -0.100117 -1.21056 30.2978 -0.100189 
-1.20324 29.5371 -0.0986465 -1.048 29.5261 -0.0970763 -0.422454 30.9301 -0.0939302 
2.466 4.66655 0.0271642 1.88453 4.80186 0.0149335 2.01674 5.25585 0.0171467 
-2.09569 3.01984 0.0140535 -1.85702 2.69499 0.0139594 3.03462 7.35407 0.0357425 
3.04978 7.69059 0.0357243 1.80231 4.4063 0.0136083 1.85547 7.02903 0.015009 
1.69743 7.30685 0.0127212 1.88672 7.44993 0.0157644 2.65427 12.5068 0.0203268 
2.68672 12.1581 0.0222007 2.8284 12.3403 0.0231763 2.86045 11.9919 0.0250202 
2.48296 12.7065 0.0174132 2.45321 13.0315 0.0154897 2.62423 12.8319 0.0184502 
-3.19126 6.93052 -0.00978551 -3.30733 6.84768 -0.00900546 -3.15506 6.60957 -0.0081302 
-3.29556 14.54 -0.0557295 1.15677 14.5317 -0.0072498 0.986831 14.3878 -0.00781832 
-0.604054 19.5089 -0.0807683 -0.611234 19.904 -0.0838116 -0.495624 19.3926 -0.0850276 
2.23634 19.2442 -0.0309047 2.41043 19.5595 -0.0307739 2.2583 19.6143 -0.0333606 
2.29193 19.9637 -0.0353798 2.47071 20.2374 -0.0346747 2.44292 19.9104 -0.0328187 
-3.21957 19.7855 -0.0899301 -3.34602 19.6787 -0.0904027 -0.308977 19.1404 -0.0901307 
-0.380725 18.7751 -0.0697899 -1.16491 18.6802 -0.0692029 -1.14088 18.3191 -0.0660774 
-1.37363 18.5847 -0.0694515 3.05199 17.888 -0.00995493 3.03232 17.5327 -0.0075474 
-2.17202 9.30946 -0.0167676 3.53911 27.3955 -0.0509665 1.81425 10.3282 0.0175392 
1.84482 9.96367 0.0177951 1.66364 10.1817 0.0161412 -2.95902 23.0289 -0.101906 
-2.94022 22.6794 -0.10055 -2.81008 22.8171 -0.0998284 2.40552 30.8311 -0.0696238 
2.3471 31.1551 -0.0709605 2.2515 30.7942 -0.070838 2.50513 26.4858 -0.0582112 
2.69556 26.6887 -0.0569359 2.71788 11.8281 0.0238573 -1.22122 17.3539 -0.0587783 
0.188749 15.435 -0.0255208 0.188024 15.6531 -0.0276578 2.27405 18.283 -0.0229606 
2.47817 18.4884 -0.0218399 2.44785 18.1534 -0.0196643 3.14853 10.1669 0.0344045 
0.947649 29.0952 -0.0778839 1.09958 29.1117 -0.0766098 1.01515 28.6957 -0.0763956 
-2.81211 27.0675 -0.11076 -2.85612 27.5103 -0.112197 -2.98522 27.2219 -0.113008 
2.97525 15.4022 0.00722048 3.12002 15.2275 0.0101505 -3.26685 26.4445 -0.114382 
-2.99585 11.3519 -0.0315166 -2.84586 11.5037 -0.0313981 -3.10529 11.5235 -0.0333157 
-2.95535 11.6777 -0.0332372 -2.89398 27.9232 -0.113477 -3.06608 28.0772 -0.115714 
-3.02175 27.6412 -0.114306 2.56681 11.6793 0.0225621 -0.315991 20.1939 -0.0778785 
-0.192855 19.6359 -0.0797931 -0.0517775 20.1129 -0.0751525 0.116271 19.5986 -0.0775691 
-1.19774 10.7609 -0.0106823 -1.40816 10.4095 -0.0128093 -0.638784 6.71142 -0.0079813 
-0.784056 7.39496 -0.00846546 -0.508772 7.32683 -0.00749666 -0.192147 20.6945 -0.0759954 
0.0852875 20.6656 -0.0728583 -0.0556185 21.196 -0.0728485 -0.927491 7.89905 -0.00967385 
-1.04811 7.33291 -0.0097684 -0.793043 8.43629 -0.00884512 -0.646756 7.92474 -0.00795858 
1.08747 21.2587 -0.0632471 1.04522 21.7404 -0.0639008 0.914663 21.2714 -0.0651191 
-1.97137 19.741 -0.0803455 -2.92687 12.0131 -0.0351525 -3.07694 11.8691 -0.035326 
-2.80512 11.8191 -0.0330327 -1.74555 20.654 -0.0837431 -1.5545 20.8123 -0.08343 
-1.80854 21.3119 -0.0866758 -2.26706 15.5195 -0.0540162 -2.10017 15.6558 -0.0535397 
-2.27546 15.1738 -0.0515785 -2.10687 15.3122 -0.0510766 -2.75973 5.03991 -0.000400858 
-2.82994 5.36801 -0.00218059 -2.93418 5.29603 -0.000782598 -3.48992 31.3869 -0.126663 
-3.54566 31.098 -0.126843 -3.3591 31.3439 -0.12507 -3.41491 31.0551 -0.125258 
-0.900179 6.66889 -0.00919257 -3.06673 10.0228 -0.0244713 -2.9416 9.82475 -0.0228635 
-2.35037 11.6499 -0.0284208 -2.46422 12.0773 -0.0319391 -2.28133 12.2679 -0.0315271 
-0.500808 28.1614 -0.0888374 -0.656874 28.1957 -0.0904201 0.375073 13.8835 -0.00911181 
1.88302 13.2105 0.00851026 1.86075 13.5438 0.00639956 1.54885 23.1977 -0.0603332 
1.3083 23.1738 -0.0624312 1.36161 22.6579 -0.0615902 -0.460842 19.0416 -0.081579 
-2.5092 9.29455 -0.0185254 2.08511 28.4737 -0.0666596 2.00488 28.0502 -0.0663836 
1.91678 28.3994 -0.0679583 0.165814 1.11353 -0.00238259 1.45591 30.6569 -0.0771908 
1.52514 30.3219 -0.0758009 1.36159 30.2922 -0.0771049 -1.75189 2.30422 0.0216572 
2.88934 19.5146 -0.0239789 2.70804 19.311 -0.0249101 -1.00343 2.56786 -0.00588933 
-3.21723 9.86045 -0.0243117 -3.09139 9.66432 -0.0227499 -3.23432 9.52518 -0.0226009 
-0.467337 18.8036 -0.0723127 -0.359205 18.6999 -0.072912 -0.55314 19.1713 -0.0773996 
-1.95005 27.0795 -0.101334 -0.457571 2.12419 -0.00626848 -0.52134 2.11913 -0.00650765 
-0.369011 1.80899 -0.00585596 -0.424521 1.80426 -0.00616166 0.711432 24.0195 -0.0695494 
0.588511 24.562 -0.0712702 0.556293 23.3859 -0.0699292 0.429928 23.9398 -0.0719562 
-2.13523 27.0457 -0.10326 -2.44311 25.8908 -0.104155 -2.41081 25.4903 -0.102965 
-1.61871 26.3274 -0.0962965 -1.57106 25.831 -0.094832 -1.71431 25.1703 -0.0947626 
-1.28334 27.251 -0.0946797 -1.19815 27.7529 -0.0948903 -1.11216 27.2223 -0.0928709 
-0.817723 13.6965 -0.024488 -0.956904 13.8047 -0.0274544 -0.660941 13.9048 -0.024144 
-0.795087 14.0016 -0.0269183 -1.42931 27.3811 -0.0964847 -1.4312 26.8113 -0.0952746 
0.191872 13.8135 -0.00952401 0.241605 23.3759 -0.0724856 0.0931804 22.8233 -0.0730006 
-0.0440001 23.4092 -0.0747978 -3.35914 13.1384 -0.0461745 2.48791 31.1757 -0.0698222 
2.55285 30.857 -0.0684402 0.537889 17.8426 -0.043082 0.675675 17.827 -0.0409856 
0.501654 17.5049 -0.039837 0.636959 17.4815 -0.0380466 0.746165 17.4031 -0.0357451 
0.796905 17.7202 -0.0382597 1.49084 14.6152 -0.00434273 1.28823 14.7543 -0.00742666 
0.893102 17.3212 -0.0332393 0.944208 17.6411 -0.035483 0.737311 3.45577 -0.000138191 
0.70234 3.0151 -0.00074786 0.613867 3.04367 -0.00129425 0.576937 2.61007 -0.00168089 
-0.583581 29.4544 -0.0924248 -0.420927 29.4514 -0.0908895 0.703714 18.1574 -0.0443662 
-3.45666 11.7661 -0.0373743 -3.62059 21.3366 -0.101346 0.875991 9.27473 0.00469794 
0.86207 9.82765 0.00434364 0.683151 9.17653 0.00187988 0.679955 9.76367 0.00322533 
0.726887 17.0799 -0.0329759 0.617976 17.1649 -0.0351084 0.253247 30.9216 -0.0879833 
0.158079 30.5771 -0.0880547 0.0759851 30.9175 -0.0895037 -0.170003 29.8583 -0.08944 
-0.334274 29.8514 -0.0909279 -0.251178 30.2283 -0.0909594 2.65051 31.207 -0.0685232 
1.41773 21.6653 -0.0592213 1.3874 22.1598 -0.0601304 1.58701 22.1729 -0.0576847 
1.57019 22.6635 -0.059099 -1.34811 26.2121 -0.0931019 -2.21685 23.4002 -0.0960612 
-1.99999 22.8441 -0.0925547 -2.26637 22.862 -0.0949917 -1.86961 3.61821 0.000219793 
-1.97993 3.97948 -0.00100957 1.50626 24.3997 -0.0630055 1.20976 24.3099 -0.0653681 
1.2972 23.7966 -0.0640451 3.20995 8.19995 0.038318 3.07028 8.35374 0.0355413 
3.06445 8.01769 0.0357283 -0.888035 24.755 -0.0849346 -0.731591 24.1595 -0.0824615 
-0.61078 24.7758 -0.0824729 2.2297 27.3599 -0.0628008 2.41532 27.4956 -0.0614552 
2.3775 27.0579 -0.0607644 0.140025 1.46031 -0.00262205 0.0919925 1.10994 -0.00216017 
0.139117 1.81225 -0.00293757 0.0921579 1.4544 -0.00260371 2.10758 27.645 -0.0645558 
2.06565 27.1928 -0.063905 2.08442 20.8789 -0.0446459 2.23663 20.7816 -0.0416892 
2.27036 21.0967 -0.0430221 -3.31686 27.6152 -0.117552 -3.18702 27.85 -0.116593 
2.41994 28.6437 -0.0641309 2.61534 28.6435 -0.0624078 2.49191 28.3224 -0.0627299 
1.19568 30.2692 -0.0784543 1.27067 29.8988 -0.0769502 3.69737 27.5792 -0.0500164 
2.61253 30.5308 -0.0670905 2.46606 30.5045 -0.06828 -1.47087 4.16931 -0.00654669 
-1.33323 4.37186 -0.00757171 -1.54882 4.56905 -0.00725042 0.853153 28.6865 -0.0777913 
2.75137 13.3585 0.0172689 2.90688 13.1742 0.020132 2.77453 13.0197 0.0193203 
2.93052 12.8353 0.0221554 2.54487 7.09246 0.0264899 2.70889 6.95532 0.0295997 
-1.43219 29.1709 -0.100239 -1.28025 29.1406 -0.0986267 1.42792 12.1902 0.0100858 
1.62844 11.8723 0.0128773 -0.733234 29.4762 -0.093901 0.968145 20.4288 -0.0638977 
0.812735 19.9958 -0.0662719 -0.807577 16.7826 -0.0505976 -0.796216 16.4589 -0.0477153 
-0.664061 16.8797 -0.0499224 -0.653349 16.5665 -0.0471918 2.27591 11.0323 0.0210846 
2.31831 10.7141 0.0222108 2.43634 11.1719 0.0225552 2.47826 10.8544 0.023768 
3.2142 23.6083 -0.0424773 3.35185 23.4865 -0.0404812 3.19333 23.2607 -0.0413275 
3.3299 23.1392 -0.0392767 -0.299706 15.253 -0.0312961 -0.391596 15.3736 -0.0336396 
-0.218593 15.3689 -0.0313449 -0.300974 15.4891 -0.03365 -0.896119 15.0766 -0.037065 
-0.896365 15.4195 -0.039889 -1.03264 15.256 -0.0401476 -0.484681 1.8033 -0.0064011 
-0.380328 1.46435 -0.00590813 -0.425701 1.45064 -0.00626115 -0.319412 1.11846 -0.00569328 
1.76102 3.51119 0.0138256 -0.339184 29.0469 -0.0892561 3.07114 27.5269 -0.0555835 
-1.94868 14.7695 -0.0456475 -1.80352 14.4447 -0.0419533 -1.74269 14.8916 -0.0446174 
-2.99505 7.82037 -0.0141512 -3.12239 7.70411 -0.0136616 -3.25987 7.91249 -0.0146628 
2.77797 31.2366 -0.0675168 2.8486 30.939 -0.0661315 2.93978 31.2757 -0.0662333 
0.381926 5.15418 -0.00237269 0.359803 5.87955 -0.00258101 0.571973 5.53588 -0.000962291 
-0.143329 12.8605 0.00420286 -0.282251 12.3862 0.00436177 -0.249238 12.703 0.000534945 
3.04947 9.32494 0.0341967 2.76678 30.5823 -0.0659078 2.70044 30.8941 -0.0672759 
1.80464 16.9281 -0.0182888 1.81891 17.2911 -0.0210174 2.01706 17.1427 -0.0173261 
2.03318 17.5091 -0.02004 2.25534 11.3662 0.0200414 -1.75059 5.37622 -0.0082458 
-1.74684 4.97969 -0.00731347 -1.55967 4.9672 -0.00800125 -3.58508 27.2759 -0.11983 
-3.57073 26.8935 -0.118797 -3.71694 27.136 -0.121008 -1.71357 4.56289 -0.00627797 
-2.33782 18.3248 -0.0741772 -2.48661 18.1919 -0.0744481 -0.546149 1.07613 -0.00749474 
-0.712697 1.38861 -0.00557801 2.50453 16.2491 -0.00451795 2.34583 16.4481 -0.00793116 
2.50964 16.6051 -0.00708848 -0.998498 13.4391 -0.0251425 -1.14943 13.5914 -0.0283024 
-0.913579 30.9602 -0.0985245 -0.753771 30.9479 -0.0969946 -0.832429 30.6033 -0.0970891 
-2.47702 19.6692 -0.0833441 -2.32945 19.819 -0.0831268 -2.29273 19.4576 -0.080828 
-1.06875 30.9757 -0.100037 -0.986425 30.6182 -0.0985864 3.51675 31.3988 -0.0615663 
-2.2636 15.8524 -0.0563972 -2.2598 16.2053 -0.0589158 -2.11533 15.9871 -0.0560713 
-2.11337 16.3381 -0.0585939 3.30379 24.9955 -0.0463592 0.972406 17.9899 -0.0385561 
-1.88022 31.0884 -0.108329 -1.7855 30.7184 -0.106752 -2.79907 26.6533 -0.109704 
-2.97125 26.8082 -0.11195 3.94307 31.4392 -0.0579674 -2.72724 27.7914 -0.111356 
-2.68352 27.347 -0.109939 -2.20206 6.31811 -0.00946238 -2.03704 6.58682 -0.0103308 
-1.99033 6.07157 -0.00921733 -1.83034 6.35093 -0.00994173 0.391322 6.55774 -0.00223436 
0.504279 7.31162 -0.00122236 0.232266 7.16856 -0.00323759 -2.62071 26.83 -0.108148 
1.40888 28.2632 -0.0720486 1.33511 28.7104 -0.0736866 1.24901 28.2607 -0.0734107 
-0.818962 29.8757 -0.0955425 -0.976169 29.8921 -0.0970989 -0.903058 30.2645 -0.0971183 
-0.775768 16.1281 -0.0446436 -0.765328 15.8364 -0.042204 -0.639022 16.2498 -0.0442668 
-0.628872 15.9683 -0.0416839 -1.11719 19.6411 -0.0764695 -1.26869 19.5507 -0.0761154 
-1.16084 20.037 -0.0788273 -1.30822 19.9493 -0.0785862 -0.83116 1.72326 -0.00497678 
-0.667262 1.40397 -0.0064287 3.16294 7.21126 0.0385589 3.29714 7.08838 0.0416752 
3.13104 6.87832 0.0383453 -2.70268 18.7295 -0.0795413 -2.73156 19.0643 -0.0818077 
0.24195 0.474295 -0.00435426 0.26219 0.476827 -0.00462731 0.121336 0.18251 -0.00166235 
-3.82609 31.117 -0.130135 -2.24556 18.7922 -0.0764768 -2.20421 18.62 -0.0750841 
-1.57545 19.2528 -0.0752057 -1.99814 18.4255 -0.0723028 -0.499704 30.582 -0.0939429 
-0.668369 30.5912 -0.0955261 -0.583067 30.9233 -0.0953724 0.23516 28.6317 -0.0831167 
0.390131 28.639 -0.0817502 0.308409 28.2195 -0.0815447 -0.345266 28.1698 -0.0873822 
0.485121 29.8467 -0.0835942 -2.56913 11.4531 -0.0290511 -2.53795 11.8011 -0.0308673 
-3.06669 25.4833 -0.109906 -2.8931 25.2583 -0.107518 -2.91506 25.6443 -0.10868 
-0.14876 15.2531 -0.0290918 -0.216801 15.1366 -0.0290642 -0.148271 15.0388 -0.0268991 
2.53482 17.3139 -0.0121203 2.3865 17.4962 -0.0153957 2.36805 17.158 -0.0130385 
-0.337448 24.6089 -0.0794466 -0.433842 25.3582 -0.0822239 -3.01118 10.9924 -0.0294818 
-2.87375 11.1465 -0.0294771 -0.277698 11.5844 -0.011159 -0.40473 10.9516 -0.0102179 
-0.482868 11.3465 -0.00551653 -2.60406 12.2608 -0.0342306 -2.6769 11.9842 -0.0330749 
-2.77769 12.1632 -0.0349946 -1.90437 4.10588 -0.0029046 -1.34395 24.1632 -0.0888463 
-1.63913 24.1927 -0.0920905 -1.48758 24.8076 -0.0917991 -0.917373 19.2665 -0.0739231 
-0.782545 19.2762 -0.074701 -0.215971 16.2942 -0.0404956 -0.146016 16.1131 -0.0380891 
-0.14653 16.3313 -0.040413 -3.99186 30.1885 -0.130426 -3.88923 29.9116 -0.128712 
-3.99165 29.8054 -0.12971 0.0599891 27.7589 -0.0827447 0.137679 27.2442 -0.0808933 
0.219277 27.7788 -0.0813578 1.80285 21.1669 -0.0509646 1.79475 21.5427 -0.0527886 
1.9955 21.4683 -0.0492704 1.43354 29.9281 -0.0756372 -3.47415 27.8078 -0.119739 
-3.62908 28.0195 -0.121951 3.43271 6.23019 0.0472227 3.32713 6.33068 0.0441133 
1.693 13.7253 0.00361752 1.85575 13.8674 0.00436494 -2.24454 24.6196 -0.0992301 
-2.05647 24.8578 -0.0979286 -2.04212 24.3441 -0.0965626 -3.93149 30.4425 -0.13018 
-4.10802 30.4387 -0.132227 3.57584 22.516 -0.0336395 1.88986 27.1145 -0.0653102 
1.93073 27.5681 -0.065944 0.816148 2.14554 -0.000517937 0.719177 1.76984 -0.00161796 
0.737558 2.13647 -0.00116802 0.650956 1.76094 -0.00204373 2.73979 19.6581 -0.0269678 
2.59865 19.771 -0.0296759 2.56588 19.4254 -0.0276519 0.889352 24.5384 -0.0688513 
1.12056 24.9366 -0.0676599 1.01412 1.03429 0.00435178 0.464729 0.401368 0.0072894 
0.991847 1.00874 0.00621261 2.89849 6.02504 0.0345361 2.84008 5.66553 0.0338625 
2.70765 5.77781 0.0305972 -0.395361 0.783232 -0.0092146 -0.412109 0.758748 -0.00958589 
2.76421 20.0023 -0.0290302 3.5459 7.16225 0.0472729 3.60451 8.11188 0.0464628 
1.70764 25.7186 -0.0638993 0.746175 1.35988 -0.00116241 0.703957 1.38511 -0.00192912 
0.581584 1.07169 -0.00318122 1.17237 13.5879 -0.000175299 1.24896 13.2736 0.00243477 
1.31733 13.53 0.00139458 -0.21701 0.17655 0.0132845 -0.241529 0.191729 0.0100255 
1.65623 26.2011 -0.0653893 1.43308 26.0311 -0.0669907 -0.19389 21.7678 -0.0743726 
-0.324528 22.3081 -0.0755782 -0.329458 21.2463 -0.0753187 -0.00776488 30.5796 -0.0895142 
3.60079 8.40456 0.0457834 -2.96763 18.4852 -0.0801737 -2.83813 18.6073 -0.0798764 
0.344164 20.6604 -0.0715298 0.478157 21.1981 -0.0698953 0.20798 21.1608 -0.0711778 
-2.40011 7.76108 -0.0133292 -2.36289 7.39637 -0.0123218 -2.18046 7.40783 -0.0121395 
-1.00956 21.4032 -0.082098 -1.05771 20.9641 -0.0816841 -0.866959 20.8954 -0.0811428 
3.34895 8.06289 0.0412357 3.47051 7.91478 0.0439939 3.39165 27.559 -0.0527377 
2.56762 19.1217 -0.0254098 3.18667 26.2462 -0.0511606 3.43684 7.27538 0.0444737 
3.41062 6.95961 0.0445585 -2.99113 6.37145 -0.00744636 -3.10943 6.28121 -0.00635953 
1.13248 15.1944 -0.0125895 1.12435 15.5183 -0.0151317 1.27265 15.388 -0.0124075 
-2.77907 28.2314 -0.112839 2.94872 22.0194 -0.0386091 0.794283 13.1985 -0.000123236 
0.629956 13.4417 -0.0032179 -3.2853 21.9706 -0.101029 -3.13005 21.7356 -0.0986498 
0.977611 11.7847 0.0105599 0.925588 12.1499 0.00839581 0.791834 12.0796 0.0089209 
1.10588 20.4284 -0.0609756 3.37053 5.9027 0.0468179 0.264564 14.8266 -0.018977 
0.26432 14.5827 -0.0167654 0.188296 14.7295 -0.019002 3.12515 14.8764 0.0125752 
1.15455 17.0694 -0.027534 1.1351 16.7356 -0.0249073 0.966082 16.8427 -0.0278819 
0.116053 13.1651 -0.000736897 0.692824 14.7301 -0.0135704 0.579956 14.604 -0.0137174 
0.697664 14.4363 -0.011098 -0.73925 27.8076 -0.0903412 -0.814891 27.3874 -0.0901549 
-0.901567 27.8103 -0.0919773 3.30458 11.79 0.0317198 3.1833 11.6365 0.0306577 
3.32825 11.4655 0.0333271 -0.920287 16.0326 -0.0452469 -0.889672 29.4917 -0.095451 
-0.96811 29.1116 -0.0954369 -1.82506 10.4255 -0.0176392 -1.86507 10.7468 -0.0193461 
0.214021 12.8156 0.00468513 0.11324 12.9282 0.00396743 2.99035 14.7039 0.0120849 
2.98048 15.0511 0.00967434 -0.13775 0.500049 -0.00432666 -0.223765 0.806118 -0.00560033 
-0.196813 0.812231 -0.0040197 -0.281695 1.12145 -0.00549957 -3.10278 9.34288 -0.0211903 
-3.25081 9.19066 -0.0209381 3.13023 22.2308 -0.0374247 2.97471 22.3637 -0.0399631 
3.15187 22.5761 -0.038817 2.99537 22.7088 -0.0412811 1.79346 20.2179 -0.0451233 
1.72979 20.539 -0.0485915 1.57255 20.1869 -0.0489751 -1.30917 1.76731 0.0187138 
-1.05521 1.38812 0.0204396 -1.21975 1.73166 0.0144515 0.0193835 0.200809 -0.000286053 
0.0275778 0.200289 -0.000904762 0.0460913 0.496536 -0.00101579 1.74781 28.3601 -0.0693401 
1.66183 27.8366 -0.0689178 1.83017 27.8768 -0.0675237 -3.21019 5.14409 0.00361452 
-3.03961 4.86847 0.00449153 -2.35009 4.97154 -0.00357592 2.80014 12.6715 0.0213322 
2.59881 13.18 0.0164064 -0.281009 4.03105 -0.00620932 -0.239429 3.42344 -0.00577052 
-1.54008 3.4022 -0.00311236 -1.04416 25.3936 -0.0880829 -1.10147 26.1271 -0.0902946 
-0.781751 25.4733 -0.085756 -0.839823 26.211 -0.0877298 -0.444842 6.11161 -0.00686506 
-0.150442 6.07079 -0.00554487 -0.312197 6.71211 -0.00636575 3.75701 23.0702 -0.0343038 
2.54498 3.75717 0.0334798 3.30597 22.789 -0.0379979 3.28513 22.452 -0.0366599 
3.66617 26.4872 -0.0473142 2.342 15.4175 -0.000486341 2.50305 15.2254 0.00276731 
2.50164 15.5577 0.000429307 0.227666 20.117 -0.0743544 0.46284 20.1857 -0.0713739 
-1.17215 15.0825 -0.0402257 -1.3435 15.0212 -0.0414844 -1.26829 15.3791 -0.0434854 
-2.9302 21.1781 -0.0945067 -2.96821 21.5176 -0.096316 -2.80114 21.3035 -0.0939823 
-2.41864 15.7157 -0.0567588 3.26262 6.75607 0.0415304 1.73156 9.247 0.015721 
1.91216 9.07633 0.017761 1.88224 9.44648 0.0177044 -1.65039 3.35173 -0.00107324 
2.73507 9.66581 0.0289242 2.8745 9.82897 0.0307999 2.8925 9.48102 0.0314984 
3.42328 22.3131 -0.0343715 3.00643 7.01685 0.0355065 2.86887 7.14209 0.0326044 
1.84731 17.6347 -0.0234456 0.213511 26.8039 -0.0793092 2.00515 16.7957 -0.0147807 
3.03556 26.7477 -0.0539153 2.85018 26.5428 -0.0551285 2.49463 24.5731 -0.053453 
2.46073 24.892 -0.0546608 2.27917 24.4571 -0.0554132 2.62929 25.4978 -0.054548 
2.63092 25.1162 -0.053521 2.44998 25.247 -0.0556626 -0.546807 10.1557 -0.00921898 
-0.245378 10.4087 -0.00535782 -2.46445 22.1195 -0.0944343 -2.99873 21.862 -0.0980105 
-1.22887 30.972 -0.101574 3.36226 18.608 -0.0114111 3.22028 18.4064 -0.0117043 
3.24823 18.7448 -0.0138389 -3.41411 26.665 -0.116521 -3.68663 23.8314 -0.111776 
-3.82729 24.076 -0.11407 -3.70943 24.1753 -0.113116 -1.62678 30.697 -0.105086 
-2.01489 13.7929 -0.0392325 -2.19616 13.6439 -0.0399244 3.80519 26.6894 -0.0466064 
3.7968 26.3339 -0.045665 3.94469 26.8875 -0.0458942 3.81758 27.0536 -0.0475106 
-2.30981 14.5032 -0.0470336 -2.18576 14.3209 -0.044596 -2.29257 14.847 -0.0493292 
-2.16643 14.6633 -0.0468904 0.97959 22.2249 -0.0644922 0.846924 21.7576 -0.0657883 
-0.0357956 0.195528 -0.000687636 -1.86955 12.5899 -0.0297038 -2.75645 29.0633 -0.114242 
-2.84431 28.6973 -0.114501 -1.31406 13.76 -0.0316785 -1.11913 13.962 -0.0308112 
-1.26738 14.1246 -0.0338568 -3.58728 22.4435 -0.10579 -3.46669 22.5489 -0.105031 
-3.61489 22.7763 -0.107345 -3.37318 25.5974 -0.113483 -3.91007 28.432 -0.126049 
-3.7666 28.2261 -0.123964 1.98072 20.5289 -0.0441529 1.91354 20.8558 -0.0472828 
0.180103 0.183001 -0.000814278 0.390166 0.478875 -0.00241139 0.366983 0.476723 -0.0032972 
1.06478 2.53051 0.00236255 1.57516 28.29 -0.0706808 1.49092 27.8319 -0.0703986 
-2.16257 30.4165 -0.110215 -2.22303 30.0487 -0.110224 -3.72998 22.6598 -0.10805 
-1.92823 5.24282 -0.0072753 -1.97587 5.61853 -0.00807591 -2.23028 12.9379 -0.035414 
-2.25198 12.6001 -0.033392 -2.4077 12.7633 -0.0358204 0.120285 17.0027 -0.0413163 
0.188087 17.0149 -0.0398772 0.117538 16.7894 -0.0397128 -1.97471 7.24721 -0.0115914 
-1.86204 6.7981 -0.01086 2.09773 10.834 0.0196319 0.954526 16.2398 -0.0228944 
1.13238 16.4391 -0.0224749 0.962447 16.5533 -0.025451 -1.34666 6.23998 -0.00969264 
-1.60994 6.53254 -0.0101101 -1.34678 18.9718 -0.0721383 -0.3243 17.5298 -0.0530929 
-0.336045 17.8087 -0.0569757 -0.47077 17.8813 -0.0583394 -3.75616 23.0088 -0.109639 
2.69856 30.2193 -0.0655634 -0.722575 5.91361 -0.00828878 -2.89564 24.9334 -0.106736 
0.282151 17.5172 -0.0429098 0.277859 17.2686 -0.040394 0.39139 17.5407 -0.0418339 
1.63247 21.2024 -0.0540837 1.83328 14.2023 0.00201684 1.82104 14.5429 -0.000373303 
-1.86456 9.87173 -0.0162964 -1.71874 9.45892 -0.0140191 -1.63237 10.0272 -0.0145108 
-2.58889 19.1984 -0.081487 -2.76481 19.4161 -0.0841381 -1.95335 21.1191 -0.0870171 
-1.75376 19.5349 -0.077844 0.351054 21.703 -0.0701809 0.370238 1.8283 -0.00265843 
0.471719 2.20973 -0.00229678 0.42889 1.8186 -0.0026168 0.90406 13.319 -0.000342728 
0.880329 13.6472 -0.00311462 1.10285 10.542 0.0125249 -0.157047 11.0985 -0.00972524 
0.0255089 11.7006 -0.00461596 -0.450157 20.7439 -0.0775013 -0.670694 20.8485 -0.079323 
-0.56663 21.2945 -0.0773642 -1.03245 14.901 -0.0372415 0.785721 4.43416 0.000630486 
0.660936 4.60612 -0.000478999 -0.874986 5.60751 -0.00902961 -0.727953 5.16321 -0.00825356 
0.836121 3.45575 0.000569398 0.977194 3.81913 0.00207629 0.933957 3.3954 0.00142403 
-1.26418 12.4752 -0.0218726 -1.44234 12.6113 -0.0249868 -1.51892 12.1413 -0.022944 
-3.00827 15.5138 -0.0603211 -3.145 15.3818 -0.0605239 -2.87653 15.3025 -0.0576961 
-3.01366 15.1715 -0.0579127 0.186649 16.5568 -0.0358409 0.119484 16.3761 -0.0358429 
0.123068 16.5907 -0.0375243 -1.50437 13.5689 -0.0323513 -1.33422 13.4007 -0.0292879 
-0.751883 15.5599 -0.0395759 -0.615296 15.3763 -0.0364386 -0.752496 15.2339 -0.0366682 
-2.88656 14.9626 -0.0553374 -0.912733 14.449 -0.0321489 -0.93675 14.1329 -0.0299416 
-1.082 14.2864 -0.0330045 -3.15136 15.0212 -0.0579885 -2.61194 19.5322 -0.0835962 
-2.43624 19.3135 -0.0809979 0.736683 12.4279 0.00629754 0.818607 20.3814 -0.0671349 
0.668649 20.3169 -0.068788 0.776024 20.7847 -0.0670873 1.16552 2.93925 0.0038096 
1.05885 2.90566 0.00245823 0.966512 2.49729 0.00122743 -2.23045 27.5282 -0.105343 
-2.32904 27.1346 -0.10559 -2.38727 27.6124 -0.107233 1.47074 15.5749 -0.0117439 
0.69805 21.219 -0.0669641 -2.09443 3.91212 0.000995122 -2.19317 3.83532 0.00336307 
-0.132687 8.16609 -0.00529779 -0.396344 7.92266 -0.00696841 -0.319087 8.66315 -0.00675554 
1.19763 18.5833 -0.0410261 1.16005 18.2004 -0.0379593 1.3698 18.4846 -0.0373815 
2.83669 14.538 0.0112998 3.00181 14.3635 0.0144032 2.85049 14.1849 0.0136835 
-0.567278 2.52455 -0.00674299 -0.642223 2.50271 -0.00684478 -3.13287 8.68793 -0.0181615 
-3.00362 8.48369 -0.0169558 -2.99677 8.8074 -0.0183614 0.514763 11.7073 0.0178414 
0.610007 11.6804 0.0137924 0.31788 12.1376 0.0196103 0.42803 12.0483 0.0153914 
0.822813 18.0547 -0.0413737 -0.779028 14.3094 -0.0294003 1.2572 17.375 -0.0288761 
-0.545399 8.4621 -0.0073894 -2.44002 19.0063 -0.0792079 0.354215 19.6649 -0.0781427 
0.880175 18.4358 -0.0448593 1.0277 18.3729 -0.0416011 -1.79577 27.0984 -0.0997316 
-1.73829 27.5175 -0.100024 -1.6417 26.9288 -0.0977526 -1.58277 27.3496 -0.098031 
-0.605438 27.663 -0.0887127 -0.681751 27.2406 -0.0884655 -1.01289 26.6998 -0.0907229 
-0.830647 2.1819 -0.00645469 -1.01491 1.03852 0.0652832 -1.33699 1.44959 0.0537993 
-1.26203 26.7784 -0.0934193 -0.862005 26.809 -0.0893511 -3.27086 15.9239 -0.065427 
3.36946 23.8146 -0.0415834 3.5189 23.6737 -0.0394297 2.07629 9.32577 0.0200489 
2.04185 9.69275 0.0198006 -3.27946 14.8734 -0.0579963 -3.16237 14.6796 -0.0556233 
1.06319 19.999 -0.0589459 -3.60144 7.6369 -0.0131232 -3.47696 7.39672 -0.0118158 
-3.49338 7.7116 -0.0135997 1.97818 18.6894 -0.0302311 1.9112 18.3287 -0.0282482 
1.75851 18.5154 -0.0319399 3.80591 31.4244 -0.0591142 2.13029 6.29484 0.019105 
2.12616 5.98443 0.0190024 1.86495 26.2543 -0.0635989 2.0029 26.6588 -0.0632598 
2.10369 26.3621 -0.0616332 2.10588 19.7533 -0.0366456 2.03684 19.4112 -0.0350949 
-0.374297 12.0254 0.00846053 -0.157757 12.6169 0.0107402 1.54552 18.3002 -0.0331214 
1.58147 18.677 -0.0359411 2.08979 18.1894 -0.0247057 1.88328 17.9844 -0.0258198 
0.409133 4.09276 -0.00243829 0.43745 3.54891 -0.00229842 0.530081 3.95475 -0.00160495 
1.63059 17.125 -0.0220914 -0.002013 2.92854 -0.00436696 0.0345821 2.5383 -0.00398366 
0.0767355 2.91217 -0.00398844 -0.996876 1.04929 0.0463195 -0.743308 0.779001 0.0425702 
-0.468302 0.453625 0.0386683 -1.84123 13.678 -0.0367658 -1.71179 13.3927 -0.0334427 
-1.884 13.5024 -0.0359681 -3.57695 7.29466 -0.0110609 -0.906276 12.6952 -0.0180702 
-1.07565 12.7007 -0.0207491 -0.953691 12.324 -0.0162092 -1.12183 12.3266 -0.0188326 
-2.02 3.0675 0.0108611 1.2605 20.4013 -0.0571074 3.66918 23.8943 -0.0387327 
3.54113 24.0213 -0.0405568 2.33139 20.3287 -0.0373106 1.89456 25.3523 -0.0614265 
2.05077 24.9554 -0.0588935 1.80041 24.6016 -0.0606367 2.51984 16.9583 -0.00961428 
2.35457 16.7994 -0.0104642 2.95939 12.478 0.0242056 1.48121 26.712 -0.0680479 
1.39734 27.2076 -0.0698259 0.301796 25.175 -0.0749502 0.27749 24.576 -0.0741693 
2.16065 22.8257 -0.0522021 1.95033 22.5728 -0.0540699 2.16229 23.2481 -0.0534194 
1.95117 22.9944 -0.0553176 0.366729 26.9188 -0.078172 0.291019 27.3565 -0.0797897 
0.671638 18.8861 -0.0552389 0.722274 19.2484 -0.0602755 -2.89644 19.2969 -0.0844945 
-1.33934 25.4736 -0.0913354 2.56938 28.2031 -0.0617599 2.75908 28.3658 -0.0604589 
2.58019 27.7376 -0.0605464 2.76837 27.9008 -0.0592513 2.64703 18.6315 -0.0206892 
2.67795 18.9863 -0.0229266 2.92016 28.1149 -0.0584117 3.10668 28.3218 -0.0572559 
2.74073 27.4954 -0.0585096 2.54113 27.3005 -0.0598554 1.99476 29.6427 -0.0701829 
2.23399 30.0686 -0.0691623 2.07641 30.0284 -0.0704161 -0.463104 11.7184 0.00139613 
-0.569445 11.5514 0.00176487 -3.33364 7.1711 -0.0107818 -3.44983 7.08705 -0.0100374 
2.802 24.6587 -0.0504843 2.6476 24.4131 -0.0513881 2.81894 25.0425 -0.0514164 
2.66438 24.7967 -0.0523073 -0.193965 2.554 -0.00508508 -4.02328 28.3086 -0.127107 
-0.106465 0.188903 -0.00192116 -0.211466 0.488514 -0.00597181 0.42567 2.63206 -0.00238451 
0.503477 2.61722 -0.00204603 0.539863 3.10273 -0.00176648 -0.223455 0.19894 0.0147068 
-0.46526 0.474802 0.03924 -0.451685 0.484821 0.0314947 -0.779411 1.31079 -0.000441126 
-0.637819 1.01514 -0.000729388 -1.14379 23.5598 -0.0854918 -1.44056 23.5992 -0.0887116 
-1.26379 22.9918 -0.0857214 -2.55355 8.97083 -0.0175805 -2.92548 19.6554 -0.0867755 
-3.05718 19.5366 -0.0871843 -2.19258 25.3246 -0.100268 -2.32886 24.9505 -0.100892 
1.04144 26.933 -0.0723006 1.12029 26.5374 -0.0707757 0.940722 26.3725 -0.0719805 
-0.558306 20.323 -0.0809118 -0.736621 20.423 -0.0812704 -0.429303 19.759 -0.0837124 
3.73495 28.665 -0.0525146 3.87004 28.4901 -0.0508723 3.71992 28.2969 -0.0517059 
2.12041 9.00313 0.0204626 0.685798 16.4582 -0.0279437 0.69496 16.7521 -0.0303868 
0.840442 16.6632 -0.0279218 1.99848 6.80651 0.0171196 2.16465 6.67989 0.019788 
1.4703 13.224 0.0047099 -1.90772 29.2477 -0.105355 -1.75359 29.2185 -0.103674 
-0.148888 15.9145 -0.0361614 -0.216784 16.0588 -0.0382402 -0.57551 1.43491 -0.0068323 
-0.476809 1.10738 -0.00730852 -0.622688 1.42144 -0.00694434 -0.513251 1.09444 -0.00767768 
0.75399 18.5305 -0.0480409 0.62105 18.5336 -0.0510956 1.81686 14.8763 -0.00273508 
1.66525 14.7477 -0.00344968 1.67087 14.4169 -0.00108045 1.63201 16.7521 -0.0189971 
1.78768 16.584 -0.0157782 1.61687 16.4114 -0.0164951 1.17412 19.5325 -0.0513566 
1.04181 19.6136 -0.0554746 1.78474 16.233 -0.0131053 0.873544 16.9986 -0.0304054 
0.984044 17.1688 -0.0306124 1.1222 16.1273 -0.02001 -2.51618 27.2618 -0.107907 
0.673753 15.5988 -0.020882 0.675735 15.3188 -0.018574 0.563169 15.7209 -0.0232212 
0.56422 15.4508 -0.020953 -2.72344 11.3441 -0.0295666 3.01443 11.8089 0.0277193 
-1.00993 1.11155 0.0397018 -0.721585 0.792717 0.0365203 -0.182874 28.1742 -0.0858782 
-0.262556 27.7573 -0.0856989 3.06969 31.2837 -0.0651321 3.22433 31.3536 -0.0639799 
3.14153 31.017 -0.0638059 2.46024 3.34947 0.0342067 2.68538 3.68231 0.0396072 
2.49679 3.29403 0.036678 -0.607835 26.0461 -0.0850329 -0.308086 26.0314 -0.0821804 
0.0755652 30.2228 -0.0880198 -0.0835914 30.2159 -0.0894222 -0.168468 30.5741 -0.0909286 
-2.37664 30.0871 -0.111956 3.33646 21.2877 -0.029828 -0.666808 19.2451 -0.0762005 
-3.17424 24.6282 -0.108829 -3.194 25 -0.110031 -0.754953 20.0144 -0.0799615 
-0.882843 20.0578 -0.0794399 -0.883316 20.4482 -0.080804 -2.24179 19.0975 -0.0783333 
-2.00791 30.4037 -0.108544 2.59913 11.35 0.0239859 2.62655 11.0252 0.0252066 
2.94086 6.3423 0.0349734 2.76894 6.14295 0.0314675 2.80749 6.46437 0.0319246 
1.96733 12.1815 0.014411 1.79768 12.0764 0.0133447 2.00509 11.8341 0.0161074 
1.83731 11.7294 0.0149811 -1.94074 30.7504 -0.10842 2.30852 12.5213 0.0163286 
0.243585 19.072 -0.0873273 3.30127 13.668 0.0222827 -0.0269501 0.203192 -0.000797943 
1.34691 1.45278 0.0137648 1.33174 1.44375 0.0130328 1.6721 1.89815 0.0209661 
1.7953 2.32581 0.0201566 0.824006 12.8719 0.00276642 0.877204 12.5275 0.00561077 
0.694848 12.7962 0.00289039 0.221563 0.180798 0.00966043 -1.40172 16.0591 -0.0501797 
-1.59858 16.1869 -0.0529533 -1.3065 15.7003 -0.0463853 -1.50055 15.8222 -0.0492892 
2.8748 23.1596 -0.0446019 2.89468 23.4991 -0.0456636 -3.23334 23.1274 -0.104864 
-3.36403 23.0059 -0.105716 0.072808 29.463 -0.0863892 0.157495 29.0572 -0.0847422 
0.236362 29.45 -0.0849048 2.3134 3.42966 0.028215 2.24391 3.51491 0.0255914 
2.09874 3.15004 0.0232281 2.69088 14.7154 0.00841132 2.82649 14.8769 0.00898048 
1.88666 7.88493 0.0160499 1.70153 7.74794 0.0132355 -3.13889 15.7198 -0.0628843 
-3.13871 16.0829 -0.0654559 -0.0615598 0.494602 -0.00300356 -0.0429354 0.490951 -0.00282148 
3.06086 8.99599 0.0347591 -0.0172383 0.193448 -0.00075207 3.57982 9.64056 0.0427586 
3.46612 9.48869 0.0410683 -0.129142 1.12734 -0.00401598 -0.0807429 0.804448 -0.00238423 
-0.111083 0.814468 -0.00443176 0.827558 1.09331 0.00172734 0.610895 0.764639 0.000686695 
0.604526 0.80072 -0.00159593 0.419148 0.48185 -0.00197945 0.688645 6.93104 9.00238e-05 
0.733805 7.54839 0.0013379 2.61309 18.3229 -0.0188018 0.8521 4.9477 0.00137751 
0.717288 5.12503 5.85203e-05 -2.59551 26.4199 -0.106976 2.94924 10.9987 0.029512 
2.9702 10.6732 0.0306374 0.205244 0.199205 -0.00116563 0.955087 2.12339 0.000976744 
0.87719 2.11223 8.90771e-05 0.840604 1.75749 -0.000473264 0.772349 1.74691 -0.00113581 
-0.740816 10.0834 -0.00960797 -0.603437 10.8125 -0.00708089 -0.178904 23.9865 -0.0771111 
-0.0471167 24.593 -0.0768695 0.0875282 24.0302 -0.0748527 -1.40914 1.95249 0.0167943 
-1.51221 2.003 0.0208318 -1.67245 2.31623 0.0173846 3.60361 25.0716 -0.0436206 
3.4368 24.8729 -0.0446287 -0.632165 11.1371 -0.00187552 -0.750338 11.0553 -0.00288816 
-0.75925 10.6739 -0.00464538 -2.75632 20.9695 -0.0921286 -2.62852 21.0934 -0.0916654 
-3.11647 26.5994 -0.113081 0.239773 30.2269 -0.0865731 -2.79053 23.7978 -0.102661 
-2.97375 24.0495 -0.105185 -0.14955 14.8123 -0.0245277 -3.55514 20.6359 -0.0973353 
-3.43962 20.7354 -0.0968137 1.08474 23.3151 -0.0651077 -0.802792 11.4627 -0.00599453 
-0.71359 11.8549 -0.00697469 -2.71838 12.8031 -0.0387031 -2.03434 12.7209 -0.0321646 
-1.90019 13.1597 -0.0337892 -1.73333 13.03 -0.0311851 -3.58585 20.994 -0.0993951 
-3.79079 28.5929 -0.125003 -3.81317 28.9512 -0.125986 -3.92745 28.7882 -0.126981 
0.115287 13.8226 -0.009677 -2.0646 8.97841 -0.0154318 -0.0082565 0.200419 -0.000834208 
-0.024917 0.489183 -0.00204382 1.67347 29.5522 -0.0727163 1.17492 28.6826 -0.0750027 
-3.66249 23.4841 -0.11037 -3.63843 23.1335 -0.108887 -3.51458 23.2508 -0.108071 
-2.23702 20.3324 -0.0852063 -2.42035 20.534 -0.0874939 -2.28065 20.6995 -0.0872972 
2.55819 29.4479 -0.0648632 2.66184 29.086 -0.0630756 2.50437 29.0388 -0.0643358 
-3.36638 9.38561 -0.0223572 1.93992 3.3123 0.018239 2.14219 3.55666 0.0224967 
2.00464 3.19087 0.0207182 1.1345 2.01906 0.00399316 1.28062 2.41715 0.00610809 
1.36616 2.38904 0.00791905 -3.06902 25.1582 -0.109121 -1.18214 13.2366 -0.0259609 
-1.02571 13.1041 -0.0229489 -1.23005 12.8309 -0.0238011 -2.29995 28.0117 -0.107101 
2.26423 3.93896 0.0243531 2.06715 3.69704 0.0202176 -0.393502 15.1118 -0.0312565 
-2.14056 28.8424 -0.107054 -2.21766 28.4382 -0.107085 -2.28573 28.8811 -0.108705 
-0.477875 1.45624 -0.00640461 -0.525988 1.45416 -0.00673239 -0.609566 1.81683 -0.00676676 
-0.175441 0.184068 0.00889898 -0.192369 0.187932 0.0109693 -0.450561 13.1908 -0.0138828 
2.57028 9.48349 0.0266911 2.75029 9.32667 0.0294414 -0.808312 1.27761 0.00333549 
-0.674134 1.00263 0.00561033 -3.30982 20.833 -0.0961559 0.165845 5.06746 -0.00373427 
0.22932 4.66248 -0.00336447 -1.42844 2.60036 0.00184718 -1.49573 2.49842 0.00559437 
1.50682 29.5308 -0.0740876 -0.917302 10.072 -0.00798305 -0.909731 10.6321 -0.00586577 
-7.05919e-06 2.15577 -0.00385119 0.0647329 2.17211 -0.00357393 0.0292355 1.79721 -0.00335222 
-2.57607 15.9211 -0.0595793 -2.72582 15.7816 -0.0598514 -2.5806 15.5654 -0.0570667 
-0.39596 1.10709 -0.00636761 -0.433858 1.10545 -0.00684474 -0.451336 9.18125 -0.007544 
-0.211143 9.20888 -0.00613048 -0.381601 9.853 -0.00857558 -0.1218 9.89013 -0.0052311 
0.0557099 1.11814 -0.00225532 0.0557386 0.805888 -0.0024497 0.0291055 0.803597 -0.000991527 
0.0280708 0.493714 -0.000935341 -0.356318 1.11693 -0.00610359 -0.545305 1.79691 -0.00660015 
3.00019 30.9626 -0.0648885 -2.85698 7.95189 -0.0145455 0.719811 0.708934 -0.00469427 
0.468752 0.456452 -0.00374025 0.227603 0.189721 0.000394402 0.692455 19.9456 -0.0685363 
-1.83465 29.6297 -0.105316 -1.99204 29.6392 -0.106999 -2.1424 29.6651 -0.108655 
-2.06949 30.0351 -0.108551 1.31878 10.2172 0.0130791 1.27049 10.6777 0.0135168 
-0.218395 14.9039 -0.0267594 -0.21802 14.6703 -0.0244961 -0.301743 14.5053 -0.0241976 
-0.0159624 3.97774 -0.00482244 0.0285663 3.38146 -0.00440776 0.130159 3.39806 -0.00387764 
0.625893 1.43997 -0.00259744 0.461376 1.07697 -0.00381199 0.558058 1.39977 -0.00285464 
-2.05714 10.1443 -0.0188392 1.60789 21.7351 -0.0564012 1.76558 22.0813 -0.0550814 
2.8825 27.3239 -0.0567971 3.05128 27.1456 -0.0547852 2.3941 5.70017 0.024116 
2.59014 5.9135 0.0279389 0.189538 14.5073 -0.0168296 0.266555 14.3464 -0.0144732 
0.127422 14.4517 -0.0164693 0.119066 14.6687 -0.0187269 3.09751 6.5597 0.038113 
3.22539 6.44311 0.0413061 2.37582 3.87923 0.0275125 3.43633 28.6912 -0.0552467 
3.41707 28.2973 -0.0544113 -2.57835 16.6342 -0.064642 -2.73133 16.8517 -0.0674291 
0.393307 0.785265 -0.00479572 0.353399 0.765653 -0.00306266 0.502352 1.07965 -0.00374497 
-3.03441 6.70328 -0.00899993 -2.91042 6.80068 -0.00979029 -2.87013 6.46488 -0.00828184 
-2.76926 4.62629 0.00347088 -2.85715 4.58088 0.00522925 -2.67542 4.31229 0.00568126 
3.99319 30.2808 -0.0544759 4.02091 30.6094 -0.0551008 3.85091 30.2024 -0.0555048 
3.87839 30.5309 -0.0561347 3.44297 11.6114 0.0343929 3.48292 11.2883 0.0362217 
3.09888 20.4174 -0.0274118 -0.263505 2.95776 -0.00568126 -0.175177 2.91613 -0.00525007 
2.36829 11.8306 0.0197665 2.2151 11.6996 0.0185991 2.19235 12.0365 0.0171605 
-0.51134 14.4037 -0.0262964 -0.525084 14.1113 -0.0238158 -0.401194 14.3276 -0.0239924 
1.22869 30.9844 -0.0798969 -1.97621 3.55113 0.00269443 -2.55322 30.8404 -0.115165 
-2.58183 4.36219 0.00367469 0.53843 10.5135 -0.00276865 0.633989 10.8066 0.00516622 
0.398951 11.0259 0.00180843 0.504712 11.3119 0.00565844 -2.06388 29.2582 -0.107044 
-2.21033 29.2961 -0.108691 -2.3646 29.3172 -0.110411 -2.29779 29.6855 -0.110372 
0.117872 17.8758 -0.0510386 -0.988346 5.01115 -0.00860293 -0.835508 4.57237 -0.00812876 
1.91591 30.0075 -0.0717331 1.82907 29.5958 -0.0714897 1.54534 23.8083 -0.0614538 
3.20951 11.3162 0.0321737 3.35345 11.1466 0.0348202 3.23009 10.9965 0.0335097 
1.20973 2.00883 0.00552633 1.03816 1.75061 0.00293493 3.37843 10.798 0.036329 
1.99135 16.0941 -0.00958156 2.00005 16.441 -0.0120872 0.60739 27.2864 -0.0768514 
0.696694 26.8564 -0.0751773 0.456083 27.3712 -0.0783589 0.545656 26.9386 -0.0766401 
3.49245 10.9563 0.0375547 3.33888 13.3101 0.0247926 2.75239 21.4222 -0.0380288 
2.91957 21.6723 -0.0371853 3.41425 18.9762 -0.0134527 3.41748 19.3202 -0.0158874 
0.448 16.3615 -0.0300285 0.568773 16.2777 -0.0278441 0.443757 16.0952 -0.0278644 
-3.43342 22.2068 -0.103372 -2.80311 9.63177 -0.0213078 -2.78196 9.97809 -0.0227934 
-2.62746 9.82868 -0.0212681 -2.43813 10.3483 -0.0223564 3.40384 10.4685 0.0376785 
2.79657 10.8355 0.027849 -2.65588 3.96209 0.0102497 -2.57361 3.9944 0.00810055 
0.492998 18.5204 -0.053102 -3.33038 30.0542 -0.122555 -3.26404 29.68 -0.121112 
-3.40439 29.7628 -0.122865 3.2715 15.3909 0.0108761 3.25319 15.0501 0.0129775 
-0.32568 0.442509 0.00267571 -0.517485 0.721199 0.0102691 -0.358973 0.455555 0.0141938 
3.19652 18.07 -0.0095074 3.35878 18.2463 -0.00878679 -0.691894 4.02523 -0.00756864 
-0.668916 4.46916 -0.0078309 2.88383 4.77031 0.0379207 2.68009 4.48378 0.033375 
1.33683 3.3044 0.00630476 1.42447 3.70767 0.00741728 1.2429 3.37554 0.00492225 
1.05492 2.01112 0.0024905 3.06864 11.1615 0.0306875 0.0710514 0.192475 -0.00146422 
0.154493 0.493643 -0.00401048 0.135872 0.491655 -0.00358823 -0.739221 1.80383 -0.00654573 
-0.795654 1.78614 -0.00593389 2.17124 10.5228 0.0208611 2.011 10.3809 0.0193648 
2.19826 10.1671 0.0214845 1.65802 11.5309 0.0142738 1.71195 11.1342 0.0157637 
1.45314 11.8085 0.011967 1.51024 11.4126 0.0136556 1.99335 2.70838 0.0233194 
2.02277 2.61911 0.0252266 -3.64703 28.3851 -0.122924 -3.81062 26.2724 -0.120022 
3.60119 9.33733 0.0438497 -0.53514 13.8331 -0.0216149 -0.419278 13.7681 -0.0191334 
-1.43881 3.74088 -0.0057283 -1.36437 3.34059 -0.00481034 -0.248433 12.2686 0.0194687 
-3.75424 27.866 -0.123055 -3.45018 27.4424 -0.118676 -3.60706 27.633 -0.120867 
1.25598 26.0906 -0.0687091 2.01617 10.0575 0.0195585 -2.21253 13.96 -0.0422765 
-2.03228 14.1074 -0.0416475 -3.32468 6.12681 -0.00418611 1.79483 18.8672 -0.0343508 
-3.42884 19.2226 -0.0884636 2.76844 5.31512 0.0329001 2.8659 5.19338 0.0356561 
-3.28052 18.9764 -0.0857614 -3.31224 19.3292 -0.0881141 -3.39945 18.8625 -0.0860576 
2.44743 27.8818 -0.062084 2.18787 18.8983 -0.0289296 2.0139 19.0436 -0.032555 
2.41042 17.836 -0.0177156 -1.98612 27.9724 -0.103612 -2.06773 27.5225 -0.103552 
-2.13658 28.0071 -0.105322 -1.91341 27.5422 -0.101933 -1.22934 1.48584 0.0294785 
-0.965575 1.12071 0.0328925 -0.956501 1.18358 0.0262511 -3.35349 11.5972 -0.0355061 
-3.37767 11.241 -0.0333515 -3.23958 11.3916 -0.0333941 2.26079 8.15628 0.0219692 
2.43287 7.96183 0.0246364 2.4385 8.32919 0.0248042 2.87757 17.6803 -0.0105787 
2.90418 18.0251 -0.0128355 -1.65405 27.902 -0.0999324 -2.69672 6.24596 -0.00790461 
-2.73451 6.58252 -0.00929188 -2.5632 6.36875 -0.0088539 -3.08211 22.8983 -0.102635 
-2.3336 21.3999 -0.0906958 -2.14699 21.2728 -0.0888095 3.78398 25.9812 -0.0447422 
3.76958 25.636 -0.0438232 3.63716 25.781 -0.045524 -3.15229 27.408 -0.115265 
0.259148 16.262 -0.0318102 0.354151 16.1906 -0.0298962 0.257443 16.0175 -0.0297322 
0.351161 15.9322 -0.0276861 0.0477677 1.45417 -0.00287858 0.0196653 1.11178 -0.00245591 
3.62203 25.4307 -0.0445912 -3.02278 4.52844 0.00866651 -2.84354 4.24598 0.00956097 
1.4565 3.30423 0.00824875 -2.94264 4.54566 0.00700773 0.11106 13.4053 -0.00470535 
-0.6089 2.18074 -0.00678729 0.913679 11.2948 0.0125251 1.03426 11.385 0.0122432 
1.08776 10.9852 0.012844 -0.670849 1.79695 -0.00676949 -0.308533 0.794001 -0.00512104 
4.09481 30.1241 -0.0531671 3.38631 12.6089 0.0291081 3.07192 18.2108 -0.0121123 
3.09694 18.5454 -0.0142755 2.92544 18.3461 -0.0149668 2.91279 19.8603 -0.0260892 
3.04536 19.7342 -0.0234955 0.102643 0.202593 -0.00214432 0.103902 0.18541 -0.0015308 
0.207021 0.480999 -0.00457265 0.172398 0.490181 -0.00364996 0.0878469 0.188754 -0.000890885 
0.189668 0.48659 -0.00378585 0.223656 0.477592 -0.00444283 0.332528 0.785696 -0.00481525 
-1.76138 16.3863 -0.0559181 -1.85645 16.8396 -0.0600574 -1.69036 16.6361 -0.0572172 
-3.08944 19.8838 -0.0893871 -2.95418 20.0035 -0.0889156 -3.12077 20.2402 -0.0915464 
-1.83758 8.53971 -0.0135214 -2.74512 12.4747 -0.0367317 -2.89916 12.3548 -0.0371571 
-3.24951 20.1352 -0.0920813 0.0681962 9.41771 -0.00215321 -2.75962 4.27048 0.00762322 
2.34036 2.98183 0.034293 2.28482 2.98693 0.0316935 2.08757 2.61572 0.0282067 
-4.12707 30.8219 -0.133132 -4.17297 31.1542 -0.134242 0.133665 6.13761 -0.00378737 
-0.0346663 6.73053 -0.0054468 0.596604 1.77817 -0.0023153 -3.28062 20.4819 -0.0941518 
-3.15116 20.5807 -0.0935438 -3.47395 30.1551 -0.124383 -3.54726 29.8632 -0.124681 
-3.78684 31.4205 -0.130182 0.198079 13.0832 -0.000755909 -0.5665 17.5151 -0.0550067 
-0.757124 18.1086 -0.0621362 -0.583598 17.8242 -0.0583356 -3.38719 30.4158 -0.123848 
-1.28363 2.92017 -0.00393129 2.95306 18.6941 -0.0171981 -2.89145 20.8313 -0.0925886 
-2.16219 19.9471 -0.0826972 0.615283 19.2149 -0.0643903 0.66898 19.5676 -0.0676547 
0.425559 1.08905 -0.00380773 2.0372 31.1008 -0.0734275 1.94181 30.7296 -0.0732869 
-1.49213 7.09312 -0.0104919 -1.21479 6.88968 -0.0101678 -2.85855 20.4821 -0.0906181 
-2.65249 3.59761 0.0178239 -2.95065 4.90917 0.00289189 -0.939577 1.30791 0.0144935 
-0.739267 1.02969 0.0132821 -1.28399 29.9264 -0.100214 -1.34526 28.7456 -0.0984854 
-3.09938 5.54743 -0.00135532 -0.0599647 3.39762 -0.00488317 -0.0844119 2.91247 -0.00476122 
-0.658458 26.643 -0.0869258 1.28019 1.50628 0.0103749 1.3193 1.48343 0.0124184 
1.58334 1.86754 0.0175779 1.64514 1.89114 0.0201497 -1.16592 11.8569 -0.0161087 
-1.23245 11.4488 -0.0145943 -1.0406 11.728 -0.0132463 -0.0528183 0.800026 -0.00358709 
0.418935 17.8697 -0.0452025 1.24847 20.0081 -0.0542776 -0.961952 27.3308 -0.0915508 
2.35168 10.3671 0.0230955 -3.74463 30.8027 -0.128649 -3.90472 30.8312 -0.130553 
2.50402 10.5021 0.0247227 2.53458 10.1559 0.025613 3.0352 4.61238 0.0436406 
0.346244 2.62672 -0.0027252 -2.67467 4.69496 0.00159149 -2.57086 4.76745 -0.000188565 
-2.49048 4.43886 0.0017015 2.97961 6.68897 0.0353323 2.55776 9.81046 0.0262793 
2.23169 9.49005 0.0221064 2.19995 9.84277 0.0216774 2.39153 9.68414 0.0241309 
2.376 10.012 0.023748 2.37457 14.3796 0.0068424 2.52265 14.5318 0.00760989 
2.36116 14.7226 0.00447386 3.28945 16.8435 0.000726766 2.5024 20.5546 -0.0363204 
2.36358 20.6449 -0.0389306 2.53392 20.8783 -0.0378996 2.69409 17.154 -0.00891839 
3.24585 20.2766 -0.0246287 2.1921 17.2992 -0.0163331 2.21477 17.637 -0.0186834 
2.82432 16.6156 -0.00329893 2.68113 16.7966 -0.00640357 -0.081443 0.50527 -0.00421997 
3.75232 25.2955 -0.042907 2.26833 24.8114 -0.0564082 -1.19115 20.4962 -0.08095 
-1.05724 20.5328 -0.0807112 -1.0301 20.0733 -0.079158 -3.93386 26.167 -0.121164 
3.23635 23.939 -0.0434825 -2.79052 19.7753 -0.0863564 -2.65522 19.9134 -0.0860489 
0.468793 0.754373 -0.00236424 0.320653 0.472321 -0.00468308 0.298712 0.471805 -0.00476264 
0.340355 0.472523 -0.00433231 0.526941 0.792529 -0.00337158 -3.32466 13.7998 -0.0506316 
-3.19147 13.9579 -0.0506654 -3.21205 13.6136 -0.0483643 -1.86081 8.94279 -0.0142249 
-3.11149 13.0758 -0.0437376 -3.24972 12.947 -0.043939 -3.22961 13.2729 -0.0460812 
0.53732 0.760815 -0.000989072 -3.61438 9.15484 -0.0219173 -2.1181 2.59044 0.0309517 
-3.966 26.8626 -0.123225 -3.9446 26.5011 -0.122112 -3.29791 12.2673 -0.0396022 
-3.32566 11.9238 -0.0374803 -3.18346 12.0635 -0.0373739 -2.7281 25.3135 -0.105915 
-2.42542 16.7799 -0.0643752 -2.40903 16.4097 -0.0616386 -2.25505 16.5546 -0.0613569 
1.90588 12.8799 0.0105322 0.569372 18.1639 -0.0466417 -0.987359 19.6849 -0.0768329 
-2.89662 17.4097 -0.0726007 -2.88679 17.075 -0.0702557 -3.02966 17.2901 -0.0728935 
-2.42928 17.1353 -0.0668824 0.363718 16.7152 -0.034259 -1.36937 20.4696 -0.0812217 
-0.679503 13.5933 -0.0217859 -0.850691 13.3552 -0.0222835 -0.711413 13.2578 -0.019442 
-0.118461 0.19814 -0.00162957 1.54822 31.0176 -0.0773158 1.38547 30.9975 -0.0786306 
-1.18339 5.70483 -0.00878759 -3.18829 20.9372 -0.0955962 -3.22429 21.2973 -0.0975809 
-3.05177 10.3354 -0.0260513 0.895372 2.53147 0.000484385 0.972749 2.9391 0.00154199 
-2.64576 9.49534 -0.0199616 2.88576 13.5096 0.0180647 3.05369 13.3233 0.021152 
3.07529 12.9875 0.0232029 0.0845644 0.206619 -0.00147814 -2.5095 6.00674 -0.00757024 
3.89234 25.4928 -0.0422142 -3.38566 8.44415 -0.0174579 -3.50777 8.33722 -0.0170618 
-3.507 8.6368 -0.0187036 -2.02774 2.58062 0.0248636 -1.8223 2.22376 0.0293364 
-1.76816 2.22946 0.0256497 -1.5457 1.86676 0.0303301 -1.57828 2.4711 0.00907393 
-1.78468 2.74039 0.0103545 -0.090662 1.11571 -0.00353311 -0.141239 1.46863 -0.0042229 
-0.201529 1.82182 -0.00475331 -0.257506 1.82722 -0.00514941 -0.285672 1.47666 -0.00531674 
-0.20673 1.13159 -0.00488736 -0.238402 1.47549 -0.00504979 -0.142489 1.81506 -0.00437698 
-1.9321 9.48003 -0.0157412 -0.169298 1.12867 -0.00443385 3.36324 30.791 -0.0612888 
3.28434 30.4429 -0.0610696 3.22251 30.7007 -0.0622775 3.14366 30.352 -0.0620629 
-3.03757 10.6606 -0.0277564 -3.17623 10.5208 -0.0277565 -3.24793 7.59547 -0.0130888 
-3.3743 7.80945 -0.0141599 -1.15546 7.91877 -0.010493 -1.29121 7.47209 -0.0105594 
-0.551674 13.5313 -0.0193784 -0.432827 13.4787 -0.0165258 -0.573338 13.223 -0.0166112 
1.01431 2.07898 0.00189598 3.36753 31.3279 -0.0626692 3.289 31.0368 -0.062583 
1.11097 29.8882 -0.0782828 0.804556 1.36596 -0.000363448 0.963958 1.73633 0.00149772 
1.66889 14.058 0.00128151 -0.140121 13.0975 -0.0003469 -2.27748 17.6298 -0.0690717 
-0.499454 15.5035 -0.0361144 -0.503654 15.774 -0.0386799 -0.395134 15.6306 -0.0360744 
2.79038 28.7772 -0.0611918 0.967883 14.0916 -0.00568825 0.585128 14.3293 -0.0113199 
0.706043 14.1505 -0.00867181 0.453069 14.7765 -0.0165472 0.450608 15.0473 -0.0189374 
0.575105 14.8892 -0.0161479 0.684276 15.0173 -0.0160051 0.56879 15.1655 -0.0185225 
0.831877 16.3564 -0.0253171 0.782708 28.2308 -0.0773936 0.93014 28.2527 -0.0761581 
0.856966 27.8074 -0.0758092 0.493132 22.2262 -0.0689951 0.374831 22.8337 -0.0707189 
0.229176 22.2605 -0.0713061 -4.06881 29.362 -0.129759 -4.05429 29.0117 -0.128903 
-3.94668 29.1445 -0.127914 -3.83722 29.2916 -0.126934 -3.96957 29.5068 -0.128885 
-2.74643 29.8154 -0.115543 -2.82428 29.4748 -0.115782 -2.97181 29.5356 -0.117547 
-2.89812 29.8639 -0.117323 -0.149955 15.4917 -0.0316683 -0.217223 15.6031 -0.0335988 
-0.147153 15.6862 -0.0336862 -3.21071 29.2959 -0.119782 -3.30962 29.0178 -0.12036 
2.56931 4.1264 0.0318671 2.45354 3.79162 0.030234 -2.94613 6.03619 -0.00574121 
0.960093 20.8635 -0.0648388 2.66106 20.4311 -0.0333007 -2.59286 5.54153 -0.00494128 
-2.71702 5.4529 -0.00364756 0.610048 25.1572 -0.0724316 0.804211 25.0859 -0.0707272 
0.763437 27.3078 -0.075546 0.928921 27.3542 -0.0741893 0.697569 27.8194 -0.0772264 
3.92249 26.1919 -0.0440888 -2.78795 31.2242 -0.118377 -2.36997 13.4453 -0.0400972 
-1.40746 20.9285 -0.0831929 -1.56277 21.3129 -0.0852604 -1.40898 21.4302 -0.0844255 
-1.61211 21.8378 -0.0867205 -2.99615 18.8189 -0.0824604 2.91591 8.15332 0.0328888 
2.91892 8.49271 0.0327382 -3.35011 9.7322 -0.0241885 -2.99739 5.60696 -0.00263806 
-3.53347 10.7681 -0.0313146 -1.6763 12.306 -0.0258542 -1.60302 12.776 -0.0280178 
-0.901406 2.15485 -0.00574946 1.26394 16.0217 -0.0174843 1.27297 16.3385 -0.0199411 
-2.37395 3.71459 0.0082651 1.12279 15.8324 -0.0176826 1.26933 15.7081 -0.0149611 
-3.46539 30.7581 -0.125349 -3.59239 30.819 -0.126909 -2.09485 20.8663 -0.0868118 
0.156955 0.179815 -0.00183003 -0.339015 0.79796 -0.00715483 0.650909 1.37975 -0.00232841 
0.131163 2.18423 -0.00330127 0.190941 2.58585 -0.00333169 0.111183 2.56729 -0.00366334 
-0.344858 4.5842 -0.00667046 -0.497932 4.53736 -0.00721018 0.0838043 1.7972 -0.00311576 
3.37226 6.63324 0.0444133 -0.144284 16.7667 -0.0450312 -2.65268 13.8344 -0.0452761 
-2.63512 14.1847 -0.0476115 3.04384 23.3998 -0.0435824 -2.76816 14.3874 -0.0501943 
0.194218 12.3488 0.0126641 0.360563 12.0029 0.000196164 -3.62179 8.53544 -0.0183585 
-0.146931 14.6075 -0.0224403 3.47039 6.51442 0.0472339 -0.276967 26.7944 -0.0835981 
-0.474627 26.56 -0.0849754 -0.358398 27.1889 -0.0852842 -1.50553 20.3517 -0.0812933 
-1.6963 20.192 -0.0812846 -1.44582 19.8301 -0.0782244 -1.41825 19.4469 -0.0757977 
-3.21917 11.7332 -0.035456 -3.42923 24.0429 -0.109765 3.01508 14.0129 0.0167184 
2.86751 13.8564 0.0158527 -3.12051 29.6034 -0.119346 -3.18666 29.9983 -0.120819 
2.76927 8.65632 0.0301126 3.97321 27.224 -0.0465737 -2.82511 20.1252 -0.0885232 
-2.99125 20.3618 -0.0910949 2.9412 5.54566 0.0365871 -2.49833 14 -0.0451168 
-2.32874 14.1534 -0.0447137 -2.35696 13.7914 -0.0424079 2.48607 4.23197 0.0291011 
2.68782 10.3412 0.0273814 2.66425 10.6925 0.0264316 0.422422 1.45063 -0.00312058 
0.35106 1.09939 -0.00359736 0.316947 1.11495 -0.00347908 3.14965 4.95091 0.045072 
2.09521 13.0514 0.0115134 3.18734 19.5947 -0.0207138 3.2206 19.9362 -0.0226597 
3.19912 13.141 0.0239387 -1.64744 13.8072 -0.0357158 3.14704 14.1933 0.0172202 
-0.96641 28.2322 -0.0935506 -1.04837 27.7543 -0.0933468 -2.35957 6.16235 -0.00867965 
3.34336 12.94 0.0268626 -2.70545 8.44481 -0.016151 -2.69701 8.79785 -0.0174331 
-2.56746 8.63076 -0.0164465 3.65203 21.7019 -0.0284757 3.52204 21.8497 -0.0307923 
2.60088 8.47313 0.0274107 2.77393 8.32411 0.0303165 -2.24299 30.8006 -0.111718 
-3.21084 25.369 -0.111161 -0.300525 15.737 -0.0360339 -0.300447 15.9704 -0.038238 
-0.21704 15.8231 -0.0358832 -2.2787 5.40242 -0.00614286 -2.46476 5.65267 -0.00624393 
-2.42423 6.53693 -0.00975072 -2.26197 6.69419 -0.0104127 -0.815098 21.3813 -0.0801741 
-2.72322 16.4916 -0.0648556 -1.17424 21.888 -0.0836531 0.9023 4.00863 0.00144225 
0.793908 4.01022 0.000403736 0.922503 4.49373 0.0018446 0.53759 2.21091 -0.00204569 
0.653357 2.57547 -0.0012338 0.247748 0.791109 -0.00257683 0.224782 0.814828 -0.00412183 
2.5756 13.5269 0.0142571 2.73409 13.6831 0.015259 2.55907 13.8509 0.0122192 
-0.0527642 1.1159 -0.00312045 -0.024515 0.802108 -0.00169269 0.481323 1.80832 -0.00255495 
0.378206 1.46567 -0.00291056 0.833481 8.75928 0.00340229 0.995302 8.41382 0.00490115 
1.00802 9.01207 0.00560649 0.0458725 0.201264 -0.000916128 -0.395102 15.8922 -0.0385154 
0.768661 22.2663 -0.0669864 0.669809 22.7989 -0.0681584 0.913518 22.7819 -0.0660471 
0.819031 23.3046 -0.0673352 4.03733 29.0478 -0.0508427 3.90991 29.2296 -0.0524429 
-2.52383 7.2146 -0.0118007 -2.54881 7.55268 -0.012882 1.08264 13.1266 0.00228578 
1.05461 13.4633 -0.000272564 1.66165 13.3971 0.00533471 1.50953 13.6988 0.00196075 
0.501391 13.377 -0.00329147 0.652314 13.1278 -0.000230334 0.489531 13.6688 -0.00624047 
3.84673 24.451 -0.0390744 2.66368 22.597 -0.0448817 2.49526 22.3358 -0.0459578 
0.569006 6.19433 -0.000899345 2.94112 20.2031 -0.0280425 3.07303 20.0782 -0.0254938 
1.13331 30.6208 -0.0798132 -0.0947892 30.9225 -0.0910054 0.569531 7.96834 2.93726e-05 
0.622216 8.61693 0.00153091 0.781999 8.13368 0.00247063 1.07496 30.9595 -0.0811078 
2.33842 16.1065 -0.00548501 1.42372 2.08463 0.0105566 1.68892 2.45402 0.0157453 
1.50316 2.07803 0.0129836 -2.06042 28.4228 -0.105345 -2.44967 28.0712 -0.108874 
3.03459 5.42829 0.0393499 3.54139 10.266 0.0404778 2.24984 13.1985 0.0123633 
2.28481 12.8687 0.0144134 1.93615 12.5254 0.0125984 2.29706 21.7477 -0.0460181 
2.48787 21.9956 -0.0445289 2.46304 21.6512 -0.0431948 2.17025 14.879 0.00121026 
3.65747 31.42 -0.0603959 -1.22409 20.9577 -0.0823312 1.43407 18.8982 -0.040211 
1.67765 17.8091 -0.0271556 1.65201 20.8118 -0.0517299 2.14652 20.1167 -0.0386565 
1.98345 19.8968 -0.0396087 0.727482 11.6596 0.0124514 0.661413 12.0454 0.00977785 
0.850944 11.6837 0.0113918 2.39743 20.9607 -0.0403667 0.333136 7.75896 -0.00245693 
2.51385 26.876 -0.0590846 -1.37157 2.19502 0.00735038 -3.03024 5.23113 0.00070488 
-2.85599 4.95785 0.00132814 1.18568 29.5146 -0.0767898 -0.709582 12.8042 0.0405753 
-0.548011 13.0941 -0.0681908 -0.547676 13.0992 0.0382767 2.84774 22.8162 -0.0435316 
2.30565 22.0862 -0.0474345 2.32176 22.4462 -0.0486952 1.55178 3.70676 0.00961533 
0.673662 1.07744 -0.00186183 0.725079 1.08698 -0.000644682 1.02429 1.14474 0.00542524 
-2.04755 20.1253 -0.0829153 -1.8486 20.0878 -0.0815224 0.54207 12.0281 0.0113589 
0.484671 12.3759 0.00854479 0.105765 12.3621 0.00418696 -0.100971 12.3578 0.0145561 
-1.57846 13.137 -0.0302423 -1.41059 12.9696 -0.0270798 0.725683 10.2301 0.00277967 
0.245345 12.4843 0.0111267 0.953984 15.9525 -0.0205389 0.171071 11.0682 -0.000275726 
0.0367908 10.43 -0.00423972 0.312254 10.5022 -0.000624704 -0.11817 26.9002 -0.0823947 
0.0397245 26.8036 -0.0808199 -0.020019 27.3379 -0.0825209 1.22617 27.1668 -0.0712132 
1.07407 27.4005 -0.0730462 -1.4574 13.9914 -0.0349576 -3.25483 30.3581 -0.122234 
-3.19172 30.6595 -0.122032 1.24678 27.4381 -0.071646 -1.95119 3.13724 0.00772413 
-2.49624 31.1773 -0.115064 -2.64535 31.1828 -0.11672 -2.95239 28.3862 -0.11508 
2.24536 3.05342 0.0287735 3.07111 23.742 -0.0445699 2.9206 23.8417 -0.0465915 
2.81765 16.2692 -0.000837023 2.67242 16.4519 -0.00395333 0.144819 10.0217 -0.0032208 
2.53539 18.7682 -0.0231876 0.132356 18.1281 -0.0582574 0.385295 9.97298 0.000605493 
-1.93651 16.5026 -0.0582244 -1.93099 16.1336 -0.055537 2.40745 11.4974 0.0212883 
3.31244 29.3546 -0.0580275 3.17112 29.5841 -0.0598513 3.13922 29.1879 -0.0591327 
1.46015 17.571 -0.0279831 1.49288 17.9382 -0.0307396 3.33747 29.7114 -0.0587241 
-2.47147 9.65617 -0.0196708 1.62973 10.5733 0.0158624 1.55005 11.0198 0.0148341 
1.74012 10.7733 0.0165719 3.18574 29.8118 -0.0603076 3.26728 30.1164 -0.0603779 
3.01848 29.6833 -0.0614405 -0.499277 29.8487 -0.0924536 2.94542 24.175 -0.0474548 
3.09196 24.0732 -0.0455222 -2.07928 16.72 -0.0610721 1.58395 19.7849 -0.0455895 
1.76125 19.7845 -0.0423763 -0.0182828 28.184 -0.0843978 -0.0982748 27.7652 -0.0841987 
1.36352 9.36362 0.0110803 1.37149 8.85691 0.0103131 1.19621 9.15068 0.00820499 
-0.156573 0.497868 -0.00438966 -0.0712989 0.192171 -0.00107686 0.313275 29.0628 -0.0833686 
0.266706 2.2241 -0.00287617 -0.254138 29.4452 -0.0893276 1.94881 3.72645 0.0174812 
0.369546 4.57411 -0.00258583 0.300335 4.02819 -0.00306893 0.334911 3.55693 -0.00286717 
2.16429 3.07729 0.0262673 -0.890164 28.6774 -0.0937502 -0.416869 30.2312 -0.0924774 
-0.332616 30.578 -0.0924117 0.557386 19.4553 -0.071752 0.545502 19.8161 -0.0726421 
-0.220779 7.3679 -0.00618483 -0.866237 11.0447 -0.00527239 -0.681348 11.4734 -0.00296054 
1.90271 2.71568 0.0202279 1.84955 2.80565 0.0182261 2.31406 26.5944 -0.0602486 
-0.903219 15.7188 -0.0424691 2.40107 3.40189 0.0314136 0.368426 14.1433 -0.0117134 
3.0747 30.6803 -0.063508 -2.59473 6.7104 -0.0100455 2.24581 7.78629 0.0215353 
-1.38963 14.7062 -0.0396154 -1.24651 14.4701 -0.0362829 -1.43408 14.3428 -0.037367 
-2.83957 8.98115 -0.0186453 -2.85266 8.62245 -0.017206 2.68065 15.0646 0.00597435 
3.5293 20.3591 -0.0216686 -2.10758 9.69708 -0.0176063 0.0831924 21.7494 -0.0720703 
-0.055642 22.2882 -0.0736301 -1.82305 22.356 -0.0898535 -1.5533 22.3241 -0.0874985 
2.82945 20.657 -0.0324606 2.69225 20.7559 -0.0349355 0.588696 20.7519 -0.0689755 
-1.35744 11.6189 -0.0175049 -0.730129 19.6365 -0.0782723 -1.75122 15.6776 -0.0504485 
-1.91107 15.4591 -0.0503556 -1.71633 15.2487 -0.0470266 -0.264707 28.6026 -0.0875793 
-0.173213 29.0421 -0.0877024 0.192608 0.798501 -0.00215958 -2.67028 7.39284 -0.0123997 
-2.64186 7.05651 -0.0112397 -0.843102 1.10141 0.0198233 -1.75704 16.0206 -0.0531238 
-2.73949 15.1134 -0.05517 3.15035 25.1554 -0.0484007 2.9941 25.261 -0.0502759 
2.97994 24.886 -0.0493146 -1.8368 14.1008 -0.0397172 -1.64454 14.2261 -0.0387076 
-1.56901 11.7566 -0.0212458 -1.7126 11.9427 -0.0239879 -0.252919 30.9132 -0.0923786 
0.587937 16.8655 -0.0327756 2.36081 23.5061 -0.051868 2.38986 23.8707 -0.0526527 
-1.26759 3.40968 -0.00599527 -1.12533 3.39851 -0.00679814 0.779344 5.84268 0.000788387 
0.878307 6.50986 0.00186689 1.54618 6.32282 0.0100527 1.59734 6.84256 0.0110437 
0.930287 7.11155 0.00264365 2.34023 23.1582 -0.0510165 2.32218 22.7909 -0.0499873 
3.17186 22.9131 -0.0400991 1.16574 4.24834 0.00428673 -1.74321 10.3032 -0.0164039 
-1.19745 2.98706 -0.00530551 0.836411 14.5745 -0.010807 0.827596 14.8623 -0.0131862 
-3.99185 27.5713 -0.125148 3.61087 8.72282 0.0453173 3.47789 8.86569 0.0424883 
3.6097 9.0299 0.0446638 3.47411 9.17738 0.0418368 2.13876 25.9268 -0.0603216 
2.30663 26.2035 -0.0593861 3.00299 25.6291 -0.0512285 -2.08717 5.18959 -0.00633576 
-2.02843 4.80452 -0.00514064 -2.21717 5.0495 -0.00499185 -1.8333 4.44214 -0.0051798 
-0.0919971 1.455 -0.00369494 0.384642 27.7913 -0.0799219 2.04513 14.0521 0.00520884 
3.52087 6.8389 0.0475214 -3.5252 28.5638 -0.1219 -3.41573 28.7652 -0.121062 
-1.68423 17.7887 -0.0656599 0.224008 8.89364 -0.00192229 0.300802 9.40603 -0.00139181 
3.45891 21.1686 -0.0276335 1.35948 19.8963 -0.0508602 1.36619 19.5021 -0.0470624 
-3.04443 30.6179 -0.120288 0.854988 10.4252 0.00831546 -0.301242 0.444055 -0.00813259 
-0.154982 0.172524 -0.00320262 1.32357 3.8201 0.00622495 1.50667 4.27359 0.00870429 
1.61847 4.1633 0.0106132 1.65767 17.4653 -0.0245144 1.44229 17.232 -0.025391 
0.470324 8.9249 0.000364475 0.394161 8.43748 -0.000793435 0.72941 10.9113 0.0100264 
-0.356174 2.62148 -0.00591379 3.39475 21.9738 -0.032956 2.8324 10.504 0.0290654 
2.99639 10.3506 0.0317243 4.13578 30.4972 -0.0537989 2.35214 15.0672 0.00205304 
3.57891 30.3657 -0.0583146 3.72397 30.4382 -0.0572339 3.80775 29.7704 -0.054758 
3.78039 29.4069 -0.0540376 3.03465 21.1896 -0.0330127 3.19597 21.4216 -0.03232 
3.06836 21.5317 -0.0345326 2.80178 18.4959 -0.0176681 -3.13124 27.027 -0.1142 
-3.01784 20.701 -0.0930095 -3.91687 25.8148 -0.12007 2.85731 17.326 -0.00817643 
-2.87062 15.6453 -0.0601038 -2.72626 15.4298 -0.0573336 -3.3489 18.164 -0.081271 
-1.88785 20.4604 -0.0836544 -3.3266 17.7674 -0.0785109 -3.20181 17.8988 -0.0783449 
2.3047 18.6315 -0.0252457 -2.60865 10.1845 -0.0227433 2.36322 18.9105 -0.0265935 
2.12075 18.5361 -0.0270251 -2.5439 8.24373 -0.0150771 -3.42597 10.5946 -0.0295926 
-3.54828 10.4692 -0.0295113 0.0652689 0.204702 -0.0012535 -3.57225 10.1446 -0.0276405 
-0.365471 18.1394 -0.0608862 -0.133594 17.8751 -0.0593873 -0.341645 12.9205 -0.00808871 
-0.365791 12.6139 -0.00464994 -0.233483 12.9858 -0.00452325 -0.224428 13.2444 -0.00768563 
-0.00379509 29.8473 -0.0879131 -0.0909609 29.4534 -0.0878491 -3.80669 23.7389 -0.112742 
-2.49611 3.27277 0.0216291 -2.44425 3.27419 0.0192032 -0.621471 15.6763 -0.0391047 
-3.31341 22.3119 -0.102656 -2.84415 13.0118 -0.0411405 -2.99385 12.8761 -0.0414123 
1.97959 21.1696 -0.0480177 2.1507 21.1922 -0.0453707 -3.19881 10.196 -0.0260439 
-3.31056 10.3989 -0.0277848 3.41902 30.1193 -0.0590577 -3.37988 12.8175 -0.0440694 
-3.22757 28.2294 -0.117842 -4.10709 30.0263 -0.131455 -2.88285 5.68705 -0.00396929 
-3.27143 11.0487 -0.0314573 -3.13343 11.1953 -0.031478 -3.16011 10.8534 -0.0295836 
-3.06045 5.9484 -0.00455796 -3.62566 24.996 -0.114622 -3.60421 24.6378 -0.113374 
-3.46783 24.7447 -0.112225 0.128123 15.3097 -0.02495 0.188367 15.2009 -0.0233736 
0.0368701 0.198552 -0.000398605 -1.077 15.8749 -0.045481 -1.06839 15.5664 -0.0429122 
0.895539 1.73272 0.000264815 3.22513 12.7895 0.0261098 0.463949 14.234 -0.011679 
-0.22311 17.485 -0.0525812 0.307933 18.6419 -0.0645422 0.190621 18.4185 -0.0570216 
-1.05338 19.2225 -0.0732741 4.15283 30.8305 -0.0545374 -1.19132 21.3856 -0.0831181 
-3.15439 19.0729 -0.0852918 0.117761 14.2431 -0.0142417 -0.191956 22.8953 -0.0753357 
-0.321323 23.4694 -0.0774123 -2.4437 23.1711 -0.0975719 -2.61211 23.5581 -0.100234 
-2.45425 22.8342 -0.0966376 -2.62424 23.2193 -0.0993832 -2.5702 16.2621 -0.0619539 
-2.42201 16.0584 -0.0592489 1.14664 22.7651 -0.063668 -0.948371 2.09111 -0.00482022 
1.42678 20.3739 -0.0533014 0.357342 16.446 -0.0319715 0.485768 0.389229 0.00649874 
-0.838865 19.6699 -0.0775991 -1.34527 2.63659 -0.000861933 -0.653222 17.1403 -0.0520997 
-0.520942 17.1967 -0.0517411 -0.671692 17.4541 -0.0552512 -0.0391377 2.52297 -0.00433668 
-0.116085 2.55461 -0.00472575 -2.45947 9.99144 -0.0209672 2.71216 27.0718 -0.0577327 
-3.29497 17.0728 -0.073605 -3.40293 10.912 -0.0314233 -2.86855 12.6697 -0.0390122 
-3.02229 12.5474 -0.0393988 -3.05148 14.1071 -0.050571 -3.07054 13.7564 -0.0482184 
0.444188 15.575 -0.0234766 0.352683 15.6805 -0.0255425 0.127495 15.732 -0.0292298 
-0.047864 0.212511 -0.00139921 -3.63472 31.4084 -0.128399 -0.748425 14.927 -0.0340608 
-0.616374 15.0911 -0.0338544 0.613701 11.2158 0.00983928 -0.143112 3.28042 -0.0052528 
-0.451023 22.9008 -0.0777699 -0.101148 0.506161 -0.00419963 -0.0547535 0.19666 -0.00118447 
-1.23597 17.7039 -0.0617252 -1.50148 18.0108 -0.0659837 3.30499 14.004 0.0203184 
-2.52616 28.5396 -0.110664 -2.61948 28.1552 -0.110913 -1.60026 29.1944 -0.102025 
-1.51449 28.7756 -0.100288 -1.66748 28.7998 -0.101939 -2.90095 14.5983 -0.0528362 
-3.03895 14.4658 -0.0530458 2.39225 7.24691 0.0238097 2.18789 7.03125 0.0202642 
2.36116 6.87909 0.0232114 0.68335 11.3018 0.0138733 3.60299 21.3734 -0.0271504 
3.4923 21.5033 -0.0291956 1.25399 12.0242 0.00995622 1.22819 12.4014 0.0078241 
3.10035 12.6629 0.0251354 2.17892 16.9499 -0.0137972 -3.85948 27.3542 -0.12313 
-0.300548 14.9943 -0.0288678 0.815284 15.7641 -0.0206052 0.946087 15.6444 -0.0181255 
0.823941 16.0646 -0.0230077 2.3151 30.4462 -0.0694092 -3.09252 21.408 -0.0969143 
0.844314 14.2696 -0.00832582 3.64972 29.6496 -0.0558267 3.61836 29.2577 -0.0550887 
0.442686 15.8382 -0.0256726 1.48382 9.95073 0.0141031 1.44333 10.4121 0.0144719 
0.440393 19.2851 -0.0764972 -3.58151 24.2818 -0.112082 -0.396913 16.1477 -0.0408264 
-0.302673 16.2374 -0.0407424 -0.398442 16.412 -0.0433173 0.282639 1.46793 -0.00268665 
0.204121 1.12435 -0.00261032 -0.0453554 1.44954 -0.00344831 -0.0850094 1.79561 -0.00398755 
-3.56298 23.9478 -0.110855 -0.243933 1.12871 -0.00525966 -0.168519 0.817414 -0.00531581 
0.355379 15.191 -0.0212747 0.447567 15.3034 -0.0211115 -3.14203 16.4341 -0.0679414 
-3.04812 17.6623 -0.0755323 -2.67706 13.4835 -0.043021 0.502447 19.1189 -0.0673635 
0.408633 18.9611 -0.0673794 -3.84641 26.9877 -0.122142 -0.0586289 8.87962 -0.00501113 
1.34391 9.80925 0.012259 -2.87082 16.347 -0.0650781 -3.00522 16.209 -0.0652285 
-3.27238 16.3191 -0.0682197 0.161363 0.200425 -0.00210612 0.137252 0.178434 -0.00174363 
-0.707847 0.8249 0.0315241 -0.658113 0.811248 0.0248342 -1.73685 18.2143 -0.069055 
0.534181 13.0599 -3.01497e-05 0.0367233 7.58437 -0.0050796 1.7849 15.8907 -0.0104615 
0.000661898 0.196567 -1.23188e-05 0.0101064 0.488649 -0.00130369 0.00964264 0.197552 -1.82938e-05 
1.62312 15.7446 -0.0111957 -0.00712321 0.492072 -0.00216241 -2.62477 25.9656 -0.106286 
-3.7515 24.8832 -0.115683 -3.76603 29.7782 -0.127042 -3.67219 29.9645 -0.126308 
-3.64155 29.6777 -0.125419 -2.71874 16.1179 -0.0621843 -2.86771 15.9778 -0.0624446 
-1.3653 30.3135 -0.101759 0.141275 28.202 -0.0830085 -0.119277 0.502903 -0.00524801 
-1.39322 2.06187 0.0123416 -0.48423 0.724494 -0.00077158 -0.203849 0.188005 0.0116768 
0.0674542 28.616 -0.0845804 -0.00531938 29.0459 -0.0861805 0.408479 0.755245 -0.00298113 
0.280129 0.471956 -0.00497718 0.141351 0.201403 -0.0021989 -3.78044 23.3805 -0.111231 
-2.33531 31.1381 -0.113246 3.51047 30.8126 -0.0600694 0.538611 1.06712 -0.00352327 
0.456601 16.6508 -0.0324286 3.12293 18.8805 -0.0164102 2.89153 27.7099 -0.0576713 
-3.2652 8.56151 -0.0178369 -3.4572 29.1557 -0.122306 -0.60154 23.4781 -0.0796703 
-0.477695 24.1051 -0.0798153 -2.81332 23.1505 -0.100944 -2.31138 22.479 -0.0942804 
3.80301 23.7462 -0.036764 -3.3882 8.12366 -0.0158031 2.6113 3.69848 0.0363115 
2.96528 4.68081 0.0408534 2.41174 13.7031 0.0113694 0.982559 13.7733 -0.00318944 
0.855489 13.9593 -0.00572255 0.322932 12.7398 0.00426038 0.369223 12.4072 0.0093017 
0.787834 11.3079 0.0133493 0.113929 17.6446 -0.0482086 1.16384 8.04499 0.00643955 
1.35013 7.74988 0.00842373 1.35226 8.34268 0.00921986 2.42943 8.99723 0.0247688 
2.27838 9.17046 0.0226715 2.44578 8.65933 0.024988 2.29757 8.83125 0.0228173 
0.304512 17.8309 -0.0461988 -1.64389 8.21089 -0.0121769 0.450224 18.1843 -0.0489883 
-3.26239 8.87534 -0.0193786 -3.1257 8.99588 -0.0195922 -0.141612 13.3166 -0.00515714 
1.60544 2.49457 0.0131698 -2.08502 20.5 -0.0850567 2.16782 30.4163 -0.07059 
2.09213 30.7639 -0.0721041 2.00717 30.3956 -0.0719043 3.94725 26.5188 -0.0448212 
0.465225 28.2265 -0.0801695 3.91993 25.8276 -0.0430097 -3.34012 13.4782 -0.0484482 
2.62533 29.8309 -0.0652165 -0.99926 22.9455 -0.0829955 3.009 19.3748 -0.0214294 
-1.97911 23.2848 -0.0936299 -2.3688 28.497 -0.108846 -1.10596 22.4517 -0.0833927 
2.56635 7.43581 0.0268368 2.19067 23.6129 -0.054167 2.22584 24.0991 -0.0550263 
-2.51241 13.6266 -0.0426064 0.578999 16.5795 -0.0302913 -3.09301 13.4014 -0.0458803 
-2.74594 14.7482 -0.0525954 -3.1764 14.3253 -0.053183 -3.30284 14.1935 -0.0532897 
-1.03763 10.6742 -0.00792207 -1.26571 10.2303 -0.0106756 -1.09927 10.1345 -0.00911568 
-2.81262 7.25767 -0.0118712 -2.94111 7.12895 -0.0112165 -2.78511 6.92623 -0.010578 
-3.54825 6.99075 -0.00918342 -3.51566 6.68215 -0.00720933 -3.41873 6.76701 -0.00813602 
2.42135 7.60657 0.0243615 -2.77529 25.7636 -0.107434 -0.309184 16.9831 -0.0479556 
-0.422015 17.2441 -0.0512493 -1.33254 22.4148 -0.0858731 0.457633 11.6781 0.0160955 
-3.97456 27.2016 -0.124112 -2.71236 8.0994 -0.0149452 -2.6907 7.74796 -0.0136498 
-2.52516 7.89027 -0.0139193 0.546336 10.2398 -0.000955187 3.25716 16.4353 0.00331308 
3.13147 16.6356 0.00030987 3.12394 16.2702 0.00287632 3.2738 16.1156 0.00581153 
2.51174 14.8777 0.00521188 0.114964 17.2087 -0.043662 3.25725 22.1127 -0.0353059 
3.22456 21.7611 -0.0338535 2.42049 9.33278 0.0246363 -0.541247 5.23787 -0.00768192 
1.85048 2.2966 0.0224289 1.86707 2.23976 0.0244277 -3.44688 24.3776 -0.110951 
-3.31672 24.5035 -0.109953 1.92646 2.28076 0.0263305 -0.674352 13.1438 -0.0721677 
-0.50485 14.6847 -0.0288705 -0.434161 17.5347 -0.0541259 -0.14536 14.1689 -0.0175041 
-0.222381 13.4807 -0.0112991 -0.325907 13.4493 -0.0139217 -1.01791 17.473 -0.058273 
2.89247 7.47803 0.032845 2.8277 22.4709 -0.0422739 0.599147 2.16548 -0.00184739 
0.992562 23.8356 -0.0667896 2.06278 7.62085 0.0185891 2.22038 7.42497 0.0209763 
2.03445 7.22557 0.0178825 -2.45051 20.9279 -0.0895701 0.323636 29.8386 -0.0849878 
0.400092 29.4586 -0.0834777 1.08976 28.2392 -0.0747368 1.00297 27.8514 -0.0746327 
1.16218 27.8726 -0.0733004 1.20281 22.2465 -0.0623912 1.02655 29.5046 -0.0781225 
2.64299 22.2527 -0.0436429 1.13252 14.8798 -0.010115 -3.61487 30.2131 -0.126099 
-3.7716 30.4143 -0.128272 -3.82827 30.165 -0.128468 0.328377 18.1202 -0.0504189 
-3.86867 29.673 -0.12803 0.97505 14.6843 -0.0102314 -1.3031 12.0033 -0.0192766 
2.62548 20.0995 -0.0315798 2.79924 20.335 -0.0307906 3.85917 28.1423 -0.0500595 
-3.06109 21.0677 -0.0951114 -2.7423 22.1375 -0.0968427 -3.18903 22.4332 -0.101958 
-3.02956 22.218 -0.0996798 -3.15295 22.0976 -0.100329 -3.11074 28.4828 -0.117049 
3.20855 8.82613 0.0375488 3.34872 8.69226 0.0403157 3.34412 9.01425 0.0397405 
-3.49533 19.9594 -0.0932299 -3.62098 8.22602 -0.0165754 -3.21982 6.20009 -0.00530606 
-3.2664 6.52915 -0.00721183 -3.377 6.44844 -0.0061959 0.284764 13.322 -0.00346649 
0.192454 13.3429 -0.00392134 0.190272 13.5779 -0.00717921 -0.199948 27.2926 -0.084041 
-1.99919 14.4537 -0.0438303 -2.45993 17.8127 -0.0717479 -0.459858 0.731416 -0.00564647 
2.16735 16.5936 -0.0112068 0.167756 0.81309 -0.00332357 0.190619 17.4864 -0.044373 
1.30348 26.7743 -0.0696889 -1.30651 18.1382 -0.0656602 1.28929 30.6334 -0.0785271 
-0.13984 0.817519 -0.00341017 -2.4514 6.88141 -0.0107971 -2.29448 7.06345 -0.0114004 
1.00044 1.05835 0.00510905 -0.4088 16.9603 -0.0484911 0.278007 0.795798 -0.00439659 
2.93796 4.30832 0.0427413 1.51952 2.52354 0.0107888 -0.281071 0.459358 -0.0154909 
-0.835638 17.3819 -0.056026 -0.168624 0.182442 0.00329175 0.535737 1.77995 -0.00250456 
1.97076 20.2105 -0.0421412 0.16098 29.8328 -0.0864095 -3.50794 25.4608 -0.1146 
2.59035 8.14421 0.0272484 1.25677 1.75081 0.00825507 -1.86359 21.8332 -0.0888146 
3.64602 23.5475 -0.0375633 -3.12238 18.7208 -0.0828998 -2.59798 28.9817 -0.112328 
-2.44441 28.9231 -0.110522 -3.26927 15.578 -0.0629593 1.51402 9.53255 0.0134834 
-0.0997353 28.6108 -0.0860758 -2.37847 3.28154 0.0166986 -3.62091 8.83993 -0.0201141 
2.98584 16.4572 -0.000154083 -3.14563 24.2799 -0.107559 3.55699 29.9567 -0.057434 
3.51194 29.8125 -0.0574512 -3.65531 30.5349 -0.127145 -0.442233 0.755361 -0.00846516 
-4.09204 29.7225 -0.130716 -2.04784 22.4634 -0.0919857 -3.22412 31.3076 -0.123461 
-3.27384 31.0143 -0.123563 -3.49883 29.5167 -0.123478 1.76833 2.42759 0.0181318 
0.466503 1.42198 -0.0030343 3.20001 9.15193 0.0369697 0.387932 1.09428 -0.00372531 
2.98097 16.1042 0.00234113 1.33424 18.112 -0.0344027 3.07106 8.67632 0.0352644 
3.70622 27.9289 -0.0508615 0.200358 17.7584 -0.0470627 -1.01983 18.83 -0.0700002 
-1.23698 19.152 -0.0730239 2.15711 16.2444 -0.00871249 -2.07442 2.57435 0.027851 
-2.26687 2.92485 0.0231924 3.39559 24.169 -0.0426261 -0.843179 17.1079 -0.0535836 
-1.21604 14.7731 -0.0383187 0.191286 17.2581 -0.0417397 0.532729 9.50774 0.00104088 
-1.62698 1.84081 0.0445753 -1.3261 1.43712 0.0471191 0.263644 15.0729 -0.0212342 
-4.02496 30.7954 -0.131893 2.91421 30.6274 -0.0647489 3.43616 30.4454 -0.0597467 
0.334148 30.5837 -0.0865308 0.414001 30.2352 -0.0850699 0.570083 30.2342 -0.0837196 
-2.8748 21.997 -0.097462 -2.89562 22.3602 -0.0990197 -3.06217 22.5487 -0.101209 
2.90463 7.81837 0.0328755 2.75374 7.63439 0.0301749 2.71679 14.0293 0.0130221 
2.70325 14.3633 0.0108117 2.53499 14.1989 0.00983795 3.57665 28.4915 -0.053483 
4.00017 28.3319 -0.0493021 0.540943 27.8004 -0.0785664 2.84541 6.81014 0.0323917 
-3.53971 23.5997 -0.109494 -3.09618 7.37218 -0.0121262 -3.22374 7.27281 -0.0114904 
-3.06778 7.02877 -0.0105056 -3.29146 10.7207 -0.029582 3.45585 29.064 -0.0560261 
3.48634 29.456 -0.0567626 -1.76701 3.2647 0.0017695 1.00064 1.40803 0.00415768 
0.771833 1.08792 0.000438987 -0.514282 16.3244 -0.043696 -0.510734 16.0543 -0.0411168 
-0.140342 13.5317 -0.00822813 0.67354 15.8789 -0.0232144 0.81644 15.4736 -0.0182375 
0.266477 2.62443 -0.00302527 0.199588 2.20569 -0.00307882 0.114494 17.4283 -0.0454288 
-1.40472 21.9212 -0.0854425 -0.662855 29.8528 -0.0940035 -1.87748 23.8571 -0.0936745 
-0.499305 15.2306 -0.0337399 -0.501387 14.9561 -0.0311352 -3.50367 8.95452 -0.0204423 
-3.49528 9.26768 -0.0221622 -3.37948 9.07613 -0.0207447 1.29218 4.23506 0.00578321 
-2.30865 2.9228 0.0259536 -1.29646 1.49406 0.0349868 -1.23154 1.56745 0.0239535 
-0.189511 1.47335 -0.00451775 3.68404 27.2212 -0.0491784 1.1049 3.27702 0.00318451 
-2.85513 8.30414 -0.0159451 -3.048 12.2022 -0.037284 -1.03105 8.48752 -0.0106287 
-0.527063 16.6291 -0.0463801 -0.901319 8.95403 -0.00973103 -3.21179 22.778 -0.103438 
-0.155012 18.1327 -0.0594245 0.292652 11.6526 -0.00586855 -0.155814 3.54236 -0.00541594 
1.10164 20.8188 -0.0624358 -1.26505 9.72558 -0.010778 -1.08096 9.6804 -0.0092366 
-0.993318 11.0852 -0.00803294 1.00833 4.29934 0.0025788 -0.876292 9.59644 -0.00957056 
-1.09603 9.07761 -0.0105158 1.70502 18.1504 -0.0296301 3.70166 30.0294 -0.0563572 
1.28826 17.0062 -0.0253655 -3.72771 27.4965 -0.121941 0.9522 15.3298 -0.015545 
-2.98104 24.4219 -0.106294 2.43409 13.3567 0.0135636 3.09811 21.8794 -0.036034 
-1.29403 9.14338 -0.0113384 -1.49413 9.3263 -0.0126916 -1.22479 8.62781 -0.0110642 
-1.43961 8.82041 -0.0119125 2.8274 25.4105 -0.0523594 3.59674 28.8854 -0.0543193 
-0.946524 18.4038 -0.0659165 -3.23211 25.7354 -0.112305 -2.40799 5.30323 -0.00493464 
0.118838 13.5975 -0.00692692 1.11603 11.8732 0.0102322 1.06235 12.2737 0.00784673 
-2.26543 16.9328 -0.0641071 -2.68711 28.6156 -0.112593 3.22638 5.26808 0.0455941 
2.19312 14.1952 0.00592328 -1.91393 15.8047 -0.0529671 -0.466542 0.38451 0.0338831 
-1.53996 15.0362 -0.0436671 0.954168 15.0229 -0.0130905 -1.59784 14.5947 -0.0409535 
3.00818 20.8747 -0.0314674 2.96446 28.9223 -0.060013 2.93214 28.5114 -0.0592813 
1.79415 26.6073 -0.0650163 -2.28848 21.0685 -0.0890012 0.866942 1.37817 0.00104358 
0.625596 1.07281 -0.00261831 -0.964869 11.9982 -0.0138077 -0.778962 12.2884 -0.0123761 
-0.772027 12.6034 -0.0152838 -0.921477 11.5097 -0.00910755 -0.839697 11.8948 -0.0106653 
0.946717 18.868 -0.0487224 0.248891 3.07663 -0.00329093 0.164438 2.93127 -0.0035899 
0.133294 8.19472 -0.00339375 -1.67294 19.8042 -0.0790358 2.16784 28.1279 -0.0651339 
2.24871 28.5507 -0.0654126 -1.81052 27.9486 -0.101691 -3.35918 29.4346 -0.12173 
2.99502 29.3188 -0.0607329 1.42472 16.522 -0.0198256 1.83007 3.35814 0.0155373 
1.55186 13.9711 0.000680479 1.5305 14.301 -0.00177836 1.34161 14.1359 -0.0025108 
2.32495 5.28613 0.0230581 -2.97146 7.48137 -0.0127037 -2.83623 7.60996 -0.0132283 
-2.39284 23.7126 -0.0985859 -2.76678 22.4978 -0.0983445 1.2736 21.272 -0.0603801 
1.24609 21.7623 -0.0615075 2.08616 25.452 -0.0597477 -1.30569 3.8371 -0.00668966 
0.43104 3.0715 -0.00239199 -1.09851 16.5917 -0.0516375 -0.941003 16.3723 -0.0482423 
0.354951 3.09478 -0.00277541 -0.646313 14.2038 -0.0265448 -1.81048 11.0884 -0.020295 
-2.05158 10.8111 -0.021411 0.26108 16.5 -0.0338172 -2.59118 25.5663 -0.105047 
2.16559 26.8274 -0.0621517 1.61747 30.6839 -0.0759032 -1.74816 28.3899 -0.101944 
-1.59033 28.3449 -0.100194 -2.19403 23.8441 -0.096888 3.43699 11.9208 0.033005 
-1.55865 2.98024 0.000589402 2.16069 12.3775 0.0154335 2.13183 12.7222 0.0135468 
2.97094 20.5261 -0.0297653 0.000970749 0.794378 -0.00277708 -0.0162282 1.1061 -0.00275942 
-0.144833 13.7384 -0.0119237 -1.41514 9.90668 -0.0119857 -1.64673 8.92597 -0.0129269 
1.43273 21.2336 -0.0578406 1.4146 20.7565 -0.0560258 0.963697 12.9709 0.00263606 
1.18402 12.7547 0.0054675 -2.65076 22.9109 -0.0986746 0.67794 16.1761 -0.0256224 
0.950684 7.84628 0.00410469 -0.737751 2.98172 -0.00713662 0.613675 21.7424 -0.0682337 
1.09522 6.77446 0.00427864 1.14646 7.32809 0.00565881 -2.68071 9.13586 -0.0187254 
0.301132 0.781977 -0.00296786 0.259219 15.7866 -0.0276482 0.877109 26.883 -0.0736092 
-2.55892 27.7072 -0.109313 -3.40316 12.4684 -0.0417996 3.44413 31.0603 -0.0612949 
2.43959 24.2169 -0.0530728 2.73369 7.29555 0.0299276 0.359623 14.924 -0.0188485 
2.36822 4.29505 0.025828 2.41072 19.2578 -0.0285519 0.235157 1.47361 -0.00269882 
-2.43548 12.4305 -0.0339011 -2.57718 12.6453 -0.0364847 -3.27237 12.6095 -0.0417628 
-3.13225 12.7506 -0.0416423 -2.46467 4.85743 -0.00191193 -2.46653 14.3388 -0.0472468 
1.22519 11.0794 0.0131517 1.40319 10.8025 0.0142701 -2.53973 5.21404 -0.00351358 
0.933235 5.54228 0.00227608 1.04142 6.19965 0.00356377 -0.894306 14.7589 -0.0344265 
-1.92048 15.1303 -0.0480274 -1.04125 24.187 -0.0858152 -1.46341 15.4002 -0.0455505 
-2.1553 7.03776 -0.0113453 1.89937 8.5954 0.0170589 1.21164 6.16157 0.00556979 
1.38804 6.61305 0.00781173 1.76771 8.75902 0.0154261 1.7451 8.27323 0.0145084 
1.55873 8.53665 0.0121968 1.01599 5.07995 0.00312246 1.14696 4.79365 0.00418942 
-0.888563 23.5844 -0.0827244 0.527114 4.75014 -0.00143419 -1.61999 16.9803 -0.0591605 
-0.220999 18.4407 -0.0743295 -2.30633 9.83167 -0.0194058 -0.877992 13.0252 -0.0200896 
1.49479 19.3175 -0.043024 -1.62577 11.2613 -0.0192438 3.42784 10.1363 0.0389479 
1.76572 22.5206 -0.0563042 1.75394 23.0469 -0.0577632 1.76651 23.5184 -0.05855 
1.96918 23.4614 -0.0562156 -3.05067 24.7854 -0.107975 -1.42598 8.09127 -0.0113695 
-0.0630895 5.31487 -0.00512386 0.0822864 5.82647 -0.0041343 2.86499 26.9411 -0.0559978 
3.57241 9.97714 0.04178 1.51188 7.42445 0.010215 1.42017 15.8776 -0.0146882 
-0.13569 4.47751 -0.00563811 0.761058 26.3421 -0.073521 -0.803962 28.2291 -0.0919223 
2.80206 3.97843 0.0408417 2.766 7.98665 0.0302889 2.39724 14.0326 0.00925812 
2.06998 24.4459 -0.0574294 1.62142 16.0836 -0.0138485 -3.18355 19.4284 -0.0876139 
-3.02567 19.1737 -0.0848312 -4.19133 31.5042 -0.135059 1.90254 25.8165 -0.0623286 
-1.90094 4.92014 -0.0064352 1.31443 4.74127 0.00625008 1.32541 14.4452 -0.00479196 
2.00122 15.7407 -0.00680753 2.78828 24.3084 -0.0495757 1.47817 5.24667 0.00842868 
1.56381 5.80626 0.010003 -1.80255 24.6859 -0.0946484 -0.739922 22.9625 -0.0807812 
-1.11157 11.2059 -0.0111834 -0.242017 5.21549 -0.00616459 -0.438173 5.88466 -0.00691544 
-0.316025 13.7244 -0.0167989 -0.334342 13.1905 -0.0109326 -0.539582 12.2119 -0.00583649 
-0.654854 12.2276 -0.00908143 -0.653674 9.63017 -0.00826877 -0.376969 12.0207 0.019415 
-2.63179 23.9487 -0.101499 -0.19007 25.0916 -0.0791571 2.43525 21.3193 -0.0418347 
3.21369 8.51906 0.0380165 1.70694 9.6645 0.0159972 -3.77101 31.3971 -0.129956 
-3.68247 31.0872 -0.128415 -4.03479 28.6415 -0.12793 1.2695 16.6679 -0.0227368 
-3.51424 30.4772 -0.12542 -3.46106 19.5879 -0.090859 -1.75749 11.5849 -0.0224315 
-0.0671618 2.15812 -0.00419653 -0.0280771 1.79822 -0.00365309 -2.70511 11.6403 -0.0311786 
0.455618 0.785581 -0.0044521 3.88352 31.1341 -0.0576717 4.02664 28.6742 -0.0499621 
4.14959 31.4046 -0.0560906 4.08335 31.0943 -0.0558475 3.95105 30.8729 -0.0563956 
-1.30041 1.444 0.0409435 -0.532841 16.9119 -0.0492363 -0.400359 16.6773 -0.0456663 
0.380425 17.2629 -0.0390933 0.48841 17.2158 -0.0371338 3.36531 21.6276 -0.0314205 
-0.253187 0.807609 -0.00439109 1.33229 27.8273 -0.0717502 -0.583035 30.2296 -0.0940199 
-0.745909 30.2407 -0.0955701 -1.50029 27.9345 -0.0983957 3.89315 28.8592 -0.0516261 
-3.00165 15.8519 -0.0626745 -1.52758 1.92481 0.0257249 -3.38627 8.75677 -0.0190822 
2.71422 10.0098 0.0282284 -3.50285 8.01858 -0.0153099 -1.21881 1.87517 0.00883349 
1.19558 8.57406 0.00747385 3.58591 7.7712 0.0467864 -0.0667007 0.209847 -0.00204474 
0.20461 0.186287 -0.000520665 0.21636 0.185152 -0.00197857 -0.300813 16.4707 -0.0429966 
-0.301812 16.7256 -0.0454052 -1.57559 1.83473 0.0351446 3.718 22.7188 -0.033068 
3.75806 29.0346 -0.0532833 0.137629 12.6471 0.012418 2.23491 17.9671 -0.0210044 
2.05283 17.8371 -0.0223798 2.85043 10.1588 0.0299499 -3.33964 22.6616 -0.104233 
0.564407 15.9902 -0.0254482 -1.67977 29.5963 -0.103634 1.72987 31.0485 -0.0758711 
-3.32457 30.7175 -0.12365 -2.86086 18.9408 -0.0820981 -3.16257 12.4097 -0.0395451 
-3.48725 22.8895 -0.106509 -0.672662 8.94979 -0.0079882 -1.17918 2.52872 -0.00322657 
-3.2775 15.2411 -0.0606218 3.4566 7.5893 0.0443045 1.2862 20.8736 -0.0591442 
-1.06001 14.6055 -0.0352322 -3.02477 14.8137 -0.0554328 2.13233 20.4328 -0.0410517 
-3.36683 7.49952 -0.0125209 0.187995 16.7862 -0.0376484 1.53182 9.03429 0.012651 
-3.61127 7.91883 -0.0147831 1.30594 7.20702 0.00755973 0.655695 25.9104 -0.0735164 
0.533091 26.3363 -0.0754537 3.81286 24.0797 -0.0380024 -1.12816 29.9149 -0.0986395 
2.29936 21.4273 -0.0444022 -1.18578 24.8388 -0.0884081 -2.11814 14.9808 -0.0487903 
1.42061 16.8889 -0.0227575 1.27936 12.9277 0.00508406 1.93769 10.6944 0.0182896 
0.461272 16.9252 -0.0347352 1.00484 12.6234 0.00538623 2.00133 23.9502 -0.0571705 
2.18031 31.1135 -0.0722593 2.15003 21.5108 -0.0470475 2.57183 21.2377 -0.0394599 
0.181725 0.199209 -0.00141147 -2.4301 15.3699 -0.0543593 0.00147973 1.44771 -0.00301467 
-1.10853 2.57422 -0.00473336 0.458567 0.471611 -0.00334257 1.5661 7.9577 0.0116299 
-0.707215 12.8153 -0.0713534 1.73638 24.0992 -0.0600892 1.91355 19.5645 -0.0381996 
3.02367 23.0521 -0.0424198 -3.43021 12.1138 -0.0395527 -3.48185 11.4622 -0.035514 
-2.64757 5.10124 -0.00192416 -0.421437 0.479198 0.0311755 1.69992 2.95321 0.0138265 
1.75053 2.81977 0.0153854 3.33616 9.34938 0.0390345 -1.1166 28.2626 -0.0951388 
1.46377 16.2298 -0.0169764 -2.80221 13.695 -0.0455527 3.38953 12.3002 0.0306468 
3.47118 19.672 -0.0177053 3.81021 30.7917 -0.0574072 -0.134556 2.18416 -0.00456692 
-1.03919 6.00501 -0.00938057 0.816581 15.1752 -0.0158253 0.924387 1.38114 0.00214929 
-3.11632 4.82416 0.00613292 -3.28251 16.7186 -0.0710802 -3.26483 28.6461 -0.119112 
3.06066 5.01365 0.0418727 3.83138 27.4109 -0.0483602 -0.394586 0.472278 0.0185045 
2.5814 7.78906 0.0271041 -3.64454 21.6773 -0.103127 -2.21288 2.93398 0.020512 
2.77414 29.8851 -0.0640689 -2.75012 17.5441 -0.0722997 -2.48722 21.2768 -0.0913635 
-0.566725 0.74334 0.0165643 0.520628 1.4436 -0.00306234 0.739209 0.781305 -0.0024782 
0.403852 2.22773 -0.00249175 -3.165 5.87397 -0.00335827 -1.63908 2.41274 0.0128745 
-0.328375 1.45443 -0.005737 2.97375 5.11004 0.0390222 3.57637 7.47641 0.047225 
-1.45732 3.02912 -0.00183522 -0.742252 12.9295 -0.0171715 2.26073 27.747 -0.0634282 
2.32197 28.229 -0.0640056 -0.0859746 0.209116 -0.00248828 0.120244 0.199756 -0.00140035 
-0.684831 13.1236 0.0371409 
Displacement%20Magnitude 1 12442 double
0 0 0 0 32.068093378 32.065796161 32.083373215 32.081133074 12.806490097 
12.815180605 12.803251416 12.80303049 17.980656625 17.966818275 17.959566416 17.969190874 0 0 
0 0 0 0 0 0 0 0 0 
0 0 0 0 0 0 0 0 0 
0 0 0 0 0 0 0 0 0 
0 0 0 0 0 0 0 0 0 
0 0 0 0 0 0 0 0 0 
0 0 0 0 0 0 31.999212528 31.926195153 31.850351593 
31.771453279 31.698799214 31.626955178 31.553282646 31.483911544 31.422396724 31.369910138 31.326301714 31.289129331 
31.269540952 31.261240445 31.267581507 31.287026644 31.322152534 31.363056383 31.419031792 31.489109925 31.554541392 
31.629738443 31.703003901 31.779097522 31.850576095 31.923190007 31.9993558 1.5921617593 2.6826424654 3.5270256296 
4.2453979953 4.9669780374 5.6136155417 6.2582861233 6.8276481061 7.3848112389 7.9866464298 8.5328701903 9.1057917695 
9.6303381975 10.21462022 10.782274207 11.445794743 12.069560407 12.738754625 13.334709769 14.035508691 14.688214043 
15.351439831 16.055172357 16.700783201 17.414990089 18.1963209 18.912049776 19.625454432 20.303127134 21.009002824 
21.646971647 22.313454221 22.977421562 23.671713326 24.302811115 24.998424175 25.697066919 26.399612791 27.074751452 
27.787151155 28.505003485 29.194948485 29.955209524 30.685709626 31.351107487 31.369252211 30.604121509 29.94025017 
29.246118105 28.555956943 27.772974169 27.093124526 26.418218729 25.716016614 24.986250789 24.322748334 23.629194074 
22.904258467 22.24078647 21.606423067 20.936960619 20.263519188 19.489110041 18.775720923 18.027710228 17.377041381 
16.663411825 15.922098715 15.252067425 14.621962745 13.909551826 13.272222798 12.590269527 11.982894999 11.306421616 
10.756226827 10.136684823 9.5808424758 9.0055230737 8.485783058 7.8620362629 7.2858028262 6.6734733459 6.1000891675 
5.506577732 4.8540899128 4.1895063499 3.4300907293 2.5312320479 1.5929838864 17.635061356 17.275429859 16.900867464 
16.541988591 16.132398061 15.747397153 15.347086291 14.929868431 14.550541561 14.124694784 13.772640095 13.422559165 
13.127614046 13.140752119 13.46196202 13.799137539 14.167792493 14.544735452 14.924162915 15.346984565 15.752998936 
16.154604266 16.574298745 16.936382268 17.311940133 17.637685685 32.005225513 31.930316214 31.856634828 31.784299329 
31.709391047 31.637389146 31.561198604 31.4929229 31.430261531 31.366284781 31.318599358 31.286201466 31.266505635 
31.259133029 31.266675499 31.28721525 31.319945246 31.365198778 31.418592624 31.483313468 31.550427191 31.623373663 
31.694473788 31.77058162 31.842078453 31.916936236 31.995049492 1.5494168816 2.5310588606 3.3875339159 4.116184394 
4.8461879132 5.4697528759 6.0922365619 6.6927244234 7.30483313 7.8812401762 8.4794866533 9.0519248614 9.6020432984 
10.159001003 10.72525427 11.303273384 11.894567606 12.471160499 13.12071832 13.78563061 14.464751385 15.15610118 
15.825419069 16.566206697 17.279889665 17.963321335 18.647091219 19.4264924 20.10550609 20.780674009 21.483901514 
22.151522967 22.816302189 23.54250659 24.205244876 24.932434116 25.567226417 26.301078519 26.97563857 27.654908842 
28.371815514 29.126790087 29.820440811 30.583632495 31.382286889 31.3337168 30.535311217 29.805441554 29.07906195 
28.422625196 27.673012791 26.993870019 26.319545513 25.617795489 24.951689456 24.288055535 23.531374305 22.868991761 
22.20519293 21.506790493 20.836450231 20.130024826 19.387091841 18.705613709 17.924778644 17.241774558 16.367346463 
15.692816656 14.994043746 14.274746992 13.660710047 13.028756129 12.353139009 11.77985654 11.191791325 10.562854984 
9.9736784185 9.4200641336 8.8721082415 8.3006925311 7.7542039711 7.2029302915 6.6426164637 6.0404264195 5.4442928254 
4.818676561 4.1184164659 3.3874993578 2.5603570701 1.5534874864 17.66867921 17.305546858 16.94328596 16.591817821 
16.177749584 15.810175919 15.404601302 14.964524404 14.567740193 14.157650733 13.798850621 13.445336147 13.135703633 
13.142589963 13.52303006 13.882244703 14.271643584 14.679233255 15.094417603 15.483799472 15.866278643 16.249355559 
16.623830681 16.984203383 17.317771651 17.647431829 31.37883146 31.334747764 31.254857742 31.118927394 31.002707823 
30.927063665 30.843412362 30.764550187 30.692255918 30.652171106 30.609518243 30.582024854 30.580046447 30.587270548 
30.600633857 30.628543493 30.669934751 30.738845767 30.80813407 30.867517371 30.931613769 31.003183569 31.100594146 
31.205655159 31.320166477 31.330058912 31.289684158 1.4718868172 2.5968401818 3.4726003508 4.2717170815 4.9610055978 
5.6435764614 6.3073114104 6.9199024032 7.4997618003 8.0919103017 8.6973089228 9.2753557683 9.8529647682 10.46659299 
11.08014107 11.730062716 12.339880441 12.989470495 13.658594529 14.312826362 14.960826667 15.645797844 16.325885052 
17.04671441 17.750817365 18.462055519 19.13886579 19.849624829 20.547849337 21.192876262 21.864592103 22.530496358 
23.206363933 23.892214945 24.570357989 25.266811919 25.944622895 26.645338701 27.369074553 28.092978431 28.784228236 
29.521973617 30.219466656 30.877787031 30.077986432 29.480814468 28.770104311 28.049879519 27.307713497 26.591932864 
25.900459741 25.18547072 24.482542451 23.796149813 23.096170266 22.430026869 21.760111043 21.092218023 20.377414391 
19.656864513 18.950486894 18.239928369 17.533838433 16.838448569 16.147912691 15.488240878 14.824706414 14.114856369 
13.46118025 12.819221633 12.172036318 11.503674322 10.913479155 10.301615546 9.7083597932 9.1208162834 8.5311522122 
7.9450108579 7.3431921399 6.7247038317 6.0769024214 5.4402848347 4.824591812 4.1162415025 3.3303778275 2.4340145049 
1.4307800828 0.6779510452 0.67048869336 0.63314222458 0.57955992657 0.58132414452 0.57645209579 0.5629380581 0.55456476183 
0.54940045999 0.54732418424 0.54079274613 0.53049913919 0.53540662301 0.54524606871 0.5454398973 0.54627187763 0.54554869152 
0.54967246438 0.55236089652 0.56163406471 0.57013961329 0.59385358919 0.63162159681 0.6727374667 0.72162407949 19.04348196 
18.749711977 18.0835159 17.474030124 16.963246915 16.503848342 16.032001814 15.591239294 15.126113216 14.66022821 
14.198063816 13.69909539 13.229786456 12.673326285 11.98448102 11.646026487 12.126443029 12.788944334 13.311223539 
13.774167341 14.220734453 14.661906098 15.135308633 15.600501757 16.034994971 16.516076719 16.973577713 17.461517092 
18.020197891 18.651538048 19.317547189 19.435410265 11.273095355 11.409366756 20.132212537 30.78216607 30.57229062 
30.400532624 30.266659131 30.161551827 30.097258657 30.031276811 29.955698927 29.910754964 29.885925616 29.882451451 
29.871577713 29.897825614 29.90011522 29.956334991 30.014817812 30.081345209 30.123563221 30.171371268 30.252678198 
30.352226843 30.482778819 30.626569351 30.7769157 18.226871466 1.5183513303 2.6956247705 3.549921366 4.3021130831 
4.9932659374 5.7229190633 6.4136768968 7.0256579563 7.6310031097 8.2459495874 8.8808760252 9.4520943372 10.084711654 
10.722013883 11.369284588 11.976792551 12.618524538 13.300475537 13.946666982 14.583240994 15.244738865 15.93065634 
16.643706913 17.348686369 18.055292492 18.696507975 19.364277245 20.086409344 20.765253306 21.390803818 22.070822583 
22.750191351 23.449909386 24.104118152 24.803443259 25.494679197 26.19367623 26.91223986 27.66421952 28.360357169 
29.094933924 29.83969007 30.655964762 19.724979903 1.6109465903 29.782719162 29.061422142 28.322261624 27.550869579 
26.789800942 26.107880957 25.371453036 24.655049785 23.987801261 23.289382455 22.60104192 21.917587858 21.259125717 
20.542984307 19.828967613 19.10208802 18.434310449 17.724035771 17.061043906 16.346949732 15.693983153 15.030164603 
14.343807697 13.645832925 13.020886782 12.363287229 11.710196616 11.06794959 10.46107092 9.836145493 9.2509039519 
8.6300956658 8.0360721575 7.3849823412 6.753027713 6.0870834659 5.4165590581 4.7770627815 4.0802000044 3.29763469 
2.4233700067 20.21819898 1.4906987051 1.2382850721 1.2119912045 1.2067973799 1.2102021128 1.1729909915 1.1655598874 
1.1515538758 1.1416331988 1.1279368462 1.1228482476 1.1333898504 1.1212606644 1.1336324191 1.1345277832 1.1342770796 
1.1473481207 1.1508083469 1.1576914851 1.1989131986 1.2649130073 1.3340286883 10.243332806 18.941194449 16.938806834 
16.403816163 15.890350116 15.375104922 14.853213859 14.319419455 13.761111698 13.193963925 12.516779428 11.779999313 
10.954241975 19.589720598 11.252244281 12.000015085 13.841376964 14.351470375 14.863210135 15.389825429 15.874511686 
16.386237816 16.921202929 17.492016065 18.16128304 18.850817148 10.463078648 17.514309849 12.681088391 13.293023355 
30.56551156 9.7925449667 20.361778107 20.514943184 10.446471518 12.072040192 19.618565908 29.840628246 29.611569841 
29.490955883 29.38090108 29.26490211 29.203211536 29.181331079 29.140901376 29.125567616 29.104242468 29.084661647 
29.100929956 29.151215811 29.230650983 29.287852651 29.354127572 29.394560902 29.459791634 29.562189849 29.71214277 
29.895494528 2.8481489354 3.6100332947 4.3770235174 5.0985649735 5.8487285934 6.5439820873 7.1610524388 7.7914456262 
8.4350762984 9.0763807293 9.6808115404 10.336199743 10.991190403 11.612573982 12.256244207 12.923153013 13.595192358 
14.225864428 14.877355492 15.560919348 16.248628374 16.954877958 17.663722265 18.332001384 18.953600257 19.606050963 
20.295411132 20.942206982 21.572434379 22.268453536 22.958062193 23.652531871 24.314047798 25.009161179 25.715913781 
26.43528789 27.187718563 27.951879825 28.669617278 29.415303704 30.130133845 16.278268171 8.87863509 2.1048869168 
20.476412619 28.644621335 27.861848195 27.056309767 26.316688913 25.60395593 24.868596396 24.171157703 23.471109852 
22.794880853 22.131069944 21.440566155 20.743031497 20.026961883 19.308393961 18.637506005 17.942921715 17.272588612 
16.58353356 15.91203718 15.272369317 14.56466666 13.883219609 13.217959804 12.587485681 11.930072835 11.251380457 
10.639280402 10.008416896 9.3838947385 8.77661839 8.1385447986 7.4619435568 6.8127108497 6.1258124186 5.4316413866 
4.7734620194 4.0968714386 3.3590074285 21.366562099 1.9278964425 21.253674705 18.092500803 1.8981900656 1.8994546935 
1.9051551829 1.8926617635 1.8878334091 1.8658471076 1.8504392055 1.8306790103 1.8058161224 1.8070339236 1.8099476741 
1.8240346841 1.8375003449 1.8427802778 1.8174122383 1.8197951595 1.8160725755 1.8153961766 1.9057891739 2.0436762882 
11.031734316 21.218044981 15.715653318 16.902127525 15.115682395 14.515062599 13.922949238 13.296154626 12.637741491 
11.864623097 9.9772241845 10.550066705 11.307691939 9.5122144823 13.988444201 15.678395525 16.208126011 16.804389865 
17.403319642 18.099477337 18.855139173 9.2851934522 20.701701982 29.429465025 17.422874168 14.559772517 15.118564849 
2.5203608051 30.12846411 21.355980053 21.560122577 19.784664298 8.4807500628 12.755775276 18.944731896 8.8078178331 
9.6986056533 13.406214697 22.501082934 11.324648544 28.721517007 28.688102229 28.515386531 28.353409315 28.331110376 
28.343681095 28.29436291 28.25508713 28.221624155 28.207755917 28.278919004 28.356260342 28.429780217 28.508050806 
28.524955515 28.578068031 28.689369923 28.882114362 29.12077308 2.8383598115 21.399354835 21.672374566 15.488209908 
20.673238889 3.7599302144 4.5191293021 5.2859315218 6.0371889916 6.7008030324 7.3280364814 7.9871958227 8.6654498106 
9.2997850889 9.9466851205 10.603388609 11.276886266 11.90029683 12.573516629 13.248549728 13.882695536 14.527700196 
15.200574271 15.88954502 16.596128784 17.307574123 17.985221396 18.623385228 19.192715744 19.793179031 20.450226022 
21.101305607 21.732629148 22.443407502 23.133060045 23.811580226 24.479574887 25.179276409 25.913047101 26.687843515 
27.483334136 28.253492825 29.045108751 8.703409741 14.224964558 2.6653085214 16.115839001 27.410545704 26.586185244 
25.795358704 25.149617819 24.409609544 23.62923448 23.021048748 22.37707954 21.684512011 20.981007951 20.226697298 
19.497798115 18.889114654 18.246690272 17.532924424 16.827227025 16.136598207 15.478626027 14.837325808 14.152700423 
13.475093218 12.851858465 12.170246339 11.503406928 10.833955254 10.214092793 9.5811072783 8.9427437373 8.2902863093 
7.6071643352 6.9255387313 6.2126158104 5.5249534508 4.811093432 4.1308446238 3.4201281318 18.67207617 22.25807519 
2.6426511238 2.6691186438 2.6622424536 2.6644575015 2.6696020416 2.614710848 2.5420221928 2.5332143588 2.5630586124 
2.6086289705 2.6309666855 2.6281368889 2.5956552025 2.5867239672 2.5702950856 2.5406046842 2.4664222297 22.343908078 
28.286145879 14.80313467 16.852501341 14.183341672 13.527632527 12.861494141 12.123150571 9.9389095561 19.489291404 
16.004833767 17.88866625 18.660730413 20.44808852 22.330467701 16.578289265 7.4226216031 10.361965636 17.245074239 
19.62635085 9.0519391173 22.6420408 12.246953165 11.524668229 14.822376721 17.649898475 7.3658058823 13.614124147 
2.6435597333 10.737335267 9.2527029374 8.3707429271 22.385449956 15.43508872 7.8684507906 23.41897796 27.832422927 
27.460484108 27.097384696 27.54773172 27.448365163 27.401350105 27.371590326 27.27794344 27.210063759 27.508400186 
27.408145049 27.678357521 27.632422155 27.70592284 27.743125073 27.942737872 22.743164569 12.932731485 21.705632249 
3.1936761993 3.9708845541 4.743174058 5.5339664464 6.2588663754 6.8403335726 7.5194308453 8.2244424734 8.9346185212 
9.581006711 10.252134433 10.936376222 11.583797798 12.238107107 12.907713447 13.556675982 14.199376575 14.875396391 
15.557445729 16.254190827 16.957127169 17.686131432 18.392526387 19.126373712 19.865426374 20.598389631 21.232665219 
21.897512665 22.574238747 23.261515266 23.958309681 24.656555259 25.284986119 26.083818928 26.946549184 27.796395633 
21.362975479 5.8288077857 15.814968778 23.754927887 26.001630479 25.095288255 23.891366556 22.827327821 22.008996885 
21.226354457 20.491546952 19.710122233 18.798098224 17.900171418 17.013892715 16.36173614 15.703594397 15.052514211 
14.439578321 13.810924228 13.135207972 12.477793409 11.801103294 11.113852886 10.452421145 9.8042414722 9.1290598673 
8.46650382 7.830733683 7.1532116824 6.4014481008 5.6722488481 4.9132934236 4.159612349 3.4425575507 16.368342796 
22.431729084 26.900563334 7.8374764106 23.374701781 3.4989999992 3.3960456286 3.6094052319 3.5638576409 3.4634375643 
3.265351502 3.4936426415 3.5308268337 3.5688741191 3.6021276494 3.4760420963 3.4085755143 3.4006373311 3.3350760877 
13.87575901 16.581127285 13.163163492 11.708202057 23.517371688 12.458631919 7.5527900775 20.102726277 23.387025707 
14.56318045 20.381405786 15.175440931 19.264219882 28.059619191 10.92306806 3.4383584936 9.4512589716 7.0399673894 
10.263638592 23.861810152 12.546373936 6.1181903042 8.0188132845 19.157324826 13.876909174 11.794998222 15.790627528 
23.485414647 16.949774072 17.42970498 14.476909868 18.324147934 18.317162225 6.1699343186 17.571451758 23.405910217 
26.096322778 26.610161047 26.54138057 26.492656515 26.490830271 26.017056939 26.355511843 26.540052482 26.80433639 
26.767601819 13.266522009 11.027027648 4.149511261 5.0614767137 6.0858140251 7.8067928867 8.5318056643 9.186650568 
10.601160998 11.974497583 12.590058391 13.213747117 13.87069552 14.583772363 15.257562462 15.925063555 16.57500397 
17.314488613 18.735109185 19.45215103 20.126565441 20.761963064 21.398229541 21.998310855 24.382558554 25.394186335 
26.348779354 15.157232792 15.242698618 13.541693437 10.771369281 10.118269344 9.3799700074 8.5855538849 7.7505067827 
6.8249641704 5.8003067569 5.0443952152 4.2401743854 8.4959139017 24.650719196 4.6843908319 4.4256428248 4.4884494132 
4.6696232004 4.5091058351 4.8899583723 4.5894575104 4.2497198561 4.2927023584 25.067777632 27.284358895 24.523326807 
6.3345249807 26.923975323 24.863916916 14.374302315 25.727971284 6.9793501107 9.8952038537 11.305869556 18.000063657 
25.816393921 22.565616052 24.482929713 6.9235894351 4.5319641715 16.097215657 12.828331822 12.118231484 11.424048412 
24.449697112 16.186976323 16.843425167 24.874843837 5.6771080563 25.676185682 13.786104021 5.2772737711 5.7805658591 
6.4059627838 15.561384641 25.532404427 14.32697094 25.497221234 25.81447587 7.4407354074 14.938309141 31.372671458 
31.242233851 31.167190942 31.097075458 31.021658091 30.923215118 30.827091814 30.739987314 30.690757312 30.631483703 
30.596372767 30.594503811 30.575050262 30.561949683 30.571542608 30.600822581 30.630475753 30.674553785 30.73294653 
30.817195767 30.898413305 30.961701981 31.056954456 31.168797894 31.280046258 31.373917689 31.496964081 1.3775328807 
2.4225414667 3.2251123151 4.0438855649 4.7823885093 5.4416665612 6.1061393018 6.7756363873 7.3856858677 8.0036301392 
8.5899218674 9.1853627583 9.7754091136 10.355092544 10.938041636 11.55243645 12.150980397 12.776458154 13.393110795 
14.085064303 14.765444912 15.443342635 16.111681052 16.810002259 17.530636427 18.239878243 18.910175161 19.618565779 
20.305031199 21.030981986 21.706201271 22.399579707 23.06678253 23.764774556 24.457912701 25.164957874 25.879655747 
26.568000841 27.275291841 27.987629502 28.720251349 29.458784065 30.18629427 30.826402999 30.066330694 29.341638005 
28.630451566 27.94494024 27.214719755 26.504192203 25.836877301 25.14487582 24.435362686 23.741157721 23.027943161 
22.341240724 21.679927885 20.946199906 20.266146795 19.565981469 18.834592024 18.126848048 17.400686557 16.626451181 
15.913731469 15.209942655 14.523689506 13.861970931 13.238289992 12.588944736 11.974894116 11.359370717 10.753832488 
10.104465142 9.5253085983 8.9719570924 8.4034277914 7.8218737575 7.2178870423 6.6203188332 6.0365605531 5.3934294537 
4.7632244711 4.0603233415 3.2876065364 2.4316476971 1.4455058302 0.71079051059 0.72194148168 0.6732390031 0.60263291021 
0.57422641649 0.57676890549 0.58066486523 0.58516909387 0.58187670189 0.57544465474 0.57298412632 0.54740198464 0.54179133297 
0.53527774134 0.54405734038 0.54873679071 0.56302934338 0.57611668813 0.58079595599 0.58633496747 0.60815129714 0.6257289461 
0.64655994823 0.67748743951 0.67335651757 0.65638171913 19.043588558 18.669909193 18.029667941 17.498488369 17.012465538 
16.531703827 16.088813987 15.618278199 15.150681687 14.684399135 14.218191793 13.764654748 13.264183264 12.735358169 
12.066872051 11.771804287 12.146125587 12.843916707 13.378504324 13.857462695 14.353065524 14.801170167 15.270294288 
15.708924777 16.148917793 16.599980436 17.05824521 17.513194708 18.036655329 18.648000389 11.232783828 19.37790012 
30.867704479 19.269477568 11.438468401 30.496253804 30.675227463 30.413316142 30.282765684 30.141998276 30.040359259 
29.935904704 29.896122104 29.864870675 29.822053428 29.798449412 29.823131985 29.808942613 29.820344599 29.859997892 
29.89353394 29.93578868 30.019704907 30.091015964 30.191924175 30.322557641 30.440689875 30.582328943 30.730191379 
3.1787866516 30.249736834 10.556888456 2.3408008393 1.4722344534 3.9746419598 4.731537594 5.4556604734 6.1431254606 
6.8320057798 7.486341283 8.1211917767 8.7330251001 9.3325670423 9.9418346468 10.566423246 11.167349875 11.785050903 
12.401370472 13.032341453 13.683719382 14.355153502 15.042689994 15.705036879 16.380515934 17.064860751 17.771915818 
18.460430794 19.155771025 19.850363525 20.538279256 21.239868702 21.927449519 22.632784518 23.306080182 24.000298903 
24.710123082 25.416808033 26.14904622 26.870007399 27.582931608 28.336989468 29.122995665 29.907961285 18.850068634 
20.10014474 11.387360072 29.603725017 28.916588587 28.186060358 27.47157742 26.718945426 26.033495365 25.320150491 
24.586527672 23.911578629 23.213044435 22.513450505 21.821990685 21.099092803 20.416848203 19.720795909 19.010774708 
18.302319071 17.575130283 16.849011257 16.120629291 15.448641225 14.739209264 14.075226809 13.420672488 12.793556172 
12.161709879 11.542957665 10.913690972 10.285162957 9.6634124351 9.077408731 8.4876418294 7.8767801026 7.2655409328 
6.628759103 6.0251637208 5.3704140108 4.7302209788 4.0087350546 3.2559740968 2.4316710211 1.5029212463 1.3182998769 
1.5673385607 1.2070728214 1.2148951871 1.2283778768 1.2238990517 1.201505027 1.1839338531 1.1818009132 1.1650912253 
1.1354308717 1.1145806908 1.1300958873 1.1415135718 1.175799265 1.2067134507 1.1972653691 1.2145246227 1.2540123089 
1.3046864451 1.3663622735 1.4256380349 1.4789634241 19.580819335 11.201698978 10.586993307 18.166581253 17.566916965 
16.992798797 16.430409582 15.904526129 15.382721613 14.85813065 14.347473282 13.787931196 13.202136706 12.622214846 
11.916709247 12.776359722 13.379479609 13.938036706 14.482306475 14.995602538 15.490306455 15.999564583 16.515360102 
17.044938522 17.600333221 18.222025639 18.872860233 20.167755828 30.457325245 12.073855356 19.575402124 10.058273035 
20.296086113 10.486652022 10.431150594 20.360241537 9.5295814664 29.318625006 29.627648962 29.223822967 29.152086228 
29.083961308 29.056145692 29.028430976 29.011131292 29.000812418 29.009823174 29.027355791 29.052032343 29.124839441 
29.188562898 29.268009031 29.36591069 29.507843557 29.658356789 29.823446697 30.01890178 9.499679214 3.9295432565 
19.66248003 21.152367714 3.1141574643 5.4612569227 6.2196392426 6.9366345277 7.6042243971 8.2478823281 8.8861125665 
9.5093092877 10.146824111 10.76877576 11.392838421 12.017748224 12.649044189 13.273787047 13.946244235 14.622368867 
15.300138225 15.955020215 16.633996319 17.334721801 18.012122264 18.685144798 19.395309805 20.090481066 20.758534183 
21.464194926 22.164457844 22.853898779 23.542372561 24.228655805 24.949094503 25.696642126 26.443461824 27.151027595 
27.912137429 28.729943187 29.667433953 11.353669498 27.766831779 26.976486532 26.273582281 25.540193445 24.7966334 
24.06956663 23.416437677 22.717773089 22.0036309 21.320411619 20.619456242 19.916809357 19.210912734 18.477552688 
17.794145494 17.083755418 16.34571091 15.645068636 14.974393307 14.291567494 13.611883035 12.960740204 12.366958855 
11.772699745 11.104266316 10.50531537 9.857319922 9.2246821622 8.6118675643 7.9632561613 7.3349370131 6.6912434416 
6.0618578388 5.4044508018 4.7181636465 3.9846856872 3.1913866129 2.5064185908 1.8531257792 1.8395292576 19.63544216 
10.412698507 20.429283211 1.9333186081 2.0184546417 1.9575169846 1.881899295 1.8553892211 1.8734451684 1.8493054648 
1.803858731 1.8023061912 1.8395764271 1.877572026 1.9073620568 1.9134956884 1.9477838929 2.0159701704 2.0964271182 
2.1741722838 2.2365057645 2.2860530961 12.136910504 20.419529457 4.71342826 9.5496152378 18.158767761 17.512754896 
16.884908249 16.247366237 15.662182643 15.092290916 14.526060281 13.918095521 13.257008953 12.614631494 12.874419545 
21.236653756 13.509045064 14.115682694 14.674903993 15.236669889 15.785787759 16.369765854 16.948804626 17.585418656 
18.245709389 18.924979524 21.171644196 29.458509018 28.54074692 18.87825692 29.291739945 29.832945757 9.4965662927 
11.225716456 9.423358302 2.3172084528 21.22653982 21.294833066 11.982956803 8.902307767 28.413203039 28.192742513 
28.209485071 28.187525243 28.146645525 28.136352434 28.128076827 28.141735534 28.149308302 28.271567152 28.382490942 
28.471910019 28.613926678 28.794759442 29.019959741 18.762239724 19.649734637 25.824813596 7.0344768918 6.3344786215 
5.5145794713 7.7477131153 8.4292343031 9.0653204364 9.7061389651 10.332795822 10.992134247 11.594707544 12.232933785 
12.893257309 13.531220439 14.201891815 14.874588571 15.524741447 16.18017658 16.873367258 17.567824378 18.226121134 
18.923699119 19.622968108 20.326107738 20.962610318 21.684766662 22.37563182 23.064434787 23.759066169 24.456774484 
25.222873966 25.981193183 26.703739786 27.468378402 28.279582307 29.103273191 20.356333204 22.229382304 2.8547830381 
19.557176174 8.4634030224 21.280859991 26.564534821 27.360743943 25.053395546 24.294659448 23.622440836 22.959420964 
22.237722674 21.533848878 20.861594381 20.152991495 19.436594754 18.701445916 18.021494484 17.341488683 16.588916357 
15.891180426 15.20972739 14.536119175 13.831377691 13.126167623 12.483439316 11.973321279 11.404252552 10.814573713 
10.135083314 9.4626302787 8.7943066343 8.1153477461 7.4646653729 6.8072256657 6.1236323057 5.4763403011 4.7444080925 
4.0012227508 3.2018561598 9.8646253738 2.5308071571 2.9454815826 10.646515471 21.219752119 3.058575353 22.314800324 
2.5217692499 2.7220446587 2.5144222099 2.6665715008 2.6860597813 2.5906169877 2.5233527319 2.5862531437 2.6768211514 
2.7111180406 2.7274424682 2.737925801 2.7936200907 2.9322142394 3.0101383557 11.602875864 28.245959439 10.768981688 
20.433044679 28.203167934 28.31461042 22.276689039 17.356566782 16.686050072 16.003223505 15.403628575 14.769389522 
14.144596881 13.424368889 12.629853017 12.391730058 13.740998213 14.369092834 14.951948671 15.55821229 16.169626348 
16.793072598 17.445057708 18.146402639 18.911312111 22.265078422 8.5231233364 18.042677807 13.081334587 9.6497375629 
8.4694341146 28.804633735 4.7212262081 22.26821165 8.8763073915 11.703662142 28.590783555 3.8946008813 22.171900091 
8.249310469 8.6238778686 3.2936182577 27.188831757 27.309137647 27.10859427 27.291077517 27.08223678 27.15932677 
27.513090213 27.495030031 27.688628005 27.908116902 19.595792589 3.782767714 7.211848852 8.7098067317 9.3189592008 
9.9208673291 10.553856396 11.137676078 11.771861491 12.445401571 13.136366185 13.788427435 14.44350489 15.099920151 
15.731760961 16.407326839 17.090603495 17.77598114 18.463148666 19.171802734 19.865331104 20.487989819 21.204889924 
21.839853308 22.557874125 23.291366285 24.022463576 24.742995997 25.447423081 26.261872336 27.041029732 27.919173806 
24.581582971 26.195597774 9.369938708 25.394115813 27.015908804 23.775816132 23.105566752 22.505669078 21.829435152 
21.159992136 20.420258912 19.685661476 18.96105555 18.271157447 17.575877852 16.870442081 16.137576672 15.45143613 
14.743879676 14.068298241 13.393587922 12.631704909 11.603205212 10.591532776 9.7448198717 9.0754633485 8.4197750254 
7.7018424992 6.9809932702 6.217153016 5.518244021 4.8934047335 4.0373889581 11.050652828 20.394426769 21.164090576 
3.6719402468 23.422066999 7.6183269359 3.6166647063 3.605890203 3.3094933464 3.2774995341 3.5829302256 3.5892045594 
3.5977778402 3.6418186888 3.5239731017 3.8010484812 3.8951438153 7.270145353 7.3067351032 3.4928472434 12.015345643 
21.068608928 27.295688218 6.4545679921 14.073880839 17.097160561 16.394807959 15.694543849 15.081163327 14.484797915 
13.769693827 12.929277201 12.000571068 7.9870247644 9.9762338429 22.118791063 23.455805919 14.684009632 15.320976139 
15.957342762 16.590199012 17.268756815 17.998611827 18.749308567 27.117486637 27.349017588 23.237149389 7.4518472701 
22.02619053 20.141197609 4.7877995205 27.439829748 8.9022128647 5.7299164708 8.4175906602 27.61872807 13.401676746 
19.369218445 23.262374707 17.832010969 27.389974291 18.588617777 12.71560498 7.7215689175 23.444292372 23.400452154 
24.640436489 11.230814086 25.953171615 26.220994277 26.72708527 26.168396729 5.9795236067 21.874429624 22.748078243 
23.683434168 24.685731696 25.681473243 26.544714961 25.022573859 24.70016283 23.119695501 23.999271716 10.374531796 
25.86315567 21.533767257 9.0467255122 8.1770287764 7.2736811754 6.3959821581 5.5128473971 4.7080093817 23.011224477 
6.8046120118 24.669551665 4.6146411225 21.124587621 4.6178101863 26.143768944 4.673729824 4.4236095588 4.5901142259 
4.5682595636 5.6314888639 6.6146183475 6.1088883629 4.7109402714 26.094271034 26.514525918 4.5401851564 7.5672304427 
24.675826103 26.412426444 26.054162283 20.715522177 22.368230643 19.965686767 19.276027605 16.434473848 14.268321597 
13.462014089 4.4772260434 5.5367618816 14.988392166 24.241047897 24.663129049 7.8056436303 6.0899574962 25.454910734 
6.6516556788 5.585891655 5.4647621407 25.469341434 5.6482068073 13.02920325 0 0 0 
0 0 0 0 0 0 0 0 0 
0 0 0 0 0 0 0 0 0 
0 0 0 0 0 0 0 0 0 
0 0 0 0 0 0 0 0 0 
0 0 0 0 0 0 0 0 0 
0 0 0 0 0 0 0 0 0 
32.040954398 31.962717437 31.888388321 31.81095836 31.735076971 31.662620424 31.589665319 31.517922102 31.45232298 
31.395166628 31.346946628 31.30596495 31.277962037 31.263661447 31.262756979 31.27583348 31.302912609 31.34146448 
31.389944152 31.453040393 31.521238124 31.591671293 31.666199929 31.741022122 31.814887867 31.887010139 31.961299965 
32.033512975 0.83220187258 2.1669473585 3.1177357034 3.894050427 4.6127641142 5.2944765908 5.9391358098 6.544771169 
7.1073930273 7.6864732384 8.2598919284 8.8189971237 9.3674378607 9.9213259692 10.49711356 11.111933218 11.755754905 
12.402041555 13.03522578 13.683213778 14.360446949 15.01868925 15.702307557 16.377421822 17.057503352 17.805522911 
18.554346989 19.269086882 19.964709335 20.656538263 21.328319046 21.980584303 22.64568928 23.324646498 23.987131431 
24.650298702 25.347261829 26.047734733 26.736601167 27.430297669 28.145449875 28.849434632 29.574562045 30.320191975 
31.018361605 31.717270045 31.718699512 30.986569343 30.27187989 29.592726233 28.900540523 28.16372838 27.432394754 
26.755139489 26.066514153 25.350559863 24.654225278 23.975909012 23.266766459 22.572726299 21.923924216 21.272071836 
20.600714175 19.876880775 19.132785504 18.401831661 17.702268329 17.019835383 16.29195063 15.586123437 14.935921796 
14.264065786 13.589260953 12.929178103 12.284786236 11.64243048 11.029923305 10.444903962 9.857792556 9.2925224061 
8.7454682589 8.1742350583 7.5747469575 6.9812504262 6.388818308 5.8062418766 5.184848463 4.5275558537 3.8187737626 
2.9952097215 2.0830203911 0.86059142245 17.894019642 17.792374972 17.460304543 17.091253132 16.723280623 16.338594865 
15.940498986 15.547393101 15.138078782 14.739356555 14.335820271 13.94667031 13.594309083 13.267218482 13.003080105 
12.913550482 12.981337023 13.297221497 13.627307443 13.981168984 14.354716364 14.733850126 15.135375666 15.55019345 
15.954503022 16.365902901 16.757093683 17.127668963 17.477617448 17.801635411 32.042964865 31.967713286 31.893552605 
31.820468929 31.746832241 31.673234955 31.5988762 31.526456729 31.460814838 31.396886491 31.340990613 31.300995119 
31.274906085 31.260886391 31.261325514 31.27547569 31.30217698 31.341268978 31.390789363 31.449983078 31.516263525 
31.586498079 31.658717846 31.73249963 31.806382329 31.879571331 31.955957236 32.030191401 0.83428298769 2.0631999361 
2.9717547597 3.7599817935 4.4880817495 5.1620038248 5.7841768846 6.3946845588 7.0003285134 7.5938244872 8.1806236398 
8.7654619399 9.3263601387 9.8795838832 10.440812883 11.012731498 11.59726427 12.181270965 12.793990371 13.45134707 
14.123659644 14.809073031 15.489750788 16.194956375 16.92255402 17.621510589 18.30532206 19.037107901 19.766350579 
20.44350053 21.132751643 21.818025945 22.484110291 23.179487459 23.873752182 24.568628313 25.249534018 25.93355503 
26.637779156 27.314672713 28.012688582 28.748653173 29.473112618 30.201713552 30.982789857 31.731793945 31.699834159 
30.93429402 30.17000784 29.441739236 28.750354483 28.047140057 27.332841342 26.656179484 25.968117418 25.284354081 
24.619646835 23.909570354 23.200253294 22.53734278 21.856410998 21.172040121 20.483743071 19.758977913 19.04653539 
18.315269174 17.583123069 16.803855496 16.029352113 15.342254183 14.632819546 13.966308583 13.343061801 12.688800674 
12.064825934 11.484199631 10.875551821 10.266953893 9.6960165143 9.1456032427 8.5863128675 8.0278242004 7.4794348548 
6.9242047254 6.3438581348 5.7453755604 5.1356730265 4.4749560913 3.7611401542 2.9872699415 2.0825620014 0.90053061711 
17.866001726 17.782375588 17.489237439 17.127668057 16.769601318 16.386533744 15.99486287 15.6078887 15.184513056 
14.765632887 14.361445323 13.976651216 13.61904806 13.286234315 12.978538944 12.879054443 12.974265682 13.33002508 
13.69994249 14.074946305 14.474139389 14.886226335 15.289009344 15.675489491 16.058767532 16.438042753 16.80621708 
17.154589694 17.489256368 17.801640564 32.066669944 32.081929 12.820254616 17.956177015 12.815000815 17.960252157 
0 0 0 0 0 0 0 0 0 
0 0 0 0 0 0 0 0 0 
0 0 0 0 0 0 0 0 0 
0 0 0 0 0 0 0 0 0 
0 0 0 0 0 0 0 0 0 
0 0 0 0 0 0 0 0 0 
31.674886591 31.689053786 31.652407094 31.630588716 31.592362708 31.356963251 31.552733179 31.512986571 31.295023751 
31.445343051 31.408483777 31.187036837 31.350771891 31.314370059 31.060829381 31.276956699 31.239520943 30.964641879 
31.198225469 31.162991136 30.884688554 31.12396137 31.092624729 30.8032452 31.056994709 31.030372709 30.727370277 
31.010558163 30.988547466 30.671045085 30.96727422 30.94840843 30.629397476 30.935060693 30.924993098 30.59416061 
30.924058488 30.919882722 30.579203946 30.92354449 30.926706073 30.581758687 30.933355662 30.943306286 30.592163986 
30.956910141 30.974841535 30.612783057 30.995302243 31.016091886 30.647868705 31.050114481 31.078670398 30.703029695 
31.112824369 31.148423727 30.772392498 31.177820089 31.211006588 30.837133019 31.242489341 31.280662713 30.899072872 
31.316065952 31.353154831 30.967141754 31.401499742 31.439982847 31.051808856 31.492202199 31.528236982 31.153213446 
31.585327389 31.621915558 31.263083769 31.62649269 31.66478612 31.325229713 31.644497184 31.678705707 31.329364723 
31.309831676 0.63665274997 1.494980902 2.0719982167 2.6217361784 3.0647197492 2.0604377921 3.4888144386 3.8621567838 
3.048416386 4.2503947963 4.6235594768 3.8813550385 4.9578823214 5.2920791616 4.6217659789 5.6236757097 5.956066775 
5.3065771562 6.2786341911 6.5716461894 5.9783549149 6.8698891829 7.1561848003 6.6153656728 7.4391689607 7.7476967123 
7.2112174581 8.0370126685 8.3165389831 7.7964688429 8.6129509889 8.9054864052 8.3948220051 9.189188643 9.4563799888 
8.9861946823 9.7404222469 10.037095091 9.5637129008 10.339900649 10.627349126 10.158802305 10.930859682 11.265713118 
10.772126633 11.588287333 11.902030385 11.403576256 12.205488523 12.540838642 12.033613696 12.865288458 13.163195639 
12.663131781 13.497814314 13.847477519 13.322432776 14.175372067 14.500348137 13.984382958 14.825621143 15.155327721 
14.635743119 15.499470926 15.849246044 15.302268516 16.191154495 16.511959027 15.985158534 16.874290938 17.229242168 
16.685725819 17.583076877 17.971478752 17.398473755 18.328858297 18.685061975 18.106329235 19.024760181 19.380323772 
18.80049993 19.736755037 20.074912849 19.494478134 20.424434 20.777178802 20.198993999 21.099799054 21.41913486 
20.870639343 21.754790678 22.088665457 21.529014288 22.421045712 22.753994642 22.197704755 23.09111668 23.439518302 
22.868469481 23.781494977 24.098266234 23.549192783 24.436372564 24.785398979 24.231134325 25.132669717 25.483053745 
24.918323517 25.821153328 26.173189049 25.605378351 26.522970736 26.861046115 26.294565354 27.222439173 27.579001142 
27.006663019 27.940684854 28.299626773 27.730456139 28.645226668 28.99001431 28.438058561 29.35896858 29.738679085 
29.152632859 30.087634056 30.452400319 29.870352394 30.781821009 31.11431607 30.548473504 17.873041135 30.946881417 
30.340806491 30.009355827 29.710550792 29.36389546 29.779103853 29.008361974 28.663542099 29.125049526 28.303406035 
27.912004086 28.409451504 27.54112601 27.201051975 27.678177246 26.843461945 26.505650221 26.949335911 26.160485295 
25.808615331 26.24568345 25.451863052 25.08599779 25.542532316 24.735466127 24.40263397 24.833698169 24.060325927 
23.712343658 24.139201176 23.363313599 22.999523115 23.446070634 22.667189543 22.334532689 22.763188407 22.00002991 
21.682163165 22.095233506 21.348554939 21.013412615 21.426432763 20.655971313 20.319282866 20.735125181 19.958537713 
19.572009114 20.017384245 19.217781883 18.862288892 19.303852068 18.505561984 18.133436477 18.595252567 17.778469327 
17.455182052 17.886708064 17.105474352 16.751111592 17.185792874 16.403734075 16.035627236 16.492616501 15.703912501 
15.371001076 15.817380451 15.037544224 14.724366094 15.155477195 14.367709905 14.013319896 14.46837017 13.685526435 
13.367881948 13.786586682 13.046508544 12.705845765 13.138671665 12.382683173 12.078452002 12.494039837 11.745440342 
11.405716845 11.836191487 11.112726452 10.835383889 11.207343331 10.532259138 10.218987281 10.60634244 9.9261388415 
9.6441458388 10.004159121 9.3549310217 9.062185963 9.4141372121 8.7726690667 8.5075535174 8.8258429201 8.2204503363 
7.901588277 8.2383390531 7.6073358495 7.3122065689 7.644888288 7.0104380379 6.6960004693 7.0356465626 6.3805547068 
6.0852066809 6.4033262201 5.7761559013 5.4695194881 5.7616752155 5.1713236782 4.834019656 5.1359673018 4.4909905486 
4.1463931953 4.4763216407 3.7660817621 3.3699749165 3.7322553812 2.9384869162 2.4643539046 2.89654174 1.9722554584 
1.4783052497 1.955093804 0.60587340896 0.33716506294 0.31743808561 0.32453603511 0.31388357154 0.67175622815 0.30775884392 
0.29933843796 0.64938592623 0.29972884703 0.29177927284 0.58616798226 0.32457973238 0.31504446235 0.57604559379 0.29537291091 
0.28641431833 0.57131950407 0.28684273049 0.27995086004 0.55209540177 0.28114334046 0.27545487027 0.54082493805 0.2770591419 
0.27170756075 0.5318289726 0.27418990095 0.27030313354 0.52819154347 0.2703658554 0.26761904608 0.52394022367 0.26558890882 
0.26252110642 0.51490993039 0.2666322191 0.26467148091 0.51268723892 0.27062238061 0.26873683097 0.51980165928 0.26975771979 
0.27012769886 0.52472107755 0.27068565247 0.27177501643 0.52468177318 0.27037191869 0.27233875521 0.52535158004 0.27222811104 
0.2755951883 0.52757120899 0.27392721199 0.27804336705 0.53137638247 0.27873931597 0.28362712691 0.53819834591 0.28278568132 
0.28950309947 0.54782056086 0.29438385085 0.30281744133 0.56439007783 0.31136324105 0.32403725216 0.59449740758 0.32936729955 
0.34656973004 0.6336566418 0.34868794091 0.37867100569 0.6775297677 18.49965233 18.472497884 18.180526312 18.471875605 
17.651900598 17.910020162 18.398364132 17.167689048 17.390261183 17.769195955 16.739711549 16.939285894 17.215594405 
16.307239439 16.528417102 16.732364683 15.881463404 16.086650615 16.267694665 15.46157386 15.673767621 15.811435157 
15.020651974 15.241852444 15.358447767 14.598631398 14.801339024 14.893343065 14.151198011 14.383320897 14.429768326 
13.72367234 13.923799221 13.950839342 13.303311044 13.517136974 13.467443412 12.847813068 13.070784226 12.960056244 
12.246933591 12.568870949 12.34729774 12.237582788 12.253941557 12.640947273 12.314343572 13.145411882 12.913114392 
12.480007317 13.569158394 13.367424173 13.058060433 13.98151502 13.775887253 13.545307927 14.390550311 14.187229912 
13.99867186 14.798968991 14.597756147 14.441941848 15.24598961 15.023283113 14.898629396 15.680596214 15.467196288 
15.367825901 16.099193863 15.886801049 15.817617481 16.550578442 16.325693743 16.275104533 16.9621548 16.762377235 
16.743792814 17.402124073 17.181453638 17.214904675 17.862449114 17.640344025 17.733013145 18.406724976 18.110142663 
18.318892938 31.364765741 0.72276118813 19.100744368 18.732436418 18.805580423 19.147455291 0.64345172184 19.07773957 
11.550713296 11.9368576 11.648807118 11.986686618 11.612354294 11.773207411 18.976386055 1.0084785017 1.0528030589 
19.613752744 19.681215676 31.058541007 31.018314 30.913541072 30.845243422 30.67742718 30.759724318 30.701083058 
30.486492569 30.63461709 30.596130968 30.333438535 30.544159425 30.50177251 30.213740522 30.470186928 30.430140026 
30.128728801 30.397702375 30.361127352 30.063226051 30.323716969 30.303326894 29.992179029 30.281114331 30.259483218 
29.931851652 30.247290335 30.23337547 29.896795049 30.231726193 30.230537206 29.882491243 30.225201675 30.228757815 
29.875071369 30.241833367 30.248768021 29.882689634 30.249648346 30.263952271 29.897069337 30.291782684 30.312757574 
29.926729199 30.341709734 30.376464713 29.984310134 30.409288201 30.444535531 30.046674874 30.465129432 30.495387372 
30.101482813 30.518749616 30.551384895 30.146817364 30.591541448 30.627941729 30.211634516 30.677201382 30.726388586 
30.302394797 30.791341107 30.844214033 30.417584135 30.915848394 30.973386544 30.554839333 31.048347423 31.05356025 
30.701979193 17.846867418 18.182681418 1.4625661141 1.0964935878 1.9558106362 31.128222257 2.6370356911 3.0788728493 
3.50212693 3.9090290759 3.1324656124 4.278239665 4.6313221282 3.9322977617 4.9699409734 5.3200996609 4.6520724129 
5.6768891901 6.0174377568 5.3620665851 6.3554781865 6.6691630791 6.071050525 6.9687032732 7.2652158644 6.7213222877 
7.5615862886 7.8642357696 7.3294494082 8.165724352 8.4745600691 7.9391598769 8.786483531 9.0806840642 8.5638251415 
9.3618288049 9.6552342898 9.166360807 9.9671959122 10.278102387 9.7680425977 10.593167499 10.903173945 10.402570745 
11.223994207 11.551518649 11.044712587 11.853434509 12.159810701 11.672126926 12.479406086 12.804957974 12.296506217 
13.145299203 13.480017433 12.958179924 13.803172798 14.129851151 13.622435968 14.448696262 14.771662769 14.264046572 
15.103424336 15.444484637 14.913090167 15.788828129 16.127178656 15.58691281 16.485301104 16.843891617 16.28658076 
17.197925025 17.548347205 16.995682495 17.903095288 18.257176122 17.701677187 18.57906084 18.916088632 18.375840085 
19.251088246 19.605533207 19.030379088 19.96746656 20.315972422 19.725381678 20.655879472 20.978192922 20.42598042 
21.291200642 21.627069864 21.078135808 21.96711478 22.300352562 21.730967429 22.639901934 22.978347753 22.410592842 
23.327776424 23.671434874 23.100057442 23.998058863 24.337904088 23.776857523 24.686903243 25.0358877 24.453528059 
25.380956249 25.720566967 25.148687143 26.069500888 26.42043018 25.843776574 26.77910415 27.141441785 26.552481751 
27.517044787 27.879261635 27.287668023 28.227149219 28.572898864 28.011803937 28.939926233 29.30881151 28.727141676 
29.681008411 30.029855775 29.466843577 30.437716056 30.767061255 30.247381622 19.266468007 19.604110503 1.5308980168 
2.0808200024 2.163593623 29.930609814 29.631920772 29.271445532 28.916062351 29.421661184 28.546720939 28.186424291 
28.691394836 27.801104087 27.429715407 27.936037037 27.04954661 26.691260142 27.169783507 26.350718474 26.004420273 
26.44836432 25.636780958 25.278751637 25.739178931 24.921113243 24.568912228 25.012988251 24.235818219 23.89184874 
24.321218562 23.543114179 23.19247051 23.638453713 22.848644579 22.515225656 22.945216654 22.173598961 21.838379804 
22.259349881 21.509038897 21.175045209 21.588456297 20.816577277 20.459487195 20.901211584 20.101834338 19.742284829 
20.186158544 19.377900822 19.025745682 19.465633118 18.690643465 18.336791491 18.768118619 17.980192939 17.628787691 
18.07900045 17.29587662 16.949827704 17.392266819 16.591186375 16.247694099 16.703455085 15.919842787 15.59159405 
16.019839797 15.258246817 14.928069547 15.361324635 14.583690003 14.230058701 14.685973503 13.880260411 13.5541508 
13.993583302 13.241520057 12.920634492 13.332259292 12.592235592 12.268176824 12.690828411 11.942746997 11.606990396 
12.035526779 11.287766221 10.990661564 11.387966038 10.689609699 10.380754471 10.763641347 10.071701466 9.771315703 
10.14797924 9.4825738959 9.1843710051 9.543155068 8.8787186772 8.5787859752 8.9404751962 8.2869632387 7.988100196 
8.3334863178 7.6689966706 7.3611078088 7.7117338672 7.0521814763 6.7351977506 7.0706236442 6.4099850629 6.0776376261 
6.4222976602 5.7504343641 5.423585334 5.7546636478 5.1111397301 4.7947433896 5.1001246209 4.4543896891 4.0903505002 
4.4334174223 3.7075709238 3.3052573105 3.6962801038 2.8706090307 2.4167210313 1.9794077937 2.869890313 31.017317739 
1.0633197307 1.1644085635 19.787704281 19.649136876 20.11463446 1.0815379647 1.038470092 0.93542638423 0.89134547211 
1.3530685418 0.88989324857 0.88351558602 1.2221968143 0.88793417008 0.87953782156 1.2075588447 0.88535670025 0.87332521568 
1.2080421534 0.85942528828 0.85044333621 1.1907690343 0.85016721964 0.84425629403 1.1688851994 0.84005269984 0.83760069165 
1.1585658986 0.83385984705 0.82870763185 1.1466823527 0.82304691347 0.81707951899 1.1349396314 0.81506321829 0.81834486081 
1.1255381087 0.82250696749 0.82880635516 1.1284084763 0.82204680318 0.82309742399 1.12763022 0.82724803607 0.82957778692 
1.127678119 0.82794665178 0.83009471648 1.1342931475 0.82721016469 0.8325686382 1.1344174449 0.83571909297 0.8412407174 
1.1408797302 0.83801685536 0.84867190785 1.1487764664 0.84586940528 0.8571125322 1.1537726244 0.86880288605 0.8909284521 
1.1769224706 0.91175069309 0.94484783133 1.2294822949 0.96244221549 1.0027287081 1.2952751692 1.1087802483 10.915157132 
10.809005522 18.525443911 18.870610262 19.33110997 18.577946332 16.713240908 16.960377161 16.210002675 16.461572098 
16.669890107 15.733456785 15.967124015 16.146323438 15.242931224 15.48892954 15.632221696 14.748024598 14.995375417 
15.114701026 14.248203177 14.495710768 14.587798051 13.715908468 13.985480744 14.043162528 13.190757803 13.448779162 
13.481720966 12.562761627 12.871741339 12.862410856 11.851044708 12.20664524 12.155344623 11.089337929 11.430630425 
19.483534672 19.148902282 11.654739596 11.306556148 12.38107051 12.034636724 14.036896756 13.79649959 14.51215373 
14.277622379 14.098352927 15.004908087 14.75473915 14.608185136 15.50030836 15.25563496 15.127362204 15.960063978 
15.731379738 15.632165945 16.458358802 16.203473115 16.129518306 16.956916985 16.711399147 16.651801699 17.492134395 
17.224845273 17.202607523 18.116078021 17.804880597 17.818730319 18.777098767 18.443184015 18.497499689 10.966089752 
11.029084019 10.399753298 30.99502865 17.230219574 17.509470449 17.222646115 12.997151817 12.707114203 12.348986625 
13.53949612 13.284498217 12.994091771 13.571173148 1.4558072279 17.862667247 30.947535015 30.927410967 30.585014598 
30.671295827 10.031245947 10.489571714 1.4950646719 30.32168404 19.864434806 19.963346947 19.998725436 20.346872246 
20.220965131 30.17378713 30.71916866 11.36967371 10.395338826 19.217612183 10.861614925 10.895056198 11.627095481 
10.4778668 20.107238901 12.365657259 12.021023878 19.620153736 19.247691468 30.206280456 30.120050502 30.005850714 
29.938400677 29.726207211 29.878649763 29.825446984 29.551098511 29.771094574 29.738275527 29.435332151 29.680934329 
29.647257456 29.321989005 29.617093428 29.578807234 29.232772939 29.568339524 29.545473855 29.190924285 29.525661308 
29.512900605 29.159632011 29.505594127 29.503450344 29.131597388 29.492922724 29.487510142 29.112901636 29.477590211 
29.490889256 29.092396039 29.498738652 29.50026997 29.090674652 29.525158328 29.553550084 29.124449268 29.592867227 
29.622617357 29.189324571 29.65052267 29.684342966 29.257796463 29.716911948 29.738763923 29.319698364 29.758316434 
29.782888023 29.373564942 29.814868744 29.856156611 29.426666283 29.906763909 29.957093247 29.510748861 30.031570054 
30.097311791 29.637156866 30.188764244 30.260903671 29.804035138 1.9337142301 2.7651466342 3.1909774137 3.5721320122 
3.9515844612 3.2338232446 4.3319920148 4.6825827319 3.9981005389 5.0385975214 5.4099206735 4.7412027732 5.7795871276 
6.131701301 5.4769354782 6.4736005432 6.7854493693 6.1986900405 7.0885660615 7.3971428468 6.8538376953 7.7067737328 
8.0200608632 7.4772290723 8.3365787609 8.6595170518 8.1139956625 8.9753732258 9.2653799156 8.7562077279 9.5636061181 
9.8841319758 9.3785684808 10.208120407 10.53031897 10.008268378 10.854980374 11.18124228 10.663230107 11.489980073 
11.795486699 11.301287468 12.115778526 12.437934976 11.933596986 12.770393383 13.112038976 12.588747949 13.447631511 
13.770918187 13.258235192 14.086253547 14.404208118 13.909733055 14.730466843 15.060501672 14.550855255 15.403127829 
15.745024251 15.21846718 16.089953581 16.445173073 15.904199784 16.799596298 17.150677321 16.601363642 17.506421877 
17.858242539 17.30892843 18.19369641 18.513170957 17.997601573 18.825010761 19.157889927 18.642563823 19.485080792 
19.845189017 19.279762881 20.190681009 20.5295405 19.950802077 20.853533928 21.165886418 20.618855423 21.481499558 
21.821276273 21.257305964 22.169649856 22.509271261 21.920427779 22.854171354 23.204073588 22.613111265 23.551379243 
23.878660979 23.305010173 24.209292611 24.559311474 23.983034809 24.906544205 25.252598109 24.661341643 25.605533589 
25.95548633 25.362150904 26.314707516 26.674489435 26.075189481 27.050267477 27.426639429 26.81101087 27.808245584 
28.156789567 27.569324253 28.515099344 28.882840192 28.310357227 29.255208653 29.627960804 29.042100413 29.984979853 
30.393357796 30.455934973 29.772402795 16.077546341 16.348244953 9.5396463013 9.3671771343 1.8630875202 2.3890645325 
2.4815189806 1.7107389059 20.428027879 20.046313946 28.853576904 28.48356349 28.092741209 27.706476714 28.252844242 
27.304288833 26.923201945 27.458563209 26.553956033 26.212585609 26.685961014 25.856623675 25.48794834 25.959863747 
25.120715295 24.761971511 25.235803337 24.413732699 24.079688724 24.5195227 23.729913363 23.380431959 23.820842466 
23.042256303 22.698048012 23.132804869 22.365962421 22.024339241 22.462826767 21.678668858 21.349737884 21.785748778 
21.000384073 20.64289272 21.091840523 20.284089992 19.92780519 20.385023337 19.567566721 19.205148415 19.667767504 
18.868651542 18.53584482 18.972856154 18.18726213 17.833550662 18.289960487 17.497144274 17.166921996 17.607531145 
16.821044736 16.465425949 16.927718617 16.128390551 15.803213846 16.247370782 15.482335582 15.151471473 15.591646768 
14.79668752 14.454445156 14.917721001 14.113160898 13.764615415 14.223105575 13.432026744 13.119417441 13.549678357 
12.804578679 12.475091476 12.90182882 12.147414007 11.81956586 12.257895491 11.481979861 11.158797477 11.589798529 
10.854934233 10.548860757 10.944764461 10.236388825 9.9204603132 10.323448105 9.6118213912 9.3152841101 9.6959421768 
9.0158052367 8.7005262601 9.0803791866 8.3864518032 8.0841573303 8.4580986884 7.7516563727 7.4195079717 7.8015973871 
7.1009851468 6.7783822591 7.1388572153 6.4412898169 6.1009246856 6.4713894546 5.760222242 5.4179670311 5.781037027 
5.094929646 4.7690290385 5.1050313962 4.4355510652 4.0816222651 4.4385246323 3.7162087421 3.3208236832 3.732595519 
20.920785536 20.810055698 1.7129488313 1.5749937446 20.71486559 20.785879783 17.806177005 18.173013582 1.5699469409 
1.5475837423 1.9092224388 1.5559987105 1.5459848229 1.8958246386 1.5549427036 1.5516365739 1.9000655739 1.5496704951 
1.5267734914 1.8971483693 1.5278713547 1.5212484303 1.8885383843 1.5127329297 1.5036491663 1.8756144694 1.4974210016 
1.4911881567 1.8572963236 1.4824423272 1.4745452976 1.8397906548 1.4629699189 1.459882775 1.8175835541 1.4607121543 
1.4661210472 1.8058593683 1.467515373 1.4614449678 1.8079869828 1.4680183948 1.4750021011 1.8163599011 1.4809060055 
1.4824053539 1.8300928848 1.483770691 1.4853013998 1.8392586598 1.471018542 1.4799635347 1.8291082267 1.4783784464 
1.483639122 1.8173904972 1.4780324824 1.4861729373 1.8163932417 1.4804397323 1.5075398687 1.813650707 1.5448838658 
1.587178533 1.8569301786 1.6447592634 1.693400462 2.067503762 1.9688431739 10.974667055 11.387231421 20.713905336 
20.672521522 21.262558989 15.537414609 15.808428908 15.995770948 16.646302603 16.929058387 16.588436182 14.976088428 
15.250190789 15.415131136 14.407484178 14.688291323 14.816658121 13.829641664 14.123310124 14.221052833 13.229969508 
13.528614866 13.612519167 12.561291003 12.909818541 12.970311668 11.807414554 12.178049838 12.254919057 9.8789422426 
10.442190456 10.884941122 10.489541815 11.636466203 11.262777699 10.930711515 11.6916227 9.9964981597 9.9681467338 
14.173285381 13.904990306 15.781662785 15.527957318 16.303826414 16.035601404 15.942885944 16.870889976 16.589639894 
16.504263105 17.459929634 17.158886145 17.099756329 18.145384252 17.795901582 17.746002718 18.86670643 18.515768777 
18.472215304 9.8703398883 9.7705343963 9.1014307419 9.4186995321 20.227834318 20.619810453 30.350957989 29.606435223 
29.2454069 29.036680011 17.176191151 17.477474813 17.752375503 17.162435725 14.715557334 14.447242428 14.276091393 
15.25944254 14.983783587 14.840033184 15.398950269 19.235004595 2.4667344408 2.0076698984 2.2130089193 2.9007595848 
30.377278872 30.452483003 20.872304923 20.907187877 21.122386456 21.051111926 19.774649123 20.240194847 8.6811768973 
9.1326066253 30.347297738 29.95552091 2.9461351434 21.454917015 13.021469518 12.70273739 12.418023826 21.295005108 
18.514072405 18.59550795 21.202710463 30.012259974 11.449257092 18.958310569 19.378797032 10.509132844 9.268484051 
9.3992218383 8.6462905736 10.131466009 10.055937189 29.985715115 20.044788225 29.778750563 9.6106791063 13.62524577 
13.337105883 13.085656624 13.700491046 22.017727994 21.944151768 11.167500414 11.582289434 19.363376252 29.166201628 
29.105031875 29.089504964 29.03362287 28.704259029 28.948120579 28.889132546 28.601164718 28.809219599 28.777370217 
28.433333789 28.767246857 28.755510348 28.340890419 28.762541609 28.741823635 28.335664597 28.717681427 28.709652137 
28.31744757 28.690309292 28.67940148 28.272791205 28.662795187 28.653151644 28.236011332 28.645852298 28.654403464 
28.212410866 28.689433709 28.715193218 28.241411923 28.75308881 28.793553238 28.316021529 28.82951999 28.85878975 
28.391595007 28.897010013 28.931059549 28.46740301 28.938589872 28.95978382 28.515434419 28.98539325 29.018857671 
28.550870366 29.073744103 29.125566446 28.63348995 29.221457787 29.296884619 28.785830117 29.415901309 29.507856672 
29.001758553 2.835096696 3.214282081 21.382700994 20.946245176 21.195060402 21.623367941 15.29413746 15.606358983 
20.237186471 20.699191326 21.169987553 3.6788309788 4.062871479 3.3025796221 4.44122976 4.8051276493 4.142222591 
5.1858712962 5.5649472287 4.9051037824 5.9369428149 6.2893377413 5.6639400898 6.6166292428 6.9301907508 6.3705438204 
7.2388279449 7.5594061666 7.0153798331 7.8843436976 8.2111454382 7.6587415464 8.5459191596 8.8708651874 8.327261714 
9.1841912244 9.4901497706 8.9830646223 9.8103080768 10.141291548 9.6233991477 10.466917059 10.797043263 10.27495026 
11.131511227 11.44427567 10.939797324 11.754351288 12.077846767 11.588111915 12.413177002 12.747848704 12.236260749 
13.084662996 13.421313258 12.910374622 13.738283612 14.053570782 13.565114009 14.376392263 14.701776466 14.204743489 
15.03884957 15.379842019 14.863662358 15.725417115 16.068149916 15.544596674 16.422788889 16.774585265 16.242503594 
17.131800905 17.484832715 16.951490013 17.825001506 18.157858963 17.646122936 18.478116039 18.787896973 18.303958231 
19.073445865 19.398788455 18.907767218 19.699854971 20.043641165 19.493117967 20.373177371 20.695794986 20.121674437 
21.022144847 21.336571319 20.775744498 21.652972361 22.000432194 21.416928823 22.356509771 22.700826812 22.0878776 
23.046076535 23.393132829 22.787903045 23.732556929 24.063335984 23.471980396 24.397263039 24.745033268 24.145217483 
25.094547578 25.448359009 24.828952064 25.814731047 26.174978789 25.545713221 26.561678748 26.938519798 26.299969897 
27.335441466 27.718184748 27.085132862 28.102611898 28.462029845 27.867929187 28.857086892 29.230607099 28.648791107 
9.208682904 9.0929156028 2.4362884961 14.394304929 14.098693484 3.0045588763 2.5883736745 2.2987502183 15.909936288 
16.20223551 15.800826013 27.636774653 27.233235647 26.821889281 26.451520614 26.997810319 26.056673875 25.699818885 
26.190153196 25.377295785 25.009202228 25.472025868 24.6400206 24.290858164 24.779452742 23.900784639 23.550816415 
24.018801804 23.246412105 22.908293988 23.324980028 22.586130766 22.254531195 22.698764062 21.907738367 21.563111082 
22.030557869 21.210602334 20.862624207 21.33269043 20.484396638 20.127409799 20.603880389 19.761735351 19.403567035 
19.862296615 19.098151534 18.763758222 19.193693963 18.441350291 18.095460451 18.567576008 17.736911024 17.403281806 
17.889385689 17.048931341 16.705799576 17.179869144 16.35897017 16.024513215 16.481637626 15.694249381 15.375430844 
15.807203111 15.05386916 14.700776713 15.15756163 14.357877035 14.017511136 14.494325094 13.678508127 13.345766848 
13.813245812 13.034493436 12.718478669 13.162921635 12.378584102 12.048640862 12.510363039 11.716662321 11.375457658 
11.836149325 11.042675975 10.734478688 11.168214596 10.426870281 10.10841669 10.523802094 9.7950215107 9.4789789419 
9.8976564177 9.1637292947 8.8558191666 9.2621971981 8.5342096002 8.2102521081 8.6169683916 7.8736301518 7.5299732771 
7.9499400804 7.1936004294 6.8633902904 7.2681517853 6.5121039168 6.1626914878 6.5709617487 5.8238174848 5.4712332791 
5.8703763472 5.1190920558 4.7856605421 5.1698713258 4.4487747045 4.107306872 4.4731202076 3.7539221459 3.3837044223 
3.045783206 3.7782247475 18.389731867 18.81868179 21.742552428 21.74680212 2.2715305025 2.2682089881 2.2863494895 
2.2755535 2.6531665168 2.2757776498 2.270027431 2.6630130865 2.2735217707 2.2601944787 2.6612812694 2.2642188758 
2.2551732593 2.6655540974 2.2288987636 2.2180740233 2.6410257549 2.1828438364 2.1697744624 2.5773770716 2.1656735859 
2.16612363 2.5368075729 2.180824221 2.1823517732 2.5474776906 2.2045418577 2.2120595344 2.5850584192 2.2226819363 
2.2302107398 2.6189113627 2.2281319057 2.2319996922 2.6284640858 2.2147622653 2.2037441122 2.6104463317 2.1971394106 
2.2012738349 2.5892968042 2.1898065666 2.1921337195 2.5764964867 2.1724895398 2.1779906985 2.5528608259 2.1358111435 
2.1876084939 2.5012403128 21.84636939 21.787696581 22.276990319 28.46586396 28.073715701 27.847906507 29.662232289 
14.650820365 14.962281575 15.145738002 16.559059712 16.88409762 16.482010232 14.043251741 14.349419342 14.494564493 
13.400550194 13.723540869 13.857144261 12.738142502 13.073571363 13.196432827 11.983378778 12.371455143 11.72458199 
10.232042881 9.8130142354 19.564638685 19.180443202 16.111663991 15.836682154 18.003173437 17.647335432 18.766907693 
18.384955248 18.271552023 19.073387568 20.473470251 20.043173421 21.804493874 21.832146352 22.275938933 16.698175918 
16.389223359 16.290546621 8.135869925 7.9590679343 10.160516243 10.680485963 10.84381515 17.331260777 17.022511834 
16.90844838 17.563584114 19.294184942 19.716074738 19.147625907 29.275528628 2.2720682401 9.4999235104 9.3613585329 
8.8772630616 29.32765542 28.883538269 2.4450813991 20.920740944 22.150960877 22.108971632 28.882407722 12.491755895 
12.147940804 11.886897861 11.78682327 11.40436868 29.627687775 14.683721015 14.52462654 14.973834695 17.542641187 
17.880274607 18.156221499 7.392404878 7.9109943524 22.567177172 13.921660535 13.8010725 13.501146746 2.2645024813 
2.6389565698 2.2725251669 8.0956917775 22.407395639 2.3646534355 28.703093222 20.148863986 19.967721867 12.494044484 
10.632350391 10.34063813 11.010918376 2.648798467 9.0242861051 9.5926603395 9.8090102546 29.442542369 8.544881079 
8.9439007236 2.6439414822 21.879018503 21.885681861 15.719900544 15.561015385 15.270625501 8.5667617632 8.3799169616 
7.6507759571 8.8199026235 22.354351289 22.882303414 22.895903913 28.583471859 28.26030338 28.172895282 27.988104548 
27.905717951 27.64599772 27.726045782 27.713305901 27.27802153 27.939657805 27.945115651 27.320311297 27.896391637 
27.870978277 27.49658395 27.848253462 27.828095635 27.422872868 27.813455852 27.796694443 27.384025144 27.749589932 
27.743386695 27.321773845 27.708326133 27.745400516 27.241336001 27.893104238 27.932664583 27.358079192 27.881366315 
27.919482399 27.456537647 28.053199219 28.093329065 27.542304552 28.069329884 28.078843605 27.654090936 28.114289805 
28.141988376 27.668129622 28.159414253 28.216143091 27.723947643 28.315035338 28.412137336 27.842945523 22.21243605 
22.697707307 12.833078309 12.591960558 13.164743791 21.194896528 21.698454979 22.222509135 3.0136162737 3.4695705709 
2.8302374751 3.8600153824 4.2393921227 3.5834886091 4.6243935365 5.0097065698 4.3583591213 5.4027271899 5.7812663151 
5.1400640441 6.1429478983 6.478284095 5.8981947237 6.7635044707 7.0821850942 6.5496139045 7.4171141263 7.751388026 
7.1809644796 8.1001856859 8.4435337634 7.8734210973 8.794820431 9.1155417136 8.5806448793 9.4353517051 9.7619561319 
9.2582920735 10.094424376 10.425432119 9.9167712071 10.765526017 11.104222333 10.594272361 11.426877333 11.740075338 
11.259875509 12.066484099 12.404087698 11.910576773 12.738418979 13.076321511 12.572523936 13.400934176 13.71794882 
13.231896144 14.040082994 14.362050706 13.877604616 14.70111549 15.036709081 14.537053772 15.379043218 15.722357429 
15.216172261 16.072507471 16.42416805 15.905602874 16.777643974 17.13167228 16.605359756 17.498176694 17.835493487 
17.32126116 18.190290985 18.508143101 18.038843928 18.876187274 19.160111352 18.758911184 19.459103743 19.830134547 
20.157557688 19.495942886 20.525310409 20.849846873 20.231814156 21.167992956 21.48271616 20.915387945 21.816086612 
22.170677472 21.564937429 22.509874328 22.854074463 22.235640163 23.198394627 23.537470739 22.917398643 23.885716074 
24.219953346 23.609274708 24.568385951 24.918543847 24.307086393 25.232531717 25.600023656 24.970176645 25.998521903 
26.386704272 25.68384052 26.816886969 27.215434269 26.514738537 27.639472292 28.025179266 21.38905554 20.911118039 
6.6113144433 6.6007887041 15.646880141 15.969691361 23.188900026 23.135027485 26.294455918 25.898501512 25.446219294 
25.123154406 25.547906533 24.751752386 13.433889842 13.604707711 24.152365453 23.761617254 24.492774073 23.228601703 
22.92569733 23.357734725 22.603529098 13.784715782 13.959225357 22.193585633 21.847951555 22.417643995 21.456234916 
21.105626535 21.61725024 20.736460334 20.360478776 20.859145383 19.968673886 19.605798244 20.10049182 19.147388565 
18.844622589 19.254199724 18.524225756 14.140331217 14.352039594 18.073473458 17.718500077 18.34813146 17.272045998 
16.921900383 17.456042552 16.593464722 16.2495297 16.688673403 15.918634829 15.591104319 16.032166072 15.263996065 
14.944489527 15.377820411 14.637318213 14.295466725 14.745924258 13.980154432 13.641611673 14.124701221 13.303400273 
12.991559917 13.472658164 12.663113222 12.321301847 12.806047799 11.983935871 11.64920603 12.138969609 11.307290432 
10.970713425 11.457041348 10.641485644 10.329356705 10.783154477 10.007330965 9.6878235188 10.128698823 9.3536225104 
9.0304221188 9.4672252158 8.7034637324 8.3722726366 8.7985189873 8.0601166351 7.7145848227 8.1485342494 7.3772674677 
7.0325609468 7.4939071445 6.6600181503 6.2988451925 6.7792898418 5.9391156118 5.5909756863 6.0378333913 5.2157051502 
4.8546909516 5.2939373267 4.4806048238 4.1381008284 4.5377386024 28.114866658 27.675920661 3.0431331053 3.0515712325 
16.477711899 16.183031566 22.411109495 21.91893936 21.894488332 27.156172185 26.742968524 26.450008887 7.5970729328 
8.3028288117 22.857278887 22.815659107 3.0832258356 3.0764902311 3.4668737417 3.0275545796 3.0266354237 3.4444688842 
3.1333530912 3.1346662526 3.5006043914 3.112790884 3.0842352 3.5848069786 3.0348973944 2.9977052808 3.512144769 
2.900385875 2.8957915201 3.3633632779 3.0078278074 3.0229585171 3.378545693 3.0412864906 3.0644881219 3.511434197 
3.0834123004 3.094952973 3.548766766 3.1112729039 3.1104213322 3.5842914652 3.0479037078 3.0325596313 3.5374125683 
2.9978073019 2.9955370416 3.4398888671 2.9891878889 2.9842684943 3.4019213294 2.947140501 2.9376798542 3.3642181969 
2.8604693756 13.692725437 14.027035992 16.344536277 16.722498605 16.196173392 17.24949089 17.269907304 13.00333158 
13.341130866 13.520102855 11.509346534 11.907431371 23.000657681 22.937509957 23.431672558 12.282747262 12.653726629 
12.811477025 12.083748083 8.1302005694 7.9520766573 3.0237683235 20.283039413 19.802355524 22.827986568 22.85235234 
23.394144733 23.361091123 14.364891801 14.681885276 14.220158426 20.009679399 20.536138864 14.983458939 15.334638613 
15.493500334 14.870567305 18.972872962 19.452411369 28.390716091 28.37319445 27.945814505 8.1328747432 10.63783552 
11.114049373 11.315420277 3.04273546 3.0339047882 3.4346491403 3.4228770618 9.6848048738 9.2472560381 7.7012571228 
7.4522595615 10.094145585 9.8592667735 10.491377002 23.297334077 23.2567045 12.728871594 12.38549942 21.042089842 
11.131740677 27.371048171 20.731365464 28.48677652 15.129642868 5.9671120327 6.72727108 14.558642566 14.747846968 
8.5402624265 8.3477901749 7.7878689807 23.627478735 3.8004733887 3.7787547652 19.629423767 19.329802919 18.914039682 
27.421194021 3.2604890371 14.051343759 13.740297218 12.01269861 11.651086294 12.170981295 16.079183344 15.901152794 
15.607897388 10.22461106 9.6825876518 6.9864300456 19.822000441 7.3018440194 22.940833972 22.954889596 16.761839799 
16.658503301 17.101319019 17.003277216 17.13960242 17.54892834 23.805267334 8.5524352981 14.651030673 14.343632227 
14.176294589 23.451010649 28.258216278 13.276742231 18.499149104 18.109866877 18.739293127 18.502210977 18.789571222 
27.927479354 6.7967974063 5.9966106318 7.00597174 17.737597259 17.411400727 17.945992202 6.607454371 23.446557116 
22.921168939 23.319375032 23.878851626 26.77777411 26.592419339 27.079520635 27.027667731 26.995708789 26.970830934 
26.573094592 26.947624273 26.932304322 26.51392568 26.931183775 26.884618002 26.488622304 26.647301888 26.615474439 
26.249626396 26.778855864 26.932054939 26.181929259 26.882838661 14.946848334 15.155350684 26.971050966 27.109192677 
26.443732054 27.08706022 15.375650443 15.57605127 27.217452999 27.255489751 26.670838718 27.235393276 27.255492236 
26.785041248 27.320291955 13.435710156 13.092691294 12.907396697 13.573646622 20.804656682 21.469026749 11.26730142 
10.8735719 11.411238631 3.6473214629 4.0547237228 4.4415880418 3.7424256802 4.8949024063 5.2923199315 4.6057097486 
5.8031549434 6.1650803829 5.5752303962 6.4622251043 15.778749748 15.9718492 7.6556882532 8.0118247846 8.3730415907 
8.7312855924 8.1712739696 9.0535047507 9.380262343 8.8593942967 10.420466108 10.764233267 11.774467558 12.102010305 
12.410967298 12.746043652 12.281949808 13.056335441 13.379937128 12.901681556 13.711913431 14.031845297 13.541363666 
14.390961974 14.727421364 14.226876278 15.066536728 15.405682139 14.920849859 15.742214108 16.088190463 15.591358288 
16.416241635 16.765035674 16.249940128 17.138440846 17.500207382 16.944509214 18.566506317 18.93210829 19.292472756 
19.659923566 19.09312975 19.997703194 20.363010534 19.788936493 20.682500264 20.998426912 20.444382123 21.316832173 
21.648399683 21.079714358 21.949404664 22.286717141 21.697974143 23.334970824 23.683878985 24.520936579 24.834850592 
25.339360575 25.740268443 24.88659439 26.215646221 26.648273565 25.871220225 15.298940217 14.983871327 14.818293567 
15.47419189 22.267539561 22.790025435 3.7954217828 18.560200085 19.036986617 15.469682658 15.146843326 13.672990399 
13.335904224 10.939960211 10.608049253 10.278574779 9.9525828934 10.444797537 9.5892182021 9.2486616141 9.7491426391 
8.8539140009 8.5175226664 8.984849602 8.1087336939 7.7839567868 8.1681282926 7.4460049848 16.155346248 16.361344203 
6.9814160782 6.6026336448 7.2908905481 6.0956288958 5.7255463433 6.3143952231 5.3557564286 4.972422518 5.4210994047 
4.5714355025 4.1925269169 4.6428178166 8.9758820732 8.7604408396 8.2534944535 24.040069338 24.064544915 3.9609545989 
4.0652029212 4.1429401592 4.1200426337 4.600766824 3.9906954906 3.9404417705 4.5524281925 3.9698459345 3.86946213 
4.4555997803 3.9859361839 16.567239108 16.748035665 4.0745914087 4.0932210016 4.5779090829 4.0154724685 4.0341006137 
4.5882604069 4.2229423458 4.2387974245 4.698283066 4.0921605872 4.0284054815 4.7363243888 3.8600187505 3.8270443906 
4.4166008067 3.8471358036 3.8454784201 4.2676924403 3.7707058514 25.909346965 25.454181347 24.457098475 24.415307656 
27.11474638 27.540643682 27.671803303 26.816468945 24.017019893 23.950923469 17.986748554 21.065461026 20.434131228 
8.2099402051 8.9071521593 6.94202172 6.6810875057 27.557273344 13.346068581 13.706016603 27.378153462 27.190574171 
26.510831115 27.104164327 26.834022818 3.8416109386 16.922728775 17.112624968 17.871487444 23.937534372 23.892925795 
24.374259204 24.364654507 9.6684352704 10.07138029 14.118020359 14.465857431 3.8663038447 26.852636557 26.413619483 
26.165938985 25.911092105 13.957642123 10.64611867 7.2466479678 7.3949324589 6.9020025874 9.7308314987 10.069412353 
11.115977825 11.440384473 18.196991781 18.366662369 17.845967413 26.35895045 17.291616263 17.47681226 26.290472355 
22.914765048 22.984452967 22.501815082 22.572178474 24.487024538 23.928615122 23.931769875 7.2287726367 6.6304971617 
7.4733897539 5.2456775128 5.4015153243 17.665590126 18.113291348 24.514461495 19.781451371 19.308438201 17.649475761 
17.79379714 4.0127039166 13.275286152 13.131034619 21.860516084 20.439692461 20.049518695 19.489499806 17.226673231 
16.228381331 15.901405829 13.185041262 12.978069944 12.649446405 12.991260623 14.40434583 14.091640236 12.294461601 
11.95525085 12.473230779 11.609087663 11.264194884 11.097407755 11.770968056 9.309925647 8.840235361 23.929496903 
24.546037759 23.922325325 4.2163691317 6.5333843699 16.280176839 15.985456506 21.963532368 12.255069146 11.877447882 
17.257606241 24.96105276 15.953889845 16.342494017 17.656778063 12.637238327 16.899210657 16.602994911 16.515013125 
17.20822843 4.3778667263 10.953615887 10.248728385 11.640082541 15.668526077 15.531946972 24.307379247 24.201970569 
11.907753246 12.28268439 10.518443693 18.951357094 18.532610383 11.169599915 11.559785191 6.0069212086 6.3519464132 
24.691248424 15.2064221 18.167133592 17.786949286 6.4673804114 7.3215046102 5.9231413235 13.231401035 12.874862699 
5.315092959 5.1548633839 24.965082541 16.552928065 16.796176289 14.809308739 14.896896649 10.841241053 26.109502819 
26.084398669 13.828381009 13.523886228 11.543304119 25.340711609 24.980768871 4.6745738701 5.1609190689 5.6763485526 
4.782566281 5.8422180224 5.5215369054 6.0912716702 9.5417070603 9.3045029666 24.170160468 13.499263868 13.823639184 
16.057878137 16.379261201 16.712181419 17.0775923 22.281812117 26.635207288 17.448502577 25.024580022 25.373768743 
25.741849208 20.118775508 5.3190010515 14.710025127 5.1651703585 5.9467240215 25.701442156 25.618078684 7.7798614239 
4.7814774433 12.560369608 6.2353880532 6.6897625445 5.1698024493 5.087314403 4.7621839434 14.133993304 10.806746439 
10.42589283 15.740727293 15.874103281 15.41047432 26.072967111 26.035984164 25.599768594 25.626786057 21.384517952 
25.44119814 25.274950841 14.05542042 14.098468854 14.452560013 21.68314808 5.6069795674 5.2774531389 25.995083571 
25.995586387 25.803996458 26.308670397 26.291970243 25.814583217 11.159099661 15.67778745 8.143766085 8.5054331631 
14.399578303 15.354863479 7.6193446135 7.9727164187 7.7189795776 7.2008630314 25.442218556 26.171979082 14.760752008 
15.09485827 15.250139074 14.633324278 25.581969116 6.9251642331 25.008976678 25.751272113 24.454521663 7.1805777972 
15.048026803 14.70220351 5.1204505799 25.183381557 6.0506078968 5.3342858664 5.4100078892 25.09224693 26.222018923 
25.336368529 4.9289643738 5.18265415 25.008217693 24.989134744 6.3518229398 6.6555603625 25.082594398 24.986995524 
31.693490511 31.651304234 31.688933657 31.54922191 31.586333384 31.307619514 31.475459659 31.512043154 31.204860639 
31.402969202 31.44078132 31.132183946 31.329099118 31.365633989 31.059353359 31.241675175 31.280275174 30.972241489 
31.159350236 31.194055586 30.874674265 31.084381509 31.11620765 30.782866791 31.02773537 31.060118851 30.714190316 
30.974167831 30.998452064 30.659694927 30.940425539 30.957003005 30.612425078 30.929699304 30.939791714 30.593843489 
30.916271281 30.9199262 30.582673176 30.913579636 30.909901689 30.566727656 30.928798989 30.918306174 30.564891452 
30.960001927 30.943151703 30.584550155 30.997368919 30.974388955 30.614318559 31.046244336 31.019048616 30.651345324 
31.107885064 31.074961689 30.702676105 31.183728951 31.149591223 30.774280363 31.260911189 31.223842234 30.857304188 
31.328088253 31.292028846 30.929733998 31.413884744 31.375407597 31.009224725 31.50565138 31.469489823 31.113038311 
31.598582263 31.560876509 31.224558603 31.684588739 31.645314295 31.327090877 31.781299683 31.745991645 31.435425643 
31.415273656 0.57783385188 1.9416243728 1.4062306414 2.9067608039 2.4518065094 1.926898821 3.6739567717 3.2911645791 
2.8366457151 4.4498233151 4.0691050192 3.6446263549 5.1300773845 4.8061178885 4.4196146574 5.7719742278 5.44951977 
5.1162604744 6.4042558952 6.0941218821 5.7772374606 7.0448642805 6.7297225039 6.4434919212 7.6380406702 7.3417246071 
7.0820424672 8.2461527568 7.9394466295 7.6956912406 8.8254959144 8.5327228598 8.2970959478 9.3979441367 9.1172459372 
8.8874757056 9.9710089364 9.6878032558 9.4799752017 10.543644991 10.256613923 10.064597647 11.123966297 10.831897701 
10.645435957 11.726448072 11.42849176 11.243855254 12.313495055 12.02392697 11.850368976 12.950332188 12.625172261 
12.462272736 13.590447872 13.258580436 13.083480598 14.275269848 13.937026533 13.7376245 14.960400411 14.616687086 
14.424059113 15.633402755 15.301061246 15.103433687 16.337170261 15.969566253 15.776792398 17.042690184 16.688622817 
16.460324855 17.74468945 17.405308171 17.169901102 18.441074731 18.101305566 17.885077151 19.165795587 18.777859605 
18.575000961 19.859832718 19.521299967 19.264488035 20.541144885 20.203878104 19.962050487 21.256231781 20.904460451 
20.668320618 21.928048141 21.593618781 21.368802589 22.607577076 22.274250551 22.053051387 23.304967879 22.940485767 
22.733218802 23.985664482 23.652947335 23.415734049 24.696290467 24.331248109 24.111196244 25.367240895 25.048680322 
24.811129565 26.091622848 25.723625373 25.521927689 26.773014156 26.435019821 26.223416606 27.466307554 27.126153064 
26.921103356 28.18068214 27.822047467 27.630945696 28.924184222 28.546756424 28.353397217 29.639915175 29.293411159 
29.089009361 30.384976587 30.003794186 29.82217144 0.63487862664 30.680946225 31.079817326 31.161494525 29.936194862 
30.300717584 30.446010526 29.210773868 29.573606717 29.703516229 28.52710597 28.855058863 28.985587967 27.809563991 
28.18432466 28.287261862 27.104795664 27.444664266 27.57921467 26.412353856 26.749972601 26.858924877 25.727565013 
26.079257093 26.170124097 25.048272145 25.382393052 25.490443068 24.361631387 24.694491214 24.78986543 23.635718703 
24.015482238 24.088166222 22.94772802 23.279983487 23.384558935 22.272269573 22.605149533 22.684680177 21.592333099 
21.94213836 22.010787423 20.890217585 21.225649329 21.313381891 20.196984894 20.550030128 20.606475469 19.475631679 
19.846179872 19.916354502 18.769321361 19.108726635 19.200429381 18.025540145 18.413864879 18.480652542 17.321142082 
17.660487907 17.763501804 16.49748568 16.931614678 17.012970682 15.804021158 16.138951904 16.269375729 15.102947819 
15.45008893 15.560918361 14.400379209 14.758089133 14.86570944 13.762482774 14.068311343 14.191516932 13.134747629 
13.449918003 13.548836009 12.471983943 12.809902795 12.912020293 11.878182187 12.165709725 12.280396651 11.276203148 
11.571745508 11.665692301 10.658394328 10.975720083 11.055358774 10.038949981 10.337128485 10.428020127 9.4721790409 
9.7532906506 9.8142080272 8.9209650285 9.1999454541 9.2482598449 8.3503582355 8.6419240961 8.6876243926 7.7859597046 
8.0655948653 8.1132490506 7.2081287873 7.4909785945 7.5209678331 6.6287200518 6.9170115083 6.920741083 6.034695252 
6.3449861864 6.3304288457 5.4145225776 5.7224494519 5.7182075695 4.7854018514 5.1091710915 5.0822202349 4.0818272953 
4.4454407763 4.4179095916 3.3264942273 3.7084948012 3.6834821919 2.4762109678 2.9124123406 2.8744852231 1.4728724585 
1.997658415 1.9580973629 0.67541943587 0.37010651679 0.40138081267 0.37631783219 0.3929072739 0.71327473001 0.35238452074 
0.36525600391 0.69645328621 0.2908594533 0.29608925482 0.63537654679 0.268052544 0.28411272558 0.57170222888 0.28074591642 
0.27710529521 0.57473407144 0.28273485467 0.28215390922 0.56330650796 0.28537282017 0.2839610375 0.56582322863 0.28508481256 
0.28341801874 0.56432434701 0.28255636275 0.28172168664 0.55787889579 0.2816911288 0.27959385029 0.55312892591 0.27150309133 
0.26863531724 0.53944226684 0.26908327886 0.26705717609 0.52393101655 0.26644785242 0.26407277902 0.51813812275 0.27070562194 
0.26823856808 0.51953914166 0.27329746308 0.27047682293 0.52642846916 0.2799118841 0.27734057984 0.53572676604 0.28591667756 
0.28342813475 0.5492744991 0.28889999672 0.28561371468 0.55843779477 0.29209737823 0.28860270375 0.56408603714 0.30174222822 
0.29839317631 0.57856905324 0.30959713118 0.30551872017 0.59938115991 0.31837237025 0.31341983906 0.61960757073 0.33231007893 
0.32390483136 0.64561152171 0.33425734616 0.31910269299 0.65955120592 0.33457573142 0.30944966531 0.65005657488 0.97707061814 
18.39293684 18.425078463 18.465251363 18.146937956 17.893715059 17.640235287 18.330982079 17.418152331 17.203174017 
17.75812482 16.986901274 16.790528542 17.252785362 16.569655602 16.345785397 16.771002429 16.138624982 15.942749652 
16.310378302 15.720872524 15.50619504 15.853565496 15.285129098 15.052048256 15.384851074 14.832481614 14.620492477 
14.918161834 14.402984726 14.180790076 14.45141859 13.972595938 13.772093979 13.992240302 13.548825072 13.337525806 
13.5176694 13.113292948 12.896220968 13.006306467 12.632968091 12.33174913 12.419075128 12.387806159 12.370589205 
12.368301805 12.667605737 12.952382828 13.206842681 12.513795709 13.435212111 13.646914697 13.117461877 13.860233012 
14.077232389 13.620188805 14.304821153 14.525415399 14.106926168 14.734793183 14.955979826 14.578031409 15.177058798 
15.38334242 15.036246169 15.590521839 15.793401255 15.489872165 16.000667286 16.205043946 15.929283284 16.415525794 
16.618799522 16.37401066 16.828377411 17.030749684 16.827972738 17.23241074 17.433587476 17.28372483 17.65417692 
17.893589738 17.767072797 18.133806185 18.452751341 18.322632952 31.377192607 11.886632847 11.696253395 19.136545188 
18.801314981 31.124747809 30.725814821 0.73291255722 1.0379539106 18.714317973 19.045026908 19.022302427 11.555799098 
11.762735668 12.022673432 11.693129943 31.120096118 18.947132017 30.526792866 30.831313899 30.869161035 30.958515363 
31.023841981 30.771641508 30.585958315 30.717085116 30.755181909 30.602459237 30.652119998 30.347865371 30.483862085 
30.53249548 30.212065364 30.389577969 30.433554978 30.090614359 30.312565806 30.337711242 29.987265614 30.26301174 
30.293227321 29.914739299 30.229900666 30.247843993 29.879037544 30.207683448 30.208782781 29.841833844 30.18607743 
30.195888091 29.808469474 30.192083485 30.198585576 29.808786442 30.189875877 30.184776151 29.814085513 30.210309059 
30.19527201 29.812799129 30.244958315 30.229691032 29.838618115 30.283856227 30.261215151 29.875377877 30.334147888 
30.304472492 29.913614184 30.418279982 30.375616549 29.97678212 30.494601034 30.453477773 30.054774306 30.576763038 
30.544559029 30.141085172 30.689681638 30.641648901 30.257056059 30.804736679 30.748364918 30.381623598 30.931105395 
30.875269105 30.511628609 31.052041038 31.004885569 30.65654017 3.6087505107 3.1892259845 30.158217935 30.538007736 
11.11448338 10.956324484 2.7737923073 2.3650283359 2.7691614106 1.9254930481 1.4155021019 1.0651212068 1.9168983159 
4.3786121608 3.9992246352 3.5839733346 5.0875843166 4.749030405 4.3583513122 5.7828048442 5.4414579128 5.0975219519 
6.4626121033 6.1183680272 5.8022300341 7.1117580899 6.7985376818 6.4897242442 7.7480604259 7.4313097889 7.1605689858 
8.3584976727 8.0586211274 7.8048561306 8.9621271191 8.6585414497 8.4277348059 9.5568604412 9.2569283642 9.0329471185 
10.151133565 9.8571612898 9.6369408702 10.754385404 10.459599186 10.253482917 11.361860851 11.052053419 10.866054079 
11.969732446 11.668540564 11.475227302 12.590176463 12.276387698 12.092115667 13.213598881 12.904867677 12.715732047 
13.884714337 13.53900835 13.357030315 14.560152445 14.220807832 14.018431781 15.242369265 14.904821852 14.698074815 
15.907322341 15.574764465 15.373196218 16.59376731 16.246528319 16.042240238 17.295969962 16.937626798 16.72221224 
18.003996843 17.651195953 17.418058807 18.683455559 18.349878425 18.115934774 19.385456227 19.032542951 18.808013558 
20.076131072 19.733895433 19.503140796 20.783239722 20.420881897 20.194408301 21.472166315 21.134710958 20.889132476 
22.163039652 21.816251712 21.583760826 22.849765479 22.515767508 22.280108604 23.535752536 23.186144612 22.969328121 
24.229726653 23.882468502 23.653047506 24.93839249 24.584047384 24.355015824 25.649251777 25.291132847 25.063149146 
26.359592411 26.0147452 25.782486619 27.073587136 26.719437864 26.509052313 27.786087346 27.429500916 27.226019634 
28.529235322 28.162599338 27.959429741 29.291440573 28.921828553 28.729433208 30.047545056 29.683400318 29.515055117 
18.785182062 18.447484256 19.646610854 19.592326429 11.298872973 11.732978543 29.472863349 29.835168786 29.92642839 
28.773898205 29.129476876 29.259754599 28.06593143 28.408863864 28.550827788 27.343528124 27.709049691 27.828399784 
26.611984783 26.967690564 27.094769271 25.935496295 26.269813669 26.375801207 25.232789491 25.579432332 25.676387304 
24.511122829 24.866565715 24.952984486 23.826346671 24.174094253 24.248850101 23.120157031 23.477445563 23.562221892 
22.426788853 22.770618673 22.863253596 21.750268854 22.081167404 22.167753467 21.021864851 21.388736563 21.460740234 
20.340783047 20.680379585 20.758206946 19.642704684 19.991992062 20.068996954 18.922238172 19.28664002 19.365883332 
18.214344453 18.566683596 18.656474638 17.487809161 17.849102245 17.938512393 16.737944293 17.123047746 17.211678944 
16.01758779 16.372107033 16.484199054 15.32995583 15.680161085 15.783965441 14.632057799 14.973777546 15.092980367 
13.969317088 14.299262079 14.406169889 13.330144724 13.64149339 13.746824402 12.691720299 13.016556493 13.106008804 
12.068619383 12.376358137 12.476450433 11.451134017 11.760456242 11.851129703 10.833574983 11.138740268 11.227483769 
10.19384809 10.522172122 10.598692711 9.5931393612 9.8866474201 9.9736656864 9.0230840162 9.3042901432 9.3702885213 
8.4433952978 8.7331111311 8.7826910649 7.8466303614 8.1438605367 8.1829910568 7.2382148661 7.547555344 7.5723225151 
6.6207212077 6.9271198222 6.9486771344 6.0263075047 6.3260014119 6.328851076 5.3764405273 5.7069425261 5.7006645814 
4.7402706987 5.064057867 5.0536337559 4.0263121373 4.3877359945 4.3748536733 3.2621078397 3.658033129 3.6395629506 
2.4198644464 2.8556633542 2.8539716692 1.461740418 1.9462455274 1.9762023096 1.1037735904 0.94218503183 0.99362513827 
1.0959131216 1.141673277 1.4320057686 30.430738486 1.0840870048 0.87950928626 0.90108041546 1.2578529266 0.88649238787 
0.8912297273 1.2091941856 0.89190279793 0.89768835348 1.2219389206 0.89273613635 0.89614861587 1.2253559657 0.88034153056 
0.88649734929 1.2121862305 0.86814733622 0.87514356375 1.1927254795 0.86575171212 0.86983564417 1.1829361331 0.84406660975 
0.86063559864 1.173629409 0.82662551986 0.83173634389 1.1502961042 0.81350493626 0.81806291702 1.125262113 0.82622862066 
0.8215189581 1.1225124257 0.83521492195 0.8316452906 1.136033606 0.86023463344 0.85043143116 1.1587032447 0.88270943369 
0.87294532917 1.1912699917 0.88104527011 0.87535852707 1.2019545486 0.89331279564 0.88499881527 1.2055567006 0.92517878977 
0.90676903468 1.2334173341 0.96019203294 0.94236451355 1.277933149 1.0021465928 0.9789533015 1.3329210687 1.0484053434 
1.0161401286 1.3925118834 1.0755855918 1.0526613142 1.4471598158 19.504935568 19.15218674 11.607641365 11.285478077 
11.057180443 11.144142587 18.126555222 17.827692084 18.499002409 17.550251035 17.28243379 17.861004293 17.014606351 
16.753983693 17.276394214 16.489660238 16.252924774 16.70917536 16.004079785 15.754519688 16.166654183 15.507187409 
15.259776579 15.643517113 15.010862635 14.763876129 15.12096478 14.521955276 14.273093575 14.60368561 14.009473725 
13.762888348 14.07000961 13.490017919 13.213168018 13.499026428 12.944689555 12.650547922 12.916323591 12.315668643 
11.967104794 11.560786047 12.277709765 12.784530294 13.080120122 13.361168429 13.623096109 13.082838522 13.885059731 
14.152198544 13.661643985 14.40865824 14.647740379 14.212387406 14.890477107 15.139492754 14.739841327 15.373911467 
15.606349251 15.243445906 15.847669706 16.081489972 15.744977536 16.324973568 16.566466903 16.256451416 16.815223615 
17.06304525 16.778528031 17.322774076 17.573927542 17.31933499 17.864251036 18.154467091 17.904926543 18.46511145 
18.793318462 18.539828563 19.641302149 19.732158934 20.075947413 30.776774064 30.812211247 30.476951328 30.435280306 
12.081541566 12.449510646 11.732403876 19.140747492 19.445806655 1.5281838848 31.099972092 30.489770553 30.778524043 
10.303997258 10.634228308 19.811702267 20.168768947 30.291270058 19.213326633 12.432075964 19.918849556 10.801693586 
10.926741806 10.276732691 10.902910439 10.525289672 1.0422348081 1.4693959752 19.899340462 19.958504006 10.829691458 
10.633585636 20.249669196 19.222365659 10.024322427 9.813986021 29.678645429 29.730224963 29.954525307 30.020367713 
29.579050306 29.632005093 29.270431486 29.523352415 29.543900628 29.186734204 29.473732196 29.489909871 29.11660594 
29.438586653 29.460274082 29.068263332 29.412980481 29.425023911 29.040469537 29.416806508 29.404536439 29.01796571 
29.404617973 29.411603596 29.003736234 29.414916508 29.408913438 29.003375298 29.443616309 29.423220067 29.016696235 
29.472659672 29.455375024 29.038152629 29.530191844 29.508441274 29.087163512 29.604099128 29.561401983 29.155729707 
29.679430774 29.643068002 29.227524407 29.778772624 29.727726506 29.3165415 29.915027955 29.849237398 29.436580691 
30.049366798 29.989872976 29.583071315 30.202747145 30.13158681 29.74109377 30.374420536 30.300304434 29.921557881 
30.134616746 9.9862407803 10.02061624 4.3272307648 3.9432352715 19.279771198 19.637468933 20.701249216 20.645052554 
3.5386829788 3.1362924261 3.5268394769 1.8930916799 30.201768448 5.8016480334 5.4503823923 6.5262507505 6.1740778596 
5.843068738 7.2125462266 6.8784011445 6.5802599325 7.8640251197 7.5403973789 7.2718264203 8.4918458905 8.1803559357 
7.9270825778 9.1106281514 8.8059582856 8.5677030796 9.7268392441 9.4179363604 9.1980338519 10.357724539 10.041892016 
9.8280290051 10.968965663 10.665795491 10.457378985 11.589596772 11.278600092 11.080028089 12.209948241 11.900286981 
11.704535404 12.840898755 12.524431151 12.332674407 13.478666562 13.152647406 12.960723562 14.150327854 13.814756989 
13.609289694 14.831784312 14.488762204 14.283573636 15.501683782 15.171582742 14.960649408 16.16655862 15.830203083 
15.62705904 16.848282015 16.507513542 16.29400566 17.552007858 17.200056785 16.983979458 18.234942192 17.892190483 
17.673171747 18.919220994 18.57287183 18.348401192 19.621736408 19.275568342 19.040082416 20.313574329 19.970506668 
19.742918008 20.998560812 20.648453519 20.424596161 21.695399786 21.352206911 21.111358565 22.39855737 22.046154919 
21.814306451 23.080108687 22.743592358 22.509034213 23.771711845 23.424430042 23.197899892 24.470046129 24.114759671 
23.885269412 25.183717435 24.82989408 24.588571195 25.923713001 25.556991111 25.322441996 26.65760523 26.296503556 
26.0695885 27.367794337 27.010692583 26.796752443 28.125271665 27.747635744 27.531118349 28.926918807 28.53341794 
28.320490971 29.788184442 29.394968552 29.198033564 11.353063241 11.697776046 29.811222089 27.619364612 27.977162709 
26.847925973 27.224807127 27.371201077 26.153804816 26.497070447 26.624604718 25.430463228 25.787724185 25.906490132 
24.691855675 25.059127376 25.167948609 23.990745317 24.328548165 24.432705227 23.314828629 23.664239268 23.742699392 
22.615607233 22.965449197 23.066920206 21.912776436 22.258308246 22.36066097 21.20965122 21.57070774 21.661945781 
20.518062318 20.858530486 20.969959532 19.818626211 20.165803442 20.268198632 19.110760385 19.464651219 19.563858833 
18.389935544 18.742760615 18.844051338 17.684678251 18.046797269 18.135674288 16.966592458 17.328044469 17.438618894 
16.233449653 16.596052022 16.714225528 15.547115775 15.881717148 15.994841476 14.857053854 15.210690703 15.309074384 
14.183606956 14.514857099 14.632220946 13.516337022 13.843370906 13.950756869 12.877112263 13.190829357 13.285356046 
12.263979709 12.580864654 12.66297512 11.657149668 11.967905786 12.068876021 11.008031544 11.324752683 11.43778191 
10.393440889 10.710903149 10.804529001 9.7580336891 10.072829885 10.181020427 9.1486522045 9.4457756679 9.5407453309 
8.5468255624 8.8465488952 8.9185931652 7.9164679421 8.2277033909 8.2886144534 7.2961800028 7.6079023144 7.6502412971 
6.6550918816 6.9803699637 7.0144621404 6.0382996788 6.3464495962 6.3781119935 5.381372355 5.715900946 5.7354948396 
4.7168705649 5.0436379068 5.0643976486 3.9882033711 4.355223486 4.3554831623 3.2138124258 3.5953756194 3.593523947 
2.4638239634 2.8749872709 2.8541689418 1.9736992217 1.5279970664 1.5306785798 1.5166161179 1.5813423868 1.8442231116 
19.62414426 19.255011443 10.789313564 10.410778947 20.015129034 20.3678915 1.5749347303 1.5733517169 1.8918032457 
1.6146671892 1.6214533148 1.9746347588 1.5740904516 1.5884188237 1.9860206215 1.5282087113 1.5391305685 1.9183339683 
1.5144055921 1.5166659228 1.8675815767 1.5145463398 1.5240698177 1.8637303842 1.4875862874 1.5033578358 1.8607390706 
1.4548142964 1.4657370566 1.8259776518 1.4622369419 1.4540613778 1.8025063889 1.4865139576 1.4801743816 1.820364414 
1.5230324928 1.5044376276 1.8578831426 1.5538556803 1.5365348502 1.8916528157 1.5526055508 1.5554362288 1.9096165709 
1.5790085798 1.5669778525 1.9292924349 1.6334139723 1.6084090047 1.9797563351 1.6997900784 1.6672941448 2.0536267862 
1.771086392 1.7298626759 2.1317535867 1.8332119798 1.7903389379 2.2005744207 1.8871628056 1.8414301946 2.2543601018 
12.0892348 12.445966825 11.746870383 20.396477025 20.012532701 20.025388581 5.0826559229 4.7135345192 4.3253531491 
5.090269329 2.7218770246 2.3034616429 10.069445694 10.062055118 18.179319638 17.864456364 17.5549688 17.250725002 
17.832449265 16.950084675 16.651965723 17.196023124 16.347837782 16.069991097 16.563865375 15.790327045 15.51577186 
15.953731147 15.243231264 14.967491458 15.37739664 14.696389777 14.42751192 14.810119352 14.136421096 13.841329128 
14.224464663 13.522370384 13.214948378 13.591111209 12.904345998 12.598332919 12.938626755 12.808034505 13.122674623 
12.509205264 20.726713492 20.779451361 13.42970234 13.723767669 13.194737109 14.015095035 14.301604251 13.814535376 
14.569076631 14.83977349 14.396524436 15.108519058 15.368868985 14.95678202 15.631479609 15.899802034 15.511340018 
16.17875125 16.450878863 16.076982795 16.727628436 17.007885359 16.657727885 17.312647187 17.606482055 17.264256496 
17.923935888 18.248747329 17.91219549 18.581063144 18.914234583 18.582072257 20.635876774 20.664595791 21.129917862 
29.799511922 29.870554035 29.542913493 29.388121096 28.363496269 28.729193753 28.153355404 18.877263816 18.529444282 
18.514563558 2.0354877489 28.915839449 29.104129098 29.448089972 29.730361892 30.122684595 30.145091903 9.9448620004 
9.5013729544 9.9661020872 2.7056445008 19.292263691 20.042778217 9.5468686027 10.923087914 11.552009018 11.192934959 
29.655005989 9.7196642382 9.9600584343 1.8101007865 1.9491981326 10.822763259 20.816457608 20.772664585 30.081681586 
21.259663887 20.841064231 2.4033355224 20.848316171 21.175261387 9.5628793227 12.295683024 11.936969738 11.605276044 
12.300302079 21.177963837 9.2097900032 9.4808076945 9.1721241402 19.255299881 2.0675329923 28.8173877 28.865898548 
28.623897692 28.638483341 28.618589237 28.632856544 28.199120623 28.599226189 28.608069017 28.196524618 28.573614944 
28.57871101 28.164984743 28.573185212 28.568357582 28.139230273 28.57784831 28.568623788 28.130290076 28.597083953 
28.583946279 28.132949128 28.637309794 28.599958489 28.144089968 28.730200257 28.69726925 28.209349194 28.825238954 
28.784522802 28.326089509 28.918752451 28.868998214 28.426594593 29.06062126 28.988986317 28.54262518 29.226308301 
29.150391289 28.704261936 29.421422214 29.338575145 28.907548143 29.557215054 18.831793227 18.465850868 19.295020663 
19.668153045 25.682565442 26.049947425 7.3179717028 6.9779067327 6.6337654966 6.2693666149 6.6858581762 5.8652063384 
5.4801350796 5.9266584415 7.9965577789 7.6690972848 7.3926066314 8.6563617625 8.3321124766 8.0895651561 9.286383237 
8.970437041 8.7481762432 9.9257125183 9.6031880507 9.3862390997 10.550152291 10.236219773 10.019690388 11.191672461 
10.877201842 10.662281522 11.805204263 11.491044626 11.293010183 12.439729089 12.1228269 11.913292287 13.082109163 
12.769107259 12.562503625 13.737077007 13.400786438 13.211809947 14.410381531 14.072806119 13.866096618 15.085730397 
14.747838421 14.537801637 15.73826807 15.412300665 15.199326787 16.405648525 16.067726547 15.852062223 17.102890861 
16.754244799 16.526373391 17.789141703 17.452013537 17.220278425 18.455015418 18.120013129 17.896777903 19.158977066 
18.805431575 18.574702123 19.856410388 19.510005608 19.27309765 20.542269508 20.209280616 19.974500562 21.213403926 
20.861579349 20.644383071 21.924836108 21.575529746 21.323525985 22.615231901 22.271043987 22.030010943 23.30403087 
22.959998177 22.719706128 23.994706557 23.651398524 23.411218663 24.703713511 24.343147471 24.107513514 25.460570994 
25.0862233 24.839208976 26.213092661 25.838977702 25.601375105 26.92807418 26.57360788 26.341982615 27.690898944 
27.309545235 27.085649757 28.505286724 28.095544136 27.873593124 29.385766545 28.916279508 28.691014339 20.396869362 
20.003638294 21.716833854 21.703136596 2.4001503254 2.4349845652 19.606780023 19.224780809 19.158849407 19.956289196 
8.9893847687 8.9982714393 30.061658618 21.291853938 20.85826036 26.419055864 26.771285637 26.194252089 27.168464148 
27.564441333 26.962142046 24.925333652 25.297624662 25.438616752 24.182539641 24.546276179 24.67347542 23.519884066 
23.846481903 23.958144445 22.839060619 23.188118676 23.290579152 22.121143914 22.477769856 22.598351312 21.427527795 
21.768569591 21.885542921 20.741042189 21.090686559 21.197583133 20.035371137 20.385775203 20.507303399 19.324199496 
19.676049714 19.794686586 18.590018125 18.955317048 19.068839954 17.908284006 18.248598615 18.361244192 17.213097456 
17.56681733 17.681203508 16.467689963 16.835047378 16.964796655 15.76824372 16.117217527 16.239667175 15.09198306 
15.426329486 15.549999053 14.413432199 14.754236842 14.872472007 13.721051697 14.060689782 14.183178831 13.04258793 
13.36830049 13.478067946 12.424121684 12.721716684 12.804199863 11.871954756 12.170132031 12.227523702 11.252500638 
11.588645891 11.688384027 10.656806763 10.958662609 11.109485881 9.9923199562 10.319829819 10.474793662 9.3396508119 
9.6600981224 9.7986096137 8.6988824644 9.0096835911 9.1288538583 8.0344666554 8.3637994173 8.4560273063 7.3942093796 
7.7137694006 7.7912530333 6.7430591163 7.0708235046 7.1371160522 6.0864424485 6.4069179886 6.4667913714 5.434194717 
5.7681346755 5.8014871055 4.7240689324 5.0721711852 5.1129524209 3.9849134242 4.3546326394 4.3753692073 3.1897704993 
3.587753753 3.6052264257 2.7467892002 28.779974791 29.156235647 9.6394269716 10.153811728 2.184565984 2.1859703878 
2.4742810846 2.4372265149 2.8960025388 10.919866555 10.514073812 20.830979517 21.224552125 2.6658005245 3.0786596561 
2.6504755336 21.789161637 21.793758122 2.2224132981 2.1877409878 2.5227816229 2.733319739 2.2971813656 2.3375922815 
2.7853282682 2.1813654076 2.1960838803 2.6163270291 2.2653264074 2.2570299144 2.5894721675 2.2625818017 2.275460656 
2.6753908614 2.1926039384 2.2160709753 2.6374492208 2.1589299757 2.1597392359 2.5561920804 2.208943426 2.1897173521 
2.5540114508 2.272991055 2.2531341488 2.630733375 2.3054394985 2.2893732603 2.6929329881 2.3171573673 2.3127244342 
2.7181682321 2.3405166982 2.3206443663 2.7310179884 2.403585981 2.3652424275 2.7633132183 2.5141424171 2.4680118552 
2.8595379501 2.5936045137 2.5463417888 2.9669017657 11.466184861 11.858672636 3.4877154196 28.664205099 28.699195783 
28.217772663 10.609484038 11.048777775 11.186587358 10.319394529 20.054596015 20.441055219 20.823134266 27.984769548 
28.372444147 27.781523601 28.73235649 28.769290025 28.362852488 28.278830655 21.731829133 21.748190054 22.281551141 
17.446329394 17.120210009 16.793884602 16.462481294 17.018746466 16.131894988 15.826905068 16.342707859 15.537191311 
15.240693695 15.702886726 14.934085267 14.639939788 15.086401315 14.336521056 14.021675351 14.458744249 13.669417778 
13.329873121 13.787141619 12.938153215 12.609105872 13.029432902 12.252740512 12.624960266 11.998251442 13.614549575 
13.927469788 14.233255322 14.522839761 14.056217672 14.805974053 15.097337508 14.661347965 15.39092611 15.67639473 
15.255230709 15.972098281 16.276211067 15.863177567 16.577996251 16.87888563 16.480395412 17.195501598 17.524650875 
17.117385875 17.867436865 18.206413408 17.793757406 18.583620598 18.929509145 18.527003199 21.704292047 21.722015625 
22.248799118 22.228172913 9.0315969721 9.0270691896 18.113619169 17.781145515 17.697950646 18.400963591 12.966706379 
13.291134869 13.412928309 12.738153059 2.7646536768 29.364764791 29.467742224 10.01815354 9.5634901541 2.4207582608 
2.8588271742 19.279770485 8.9705052419 8.4743333967 28.611204253 20.041251438 8.5108321172 29.130621011 29.215903668 
28.954022611 5.1200681154 5.0871438309 4.7083971319 20.815822073 8.7282369344 10.152784301 29.750191195 21.790991764 
21.768903437 9.1349987122 9.374778094 11.451880371 11.176102948 28.501485412 28.953667761 29.024544717 4.2991370147 
3.903836005 3.4793876249 4.3102268609 21.68776937 21.70715388 22.193256317 2.6080156149 22.287643773 3.0285447226 
12.168148718 12.151436953 8.5642933288 8.841146199 8.5658116797 8.9952004353 9.1450640525 9.0489640769 8.5456171183 
2.9144821264 3.2408959332 3.6405367635 27.699038564 27.691405149 27.722981377 27.727821926 27.619040292 27.622542817 
27.206350244 27.716742562 27.709186635 27.197863738 27.616558312 27.611492053 27.184637621 27.71590039 27.653048231 
27.119042571 27.947950758 27.891229891 27.335684638 27.983426677 27.937437943 27.503213794 28.151093916 28.079082321 
27.591548031 28.351069011 28.259907149 27.798423981 28.498282529 19.259613544 19.6330363 3.3142094642 3.3638465554 
3.0750800795 2.9990747517 7.4763970075 7.114581024 8.8835640704 8.5622595228 9.5106062667 9.1874819982 9.0154852217 
10.123244182 9.8074451626 9.6198392798 10.77046294 10.43868347 10.237827192 11.362147281 11.058698354 10.845103355 
11.997975601 11.67738761 11.454504136 12.664745958 12.334043341 12.108366432 13.32982101 13.010476544 12.790753703 
13.991446322 13.656905276 13.462329363 14.655466292 14.320791896 14.11599981 15.309341881 14.986233852 14.771483922 
15.953492208 15.628214042 15.415547738 16.638590685 16.29467868 16.069281265 17.328261936 16.983616172 16.7483957 
18.000982891 17.673872182 17.432649555 18.693881193 18.346933682 18.119147018 19.398395954 19.050252454 18.817151865 
20.096353294 19.746189564 19.518163838 20.727032371 20.410301319 20.177129876 21.445385433 21.08528262 20.846070711 
22.108752395 21.764294241 21.522294982 22.812464725 22.468648043 22.198315288 23.526624581 23.179212625 22.923869854 
24.241067147 23.891459016 23.6561752 24.983754168 24.600094438 24.382412403 25.715103515 25.335108097 25.09454659 
26.483449461 26.121139988 25.853971458 27.255163059 26.871709618 26.650995712 28.099661102 27.693010847 27.479763932 
28.54131557 3.4464413016 11.826338455 24.438410768 24.818550954 26.009796444 26.380688608 9.1154081707 9.601827505 
25.223622538 25.610362404 25.794384689 26.789607811 27.188824294 26.605306579 23.700028238 24.036089204 24.177771094 
23.033546079 23.364608206 23.440136344 22.372405382 22.732784289 22.805426511 21.682856512 22.034217769 22.167198964 
21.012220395 21.347421447 21.494464008 20.288123651 20.641276089 20.789944849 19.562506731 19.919388866 20.052943936 
18.83274292 19.198829502 19.323085757 18.147910162 18.486184211 18.615678319 17.460112978 17.798110318 17.923119569 
16.730677592 17.104951763 17.22297539 16.014743702 16.361572893 16.503592131 15.330385156 15.66933913 15.794101371 
14.639099295 14.974819747 15.097533615 13.948570672 14.300311577 14.405952482 13.258563006 13.611080464 13.730607915 
12.553762298 12.875669456 13.011708708 11.785834031 12.041854605 12.115740198 11.499868703 11.204867935 10.357210273 
10.699352316 11.097120218 9.5975011056 9.9378612693 10.168262626 8.9306119551 9.2682484458 9.4094057959 8.2614498269 
8.6045465632 8.7489921572 7.5758096539 7.9055823164 8.0625515039 6.8858897392 7.2200638535 7.3428570029 6.1621696168 
6.5098820788 6.6002735893 5.4903989071 5.8188019392 5.8683961809 4.8142441018 5.1827200722 5.2065014666 4.0096910439 
4.3819539112 4.4662737453 11.361218343 10.836029498 20.026070747 20.422744592 19.996107533 20.802146507 21.197903789 
3.1928762901 3.2614645716 3.7218959784 22.87658855 22.836896369 8.0636449119 8.2613000598 3.1464966579 3.1368476311 
3.5522467351 3.0922464492 3.1409551375 3.6099926332 2.9124550133 2.9467404102 3.4565584211 2.9287242216 2.8968064222 
3.2928102505 3.1249275211 3.078843933 3.4291414848 3.145875999 3.1284081498 3.5849833668 3.1591394204 3.1503118635 
3.591905653 3.1869471496 3.1803831063 3.618071955 3.1574603035 3.1275234281 3.5808427596 3.3662746589 3.293000105 
3.6581970865 3.4539078624 3.4092448408 3.8429093574 7.8752525836 7.8564999941 7.8851021072 7.9112429611 7.2954117801 
3.1040527967 3.5780913446 12.311218936 11.844128072 21.179779254 20.71749327 27.743569941 27.771255451 27.2402391 
6.7413091007 6.3859862682 6.8344377315 13.897848921 14.219240914 27.633796124 28.056085916 17.234524333 16.89144492 
16.544828231 16.195249643 16.742613863 15.853751234 15.54329873 16.047307782 15.244721848 14.91940852 15.383856609 
14.626905921 14.307393221 14.783973764 13.954254821 13.588645401 14.128775228 13.170023276 12.769178026 13.350840017 
11.792558987 12.187525668 8.2047655535 7.8591989905 7.6012085289 8.3498714361 10.298072664 9.7976247954 10.514672983 
22.196184706 21.706106731 22.873132794 22.87865162 14.518821404 14.818022869 14.379416483 15.12942905 15.441619587 
15.002456785 15.752481721 16.0671468 15.639030836 16.37674406 16.697060034 16.273167464 17.029537882 17.36336579 
16.928506628 17.722548357 18.08004825 17.632438143 18.450995472 18.838311996 19.171776136 27.632503355 27.653195423 
27.210955601 27.768213026 27.779537408 27.231180035 2.9035333176 27.26670369 23.326358653 22.757695339 8.0462845128 
7.9484989447 7.3637933344 3.9004903114 3.4837236376 21.592269617 21.627157782 22.098632416 27.461576605 11.533034858 
18.373029682 20.255579284 19.853410715 20.604129709 28.697428297 5.1440245924 4.7446194348 27.875713493 27.926667504 
9.4430178845 9.2675358104 8.7550410136 6.0302902448 5.6160765923 5.2605416653 28.361585057 24.987220316 8.6344734237 
8.8971446795 3.8877435155 28.014529324 28.104519539 27.528585165 3.6666599533 13.231800298 13.566927333 13.738319074 
19.470564926 19.068575693 19.755229363 21.591590589 6.0923985246 22.710431523 22.752911384 7.9426914776 20.77920313 
23.430108924 7.4719023392 17.595974651 17.463570019 17.945988582 12.472758157 27.341083811 27.816869669 27.852582358 
18.98007429 18.685904163 18.319920213 12.544604652 12.891521147 13.059244301 12.358422913 7.9725093901 8.3019408816 
8.0692922827 22.859204697 23.434711403 22.673147109 22.856046785 22.809147128 22.838115567 23.40596608 23.318982224 
24.036693233 23.933369827 10.990229521 11.406519296 26.557453014 26.516020507 26.865727884 26.685670295 26.0848444 
26.858649282 12.990640094 27.207604379 27.109506182 26.474114523 26.588595323 26.694051103 26.017335261 26.678285167 
26.733347235 27.413424055 28.253705542 6.623256376 6.6355653118 11.495015041 11.176401047 12.215948735 11.878771445 
12.918547769 12.573745219 13.587623614 13.263585657 14.252450911 13.927618173 14.885949101 14.561925524 15.521888203 
15.209956604 16.179023867 15.845913867 16.83859435 16.501232521 18.232358326 17.891784769 18.963336947 18.611266022 
22.218247125 21.860396436 23.022590797 22.655398761 22.309470856 23.855351178 23.487794085 23.214087137 24.715088427 
24.352578468 24.184249976 25.068000697 25.972350398 25.563754842 25.182877852 26.793190982 26.401901031 26.111993691 
24.801078542 25.209383328 24.075065642 24.075275498 4.3036894079 11.796554444 11.315456446 23.114517225 23.448974596 
23.888202402 24.292015509 23.557649969 9.8744506687 10.108765358 25.62760819 26.029843122 25.442903014 26.459982098 
26.871656792 21.349300802 21.68354937 17.708450204 18.05293008 8.7275449101 9.0553862352 7.9311592941 8.2923518817 
8.6146939391 7.1172503734 7.4826764031 7.7283293573 6.2966332073 6.6848645822 6.8360347133 5.5081633355 5.8632571035 
5.9541252828 4.794979751 5.1115939259 5.1101309119 10.557508746 11.615714114 17.522210872 9.6412331263 10.13956263 
4.3418712502 10.802697231 22.596670207 23.130390532 22.514070421 7.2006706696 7.5265235997 7.2675041817 24.067473186 
24.039944601 24.648363746 24.675024445 4.1405236228 4.197283508 10.752284936 3.8862097475 4.0361894184 20.760732217 
21.149907543 4.1135613669 4.0496180869 26.748085428 26.66636688 26.150723096 4.1252412922 4.1231887443 4.0072729981 
4.0035229358 4.5463787122 4.1128799823 4.0909180855 4.5047846385 4.0440733072 4.1010996247 4.5737956869 3.1100709842 
20.043140389 20.448059453 6.0417627436 5.6728611885 6.9072561443 6.5216275596 6.1208063524 27.768774983 23.180023557 
22.62089845 10.811485644 10.27671476 6.7001924064 6.8613381198 8.5572849241 9.0315198528 21.828412134 21.304911441 
4.1531022078 4.156955147 4.661814355 4.5925704674 26.629278312 26.599586615 12.905136697 8.1923375419 26.339875462 
26.904040389 26.952874326 4.1029692217 4.5717902359 4.0126053762 26.580897796 26.683798209 26.064776683 7.9937384771 
7.7736447424 7.3822085019 7.6349320059 27.350990613 4.2428923832 4.3713262723 24.062214049 24.675995916 26.89958688 
26.9266496 26.461373826 9.508028174 8.9648083818 20.808096843 24.315253324 24.832306083 24.509577875 10.455855063 
9.3345342264 17.183214945 4.2924534068 4.6671642969 4.1806143366 19.735042943 19.388711153 21.167731672 21.483148906 
27.328374649 4.6544180597 26.58525571 26.089669953 12.31588049 26.990096451 27.08160061 20.9393793 21.124116104 
20.896510355 20.570896365 26.294524248 22.438548716 22.73715775 22.099933296 19.828636639 20.194306928 19.120696359 
19.481827379 9.39586751 9.8480966581 16.98778597 17.336145813 16.287262022 16.651142555 15.573463741 15.911814183 
14.166181935 14.502692573 13.425162758 13.762229351 6.4605629155 5.2042424593 17.479523525 17.315533015 3.8697519788 
21.499024667 21.521672138 18.209368621 4.5749381647 5.076014058 5.0345722309 17.151842167 16.961047042 21.953702327 
4.0246052338 16.782550623 16.599552066 4.5745321439 16.413353824 16.202253127 26.477351816 16.011053069 15.809652067 
5.0995859052 20.340459288 15.21653453 15.34321201 15.033306885 14.865215312 19.620844305 14.731448978 6.0461101613 
19.326585813 18.931785848 12.771724919 24.035669299 14.374427614 14.013727836 13.611923493 13.191318621 23.622833084 
23.756246278 19.669207174 13.045896705 24.438844846 23.957471286 24.036923697 20.058068118 8.205077921 7.6267500592 
6.7751818935 6.6695720881 7.5285065121 7.9848719774 25.365266794 25.377493232 6.6933223242 7.1611824657 20.431246523 
6.0352008119 25.43209409 25.617251595 8.3602404395 26.000967928 25.567918934 25.932072765 24.656494854 14.628996423 
5.3978215223 5.3363725383 7.2329909926 7.039855086 6.3675480962 18.434770351 13.865678028 18.778000749 16.767486305 
16.061452396 15.618451324 15.4152494 25.290407865 25.314783371 5.0621125772 5.0981662168 5.5408164037 22.879390653 
22.390727282 7.0940435752 23.621142464 5.0212421272 4.9409869587 23.957677663 23.351536483 6.9580965328 26.039725058 
16.415344217 5.2188055792 5.2842651787 25.400098505 25.942123716 25.991990055 25.379666326 25.413136657 8.5314483753 
15.220447294 15.008845045 22.743163013 14.801041044 14.611337883 25.813691383 25.459249073 5.1029091144 5.1185673683 
5.5522939125 5.6321023308 25.06666555 25.398639632 21.950283856 5.3820864952 5.9901159127 24.464739312 6.1330557599 
6.2153639314 14.406932691 14.218827278 6.0964069462 5.8065096977 5.0681368749 5.7798521229 5.0618270212 25.419121086 
25.066523144 5.3451522263 24.850958291 24.849926782 22.248235873 14.023320682 13.839611522 6.1149751012 6.510528881 
6.1336515617 13.658701635 13.490886253 17.643909346 17.799150519 5.5561727201 13.300973186 13.143047562 31.717274386 
0.82521998599 1.5550796233 31.351160555 30.968486767 30.569392421 30.237159315 29.872466213 29.525060809 29.16215108 
28.816693511 28.488843994 28.096726107 27.722485637 27.382104118 27.043027394 26.705036563 26.368301466 26.016780863 
25.666361847 25.301081796 24.968414747 24.636477811 24.304983934 23.95803619 23.579858928 23.217405852 22.886242109 
22.554705709 22.222652673 21.905690321 21.55636666 21.221821556 20.886515 20.550089522 20.196530262 19.80965242 
19.437910848 19.081349339 18.740379757 18.366445883 17.975946195 17.650496189 17.309096992 16.95194863 16.514835208 
16.143908618 15.806827056 15.471393244 15.122235121 14.806979826 14.447227506 14.090890546 13.784046126 13.464992961 
13.149318256 12.807735756 12.470388942 12.16637502 11.880079972 11.541009822 11.248022083 10.972017263 10.658223785 
10.347878567 10.053881729 9.7755738906 9.4991375139 9.2112046775 8.9375050444 8.6775444537 8.391904065 8.0801626069 
7.8067298776 7.5191176486 7.2428973099 6.9378877144 6.6564566484 6.3715522248 6.0685539359 5.7740716275 5.4735643105 
5.1509359206 4.8342595891 4.507106219 4.1515437236 3.7789758132 3.4058945604 2.9701030883 2.5419990812 2.0636221161 
0.79424689657 31.732588351 31.366419562 1.5672617422 2.0899157322 2.6029304741 3.0420953265 3.4542752304 3.8249039323 
4.1783737991 4.5484798094 4.9044887937 5.2190707052 5.5398725267 5.8530161609 6.173652951 6.4750038606 6.758646429 
7.065646042 7.3433284567 7.6321783612 7.9325281095 8.2318890007 8.5048242386 8.7909157838 9.0775539707 9.3521588659 
9.6149450072 9.8925570199 10.185580601 10.467760934 10.752579742 11.040430823 11.373265465 11.668166891 11.980842513 
12.268630969 12.603581694 12.928226928 13.226667336 13.558620253 13.909541749 14.248760625 14.575656435 14.920989553 
15.253038637 15.587404109 15.939621968 16.309823414 16.633024111 16.989648438 17.347079728 17.688747723 18.079496097 
18.421405235 18.77929721 19.169120916 19.525770953 19.865426493 20.204168006 20.541825733 20.894642608 21.246353687 
21.565196669 21.899122215 22.232201615 22.564574389 22.89653082 23.259587321 23.606684653 23.937909257 24.253610668 
24.616881335 24.965021143 25.282019968 25.631554471 25.99807042 26.349862822 26.686666696 27.024626167 27.363866568 
27.720523247 28.07861513 28.437962257 28.815021543 29.160433636 29.506868456 29.887396814 30.26879705 30.634297244 
31.0335702 32.043762569 32.031982715 31.996826297 32.001841582 31.96430099 31.927831843 31.89112119 31.853125086 
31.817018453 31.777506108 31.74004442 31.703781009 31.667615832 31.631860782 31.593550637 31.557083588 31.522527648 
31.488309403 31.456412114 31.426271945 31.393335827 31.345258923 31.32254588 31.302637345 31.287818706 31.27677449 
31.268225185 31.262499184 31.26043435 31.262253593 31.267328681 31.275754833 31.287321174 31.303385065 31.321152857 
31.340465914 31.364127916 31.391082828 31.418766334 31.450136553 31.486062985 31.519148227 31.552233204 31.588419849 
31.626350923 31.661624788 31.698479336 31.736450558 31.774476553 31.810318517 31.845959676 31.883396529 31.919740889 
31.958791862 31.368200643 17.762918707 17.618843114 17.468665541 17.285077525 17.101884827 16.913392937 16.73489406 
16.554695387 16.346893041 16.141189679 15.941683915 15.748877905 15.546769226 15.346861058 15.138448953 14.927936697 
14.737923779 14.360692045 14.150173214 13.965051485 13.792131652 13.622006146 13.454079538 13.294248387 13.155112205 
13.038747994 14.549708938 17.745114217 17.630507881 17.302310958 17.479706779 16.957221214 17.13911547 16.6034337 
16.779827076 16.211148856 16.418240258 15.836763877 16.020556374 15.443779747 15.646171419 15.030196409 15.249487321 
14.625312146 14.822804311 14.217526299 14.421219678 13.845537971 14.022732673 13.49204455 13.66524257 13.160453805 
13.304848453 13.0074644 12.982374891 15.414929801 15.220426269 13.652406837 14.165611305 14.41221446 16.579453606 
16.393749072 14.615917263 16.188744902 17.125267611 15.614733359 16.759158002 17.622084209 17.471576796 15.997940897 
13.025513007 17.752903601 14.805019795 14.006209588 13.803707727 15.805437033 15.012323212 17.289072654 16.934762496 
13.298707233 13.46130644 13.160309028 6.7507212884 6.4486202592 6.4085496533 30.941394081 30.942051214 30.588355295 
30.587808056 21.843613565 21.960347855 21.608697252 30.015721123 30.417933933 29.98351654 30.385215382 30.752106697 
12.862996529 12.517408305 12.646916221 13.174209201 12.960917473 17.192562144 16.962237083 29.177511635 29.5490141 
29.142281604 30.683499043 31.051306738 30.706691927 24.495679221 24.730608404 24.351720681 25.775204372 26.27255162 
26.268401304 31.112563273 31.078387039 22.219632753 22.561643324 21.937916459 22.277016584 22.407600352 22.379123905 
21.850939086 21.816303629 29.98634825 30.008444205 30.377242264 21.918516288 29.590055099 29.611564444 2.4712920268 
2.191962001 2.5156673929 2.2117508523 18.171253678 18.051898399 18.395430753 2.5783725331 2.2785585923 2.2059597731 
1.908807434 31.174652509 30.842247654 31.208700054 26.655407486 26.902417757 26.753849189 27.002692271 3.3610323697 
11.118529292 11.32606549 10.968009868 11.176937453 26.53084281 26.381065888 26.170960752 10.409704814 10.535621324 
10.220600823 4.791853516 5.1365601737 4.8015952191 5.3431181923 5.3931931363 5.8563263004 5.9038339585 27.410746205 
27.264236052 27.015926346 26.271470507 25.83787445 26.017275566 26.764121759 26.512319722 26.746992668 26.270429038 
29.349578066 29.30150294 28.916792855 28.86862756 15.327030124 15.556593476 15.439158991 25.839361746 6.7133727658 
6.2689434445 6.7930577053 6.3402066045 31.331501093 31.39304282 31.686353465 31.747774376 5.6879623446 6.0974495401 
5.8479125619 6.2465719161 25.054076477 25.05276147 25.598644377 25.587640473 29.089309895 29.07701114 28.67537167 
28.660856641 11.256130676 10.960944669 10.823610483 17.855421397 18.216757215 17.995151766 17.717047376 17.837640382 
9.436438891 9.773853122 9.101280122 9.4389067718 31.13444665 31.435370984 31.078406934 15.474249008 15.817173042 
15.632279767 11.453055547 19.259500935 19.053861414 19.380742723 11.880103532 11.698355658 12.018380949 17.471983132 
17.640253283 17.288274723 24.119849211 24.37893123 24.041057448 30.287201592 30.606900375 30.222027276 18.084910517 
17.960866636 18.259538184 18.133494035 19.037980497 18.784464442 19.198298268 25.417500565 25.081381114 25.21538524 
30.603036676 30.252880214 30.240816377 24.714177187 24.97873028 24.630783017 24.133287151 24.207541476 23.785002332 
23.858442957 24.984287908 24.866858297 24.630082164 24.513676 20.189311067 20.543437886 20.422212638 27.423888673 
26.936738597 27.449981857 17.239265856 16.987835394 17.257951431 4.6089174429 5.1299345307 4.5315110475 5.0563465083 
10.097556919 9.5598356937 10.198128481 9.6812483313 12.756610723 12.421501331 12.729826787 10.830458932 10.943020815 
11.150987468 11.267442053 11.358008451 11.550385093 28.200563672 28.592334525 28.431304061 17.46690048 17.727101025 
17.829773486 29.331900534 29.516567014 29.692834627 30.202192099 30.492549567 30.115980084 30.406602067 3.1297488143 
2.7328157681 3.1682429692 2.7683733245 17.867987235 17.662400441 17.532801975 1.8508401256 2.2453908483 1.8437413599 
28.988610192 29.176268701 27.996904117 28.236376893 28.339342114 11.693764362 11.564026434 11.310585733 9.2291500547 
9.0336716981 8.9396631441 1.5313981149 1.1043752935 1.0560399314 0.63742248756 16.313844425 15.976496012 16.100997738 
8.1824648115 8.4185464392 8.4879756444 20.321542837 20.605401551 20.661695347 2.6578419055 2.2680158176 2.6618920979 
1.1436187826 1.1588461203 1.5076030856 2.5749118625 2.2033500153 2.5835603477 22.128622589 22.05039328 21.869458601 
21.790143632 13.628448434 13.532364046 13.859424835 14.540590898 14.31723834 14.208694671 10.957741539 10.956093614 
10.518954436 1.8704299824 3.5247347864 3.5866118568 3.1075957355 8.1197674652 13.542526046 13.414020552 13.299940617 
13.170955221 10.870810273 10.571428278 10.666201186 14.727394129 3.05737368 3.0678297824 3.5367623144 5.7453296184 
5.6540493381 5.369856552 20.302261523 28.28943423 27.913219371 28.327758872 3.5388465254 3.1205311915 3.0982791132 
7.2490661572 25.496748812 25.850934135 25.943125524 11.193122796 17.436746609 17.19949403 17.554749113 6.6429691412 
6.6710323912 6.9661610097 20.324148283 16.218230962 16.083180119 15.878008554 23.769596262 23.546781333 23.443352021 
6.055046031 6.3628785014 6.3486908965 1.1997925537 1.5431108082 1.2007622084 0.23353942924 0.53707631157 0.23937304824 
16.020340493 2.1358573879 2.0618373528 2.5346810407 0.50243102404 0.81265986503 0.50173260695 20.920766009 20.802164167 
10.201793191 10.433753065 10.120554005 29.071932148 28.699423574 28.886925001 11.675492782 11.35916508 11.538287041 
11.220501513 11.855116146 12.372758477 12.039113347 12.554129682 27.246625236 27.093881879 26.890730773 10.450931636 
10.135251478 10.323786383 10.012332329 1.824950142 1.4702890845 3.5425379385 28.144489986 28.348264111 27.999689384 
24.756363038 24.859239067 24.511967633 4.3439579637 3.9295538923 4.7284530432 4.3172667169 15.122712424 15.24014658 
15.458070564 1.8663355175 1.8629050208 2.2107502072 15.946888279 16.091607387 15.872647824 0.23289124649 0.53710401286 
0.22356097158 5.0847208827 4.7760437357 4.7504016373 3.7101918921 3.3455866298 3.3086615126 13.263997886 13.432665678 
13.601796059 25.817599263 25.910217212 26.317791021 14.43932333 14.392651912 14.207551657 3.5924017623 3.59658963 
4.0075688047 18.357656189 18.466989617 18.054832594 6.0263328516 5.4590554986 5.7111718649 6.2069914408 5.9440289191 
6.3079495893 18.69671545 18.420384757 19.100703518 19.525878509 19.311426912 3.1208982888 2.7543001827 3.1717454535 
18.892245699 18.536894962 18.803935397 0.52978254001 0.86764422395 0.5378750957 1.4290037002 0.99303751972 0.64888254862 
19.039381491 18.424662213 20.065807347 19.638288888 19.635627105 27.385435503 27.548896961 27.169018667 11.501983703 
11.813785506 25.455282415 25.820931187 25.565908892 25.932505544 16.333099288 16.153614652 15.057882222 14.862397434 
14.864864814 5.144084746 4.8458625289 23.257622994 22.908044477 23.136150866 0.2096548615 0.23061790469 0.52724130864 
26.065350984 25.705937318 26.291761944 10.986484764 10.776486288 11.173325035 10.986215244 31.288112053 30.948469581 
31.310315356 14.019163408 2.1868185454 2.6093902015 2.1991470805 18.076226343 17.798324734 17.844654898 17.586383654 
8.6198768566 8.2581410997 8.4694674547 18.794719819 19.049069425 18.68343962 19.733842689 19.37864863 19.490262965 
11.643005209 17.000957061 16.982300296 16.756534063 17.4385923 17.206102291 17.07941086 22.67274435 22.464707662 
22.355074507 9.4030432915 9.5013072021 9.1816840018 26.204692271 26.391172267 26.574977812 0.20338449256 0.51036310221 
5.5205492867 5.1277147688 5.397425122 5.8850231138 5.9929034873 6.294812669 11.701639368 11.509203124 5.0021187647 
16.104683773 16.487188342 16.253058239 29.815458649 29.474494046 29.886476742 29.619272616 29.722053436 29.356559369 
21.202966675 21.282059127 21.517860832 22.988232429 23.548706581 22.942554802 4.1162627948 3.5534508617 4.5709236664 
3.9962978732 25.087310344 23.62535525 23.896851401 28.608791327 28.643948009 29.055339809 26.81354272 30.619118903 
30.270818346 30.534644132 30.914752153 30.574750605 29.887840768 29.473640308 29.480921281 29.098487098 29.854067014 
4.901286729 5.2066820187 6.5408286322 6.5002607131 6.2053580387 30.04945978 30.406843133 30.071511321 30.427431111 
21.757266486 21.918582034 22.123774824 18.632591563 30.662182373 31.029679388 30.98212936 17.509142642 17.78341604 
17.862746672 30.07590195 30.461358711 30.3961958 19.334991069 19.49298924 19.69729029 7.1273203115 6.8165271088 
7.1799913322 6.8643092482 19.269762261 19.039184053 21.772271296 22.188952173 21.619174146 22.036279601 31.379343357 
30.70422198 30.337065441 6.1256606597 6.0320496643 21.947964121 22.303816027 21.708362795 22.063179033 13.614821277 
13.335899757 13.843489043 13.585414189 6.8463674389 6.8942500667 6.5936497291 6.927709982 6.621370109 12.610436194 
12.402313229 12.293203347 12.509220592 12.383063382 12.697514209 4.0230192011 4.4074119531 4.0423309276 18.367918031 
18.012607614 18.270287998 12.556488711 12.881923495 21.337108727 25.828495712 26.172380657 25.420581903 25.76529534 
6.9352711379 6.5835262892 6.5163243444 21.11164262 20.89708636 20.789197843 21.314877419 21.00225617 21.210204516 
16.155110119 26.652633017 27.028451883 21.928349815 28.290183898 28.082203583 27.931680984 15.288016734 15.178399016 
15.129785843 15.015882254 11.930491312 12.281361663 11.85185485 26.814962954 18.696868964 18.924936399 13.970177023 
14.275836492 13.930031885 25.776350826 25.402171291 25.510336091 19.268501609 19.214959371 18.887768436 5.6459346289 
5.5881266274 5.2731418881 25.6044712 25.868178569 14.535791314 14.700659069 14.874532205 5.2146764627 5.2011898876 
4.8795869408 4.8699258107 4.419614477 4.4425917547 26.412501592 26.070201931 26.518094549 26.174832116 8.9267298093 
8.8525499611 8.6932038961 8.6179207267 23.607159718 23.484953811 30.931439435 18.323815416 18.450106495 18.027370512 
16.034682512 15.70599108 15.921691499 26.306335672 26.201424729 25.966918654 18.209719901 18.455224853 18.557085139 
15.540657525 15.198780088 15.362252365 29.070071751 28.950883786 29.388783773 29.269718037 9.291397765 9.5942159921 
15.644351477 15.493926161 15.326149077 29.483360073 29.534728583 29.825525931 29.876088485 20.077264243 20.426198602 
18.452020934 12.631005433 12.341618913 23.509996091 23.16282509 23.445276727 23.098392378 22.818807798 17.229223043 
17.118914055 16.954538693 16.843040118 26.429451855 26.034582251 26.294749802 18.121074316 10.608434063 10.526085233 
10.832454251 21.018236627 4.0388198013 4.0388843742 4.4083693998 24.837966649 25.07430605 25.244136946 21.385956322 
21.468499853 21.719732503 3.0743798612 2.6632598337 25.415651407 14.015607508 13.870538275 14.198017811 18.201468349 
18.19563059 18.552972968 0.52488855716 0.84955244337 0.81299040676 0.49918866229 1.1190640478 0.80336740323 16.517739666 
16.541964818 16.745637198 22.763222296 22.666150687 22.441281265 18.878993681 28.232665251 27.887793862 28.039847628 
26.032163613 26.393775837 29.761187151 29.419056959 23.717448461 14.768846804 14.905042426 24.812884741 25.065208927 
24.717510684 1.8725278324 1.5330466046 30.221604661 30.274389136 25.345353995 25.461700502 25.094445573 18.857347923 
18.780762651 2.6866140056 2.3015375982 2.6890968354 2.3040920399 9.6194802876 9.7179255589 9.931960552 24.235755054 
17.504651544 17.737450289 17.293795453 10.521035068 10.679450028 10.852091263 1.8549377654 2.2490826163 2.2350083182 
2.6361849913 17.629760783 17.262726834 16.837330738 16.50834439 29.079083845 29.089244071 28.653077798 28.70402051 
28.740364879 29.141251477 3.9040248482 3.8818235232 3.4629738434 8.7712601694 8.7493878248 8.4422270804 8.4939190835 
8.3810010999 8.8160894312 14.63454722 14.804803844 14.520427745 2.8714209171 2.4290011165 2.9105842658 30.963684437 
1.8015095492 1.3964583031 1.7866223925 9.0834284915 14.055656636 14.259346357 13.997516283 8.0844772638 7.9619004694 
3.274259735 3.6568873429 3.2333667418 14.517684415 14.415665854 14.675053819 3.0528948764 3.531027662 3.1593615426 
3.6357336208 27.256223548 27.15923962 27.672504713 7.5460383247 8.0012654828 7.8202285345 13.040701838 13.038014164 
30.202600846 30.070787172 29.853492283 22.649056695 22.385301292 22.289745102 3.5478878277 17.42256465 17.177654145 
14.601114036 14.855372278 14.761324909 26.565210765 26.334101476 26.178274169 25.946750186 8.9454506927 8.8204351297 
14.050192461 13.752326167 13.959046793 28.251871029 15.539095266 29.671051226 29.873875614 29.502637632 12.899401381 
12.550516187 12.912634155 12.571020183 17.626103114 17.401211134 17.778944288 14.041457525 13.87814255 13.705845543 
13.543321103 4.6115156657 4.6170966838 4.9956756641 13.868211174 13.558585672 13.953330985 13.73124376 13.981469098 
4.069920309 4.0979951401 29.07297118 29.002315556 18.545944941 18.910504689 29.207325607 29.244176779 28.751895727 
28.788573032 4.7440450379 4.7395545305 14.107178634 14.285973274 14.041003543 15.112999173 14.969108474 31.111655021 
23.949225451 23.691249946 23.599846088 3.1004721803 3.0679531579 4.4278953288 4.0958835972 4.4719499871 4.1325597659 
4.9218583701 4.8078570804 17.102583785 16.976457202 16.768498877 3.5309103507 4.0158101453 4.0094982264 18.892275384 
18.542956994 18.915163691 4.0818354669 28.896345886 28.453572283 28.855724358 30.293032839 30.650245578 30.322140066 
29.561762364 29.544852496 30.933127489 5.2781230372 5.1584431556 5.6295198249 3.6758057215 3.2728717123 7.9556609804 
8.2733070064 4.7606707733 7.2698182186 7.5014323536 7.6851426714 12.785366974 12.45143979 12.660307571 12.328360224 
12.946834974 13.260409929 13.097502858 7.6299635395 7.6045535181 7.3239938073 14.908904101 14.5776704 14.421604813 
19.518416533 19.913559385 19.399118733 19.373729773 19.707489948 19.743905295 20.09486284 20.387691605 20.059734877 
20.045940453 19.961344047 19.143105874 18.779089492 18.716614982 18.354710518 18.63552406 18.146495145 17.792992745 
9.5594977653 27.623202519 10.486349504 10.133034953 10.316732694 23.218449978 22.869416003 22.98970569 30.924878353 
31.243466034 30.876480109 26.604072367 26.824540874 12.136366444 17.396915772 15.436175125 15.654253658 18.423895343 
18.653759355 18.317704219 10.643320931 29.110732859 29.132559485 28.713752181 27.21341189 27.658391416 27.385327255 
15.686934995 15.543853579 26.645768377 11.740602375 11.850528202 11.93461303 12.045907007 28.072995841 28.244351579 
27.80611401 11.958054654 20.196522289 19.637009161 20.11310705 19.599098394 10.827357204 10.50432144 6.7417554922 
7.4364137107 7.3444770404 20.695531547 20.665904424 21.196198157 7.9533215728 7.4074421403 8.4734871452 7.9510917949 
21.286590072 21.765604984 21.291155602 19.839350697 12.364561266 12.261498379 12.14746534 20.727799539 20.870439912 
21.388674836 15.684302951 15.796127822 15.343551903 15.456551325 5.7460249427 6.068286127 6.0545310839 31.58058069 
31.299734791 31.523630224 31.242543685 6.7293759419 10.481505215 10.255693339 11.884663095 12.326174411 12.478254322 
28.165992805 28.203495488 13.888568502 13.344030388 13.671025929 23.249427126 23.210785273 22.698859169 19.047350499 
9.6273094649 28.550021347 28.121836189 28.464092894 1.1258103838 30.69154851 30.360326372 30.322883328 2.894653246 
19.727353441 19.499969799 2.7569569146 10.372060265 10.146737937 10.059343453 18.809545607 18.70349177 19.179434253 
27.149811856 2.1729228403 2.1823266717 1.8462524829 1.8535399087 24.030134266 24.569152786 23.392620007 23.943768288 
27.130052677 26.006021598 25.604257473 26.377291101 25.878906152 25.22878992 27.281365926 27.778913334 27.245167318 
13.720910422 13.837852474 13.920520428 14.024182347 27.418549808 26.849640936 13.814835787 23.377260916 22.823606958 
23.409360849 13.561102764 31.274891555 30.962496285 17.850757838 17.839847127 17.512132016 17.493141701 17.419125395 
17.73815124 14.691041277 14.810434166 17.344241277 17.666386076 3.5335497482 3.0958213845 3.1049575581 2.6730739856 
29.460325668 29.454548077 18.171085727 12.263401013 21.641844712 9.3160076683 9.8653883894 9.2019238023 9.7873183801 
17.095392249 17.17605656 30.922762193 30.577635406 30.917722925 29.858917921 29.853410005 30.229480394 31.319430833 
21.711717795 22.203270715 22.229696864 22.717905308 26.246909436 23.505169893 22.93166874 22.974257342 4.0726999895 
4.4448155074 24.44622975 24.340070465 23.832016305 8.8059313689 8.9001603609 8.5834423893 24.77106871 24.17071504 
24.783464641 27.450676386 27.60155008 27.162219183 1.4670102835 1.1137477677 1.8175841745 1.4573191887 27.725296859 
27.271218631 20.982737314 20.901654248 21.218556415 27.81392906 28.032002968 28.745813122 28.762718757 28.431881616 
30.292907988 29.925887874 27.825982807 30.642447076 30.604095058 4.421159044 4.570636654 4.824428864 28.699289256 
13.638909683 13.491104561 13.312061376 13.165612953 7.5352540689 7.464277425 29.206208636 29.168876146 12.27355015 
11.983467359 29.485467877 20.45182772 20.012419838 16.802095211 16.478216708 16.892831064 16.579445535 11.264628453 
10.962070671 11.434492159 11.133747658 23.826135122 23.724506726 23.478910301 23.377603669 15.255976276 15.378623346 
15.370486414 15.492060434 15.103253644 15.445583239 15.29096116 1.8673102409 1.5129458735 1.5118257019 1.1631892412 
3.9280832226 29.049017402 27.697747454 14.897569187 14.55691597 14.993288822 8.3742887278 8.3128104058 8.557713796 
31.35995624 31.069931064 31.413629268 5.1683115784 5.8905494704 5.565350071 12.861299356 12.389416253 12.705444851 
9.8109603352 30.707270942 31.011970544 17.024030945 17.386518183 17.260967369 17.626763893 11.587815265 5.654058262 
5.2771977382 5.2063144708 27.510759325 27.129772718 27.389647349 4.8740462359 18.473472864 18.36120904 1.2068101252 
1.5608349881 16.4409836 16.614541068 16.793680037 13.476165598 13.639946639 30.97383279 30.957230062 30.614773153 
19.824732103 19.955600927 19.592379686 30.994293418 30.634244316 31.595188912 16.013296081 16.362209973 16.126535009 
16.474321765 25.212937112 18.016202763 31.145394154 30.770432314 26.800097551 26.972586947 31.685555982 27.925116869 
27.47856938 6.6908647985 6.8946237315 6.3894804744 6.6094292657 6.5694057424 7.3289894139 7.1723225283 26.957906389 
28.298385256 28.741520777 28.288382414 29.887075428 29.908192465 30.278125866 16.146808312 15.854938445 16.262420137 
15.98073285 19.672995966 19.591968721 20.070753156 19.992303165 1.9132372413 1.5544811564 7.8745124941 7.8178002038 
7.5575239243 18.923661809 19.259170466 0.53246080523 0.54417735714 0.21916908633 31.35161222 18.926044734 18.750162115 
19.317298114 18.533667781 30.58622653 30.59864964 30.928943498 28.632786338 28.641773798 28.221303051 28.172051333 
29.850759308 11.737749892 12.070961196 25.667396552 25.423676104 25.809678585 15.253853136 15.138180438 15.039554957 
17.498474006 17.658217173 17.320646489 24.611341738 25.362044218 11.397409001 11.5110282 11.587733344 10.959080862 
11.356771292 12.534333523 12.279573983 12.47638652 4.5260229902 24.200709277 24.248339347 24.852330657 19.288469615 
19.292222354 16.295681545 16.113806598 16.332007346 30.451559721 30.163661769 30.071780186 27.759088144 27.244667971 
27.779784573 21.243599533 21.61739664 21.560898699 29.962508699 28.024235877 28.253804592 7.1134376615 7.1518703346 
13.829321103 13.991018901 24.721903458 24.942912414 24.429792943 30.695591975 30.714943757 22.798202107 27.180359573 
27.635705248 2.295526022 1.9103800147 2.2601984932 1.8774071413 19.848125154 19.941070771 19.594148871 24.554607756 
24.961855943 1.4485213552 0.61410296386 1.4146927071 6.6860708958 6.3376203149 6.3808614706 0.87740959363 0.86349536459 
20.192417016 7.9920877497 8.8767814137 25.775308019 1.5511454143 1.5537338548 1.2193315896 13.638382524 13.33223027 
13.593978824 0.28007092055 0.30853975098 26.253476242 26.070603623 21.768790537 22.31058843 21.248987721 30.579732001 
9.1435449109 18.722069188 18.822671846 20.663390175 21.203607313 21.161941749 8.1237348828 7.7646435949 7.7220786378 
21.427153841 20.990924504 20.913534929 8.7308282332 8.6423444488 27.766968722 19.293333797 26.438995774 8.0464278559 
7.7505151826 7.0386283627 7.008722739 15.236550161 15.558985403 15.440541958 28.368079044 22.215994613 13.222378294 
13.456453983 22.215099984 21.960037617 11.825184517 12.185107864 12.105528358 20.458402068 6.7973915355 14.828972378 
14.585104917 14.730715757 15.201118302 17.108423662 16.77406867 16.870407082 13.165611526 14.746390584 14.615517546 
14.453152456 27.817571243 27.399668867 27.825061886 12.24440097 12.064098434 11.938846218 16.059054711 29.505270649 
29.127849212 10.584054299 10.907454818 12.817387811 12.928696542 15.004899679 15.34336879 0.51869334379 0.83661721764 
0.83574560263 1.1563011808 9.8446482645 9.7486632569 22.450127151 22.56070864 22.795088999 22.905535205 20.297340104 
20.611769831 20.24811704 2.1994683292 1.7437783849 2.1181702632 0.20174254975 0.20218070424 0.49867167461 28.413991621 
27.886246219 27.936894243 6.0635793743 5.7394467736 5.499013163 12.977216625 13.433781396 4.0408376256 3.4318072467 
3.7345442738 25.41521099 26.150463546 25.48543705 26.224597617 6.1277816807 6.0726563187 6.7193696238 23.374140175 
4.538102082 23.027579171 22.691093563 26.73976075 15.594366627 15.429778745 15.757545245 20.118425619 20.191131706 
15.128032257 15.081218871 15.431369586 21.380059008 21.72157124 21.487073561 15.900826001 7.5027258969 9.4077391643 
9.2755828705 9.6321921313 3.7360249326 10.045363481 10.240720197 9.9124814572 22.574198966 7.6338762093 7.6968128269 
17.731208307 26.804867694 16.914975125 26.919453684 26.695445249 24.699459097 25.013393291 24.563131456 25.633063536 
25.253675118 25.365656099 10.170414218 10.411593286 22.256565591 22.066921663 30.996535657 18.909325385 18.685981409 
19.024161393 26.882930444 24.115127215 24.378575363 24.458491291 30.740254801 13.939347593 13.819577414 26.959334477 
26.606241086 27.175362771 27.321666261 14.686056129 14.486811671 15.023039625 14.822549866 22.246571327 21.774176589 
0.19877876297 12.727988118 29.193945857 28.838138587 13.8226393 14.006814245 14.181386516 22.728626478 22.814071585 
23.061630349 25.818948632 28.699880832 28.476575704 20.624280264 20.943453981 0.25676276922 0.61770266956 0.60162464423 
2.7454039576 28.333905922 27.871893657 30.4934801 30.131020285 22.964994266 5.586169118 5.9558380467 13.128772198 
12.799806598 12.98846139 17.003175668 17.015986275 16.789858387 7.5114357302 7.0485086728 11.035235048 16.26784399 
16.478070227 16.581275369 6.3836460979 6.7280077192 19.019679691 17.532879894 17.811961379 17.887591162 23.313636269 
30.339621242 5.957597382 25.101206328 17.519524716 17.270882527 17.545115921 21.265221586 14.320134249 14.65647049 
10.046288009 9.6138146066 10.159211693 19.372339924 19.612144012 21.209420855 19.61361904 21.705952485 1.8654125908 
2.2595200294 1.8684912201 13.349647396 13.675564218 10.599537678 11.099615335 11.700628717 20.748928526 20.85943611 
21.302177941 14.936771436 4.5032358136 4.653297549 5.6753722727 5.214280506 3.5554615331 3.9421651895 3.5215080386 
12.539108602 12.693536021 12.235963799 15.802889529 15.700142018 15.570621694 15.468028728 16.557890828 16.37657511 
16.591198881 13.652077604 13.466987832 15.578105864 15.388649019 15.252517956 15.238592114 14.477835338 14.163942229 
14.3273528 15.348318538 19.70624408 19.466717963 12.449716459 20.39794329 20.328016354 20.799290085 3.1619047971 
3.0925764988 2.6777984048 27.618613281 27.234575336 27.715612761 15.644191385 21.230584518 4.4374903842 4.4181088105 
8.1671696318 7.9325707435 8.6690270546 18.621896779 18.237371441 18.535322673 14.812170058 14.673827141 14.468478444 
2.5875089371 2.5838062189 9.2355471934 8.9997231413 9.3032930908 11.718625028 11.696326044 12.141777712 12.055910561 
18.0734868 14.330620271 17.420448062 8.479661024 19.162447943 19.668245132 18.456853525 18.401667108 27.158019421 
27.572530953 26.978973366 27.39553597 27.669766788 27.249273365 26.719159733 2.3346742196 1.4535570146 1.9727513257 
26.808285164 26.823003509 16.256487845 24.051822447 23.933831361 9.5541283336 9.9055007975 15.230766528 15.016468764 
20.027327545 8.4435054274 8.1731791375 8.4659709033 18.793822985 18.428096133 18.598747666 31.654089164 6.6455632651 
6.3509306296 26.320530994 26.734008821 26.445975623 19.865269552 19.517803008 12.031226662 12.6178908 18.365376368 
18.743870148 18.309071658 18.082755697 4.1131593909 3.5757698435 3.9901172921 17.202468915 2.9285439478 2.5385386901 
2.9131835427 1.4480734648 1.0775720685 0.6531291153 13.801418899 13.501694587 13.63325183 8.1244543301 12.727520016 
12.746185074 12.36085617 12.377557302 3.6728836373 20.440282855 24.174407016 24.28094109 20.461984633 25.423065238 
25.039590955 24.667465933 17.144492554 16.963606625 12.824159196 26.753122389 27.243548456 25.17692045 24.577678446 
22.927793482 22.656963841 23.348501136 23.077100246 26.92141145 27.358164242 18.89811954 19.262040791 19.513248156 
25.508948837 28.319964292 28.49973311 27.857413736 28.037867676 18.818607497 19.174241302 28.266205058 28.491737295 
27.631721725 27.418574445 29.70982424 30.151553869 30.100186768 11.727547306 11.565427475 7.908093772 7.8821130086 
24.817438191 24.556300171 25.200711748 24.939486517 2.5613598496 28.593351887 0.21684748209 0.53235275886 2.666259642 
2.6652080227 3.1493473343 0.29954223507 0.66591559856 0.66337218618 1.5250088936 1.1988839929 23.587703162 23.643293415 
23.026666727 9.3272030945 19.872108906 19.774546524 25.419536304 25.059154382 26.95322455 26.561130579 26.389370878 
20.330828348 20.436441578 19.763840463 28.90734914 28.751792911 28.540410437 9.2494814494 16.47250579 16.766536529 
16.684404593 7.093856058 7.0218965814 13.305486848 29.310040098 29.271258402 15.915237527 16.060308685 1.5460352999 
1.2056909643 1.5518634743 1.2088359894 18.545895478 18.544072984 14.986837206 14.84141923 14.513401164 16.83141919 
16.680081077 16.490863854 19.567824394 19.641327615 16.330822319 17.02105771 17.197004773 16.166308748 27.377884231 
15.613357762 15.333707843 15.731001092 15.461112634 11.666473521 12.187603365 1.5023575607 1.0725758186 28.174924376 
27.758674018 31.434012225 31.519020136 31.175752933 4.1560678816 4.5576574477 4.1335141491 26.05333029 26.033352772 
30.223022639 30.216147945 30.574699349 30.181029443 21.547599085 19.256799148 24.832154127 25.203447042 20.028793155 
20.077376903 20.46742924 19.228787397 30.470124024 11.643820339 11.333774098 6.9910406928 6.7382381696 7.0477726111 
12.339349142 12.209474535 12.002773353 11.872436853 30.811772536 12.732340119 19.073755365 14.061049183 0.20497300668 
1.9811425356 1.9642085795 2.529689983 2.9381797996 12.898248065 12.558175607 12.815051952 0.28613179425 16.120236654 
16.265730653 15.754634681 15.893271928 23.337384955 23.676759877 23.352561204 23.250791568 29.463216612 29.05775039 
29.451070877 4.1370500797 4.1701773722 3.7852346207 14.959408514 15.143027438 8.10751902 7.9325880873 16.030243196 
16.386441266 0.49842729535 0.49283292679 9.5025211504 0.19421599651 10.283838614 10.102025162 1.1347199037 0.80849346637 
0.82202019222 1.3711972809 0.97870627509 1.0032979368 0.63864574423 6.9651667192 7.5839741007 18.508302387 5.0205389748 
5.1749816018 26.547301784 11.387286298 11.078818752 0.28602288414 2.3282992127 2.2871331131 1.9481751484 1.9100311034 
10.110581399 10.829327892 23.987291115 24.593165268 24.030475987 2.407939947 2.5098251031 2.8569761357 25.329292022 
25.10925607 11.155027231 11.080734341 10.700870215 21.150076072 21.256741131 26.781584213 30.22797495 23.961070131 
24.232884748 14.813075241 20.940125678 21.018971711 23.340411048 11.490779008 11.876359431 13.088562082 12.882580122 
13.296223819 13.144820478 21.298268371 28.843363968 29.201508854 29.05514493 13.823084153 9.2127442941 0.20059073073 
0.48982143846 29.599633686 28.706751909 23.768234418 23.418130828 23.515179195 20.455268474 20.676336844 20.824943829 
29.558879507 29.207614876 29.146662135 9.9710926794 3.8386134942 4.1520253435 3.7683765908 2.3159683674 2.7354412835 
2.7520842971 25.344936741 13.289308052 13.144201933 12.889747255 28.106166183 4.5434278302 4.2357552615 15.116954721 
28.921920673 28.524738427 28.971612237 1.5326579763 1.5463796451 1.9163735926 0.25444010091 0.26915533494 13.198500013 
9.8256620272 9.7237716535 1.5118421634 1.208203229 21.094502682 5.0701744901 4.6681172578 2.9668697941 2.911930979 
29.56931085 10.113688283 10.670951003 2.15577344 2.173077305 1.7974508995 16.128270569 16.015385585 15.777972941 
1.1757861779 1.1875602373 9.1923398903 9.211302286 9.8603905533 9.8908813572 1.1195292488 0.80781697253 0.80412452497 
0.49451224299 1.1724045359 1.8778409552 31.107683124 8.44956217 1.0103154598 0.65428652384 0.29630615755 19.957734103 
29.686632584 29.706259421 29.742559434 30.106507672 10.301967171 10.753027705 14.905524065 14.671940392 14.508458307 
3.9777749511 3.3815835334 3.4005540968 1.5701154082 1.1716427466 1.5069150385 10.350797186 21.794564996 22.15184228 
27.475580856 27.316605031 6.1825750639 6.4559343283 14.508547866 14.348883371 14.452271119 14.669195176 7.2543562699 
7.2054502509 4.5490331943 28.896303804 28.502921171 16.832963998 17.071745756 0.8782679064 0.84328212924 1.1908046352 
7.3581035468 7.3972892933 7.0733576341 5.3917874734 5.398869793 5.074815218 30.543008736 30.872416842 30.446962975 
30.776304439 12.111145084 11.81345676 20.651247696 2.9694799847 2.9213915728 12.065334003 11.907462118 12.234542299 
14.41279757 14.121085939 14.333235993 31.008855283 4.0639804996 30.946122011 5.0689802967 10.527278698 10.825182322 
11.033115425 11.323155383 29.33109828 29.379565137 29.412611914 29.774501358 17.876261477 5.1076928401 4.6480863925 
30.068686586 29.652352107 23.858478601 11.762583561 11.640168852 11.461135047 2.3449680557 2.0352936328 11.314234975 
16.216831424 16.562210816 27.293267553 26.865540291 27.375111712 26.944234711 11.499527253 13.722517857 21.598327476 
21.868101404 19.280908964 19.620131243 16.367659819 16.28765776 16.101340309 22.470892837 10.031394371 10.358672745 
10.17383649 10.631664526 11.008044271 11.190604969 4.7699015502 4.7517118401 18.527036542 30.238409156 29.859186614 
29.957123208 15.734758764 15.397692152 0.54944411627 0.88770725875 0.58016673182 18.350551232 18.552868888 4.0842687405 
4.5189491083 5.5743852526 5.223818468 3.564577613 3.9718996243 3.5970953463 2.2710055181 11.575688983 0.20517570764 
0.51726935193 0.51009677004 1.9494340723 1.955350761 10.744488734 10.573910384 10.402054173 11.649501658 11.265053526 
11.897580902 11.51210016 3.3629317925 3.3093763833 28.618697387 26.547584294 10.007808139 13.843464076 13.774495916 
4.0080406939 3.6084720013 12.271130508 28.11802654 27.658690204 27.867690605 26.120903795 10.257613283 14.134308483 
14.25309199 6.9707471194 18.952409624 19.526216231 5.9929828186 5.9317661781 19.258061259 19.611136391 19.166574354 
27.989078929 19.024546117 19.149818641 17.998148083 28.043012853 27.600257909 28.088675961 27.60877232 1.9286954978 
1.4796647936 1.5219871549 12.072373574 11.737540115 11.843333327 8.4638382255 8.3252747905 8.6788422934 17.912943061 
18.257564357 27.951162264 6.8032622736 7.127917005 6.865205692 23.105022806 21.526951356 21.381054067 26.255347264 
25.911699092 26.036339341 27.588923181 16.264095843 16.194500458 16.019596348 15.936093543 1.4549571912 1.1119566196 
25.687381964 5.4446343193 5.1102012978 3.6110104105 5.4149980714 13.405760872 2.264162588 11.331702133 11.431888236 
11.038931372 1.9181015378 0.8518546972 30.401179196 13.055738275 18.468082625 18.802210038 18.577884928 20.072781131 
19.967809575 0.22712134908 0.21254372974 0.52367799416 0.51962660187 0.20819688766 0.52226249242 0.52738587726 0.85318008757 
16.480789242 16.941727824 16.721854381 20.122577668 20.22066017 20.47958208 8.7351891776 12.773220938 12.690452805 
20.395932762 9.4179571565 5.0845412859 3.7907480909 3.7607389879 3.346749952 31.097265965 31.43271985 6.1390664753 
6.7306214795 1.8755879724 20.743181042 20.820753403 30.35479955 30.073398762 31.648142517 13.084699389 17.524345237 
18.124527349 17.833846902 30.604072998 3.1898454917 18.925914349 21.03121764 20.064114803 19.22485634 19.579149143 
1.1692497012 31.167536574 30.790977789 7.248373152 6.9959637385 20.680810916 4.4697671755 5.727677878 1.6104792978 
1.2676567389 29.954099722 28.777229596 6.3545367908 3.3981526268 2.9136968852 26.651277118 1.9768342149 1.985263527 
2.4484648639 2.5066515772 11.914096967 11.514954079 11.774082037 0.80177567979 17.874667211 20.047086796 27.347876734 
10.630507732 31.029745917 31.077753712 10.796519429 10.467428367 5.5216295427 2.649443393 5.4033796409 5.4164472376 
5.0897909216 7.3226800957 10.138439339 9.7489475305 10.085651748 9.9750972717 10.290096402 14.574344776 14.749136659 
14.910735975 17.161700792 20.706397709 20.779796005 21.031538171 17.364271262 20.534767015 17.43754254 17.77552599 
16.853930037 17.009240743 0.51180908872 25.572330098 24.914936742 20.530942639 20.560159205 20.099869275 26.461326955 
24.156812146 19.97140329 20.089825714 0.88817289398 0.57090052083 0.55843665685 0.58235580229 0.95172496073 14.194731689 
14.318205899 13.987484022 9.1343477703 13.440975732 13.348686067 13.660248118 0.93142537269 9.8425260263 3.3462942207 
27.154071871 26.793340249 12.702929898 12.378950911 12.476531835 25.46030302 16.954405043 16.585701039 16.707596965 
13.020150288 18.172881531 19.709796272 17.649173702 17.317451238 17.553680844 17.306772682 16.719191832 20.515513528 
13.610290366 13.382284512 13.276887711 0.2308573664 31.056311318 31.028546794 5.8262830727 21.178778898 21.540207876 
10.77657051 2.6851502032 3.0958927315 9.8570749291 13.814384868 13.668789007 13.346651386 0.22325934204 6.5098827168 
25.788271453 9.0976187894 9.0451080041 9.3216797341 3.2820644861 2.8751950285 2.8456176103 2.4238195689 2.932129824 
3.2703099655 1.1193930879 1.4754119306 1.8329387999 1.8452828468 1.5040483752 1.15032913 1.4946343212 1.8206496304 
9.6749277515 1.1413051479 30.974196045 30.619614288 30.869425483 30.51442862 11.084944487 10.989833487 8.2607738816 
8.5072680865 8.0026318313 7.5828400836 13.542555129 13.485657789 13.235434311 2.3132198796 31.508435444 31.21064549 
29.908943174 1.5852940455 1.985965543 14.156714289 13.098249511 17.776431984 15.511585051 15.782086031 15.635635216 
28.912232789 14.124801606 14.341246159 14.168105807 14.783453506 15.054057376 14.900311512 15.032890244 15.176173938 
16.377560296 28.241754376 28.268109554 27.820705105 22.231776941 22.836885846 22.261793873 29.64285911 29.293900735 
29.410789266 29.542142782 29.772896123 29.941848725 29.610028673 29.68496487 30.004422798 15.492458109 15.604648164 
15.686926379 29.471558548 29.206177222 4.8610231791 4.516320942 6.7167927357 20.885679661 20.603693758 6.1181289735 
6.0923172435 25.164699814 25.098887156 27.318573976 27.370068614 27.828251522 26.484023434 31.34864182 13.652635558 
20.975938047 21.370288389 21.476634381 21.89739546 19.056093822 8.6591131084 8.9803835609 10.292693473 6.3578576748 
11.333065272 12.41967335 12.876204181 2.3357963001 16.071487825 16.388027109 4.4083881161 15.872172498 15.759309252 
30.952953911 31.027925048 20.971371164 0.23868735882 0.86701933278 1.5255812041 2.1881671152 2.5928921667 2.5696990142 
4.5971579454 4.5646055725 1.7991555543 7.4413696956 16.767381268 14.086496529 14.42746819 23.596980769 14.651365398 
12.350333698 12.008314375 9.2720782909 14.608256177 7.3812943126 26.795961836 26.564376364 27.191395803 20.407472212 
20.263289587 19.882891654 19.498694776 12.166852299 24.28647169 14.333609222 14.150006568 29.767652203 30.167323416 
9.0885443853 27.512447052 20.322715318 20.580543581 6.2774470043 14.221240745 14.343770803 13.991417828 4.908254374 
10.684827726 11.019459285 1.510886323 1.1540859746 1.1591294178 5.8680351427 13.218512755 19.852250085 20.19467376 
13.52482247 13.905182703 14.538016446 28.248890542 27.774249977 6.5986516383 13.364968301 8.8676116567 9.2019743249 
9.0045621502 22.007057904 22.131766853 8.8633661843 8.7741902206 30.882364634 25.57162512 15.739910505 15.973271634 
15.824629145 5.8633312444 6.166665142 6.9719753294 7.0660311676 21.39698115 16.715053215 21.91963461 4.1089246582 
4.0880502105 4.5874420433 2.2753307938 2.6570514885 0.8289988911 0.84527427891 13.769928912 13.953591171 14.085326385 
1.1171511124 0.80248432638 1.8712828703 1.5136831897 8.7988458488 8.4724858858 9.0682711383 0.2064275254 15.897157289 
22.279664329 22.808838876 22.800303616 23.319085037 29.327074579 29.489992584 7.6433180155 7.9711714035 13.171170873 
13.5045418 13.499755464 13.781719998 13.386393568 13.143996593 13.677564585 24.751772856 22.753496753 22.474794687 
6.2204093745 20.416077558 20.312023005 30.641869302 30.922779196 7.9886674681 8.6393655855 8.171185892 30.978262665 
16.27536729 2.5244350491 2.9790791935 2.5647353159 28.497578634 28.178094437 6.219052758 10.859734692 13.388888495 
13.06996573 12.674165878 21.868723273 22.135896172 21.790890144 15.036443314 31.632216718 20.993579115 18.952575997 
17.887964942 20.877328188 20.230933279 19.995456809 11.682279626 12.063549392 11.714652413 21.097399 7.7661088012 
26.993375276 2.5883143343 6.0454177714 5.7216219087 29.538506172 12.823910894 13.105739996 13.11070001 22.993270767 
22.206271691 22.566010617 4.0184802252 1.270708822 1.3066236996 1.5361084288 20.229360742 20.172845032 12.040313888 
12.385389772 12.362553141 12.358221064 13.231523705 13.04611136 10.255806626 12.486715519 15.981012595 11.069521968 
10.430065749 10.506841 26.900585739 26.803751283 27.338031876 27.194550675 27.421640402 14.067142949 30.532328688 
30.825426333 27.466505514 3.6945198465 31.277283916 31.295023822 28.539555017 3.7902299588 23.939846848 24.019965321 
16.51139064 16.667539047 10.022746819 18.938692441 18.128676776 9.9804199653 16.615934154 16.248841673 11.746764467 
29.540957451 29.753630989 29.356289025 17.631587055 18.000240411 29.898318422 9.9674555414 10.698174815 11.128291293 
10.912941177 29.98159428 30.293172713 29.836442404 29.853018556 24.353816455 24.270996007 16.848903084 19.84825544 
19.862785242 28.184132295 27.765501587 9.462382843 8.9624743195 9.2285388956 0.52192616228 0.20497411058 29.064607952 
2.2400359758 29.446432188 4.2053056501 4.5890144067 4.0393718827 3.5726635195 3.7622539679 28.691365457 30.234215473 
30.579948615 19.463415055 19.823740023 7.371209672 11.078618706 11.493613506 3.3159662807 3.3604820065 26.694954859 
15.744785855 4.1640100302 14.148102693 30.834049709 7.1945946964 8.1037298998 14.771762229 14.523735664 14.414364141 
9.419371569 9.082103783 15.301244828 20.662753467 9.9234854746 21.749678514 22.288391074 22.430388337 22.378244741 
20.849903837 20.929806864 20.760363056 11.697939433 19.650225117 15.77518489 15.57685774 15.345059526 28.603958934 
29.042748955 0.82140510861 7.8603201141 7.5348446547 1.3871978712 16.116750171 15.359775674 25.35194661 25.437871048 
25.063827927 14.219984963 14.320891428 11.860855253 12.064893595 30.914372646 16.875776557 23.624412191 23.990092155 
3.6376830612 3.579983805 5.8944284943 6.5688434211 6.5091340746 7.0265385783 7.1721394502 23.276200428 22.908953304 
23.13163322 4.4053786306 10.449640206 3.2181426467 14.598484524 14.885330037 27.859057991 9.4407639822 9.5235488807 
9.7247633881 9.8130267642 26.014935927 26.304894619 25.804482946 5.5935823154 5.2151670272 5.5148271031 4.8055825349 
1.4579101889 27.794076575 14.200144304 7.692160753 28.780767278 28.967543881 17.868374006 8.8964608541 9.4108386524 
21.449346096 19.942756237 19.549951263 30.769121269 10.460204045 0.53665419463 0.23193578352 4.042899987 4.5314127755 
4.4668360918 17.543807308 17.292271949 8.9372839727 8.4466817315 10.935657601 2.6455722031 22.234506968 10.87921645 
10.775633616 30.776399698 15.249691231 30.5759339 30.665212335 30.012975105 29.648946629 21.405824876 21.658721462 
21.74925586 18.706913164 27.208021512 20.92002414 26.110537843 17.560027429 15.906586175 15.668902603 18.470317598 
20.547480231 18.076308646 18.183090129 18.773520493 10.513306441 19.057610717 18.657044625 8.6273251267 11.1347966 
11.054198773 0.21485927807 10.755214699 18.143183528 17.875697867 12.925018645 12.619203536 12.987899615 13.246303573 
29.847429712 29.453671467 24.042441073 4.116072937 4.0859572907 15.688662692 22.556819494 13.319077333 13.21963706 
21.262009464 21.301101141 10.686041348 10.913189301 30.312792977 13.255709607 28.413555202 30.306173635 6.3760001239 
11.522890935 11.625580266 11.304134729 6.6895319371 25.257841646 24.900288597 24.986768848 15.310256435 15.20208503 
0.20194667579 15.911456487 15.603080068 1.9504637318 13.189899753 14.241563856 17.486502448 18.644554809 18.419574644 
19.251480067 31.108981044 21.418917791 19.332174357 14.243593932 22.896228612 23.471727195 23.299808265 23.70268426 
22.965917607 23.367336286 16.464071876 16.240130955 22.794047796 2.2961210378 20.423867005 16.449912811 0.62250461676 
19.687932398 2.9599592808 17.152821851 17.204666477 17.467107077 2.5232772712 2.5572505376 10.28971844 27.207379517 
17.388005775 11.430339628 12.99043491 12.906317673 14.433445813 14.095002017 15.581350363 15.684486538 15.732543766 
0.21783903554 31.618274247 14.945789679 15.103720146 11.232581866 3.2835444283 22.905372962 0.51618554098 0.20414334261 
17.747098553 18.073397928 14.388724326 28.65139611 28.277009464 29.238403385 28.815601555 28.848212443 14.88383907 
14.781657573 7.6315877452 7.36381354 7.2730663783 11.322448628 21.674974086 21.785061913 12.089415854 12.462071812 
13.036941295 17.089382456 27.625405056 14.997339595 15.785181703 15.672991434 16.085732227 30.534171023 21.630430794 
14.294559091 29.873438919 29.480647434 15.844406244 10.060762805 10.511671481 19.290279413 24.544767008 16.152628951 
16.240271846 16.41689302 1.4948948148 1.142731429 1.4502535002 1.7976255925 24.211655048 1.1547801681 0.83462120665 
15.195171202 15.309957984 16.731903997 17.923548252 13.74675501 19.125619677 18.965622429 27.260699548 8.8798149645 
9.9008903607 16.597296516 16.485365723 16.644102547 0.25731815742 0.2251218428 1.0874286893 1.0449175928 18.297052796 
13.070820072 7.5844606071 15.990632381 0.19656811478 0.48875523949 0.19778719257 15.828047038 0.49212830575 26.098143567 
25.164673196 30.015667856 30.188941574 29.900543367 16.345706301 16.233229895 30.344401151 28.202476009 0.51688100347 
2.4884778842 0.87141886844 0.27755475583 28.616204499 29.046028338 0.8586378693 0.54885289003 0.24606525308 23.684422712 
31.2257549 31.011986823 1.1953490357 16.657090884 19.137038468 27.860416898 9.1630400346 29.360211734 23.485939993 
24.109964932 23.321033626 22.59771686 24.048830556 8.8019316501 4.5275777769 5.5411674523 13.913718723 13.808302765 
13.98549072 12.74389294 12.41269608 11.335319273 17.645033665 8.1287409304 7.8666105783 8.4515680022 9.3194898622 
9.4492785985 8.998136488 9.1252575359 17.833559844 8.3738424395 18.189938647 9.4559623602 9.5234574246 13.317353946 
2.9665620712 20.605934656 30.493535908 30.835040946 30.461884397 26.810996717 28.230447458 26.123411393 13.885986608 
29.946271982 22.967398178 19.607075643 23.368944221 28.595490377 22.479077711 7.8662661341 23.714363064 24.201735731 
13.8563432 16.589634645 13.753775402 15.001745098 14.673328371 14.572818331 10.724517911 10.308306062 10.19394761 
7.7836203671 7.7118209227 7.4652268297 7.8396905526 7.550565928 7.581570111 7.9826960652 25.912870578 16.98598187 
17.249339349 22.454538429 11.68707434 27.490717952 8.5415104337 8.2018861836 8.2845028484 10.254364338 16.75494519 
16.927766888 16.567390182 16.444767057 15.088234565 17.209139397 22.351340572 21.998736474 9.6415850002 5.2657658003 
2.9494322921 2.9160027358 24.620330494 24.727196231 2.9856000409 13.161285547 14.693404 17.540157624 14.169656423 
13.482538836 13.453255356 17.50272166 8.0180043761 22.648157126 2.246838706 23.856350675 7.8951099806 7.7498843121 
7.5065417078 21.071070701 29.840476088 29.461435065 28.2603181 27.869553294 27.896914992 22.279080026 29.522556278 
22.409148983 14.922839941 30.42884483 30.647529505 30.40722579 18.123245337 29.924403557 14.716640027 12.073841646 
20.270274857 20.52678537 28.405716825 21.289135761 22.306915835 22.658966658 22.423819787 22.321628197 28.65240478 
9.3913137415 9.3150917817 9.6146461684 20.263357865 8.9877236242 6.9862998071 7.300631527 7.2791857939 13.325043585 
13.344288453 13.579235007 27.293461797 14.591371609 17.981898806 0.86398531691 16.734547875 0.83022194006 17.487495233 
26.806101118 18.185312174 30.660620195 0.82939988559 7.3050175993 7.4267822334 1.4563691216 16.965295309 0.84297193243 
5.2148880144 2.9457276792 0.53874915052 17.40206532 0.24845517173 1.8588282353 20.306402466 29.833359466 25.701578022 
8.5462747511 2.1551971221 21.912769746 23.828126848 18.979580656 29.09812799 29.026420189 15.917480146 9.6520437144 
28.611103313 4.0528882486 9.5527878763 16.725868359 24.483057428 30.167189982 30.018697165 30.753171789 0.87533532177 
30.003147906 22.556738452 31.473417516 31.186857819 29.723604039 3.0034168807 1.4965498242 9.6953212161 1.1610141399 
16.377772903 18.161110206 9.2038677655 28.173784069 17.759592585 18.85772662 19.192044081 16.386998835 3.3062474101 
3.7005384753 24.406400993 17.128749646 14.823113884 17.259210531 9.5226530536 2.4571594034 1.9560356116 15.075220511 
31.057597459 30.765799894 30.638752363 30.585647748 30.238153924 30.239690032 22.184273323 22.547127625 22.755900335 
8.3405554786 8.1159044588 14.289939677 14.615473456 14.423419577 28.715167732 28.612940225 27.80577336 7.3807461757 
23.863934628 7.9959687086 7.9552747855 7.6690933107 11.214632964 29.268791129 29.661654111 3.7122221864 1.7273813061 
1.3339026572 16.332557383 16.062474539 13.53243025 15.893195407 15.495134844 2.6379256943 2.2147038685 17.428735282 
21.966327598 29.860306114 23.931045244 15.238819515 14.964534257 9.6155888944 9.9049162553 9.6849084244 4.4278093682 
3.7246876717 1.9784458273 1.9935305476 1.4854948844 27.469406595 3.4582761936 8.7812734101 12.577176906 8.5499223869 
16.637515239 8.9992846312 23.003555778 18.133459937 11.656275837 3.5457892922 20.848020106 9.8075161995 9.7405700037 
11.129618332 4.4160005066 9.6363706829 9.143543933 18.230331629 30.256740195 17.054943438 27.748300916 15.359352022 
24.603396056 13.576686377 22.097686041 9.234502695 9.4452346304 8.7143180087 8.9371276945 25.567370661 29.108518038 
18.428242106 25.93780948 5.8243187261 13.598021058 11.925540067 12.319592558 17.08379345 28.741708382 6.1777239832 
14.363617701 15.92025363 0.60552245403 15.114916277 15.053176819 14.681963014 21.090358868 29.073889694 28.661836808 
26.667801084 21.192610839 1.6281713882 1.2418931141 12.036941725 12.313070678 12.627032543 11.546531813 11.924406561 
18.89179904 3.0866826395 2.9358808825 8.1958047004 19.87489151 28.211390095 28.639194227 28.007366275 29.625910714 
29.471441545 16.583326088 3.8244609911 14.057023338 14.382664371 14.19942226 5.7748674925 8.049884036 8.1213217399 
23.833228929 22.667504231 21.310178008 21.798032589 25.537422292 4.0531725275 3.1015985319 16.628105711 16.399390881 
3.1150700094 14.218521708 11.235250966 11.004059348 16.502100059 25.697489067 26.914736366 30.726595804 28.443854837 
28.389655587 23.945025783 12.406428262 3.3632158164 12.564685659 12.89958354 20.7400133 0.79438344734 1.1062224816 
13.739168582 10.007251046 9.0766087962 21.281960195 20.804723605 13.006650824 12.809539623 23.063945978 16.190320267 
7.9036654 3.0716415201 21.75116573 6.8624218354 7.4172303188 9.5210553346 0.83796021275 15.788752277 26.897405591 
27.825329337 12.924559712 31.250728385 24.33952879 7.7909567115 14.92834418 4.9047515285 19.408123221 1.4922575282 
12.666887635 12.905301235 13.027265246 13.129757214 5.446946674 14.549473803 11.146944329 10.893261773 5.7996942971 
5.6203025136 6.2865116272 14.786010199 15.251771312 24.209554618 15.469641357 7.3604016618 8.802772209 6.2795738213 
6.7571551978 8.9356291311 8.4552894177 8.6777981768 5.1805537766 4.9289567979 23.601277739 4.7792971497 17.057504379 
18.442174002 10.098577605 13.054773402 19.375294952 11.37806557 10.70028886 22.589784453 23.113615938 23.584722263 
23.543961434 24.972671047 8.2159721542 5.3152469045 5.8270524972 27.093065029 10.597508262 7.5768293687 15.940993706 
4.4795691048 26.353194247 28.240695661 4.8663244398 8.4521152169 14.235895058 24.533449455 16.165128628 19.687696497 
19.411147492 31.782072081 25.886583698 5.2745987445 4.9201022857 14.505879417 15.867405721 24.467841623 5.4509268643 
6.0131736183 24.751804048 22.974560201 11.260901729 5.2211058379 5.9009547293 13.728048272 13.194741162 12.223816278 
12.245126296 9.6523329978 12.02662509 24.093087231 25.09244474 21.45797626 9.1051431594 9.8140949824 31.623018411 
31.304809208 28.924581564 16.716190883 30.6793959 19.891531316 11.717473375 2.1591688801 1.7984428923 11.950530378 
0.90815477243 31.375424084 28.955587916 31.67761267 31.361319466 31.124747886 1.9436765519 16.92036363 16.682167366 
17.267135486 17.222766702 21.887882045 0.84637771445 27.85926722 30.235368126 30.250048766 27.974932387 29.120657733 
16.133708948 2.4574490764 9.3887277879 10.371300935 8.7503038651 2.236479013 8.6570186715 8.5587667882 0.22020201577 
0.27670990145 0.28477504709 16.473502835 16.728384485 2.4186676423 23.021044523 29.276848383 12.647854931 18.105577768 
17.954853056 10.551164183 22.906596744 16.00017809 29.644111404 31.096745149 30.897133544 19.155812817 12.80640726 
23.153865055 8.9750364357 2.7901434948 15.58963792 8.3395156297 20.913272949 14.643957551 15.119458126 20.543802771 
8.2206144084 16.787294897 9.1632433322 8.7034107178 7.3243889652 25.918799524 26.341802842 24.379731288 29.93632771 
21.550364574 24.867245035 15.129879913 16.94855728 12.990851209 10.868540307 16.931520116 12.663331315 24.033740247 
31.189883862 21.618033192 21.392890593 0.26964827749 15.560917934 1.4477138951 2.8027610983 0.65780833195 8.1103510254 
12.834997408 24.161748009 19.657893912 23.249595569 12.590157088 11.979422753 5.7473715858 0.6389145326 3.4075458152 
3.3189900338 9.9268521507 28.284808744 16.295684056 13.978822587 12.758713606 19.975910194 31.02659802 2.188305527 
6.0942718147 15.197162564 1.6619397236 5.7431705234 17.037943252 28.831794044 5.8741875422 27.677414081 0.61570044437 
8.2057185106 21.98177978 3.6749826227 30.013649554 17.758486199 21.421877342 0.93488285751 1.5346152131 1.0755805828 
2.2640414306 6.6723878663 2.9168584653 1.4910498579 5.9124631581 8.2879043832 3.3614510148 12.950799324 27.839018163 
28.324407891 0.22611352202 0.2331588301 13.141508662 
Tresca%20Stress 1 12442 double
0.31261817258 0.29309525488 0.28045973495 0.31522191094 0.16671970942 0.1666783915 0.16669790703 0.16667968393 0.40698902106 
0.3756128357 0.38449539571 0.42923652795 0.39575336383 0.42926129945 0.36575252704 0.41859981026 0.17897662329 0.14208875231 
0.12149093633 0.11293009414 0.10146379243 0.1029193609 0.095269118043 0.092925013762 0.091708317826 0.091817278735 0.090880143614 
0.090767414014 0.091306353394 0.091723691128 0.091954522609 0.092373965778 0.092881293251 0.093212335047 0.094605912589 0.096178836869 
0.098250673286 0.1004660957 0.10352279737 0.10757822486 0.11497080668 0.12870794278 0.16289467844 0.15815998078 0.13361197846 
0.12266737446 0.11196742531 0.11200813601 0.10975303676 0.10105824864 0.098392609365 0.097011049023 0.095595385398 0.093938816474 
0.093261950143 0.092713414979 0.091731594407 0.092000203588 0.092961507194 0.094324191314 0.09591247515 0.09803099409 0.099955033997 
0.10328756276 0.10714000129 0.11212526085 0.11987772143 0.1323041878 0.15733624044 0.16667898808 0.16667102593 0.16714523914 
0.16794956396 0.16893976185 0.17009601459 0.17144021077 0.17283347099 0.17417387131 0.17538242135 0.17641065484 0.17731985172 
0.17784140632 0.1780466572 0.17786511106 0.1773476138 0.17650496286 0.17545342227 0.17416415842 0.17260326648 0.17128123623 
0.16991169728 0.1687407627 0.16774322865 0.16701249435 0.16667735459 0.16667221115 0.27275624382 0.17142187514 0.15567511294 
0.14776983038 0.14296281842 0.14045379621 0.13915981692 0.13878200929 0.13894855491 0.13962524611 0.14068100505 0.14217456438 
0.14379557528 0.14603421295 0.14836441534 0.15120885611 0.15388927001 0.15658708978 0.15877196055 0.16092879543 0.16252544624 
0.16370130339 0.16447054418 0.16475130737 0.16462770603 0.16404569824 0.1631775093 0.16209888022 0.16099638685 0.15989807212 
0.15904555094 0.15839763673 0.15805827325 0.15807111909 0.1583887563 0.15904999112 0.15996542196 0.16106289295 0.16220602915 
0.1634149804 0.16455526271 0.16550253958 0.16628706349 0.16671592522 0.16673922254 0.16678314544 0.16667538309 0.16628714237 
0.16556266407 0.16461693875 0.16336821001 0.16219081961 0.16102780995 0.15990302706 0.15891867661 0.15826766921 0.15790081556 
0.15790943595 0.15827910873 0.1589249249 0.15984625474 0.16092145654 0.16217989244 0.16324148099 0.16409797071 0.16455385651 
0.16466051577 0.16427358894 0.16346248017 0.16227602484 0.16045885385 0.15841391824 0.15586437363 0.15332756359 0.15040736384 
0.14800406705 0.14547065621 0.14342264596 0.14162585576 0.14030173227 0.13919429386 0.13862067265 0.13856872364 0.13909274343 
0.14038569149 0.14302634666 0.14753487946 0.15569164274 0.17422566112 0.32156103049 0.36988833276 0.40498397108 0.43553361531 
0.45347898775 0.51760812814 0.52502321626 0.50346573475 0.52477694394 0.5377203347 0.45187438999 0.43381177417 0.40889299266 
0.31479580727 0.33023851731 0.40074430637 0.43262940988 0.45254038654 0.34471931166 0.39928636354 0.44224244661 0.39932151759 
0.3933294367 0.45126585307 0.43197010935 0.34235562046 0.30043059042 0.16662741879 0.16667447927 0.16706524727 0.16777118023 
0.16874965313 0.16988085502 0.17124219504 0.17260097265 0.17394952076 0.17541206161 0.1765742222 0.17742215654 0.17786931354 
0.17805910512 0.1778494044 0.17731175544 0.17646335659 0.1753646109 0.17410771608 0.17270326275 0.17134557292 0.16999960533 
0.16884846402 0.16782387217 0.16710383882 0.16668686761 0.16666948475 0.30270251259 0.17408623934 0.15670563217 0.14839336401 
0.14323338707 0.14066304105 0.13921228208 0.13865710377 0.13874453261 0.13934262828 0.14041861479 0.14187096193 0.14366547165 
0.14565746752 0.14797681548 0.15047125156 0.15303407117 0.15545250882 0.15793599963 0.16014291469 0.16197401673 0.16336437217 
0.16425751798 0.1647306992 0.16471511798 0.16430348789 0.16357541179 0.16248701521 0.16139197345 0.16031037962 0.15932468985 
0.15860501768 0.15817991568 0.15810188571 0.15837555101 0.15901408988 0.15981298154 0.16092024734 0.16204297555 0.16319253926 
0.16434901785 0.16540611867 0.1661678235 0.16668252457 0.16678507934 0.16681894498 0.16666908802 0.16617008725 0.16535762005 
0.16442007441 0.16320395155 0.16203562231 0.16088995408 0.15979512562 0.1589245728 0.15829128096 0.15793811029 0.15799043147 
0.15838213971 0.15911822166 0.16006817348 0.16121207291 0.16241359074 0.16340527992 0.16423240281 0.16463472435 0.16456701991 
0.16403366426 0.16300616804 0.16143349153 0.15966839277 0.15750043914 0.15486149519 0.15241646933 0.1498477552 0.14716512162 
0.14481985479 0.14286843117 0.14125032762 0.13994190179 0.13907160382 0.13860173221 0.13859826118 0.13926179185 0.14071532257 
0.14342530137 0.14856577296 0.15771256569 0.17442188347 0.22505636148 0.35181409276 0.40673864401 0.43219239637 0.4507454233 
0.39297133596 0.39873641224 0.40135374848 0.3998065803 0.39439969749 0.45340743577 0.43507896964 0.40391811339 0.32484294191 
0.42332918461 0.41431377669 0.43943273377 0.45761023027 0.52065710971 0.52674056391 0.52727884622 0.52306670319 0.51358762746 
0.4495023946 0.42990330379 0.44074852889 0.36318311634 0.16674622079 0.16710357479 0.16771609313 0.1684648968 0.16937199838 
0.17037687043 0.17151340681 0.17259635178 0.17366060477 0.17458123513 0.17534165983 0.17591057422 0.17621109106 0.17623371555 
0.17595361311 0.17537296516 0.17465254529 0.1736958116 0.1725899046 0.17145584296 0.17031119495 0.16928935983 0.16839440102 
0.16766234586 0.16715919307 0.16678854182 0.16665253003 0.21183688504 0.17921387036 0.16472435152 0.15628661528 0.15163799642 
0.1484371432 0.14678515632 0.14591631982 0.14535801378 0.1455542849 0.14614976737 0.14699735312 0.14816579626 0.14970225996 
0.15147387965 0.15341082663 0.15520973415 0.1570158708 0.1586393269 0.15998168015 0.16103791889 0.16183337337 0.16229855016 
0.16244190951 0.16225709935 0.16189843171 0.16137569977 0.16067360308 0.15999732098 0.15945991247 0.1590447093 0.15883606959 
0.15887057838 0.15914402163 0.15962851072 0.16030251409 0.16110369666 0.16203660567 0.16304510523 0.16401980105 0.16486925426 
0.16563711252 0.16618938869 0.16652686056 0.16611012029 0.16559800549 0.16483130472 0.16392265692 0.16289628709 0.16189818018 
0.16097152123 0.16008703834 0.15939107544 0.15892779667 0.15869259824 0.15871558427 0.15896095683 0.15939916995 0.16003112926 
0.1607292322 0.16137077202 0.16188779604 0.16219440516 0.16229365046 0.16209523013 0.16164016301 0.16083298157 0.15956593841 
0.15808894735 0.15640826855 0.15452326958 0.15249706879 0.15072477953 0.14898409607 0.14751055863 0.14634462535 0.1454277872 
0.14485873708 0.14471683652 0.14537870483 0.14672911915 0.14881032594 0.15166641196 0.15663708735 0.16581798803 0.18097770527 
0.23537022704 0.23078916501 0.2156211158 0.2034156267 0.18350965898 0.16283277776 0.17811677081 0.17680871664 0.17620978939 
0.1760940399 0.17614818621 0.17635750524 0.17634521918 0.17703517071 0.17759042158 0.17717085885 0.17657803323 0.17590661024 
0.17619940377 0.17627501364 0.17715296539 0.17842949428 0.18130521086 0.18725839568 0.19748967898 0.21278869714 0.29911534392 
0.17172474472 0.15197231768 0.12409098315 0.11411084253 0.11120440192 0.11007289111 0.10969201123 0.10964411739 0.11025082527 
0.11193159213 0.11648261862 0.12826013671 0.15870675392 0.17779092382 0.29850606067 0.183518687 0.15265861677 0.12428868163 
0.1137347562 0.11058375825 0.10901263078 0.10848582727 0.1083883803 0.10873466564 0.10988359873 0.11274951115 0.12192806003 
0.15019818508 0.18323507998 0.20125271856 0.20119866113 0.21281455631 0.20825798972 0.23319693375 0.16727921233 0.16783946271 
0.16852895565 0.16935416366 0.17032650495 0.17135944863 0.17236312144 0.17326930259 0.17399611043 0.17460485369 0.17499501853 
0.17513550295 0.17502871118 0.17461352779 0.17405123483 0.17332867199 0.17234878225 0.17133609217 0.17032896185 0.16937099266 
0.16852257617 0.16781956478 0.16727210369 0.16685123957 0.14883996807 0.19226402465 0.17635027233 0.16742786656 0.16172018006 
0.15775034525 0.15467545433 0.15255546084 0.15141628446 0.15073608944 0.15048783848 0.15052925144 0.15096413732 0.15161692618 
0.15258443924 0.15367867087 0.1549138112 0.15623954525 0.15751887308 0.1585511313 0.15936712541 0.16001406694 0.16046847252 
0.16073705568 0.16082435351 0.16067657084 0.16037619177 0.15996818454 0.15953952738 0.15924137611 0.15907639823 0.15903679799 
0.15916429182 0.15948377596 0.15994777201 0.16056513636 0.16126253874 0.16204385926 0.16286768392 0.1638466475 0.16468673138 
0.16548412718 0.16615849781 0.16670260561 0.16095476946 0.18774191338 0.16598127966 0.16533992242 0.16456402719 0.16364153025 
0.16265768908 0.16184801787 0.16102160664 0.16030446751 0.15972576178 0.15927205334 0.15900478551 0.158922721 0.15899788032 
0.15918992258 0.15949809996 0.15998671602 0.16033229013 0.16055479261 0.16067760235 0.16059470825 0.16031179187 0.15980894193 
0.15901410043 0.15797563718 0.1568486678 0.15551756437 0.15410298111 0.15281052509 0.1517732418 0.15088280168 0.15018348431 
0.14973458232 0.14968533002 0.15021231891 0.15129136578 0.15291435934 0.15503251885 0.15806304484 0.1624744046 0.16942260118 
0.17947188603 0.22688446384 0.18159296067 0.17285303514 0.16887740739 0.16638900708 0.1644315012 0.16374412602 0.16350381577 
0.16316922307 0.16321965895 0.1632481674 0.16310246402 0.16325541315 0.16307914571 0.16321137327 0.16315703879 0.16320958817 
0.16343320437 0.16422620755 0.16539347788 0.16764563945 0.17137501193 0.17752655354 0.22935542593 0.15546158433 0.1247022944 
0.1217655157 0.12018659719 0.11942335624 0.12025097328 0.12269999706 0.12760912196 0.13875292564 0.15250179294 0.15884492662 
0.16739341208 0.16098463031 0.16385858204 0.16125626886 0.1238380315 0.12003380068 0.11819804887 0.11711509415 0.11734757135 
0.11901354513 0.12258814218 0.13278801599 0.14865234225 0.1575457007 0.22267865787 0.13493403829 0.14991136043 0.13475879932 
0.1664447565 0.18614622639 0.18073980951 0.1791405741 0.17988063056 0.15496343449 0.1541641332 0.16751043185 0.16820444023 
0.16909649943 0.1701467844 0.1711574112 0.17218542417 0.17306610016 0.17377445577 0.17428589161 0.17457111892 0.17456694652 
0.17426841835 0.17378116667 0.17308221335 0.17220653124 0.17117832482 0.17015304967 0.16917544568 0.16829412693 0.16755986969 
0.16697627449 0.17294074031 0.16839254503 0.16440510828 0.16155447793 0.15885977925 0.15693017112 0.15576474808 0.15493623399 
0.1543445288 0.15397694176 0.15399189357 0.1541581654 0.15447350285 0.15502802082 0.15602198402 0.15699405924 0.15781004622 
0.15842689399 0.15891635932 0.15926862748 0.15947609231 0.15954198066 0.15947476951 0.15935123807 0.15913485406 0.15876874469 
0.15858056859 0.15861144601 0.15872621931 0.15900009589 0.1594250793 0.15999728947 0.16062735408 0.16133463937 0.16208913583 
0.16286523583 0.16381324663 0.16479018764 0.16563283549 0.16637376434 0.16692441406 0.13230761087 0.19836548628 0.17778774551 
0.16127165659 0.16539968708 0.16456848373 0.16355306912 0.16265623119 0.16188274812 0.16109488245 0.16041634626 0.15973514401 
0.15922304335 0.15884191036 0.15858965445 0.15843666435 0.15840330699 0.15873404371 0.1590796884 0.15927171543 0.15941439936 
0.15940781736 0.1593148113 0.15906270629 0.15861259107 0.15798706879 0.15720835025 0.15631519681 0.15529982245 0.1543794932 
0.15387858491 0.15352670007 0.15333983292 0.15337414138 0.15369427654 0.15475102157 0.15599446402 0.15780663177 0.15979218216 
0.16209846015 0.16531250536 0.1696237509 0.19267776714 0.17461133034 0.19452580994 0.14785949712 0.17141081424 0.16922927867 
0.16765029892 0.16688317445 0.16652924576 0.16640503026 0.16650244588 0.16658143651 0.16659261147 0.16664055283 0.16659975818 
0.1665186163 0.16638933505 0.16625805934 0.16611143285 0.16634097733 0.16693571655 0.16825462412 0.17056377866 0.17379470902 
0.15904878592 0.21151228964 0.12997869184 0.13650788445 0.12986697724 0.13234046864 0.13729802037 0.14406508992 0.15074953715 
0.15461012626 0.16616362791 0.16425838719 0.15845804895 0.19300647583 0.1330489156 0.1263594526 0.12731131505 0.13124450363 
0.13895549197 0.14748456021 0.15218408714 0.20814416524 0.16108164409 0.16609596362 0.13976478747 0.12843153052 0.1268636362 
0.17534247314 0.16655722854 0.17183734122 0.1710953303 0.15406069609 0.18475444378 0.14944879972 0.15162437701 0.1728800234 
0.17301183115 0.14046116723 0.17868042084 0.15590611385 0.16754809079 0.16884413427 0.16991429469 0.17108579103 0.17225622786 
0.17324297264 0.17398430472 0.1744984151 0.17468282176 0.1744910985 0.17392550599 0.17320531037 0.17227668577 0.1711328828 
0.16994004682 0.16881923567 0.16783366527 0.16705137924 0.16645530215 0.17112201882 0.16106900688 0.16094492611 0.14076132522 
0.15609758922 0.16845143754 0.16610160184 0.16392662724 0.16185343909 0.16034001246 0.15927065126 0.15808079709 0.15706548863 
0.1564140243 0.15595977516 0.15568696367 0.15558590085 0.15597835948 0.15675936366 0.15737573765 0.15779213587 0.15808076462 
0.15826312023 0.15835375816 0.15836815797 0.15834897509 0.15824129219 0.15809649462 0.15803476944 0.15752013042 0.15770554993 
0.15800316908 0.158398668 0.15900958016 0.15974925794 0.16055574634 0.16134737432 0.1621818285 0.16300761976 0.16387396869 
0.16499426214 0.1659804312 0.16686408476 0.18034072608 0.14007514621 0.17231380167 0.1421942613 0.16476924516 0.16358640044 
0.16273437373 0.16194760342 0.16128586793 0.16030691327 0.1595195514 0.15886848897 0.15827505733 0.15779003035 0.15742181189 
0.15726412009 0.15791252127 0.15795035358 0.15808679781 0.1582707159 0.15829597113 0.15820926556 0.15810436651 0.15782904102 
0.15740615763 0.15686640836 0.15611959731 0.15532520267 0.15532810835 0.15548227521 0.15576431178 0.15627871227 0.15691922945 
0.15808066758 0.15977890054 0.16160311337 0.16316061028 0.16482990564 0.16695687582 0.16940724052 0.15205075365 0.19433937756 
0.16945880093 0.16894631284 0.1688468719 0.16906886603 0.16951241416 0.1697322425 0.16974951834 0.16988483422 0.17001433931 
0.17002581839 0.16978526684 0.16936354747 0.16884516395 0.16853636369 0.16857911349 0.16906710003 0.1699093229 0.19334156636 
0.16570913065 0.14160274026 0.14530832045 0.1445336686 0.14831747492 0.15183119447 0.15404471108 0.16297278532 0.15255139712 
0.13617036668 0.14841682478 0.1515049559 0.15581586496 0.17821531115 0.13844749769 0.18701146677 0.15951786046 0.14349000407 
0.15303196964 0.1683972522 0.16733319901 0.15386780224 0.15535379046 0.13742536864 0.14847050882 0.17820285833 0.14476901778 
0.17052976789 0.15889744584 0.16327096274 0.19100123032 0.16759677663 0.13573794102 0.19343026959 0.17125187665 0.1685334553 
0.16972274029 0.17133628564 0.17277771699 0.17390215584 0.17478852682 0.17532342613 0.17535416067 0.17478256347 0.17375291187 
0.17266955353 0.17141934066 0.17000069636 0.16849956161 0.16722336788 0.16628895441 0.16127842777 0.15075297731 0.1579623026 
0.16958241186 0.16868714273 0.16756280073 0.16614182119 0.16402812382 0.16348188903 0.16211337839 0.16041882402 0.15899304037 
0.15801041222 0.15714302628 0.15638190291 0.15579373754 0.15639180456 0.15687575727 0.15707558786 0.1571931871 0.15715175169 
0.15699149824 0.15685899392 0.15687078349 0.15684791753 0.15677306292 0.15661658174 0.15637864192 0.15692172364 0.15751906374 
0.15827425233 0.15923071192 0.16038924181 0.16147737436 0.16227719199 0.16332069634 0.16411667421 0.16524814928 0.16631197119 
0.15751034466 0.17943301948 0.14953065011 0.17240320988 0.163680926 0.16284233453 0.16175540791 0.15958359017 0.15836043495 
0.15726693287 0.15667711072 0.15577185192 0.15634970494 0.1563254241 0.15615367042 0.15701965753 0.15685696481 0.15693739316 
0.15725351675 0.15702116285 0.1568636996 0.15645242918 0.15580996193 0.15596744174 0.15657325314 0.15746591714 0.15847514059 
0.15967945082 0.16031762244 0.16267888772 0.16470340153 0.16586354687 0.16705418262 0.16822530512 0.16953030575 0.14501679095 
0.1618184817 0.16518640658 0.16872588964 0.18763057228 0.17001388902 0.17055446866 0.17178615874 0.17262490097 0.173058686 
0.17275317288 0.17383271398 0.17385231212 0.17345175309 0.17276248257 0.17151777337 0.17052796363 0.16989613706 0.16948016792 
0.15227960528 0.15109462686 0.15379885036 0.1548675856 0.1825365738 0.1547832801 0.1815101831 0.15459271518 0.18134793907 
0.15048746571 0.15545861313 0.14816023158 0.15374189411 0.16759871859 0.15681770686 0.16937862866 0.16211708109 0.1861349249 
0.15925917834 0.16562111693 0.15487109781 0.17331446556 0.17316314693 0.15283054533 0.14799390558 0.15467692703 0.14438761623 
0.16519969716 0.14642409234 0.15295953654 0.14714482447 0.15260690405 0.15407061483 0.1843679361 0.15100907191 0.1619625951 
0.16834582208 0.17331289806 0.1751457207 0.17629527193 0.17659048176 0.17664263892 0.17405851633 0.17095355533 0.16865125839 
0.16667918416 0.15219118981 0.15685457405 0.16952747513 0.16928581995 0.1677224603 0.16442124586 0.16187347118 0.1605673485 
0.15744449053 0.15573808683 0.15613989841 0.1556723735 0.15563990221 0.15538548578 0.15483584232 0.1544394675 0.15437067432 
0.15455548108 0.15494935329 0.15460849787 0.15563652328 0.15628864607 0.1573935787 0.15846703512 0.16347728499 0.16502497547 
0.16590579688 0.14491046262 0.15400946726 0.15571126662 0.15675535088 0.15837127025 0.15982832168 0.16234812034 0.16381493856 
0.16742758105 0.1692443703 0.16896932482 0.16953159866 0.16527742936 0.16746834717 0.17443789004 0.17572949241 0.17714678224 
0.17834459584 0.17706901184 0.17688767898 0.17419438483 0.17226578022 0.17086136737 0.17004316798 0.16681235821 0.18141203623 
0.17991239342 0.16780852995 0.16479263125 0.15536514011 0.17149744652 0.16647586971 0.15892241701 0.15615904186 0.15482907924 
0.16463208818 0.15997926332 0.18083298693 0.17521909917 0.17165078343 0.15459211921 0.15594233082 0.15572305477 0.15582891192 
0.17435661439 0.15047672716 0.15079663541 0.17623265331 0.18140571089 0.17734664768 0.15264828035 0.17201394585 0.17539346632 
0.17113919897 0.15055297462 0.17528016326 0.15290644319 0.17885503814 0.16711490501 0.16920818591 0.15135405322 0.16672473722 
0.1670516672 0.1676214171 0.1683761973 0.16930906881 0.17031378842 0.17140374039 0.17245007324 0.17361601432 0.17459766275 
0.17535615861 0.17592583452 0.17622128046 0.17618061578 0.17586500029 0.17530351784 0.17452316875 0.17359641858 0.17251911267 
0.17144156385 0.17039527753 0.16933371798 0.16848853029 0.16771678615 0.16712623669 0.16677900107 0.16666438075 0.23396398947 
0.18184644856 0.16781362267 0.15876580185 0.15334254732 0.14987169046 0.14758338904 0.14627665718 0.14583047848 0.14574078859 
0.14622332058 0.14713277054 0.14821946164 0.14954464632 0.15118784834 0.15293146066 0.15465718403 0.15637058194 0.15788530096 
0.15934102106 0.16049970718 0.16132206774 0.16188368015 0.1621240509 0.1620769584 0.16178723645 0.16135294804 0.16075077432 
0.16015730984 0.15960665612 0.15919258541 0.15896672969 0.15896003449 0.15920102932 0.1596597657 0.1603127016 0.16112729805 
0.16201095617 0.16297640623 0.16392141051 0.16481272555 0.16557751687 0.16616719905 0.16652772725 0.16610636945 0.16547155272 
0.16467704382 0.16379911179 0.16277850594 0.16180044096 0.16091801717 0.16009556268 0.15943442295 0.15898612307 0.15874401925 
0.1587903171 0.15906383549 0.15957922816 0.16019115437 0.16084127782 0.16150828982 0.16198566764 0.16227890723 0.16223533787 
0.1619198568 0.16124893356 0.16026419395 0.15899208468 0.15749781442 0.15572506084 0.15388089536 0.15196147442 0.15018344063 
0.14845586307 0.14710329696 0.14601584096 0.14517546069 0.14490170147 0.14503186371 0.14570906208 0.14683187445 0.1489485573 
0.15206890878 0.15737248778 0.16625359918 0.18304117344 0.20475536171 0.18759893963 0.18200413444 0.17423533598 0.18612377925 
0.19426222387 0.18157261441 0.17976967484 0.17966287875 0.17930301583 0.17870367328 0.17877166516 0.17776124349 0.17752238306 
0.17697916056 0.17745329504 0.17751788688 0.17796085492 0.17865334058 0.17900588122 0.17952597562 0.18164330623 0.18413817335 
0.18769332944 0.19369413795 0.20352393968 0.22035985505 0.34382668855 0.19024268722 0.15103842435 0.12352653438 0.11370350987 
0.11068851085 0.10976091787 0.10937354807 0.10961651502 0.11054648683 0.11187669103 0.11492772824 0.12592618063 0.15362935733 
0.19005167277 0.34911747738 0.18518965491 0.14648650826 0.1223590447 0.11495083421 0.11165555822 0.11018797195 0.10957202083 
0.10950007676 0.10968048597 0.11114172506 0.11426157944 0.12471854628 0.15206779533 0.17917197007 0.18895146458 0.19996697892 
0.16653279587 0.22555151779 0.21114138132 0.16703918224 0.16665484961 0.16854950506 0.16941995957 0.17030340017 0.17127664365 
0.17221107994 0.17317549701 0.17398538232 0.17457678084 0.17494797844 0.17510401001 0.17493534833 0.17451563593 0.17391072724 
0.1731239463 0.1722467535 0.17130288718 0.17034013624 0.16940582111 0.16860839616 0.16783938588 0.16721912853 0.16678062807 
0.17084065804 0.16631710381 0.2337730843 0.17987254807 0.19120053418 0.16420779889 0.15961234844 0.15637612428 0.15418431767 
0.15264041662 0.15177913784 0.15118045106 0.15097811638 0.15118461765 0.15173224277 0.15254433394 0.15345764786 0.15460640492 
0.15583449208 0.15697473206 0.15799583777 0.15886873821 0.1595547824 0.16000963794 0.16027267327 0.16037558322 0.16031821197 
0.16014131252 0.15979668781 0.15936018422 0.15915888921 0.15906564615 0.15907139861 0.15922529217 0.15954671574 0.16003453974 
0.16063823973 0.16133685423 0.16213245346 0.16294502935 0.16384672017 0.16475184402 0.16557745847 0.16623463219 0.15799215819 
0.23556769273 0.16118349043 0.16584635511 0.165209163 0.16439870984 0.16354381208 0.16261209914 0.16182794996 0.16104773696 
0.1603217565 0.15975148517 0.15931426952 0.15905667352 0.15899014233 0.15908399775 0.15929577334 0.1595953886 0.16004891396 
0.16040837804 0.16062061265 0.16065029776 0.16045893974 0.16008165564 0.15944487971 0.15859240073 0.15754108624 0.15635043579 
0.15500375873 0.15361889769 0.15248564458 0.15149056733 0.15059599992 0.1500810187 0.1498213286 0.15007619362 0.15074939846 
0.1516364294 0.15301701781 0.15528194036 0.15820566296 0.16303356934 0.16955435666 0.18037587448 0.19197018646 0.17332465312 
0.17993343704 0.16840012443 0.16647326174 0.16493541716 0.16416970074 0.16366149758 0.16350407018 0.16357505989 0.16338250644 
0.16334518063 0.16315094277 0.16320137133 0.16314002506 0.16334549565 0.16362576584 0.16377084937 0.16442658918 0.16553447287 
0.16721833814 0.17003551703 0.17387685729 0.18039217496 0.16114434082 0.16546301706 0.23225408625 0.14866870829 0.13514350153 
0.12559141289 0.12119659635 0.11961114487 0.11929622177 0.12018064905 0.12212175941 0.12747211663 0.13826460595 0.15085740084 
0.16014856825 0.14794280332 0.13465252081 0.1258022702 0.12209398043 0.12039246165 0.11970499189 0.12004211183 0.12197324098 
0.12594799125 0.13565014814 0.14893412472 0.15687658672 0.22461891859 0.16772173893 0.15914769706 0.16540006779 0.18883022684 
0.18653952524 0.16510045435 0.18460694151 0.17908874153 0.20111534579 0.17007974108 0.16833258071 0.17108512896 0.17210306556 
0.17301704565 0.17378003336 0.17430306347 0.17457316559 0.17455731746 0.1742566884 0.17367457716 0.17292425108 0.17206072442 
0.1710984324 0.17011905408 0.16921945503 0.16835536196 0.16759412293 0.16695293578 0.16651138484 0.19752203462 0.16685461444 
0.15569621045 0.19970902714 0.17102047918 0.1612164152 0.15907807552 0.15730495958 0.15610046445 0.15520647453 0.15459429866 
0.15430626426 0.15429045083 0.15453292198 0.15492685597 0.15573045068 0.15661527074 0.15735610731 0.15797995339 0.15841312454 
0.1587291233 0.15894892086 0.15907100228 0.15907077088 0.15895695154 0.15873575202 0.15835560684 0.15821908806 0.15836850864 
0.15860466814 0.15894281921 0.15943420653 0.16004806525 0.16072550202 0.16147817614 0.16229081124 0.16308428192 0.16396605842 
0.1649178652 0.16580652918 0.1667239808 0.15656045556 0.16444930553 0.16346105519 0.16268195755 0.16192406629 0.16113487508 
0.16037715266 0.15976479096 0.15923625399 0.15886382412 0.15862509429 0.1585176032 0.15847934621 0.15877460108 0.1590972126 
0.15928866472 0.15941194642 0.15932742825 0.15913165468 0.15879476154 0.1583197638 0.15763466923 0.15679868814 0.15590921997 
0.15486014571 0.1541057992 0.15385432893 0.15357166802 0.1533039537 0.15349103433 0.1542968436 0.15521283376 0.15634878011 
0.15764950487 0.15972523715 0.16242497195 0.16603520722 0.17076570407 0.17623574564 0.16890678116 0.17130291115 0.15475963184 
0.16451062817 0.16449646794 0.16784447549 0.16736759913 0.16690329719 0.16655866171 0.16651849706 0.16675927298 0.16678924561 
0.16665647245 0.16663908398 0.16670351002 0.16669610372 0.16663696167 0.16655222776 0.16677643036 0.16737900861 0.16842424662 
0.1700817684 0.17245987587 0.17592493077 0.15385623886 0.16128142574 0.16378234251 0.21585873528 0.1482597526 0.14192568301 
0.1362052389 0.13156069355 0.1296399253 0.12981311743 0.13217330986 0.1373400713 0.14456325279 0.15136393813 0.14858267425 
0.19077771852 0.14173424188 0.13607644208 0.13250552744 0.13043269444 0.13031770711 0.13232023993 0.13627078367 0.14226690458 
0.14851360821 0.15181145617 0.21164465635 0.16918027073 0.16528389168 0.15221210401 0.16598158957 0.16767172708 0.17647868884 
0.1574871768 0.17320229728 0.17379732276 0.17654677875 0.17142314554 0.15458974327 0.18791150616 0.16977338066 0.1732517223 
0.17406046338 0.17455560753 0.17476034366 0.17455295623 0.17400857846 0.17313406626 0.17210248198 0.17098294697 0.16985286426 
0.16878751618 0.16786829058 0.16703675183 0.16639374025 0.15179651718 0.1532377544 0.16291290629 0.16130812075 0.16273365617 
0.16455024047 0.15976140351 0.15851852149 0.15739077895 0.15658988186 0.15602729067 0.15571264513 0.15554779138 0.15630206131 
0.15691569344 0.15725477088 0.1574092311 0.15748387085 0.15752322702 0.15760951164 0.15768325188 0.15763331761 0.15746297649 
0.15712350242 0.15683765846 0.15720772544 0.1576280481 0.15824677532 0.15897836799 0.15982612827 0.16073807887 0.16159217715 
0.16250928182 0.16339737626 0.16424541972 0.16532356085 0.16625621151 0.16706050158 0.15602152062 0.18234821002 0.1692410843 
0.15298745689 0.19660418429 0.16088051258 0.16361964526 0.16470534289 0.16210429203 0.16119291028 0.16031926055 0.15952930493 
0.15883488943 0.15825723639 0.15784810265 0.15750641783 0.15738321042 0.15777772331 0.15803280071 0.15815815654 0.15817675631 
0.15815023938 0.15804132802 0.15786721876 0.15758615001 0.1570520123 0.15640809178 0.15568269463 0.1550558513 0.15539102297 
0.15565746249 0.15590343176 0.15643097586 0.15762364617 0.15889491346 0.16016209103 0.16144545945 0.16292317861 0.16521011341 
0.16751596172 0.1702583346 0.1624757548 0.17066250986 0.16932536749 0.15820054179 0.16347822984 0.17033586431 0.17763032892 
0.16940410766 0.16926176965 0.16893751317 0.16981751004 0.17027232233 0.1701271712 0.16991355057 0.17007121013 0.17017199203 
0.16989592894 0.16953129772 0.16914351471 0.16903437117 0.16924818825 0.16959310688 0.15456506715 0.17220789168 0.15793567697 
0.15710680486 0.16564889056 0.17101628156 0.19279988696 0.14801922261 0.14429923805 0.14166819675 0.14085039003 0.14143633651 
0.14477110094 0.14917055597 0.15289288202 0.15346975913 0.14707079297 0.14406912517 0.14204617437 0.14143702589 0.1424355595 
0.1442956222 0.14722154919 0.15016574568 0.15161383827 0.19531832464 0.19641186835 0.15029976586 0.15074584513 0.16431240488 
0.18533790791 0.16779385455 0.16650033564 0.16673797331 0.16760648422 0.15413821622 0.16872899186 0.1682347873 0.17068371732 
0.17765518437 0.17239059128 0.16948136764 0.17419870387 0.17534209319 0.17504583328 0.17395068952 0.17278104057 0.1710313428 
0.16973474537 0.16826452208 0.16718848362 0.16625147587 0.15384199939 0.16999053057 0.16446149708 0.16064751723 0.1588037896 
0.15794344044 0.15681845944 0.15614315777 0.15549040136 0.15606385921 0.156181022 0.15598388757 0.15547939195 0.1551822013 
0.1550711633 0.15508437581 0.15535708065 0.15567224985 0.15560470406 0.15517582175 0.15574450798 0.15613566049 0.15734588109 
0.15823574948 0.15953693069 0.16093379819 0.16210393692 0.16287746345 0.16385290479 0.16479940878 0.16606375149 0.16701909154 
0.16250656727 0.16408960688 0.16105017426 0.16343767845 0.16525286744 0.16124556835 0.16004310812 0.15911114307 0.15820561845 
0.15738780935 0.15665239063 0.15608608474 0.15618438596 0.15635373544 0.15644381569 0.15649696147 0.15639968535 0.15637740069 
0.15669364095 0.15689496948 0.15691169728 0.15644419042 0.15557114946 0.15659216233 0.15762652313 0.15815861505 0.15988248084 
0.16181699058 0.16344887586 0.16482665405 0.16580881498 0.16663816317 0.16871806541 0.15639113982 0.15538487605 0.15827368868 
0.17100718393 0.17125506496 0.18606299093 0.17334558987 0.17402391371 0.17311261699 0.17295773552 0.17386245239 0.17322346139 
0.17235879926 0.17150444615 0.17048991105 0.16992288977 0.16905982611 0.1864499216 0.19009765681 0.17191771254 0.15515798489 
0.15712820667 0.17282082837 0.16596681657 0.15200487887 0.15283238041 0.14929786452 0.15150758134 0.14817308465 0.1500488084 
0.15247638572 0.15473583433 0.15482212376 0.16249181855 0.15903719398 0.16025185419 0.18100676138 0.15069426878 0.15017940072 
0.15001611779 0.15072118579 0.15190048968 0.15307406469 0.1534236134 0.17561322401 0.17490031012 0.16471908164 0.17787632591 
0.16256910752 0.1547076595 0.16876893732 0.16953233311 0.16422871783 0.16670249207 0.16460256868 0.16809842812 0.15351826855 
0.15314935865 0.17403936922 0.15365983209 0.17124434766 0.15395820648 0.15468730761 0.17113616033 0.18705624286 0.18386319414 
0.16760654834 0.15597945699 0.17162712273 0.16803286946 0.16628197982 0.17433478681 0.18320167843 0.15898709488 0.16168045944 
0.16383204614 0.1646538475 0.16543564248 0.16726974886 0.164736995 0.18003072016 0.16114275062 0.16337050071 0.15802485869 
0.16490562708 0.15764023349 0.16051182209 0.1636036051 0.16649812167 0.168082211 0.16861051046 0.16878233366 0.1667906547 
0.17783483911 0.17478343834 0.17091623229 0.15701124297 0.17529686659 0.1765763533 0.1772850212 0.1750769338 0.17378566962 
0.1715216366 0.16989244613 0.17013919486 0.18280165382 0.17777397454 0.1751848437 0.17203075678 0.17308149228 0.16674287757 
0.18105355755 0.16966604149 0.17742908178 0.15622894205 0.1591875297 0.15515031538 0.154551595 0.15389366279 0.15478421355 
0.15589952118 0.17766926668 0.17525762001 0.15355817302 0.16866973228 0.1767704874 0.16960797381 0.17963007495 0.16762953032 
0.1728724945 0.17177802388 0.17727412056 0.17170274838 0.1735523641 0.14447777809 0.29151340636 0.29168474557 0.23427572596 
0.15432952212 0.13342040383 0.1199674332 0.11327311741 0.10640137028 0.1035758542 0.10076627962 0.0986453384 0.098208519123 
0.097949952864 0.096623839256 0.097397642982 0.098041151434 0.098112221261 0.098222798555 0.098781151601 0.099566991936 0.10057673469 
0.10284770206 0.10511438429 0.10738641037 0.11025749159 0.11393726868 0.11929530244 0.13130957006 0.15159507482 0.23057328528 
0.23396984435 0.14612400175 0.12665054088 0.11819157749 0.12307024613 0.11301120241 0.11159121717 0.10719145586 0.10498730327 
0.10288458731 0.10008619838 0.099737081046 0.099432267142 0.098510916766 0.098055636324 0.098848469895 0.10035541376 0.10145439428 
0.1039244543 0.10608465262 0.10942627083 0.11344265311 0.11821147408 0.12538522517 0.13563092256 0.15421126976 0.21763127998 
0.16666789683 0.16668514821 0.16684665747 0.16750135593 0.16841437352 0.16949423108 0.17075189242 0.17213154753 0.17350883822 
0.17479067844 0.1759249705 0.17694036075 0.17761195208 0.17800826474 0.17801075979 0.17765751375 0.17697206517 0.17597982191 
0.17483363114 0.1733913698 0.17194569877 0.17058974304 0.1693088813 0.16821263215 0.16736073747 0.16677833003 0.1666708623 
0.16669952471 0.26601515847 0.18680222298 0.16151961988 0.15101085186 0.1448991188 0.14145074734 0.13962365231 0.13884882266 
0.13876484664 0.13918949662 0.14007709827 0.14134936846 0.14295499651 0.14484603371 0.14714881454 0.14975665278 0.15254302748 
0.15526114304 0.15772191158 0.15991398197 0.16180470783 0.1631977731 0.16417520552 0.16469645901 0.1647763767 0.16441714223 
0.16366867805 0.16267374122 0.16155672247 0.16043101785 0.15943946227 0.15867441582 0.15817724072 0.15800705337 0.15818429688 
0.15867451247 0.15947436928 0.16049493673 0.16162613674 0.16281032263 0.16399874431 0.16505456343 0.16593625095 0.16655160317 
0.16676105329 0.16675022021 0.16673898664 0.16675742127 0.16653131563 0.16595819061 0.16511553226 0.1640084206 0.16278200527 
0.16160670884 0.16045226691 0.15938183943 0.15855661021 0.15803582458 0.15784870457 0.15804822447 0.15856481901 0.1593535997 
0.16036277597 0.16155658198 0.16274908211 0.16373153973 0.16439459476 0.16468951636 0.16455466572 0.16395150241 0.16294894094 
0.16145013655 0.15950015147 0.15718722722 0.15462075988 0.15187690487 0.14919891792 0.1467143752 0.14441347371 0.14248004841 
0.14092515282 0.13969088241 0.13884466413 0.13851118511 0.13873244784 0.13961198865 0.14149051866 0.1449409167 0.15099790923 
0.16191516377 0.18890510112 0.29696490666 0.4681162512 0.37408852713 0.38420983427 0.42408939512 0.44674195193 0.58084470809 
0.59284080296 0.59867545517 0.5986872342 0.5924469554 0.46148704683 0.44507133822 0.42611834322 0.48472651442 0.49224060103 
0.44434313672 0.45306855676 0.38826020045 0.4209194967 0.44553093018 0.46198947048 0.47197882482 0.47657706066 0.47652032979 
0.47180076674 0.46088569727 0.44411906791 0.42038930565 0.39654161727 0.40815448837 0.16663872506 0.1666668985 0.1668306553 
0.16738640596 0.16823653032 0.16929715091 0.17055277382 0.17192614599 0.17328999369 0.17471048751 0.17603413077 0.17701151436 
0.17769310879 0.17802811127 0.17800970883 0.17763716672 0.17691940525 0.17596872301 0.17474736441 0.17342881796 0.17202362899 
0.17064851036 0.1693954794 0.16829687688 0.16741249698 0.16682971882 0.16667718509 0.16669048208 0.30701833597 0.18736745112 
0.16339281544 0.15191886376 0.1453070452 0.14170909375 0.13975099799 0.13882241566 0.13860409222 0.13898140947 0.13982512687 
0.14110624813 0.14271162938 0.14462779253 0.14680002538 0.14922999368 0.15177015872 0.15427411433 0.15674772291 0.15911948409 
0.16115014874 0.16277018505 0.16390927932 0.16459358298 0.16480635974 0.16457819891 0.16399597182 0.16306354128 0.16193848281 
0.16083627356 0.15978422991 0.15891966434 0.15834112888 0.15807665571 0.15818665675 0.15864390683 0.15938179705 0.16034101842 
0.1614765211 0.16262628404 0.16379499912 0.16491606544 0.1658335731 0.16647793237 0.16678168085 0.16673406615 0.16672923256 
0.16678102829 0.16646047268 0.1658025943 0.16492160836 0.16383800499 0.16263085022 0.16146270634 0.16032774152 0.15933256776 
0.15857516491 0.15806209364 0.1579130718 0.15813431379 0.15870265346 0.15955542376 0.16060947723 0.16180335705 0.16291429376 
0.16385412132 0.16448136034 0.164687372 0.16438206347 0.16360800778 0.16230844527 0.160628486 0.15865750171 0.15623985336 
0.15367552549 0.15115993253 0.14850736195 0.14598194343 0.14382580411 0.14203251723 0.14056078748 0.13947304511 0.13880322738 
0.13855991877 0.13884411246 0.13988194373 0.14188189009 0.14556361824 0.15232314068 0.16421919692 0.19082930815 0.28843188952 
0.50069689243 0.45570989828 0.40042993516 0.42231826821 0.44401810763 0.46070127611 0.47111994965 0.47631245799 0.47707917429 
0.47273719822 0.46256439739 0.44671755577 0.42360891383 0.39455316783 0.47621962864 0.51752763042 0.50265228199 0.40833612742 
0.42972884955 0.45145420985 0.58544696849 0.59590018706 0.59932860617 0.59732928382 0.58950464138 0.45869926763 0.44256870724 
0.52324232454 0.4874690588 0.45309375894 0.16669318708 0.16669139811 0.39842058867 0.39233985568 0.43089528411 0.41176276238 
0.20961885365 0.20663180258 0.14774032212 0.11461045224 0.10673064177 0.098993210164 0.09150267709 0.094242258312 0.087020218702 
0.087072864896 0.08493967804 0.076546496967 0.074731424338 0.081391616357 0.074945014712 0.078567315067 0.07363329418 0.075818079073 
0.071491408277 0.073805923525 0.069689151627 0.073188056224 0.068645881928 0.072288613841 0.067583551396 0.071333080012 0.067159342954 
0.071125026934 0.067286200897 0.070893431354 0.068145381197 0.07107106846 0.069044858118 0.071379790191 0.070531915809 0.072240435547 
0.072281448849 0.073236710792 0.073678917736 0.075351443484 0.076217189347 0.077566284537 0.079095612971 0.080837267918 0.082573877563 
0.085346238663 0.087209444657 0.090241110847 0.092936282674 0.097836360912 0.10126491321 0.10796396967 0.11591086607 0.14437145309 
0.16668180665 0.16667551154 0.16672078192 0.1668996016 0.16714167206 0.16691922481 0.16744730711 0.16784330052 0.16738228002 
0.16822273908 0.16870861722 0.16808111667 0.16916868766 0.16973230418 0.16891556373 0.1702405416 0.17089953716 0.16987074008 
0.17147605614 0.1721574344 0.17094430301 0.17270674991 0.17336062438 0.17205933315 0.17390417794 0.17449966361 0.17313809873 
0.17497144643 0.17547362265 0.17413110771 0.17585773517 0.17630668906 0.17498608657 0.17658442536 0.17683175675 0.17564890584 
0.17699479929 0.17709476164 0.17607527467 0.17710310634 0.17701948699 0.17624390296 0.17687339956 0.17662223234 0.17611689139 
0.17632348626 0.17590881195 0.17569219757 0.17553847416 0.17503493307 0.17502288291 0.17454382723 0.17391350049 0.1741920989 
0.17335317333 0.17259847608 0.17314937987 0.17202853243 0.17138028042 0.17202724124 0.17079921534 0.1701272279 0.17087963955 
0.16960682335 0.16903367497 0.16978934857 0.16858298006 0.16809384114 0.1688330891 0.16772364721 0.16736917335 0.16801526108 
0.16711052962 0.16691050533 0.16739109864 0.16675219699 0.16668822538 0.1669481203 0.16664297605 0.16666509128 0.16670274133 
0.16671103299 0.22306717495 0.2220962286 0.19184642867 0.17596882501 0.16765194925 0.19195709801 0.16040086154 0.15636944211 
0.1707063882 0.15221776664 0.14970292273 0.15995176986 0.14741485261 0.14607176984 0.15363813206 0.14452104381 0.14381344823 
0.14981382345 0.14299984259 0.14279403269 0.14740744215 0.14241110261 0.14246091712 0.14623885456 0.14219439903 0.14249783148 
0.14555568303 0.14262341424 0.1431226244 0.14539515445 0.14344785933 0.14416489454 0.14579734696 0.1446134768 0.14540796411 
0.14652626195 0.14599824865 0.14709119583 0.14755454188 0.14788646792 0.14903136997 0.1488831163 0.14993777133 0.15132519675 
0.15057059464 0.15231151102 0.15360580027 0.15243425178 0.15453379181 0.15583699823 0.15431322997 0.15676906179 0.15782564141 
0.15613017236 0.15866890189 0.15971093461 0.15785233175 0.16040605903 0.16117955219 0.15933754001 0.16172678337 0.16230178921 
0.16053895107 0.16271506646 0.16309168499 0.16147035318 0.16332909803 0.16346973432 0.1620974221 0.16354777242 0.16348822202 
0.16240611993 0.16339833033 0.1631216642 0.16237876202 0.16293386614 0.16252431574 0.16210311847 0.16225537843 0.16174171793 
0.1616522083 0.16138310041 0.16084769203 0.16103008288 0.16049792545 0.15995808025 0.16032285565 0.15969007357 0.15926849584 
0.15970388931 0.15905764479 0.15873672812 0.1592206124 0.1586331211 0.15846730415 0.15889787854 0.15848381175 0.158490279 
0.15880844137 0.15862695993 0.15878564902 0.15896408946 0.15902459981 0.15935138751 0.15935039207 0.15968862594 0.16014126084 
0.1599369548 0.16054273253 0.16108346144 0.16068559443 0.16155316659 0.16211601219 0.16156384091 0.16261993009 0.16320988057 
0.16253837477 0.16370212842 0.16425626627 0.16353720566 0.16468622785 0.16514775928 0.16445447805 0.16553752226 0.16592240536 
0.16526755487 0.16620107105 0.16642671199 0.16592842347 0.16659740084 0.16664474582 0.1663663196 0.47926946871 0.16663406204 
0.1663742378 0.16616720407 0.16591761661 0.16555394548 0.16585596788 0.16517020305 0.16470296267 0.16522735244 0.16424687489 
0.16363143681 0.16438665347 0.16311518316 0.16253767763 0.1634177762 0.16203709483 0.16146370197 0.16239793465 0.16099635609 
0.16044167701 0.16142877906 0.15999821614 0.15951426601 0.16051199945 0.15916495441 0.15884514399 0.15971607307 0.15861373047 
0.15843436181 0.1591294167 0.15831666013 0.15831908001 0.15877288542 0.15833479327 0.15851383815 0.15865714338 0.1586427474 
0.158959328 0.15879168808 0.15918237722 0.15963497504 0.15913844908 0.15995714285 0.16048694036 0.15968341516 0.16084371805 
0.16145314721 0.16036409081 0.1617795962 0.16228539215 0.16105215985 0.16255590179 0.16295843361 0.1616408871 0.16311982845 
0.16332429751 0.16206057039 0.16339116338 0.16342052998 0.16226969598 0.16333246083 0.1631291004 0.1622248377 0.16290421558 
0.16250056666 0.16190200522 0.16209310052 0.16150352307 0.16127447065 0.16086274836 0.15996638596 0.16024014727 0.15921187933 
0.1582087753 0.15886086637 0.15734874478 0.15610615863 0.15727676562 0.15513676815 0.15390649656 0.15548888345 0.15286477551 
0.15144418678 0.15352249522 0.15054647759 0.14936587553 0.15161426534 0.14847692667 0.14723060266 0.14984261111 0.14648455203 
0.14547372447 0.14821651987 0.14487679051 0.14399632768 0.14688410517 0.14352098821 0.14287359853 0.14583710364 0.14256809698 
0.14203729452 0.14508589701 0.14195209657 0.14168084384 0.14471684989 0.14199456893 0.14199498257 0.14494825169 0.14264610125 
0.14294746592 0.14592995186 0.14394417535 0.14465293684 0.14761053899 0.14603066248 0.1474213901 0.15002504898 0.14983446121 
0.15218558973 0.15380525333 0.15650250138 0.16095889091 0.16039025525 0.16845027389 0.17842369863 0.17245479026 0.19472694807 
0.25780735769 0.19565596532 0.2283861257 0.18383913904 0.17666102821 0.17048327675 0.1662045021 0.22297905662 0.16299394802 
0.15621811151 0.21087870796 0.15087285161 0.15187934479 0.1812470988 0.14845444021 0.14478222745 0.16834077479 0.14976289112 
0.14509334579 0.16313415323 0.14466646328 0.14303053344 0.16879587154 0.14412254982 0.14295061595 0.16770728618 0.14413062803 
0.14290826988 0.16718130837 0.1430462236 0.14215774992 0.16754697929 0.14294088272 0.14237966924 0.16730587033 0.142262162 
0.14183644409 0.16748501482 0.14193597125 0.1420329706 0.1681027769 0.14194474968 0.14257372918 0.16850480176 0.14191575626 
0.14311280208 0.16889148328 0.14225643297 0.14356718977 0.16809288339 0.1420488605 0.14369974536 0.1675285013 0.14301124515 
0.1447637226 0.1671875125 0.1429584361 0.14524454653 0.16774252231 0.14420473549 0.1470075422 0.16792930032 0.145694895 
0.14890010706 0.16914808077 0.14812465565 0.15179020724 0.17118065276 0.15282964875 0.15739106965 0.17505319211 0.15975811662 
0.16567622734 0.18245750788 0.17186582594 0.184853487 0.19454259822 0.2982285257 0.31019912965 0.16544673674 0.20384464885 
0.12575581222 0.14684103673 0.16740576587 0.10857971561 0.11162852209 0.13580412636 0.10473160118 0.10428061821 0.11662469093 
0.10366931334 0.10302630645 0.11203374051 0.1034207027 0.10304504302 0.1101730649 0.10343347782 0.10329050851 0.1094259857 
0.10320195228 0.10340188399 0.10926513719 0.10302294779 0.10357729709 0.10947446964 0.10350332685 0.10424673136 0.11048496737 
0.10570085256 0.1061991148 0.11333922367 0.11537184567 0.11109056542 0.1201558485 0.15165914397 0.13116321635 0.14011058693 
0.21037167033 0.17038529657 0.17291995204 0.30800068204 0.30886220163 0.17229618538 0.21309310478 0.12747050623 0.14750764054 
0.16917760329 0.1087362673 0.11255585199 0.13576655527 0.10480466586 0.10419455905 0.1164427602 0.10359813538 0.10282017858 
0.1114295741 0.10307496732 0.10270115687 0.10920399939 0.10294767311 0.10282960458 0.10823122978 0.10272495451 0.10290760567 
0.10795478496 0.10245324096 0.10293546589 0.10806616263 0.10239878189 0.10308759514 0.10876869363 0.10350518108 0.10393486695 
0.11064470001 0.11091476418 0.10752053468 0.11523893401 0.14137852336 0.12619225256 0.13485711089 0.21205630781 0.16660499816 
0.16958249978 0.16668884425 0.19497146942 0.25197168038 0.23769734216 0.2473999365 0.24623536732 0.20243950911 0.17482814366 
0.25379773877 0.25825315388 0.18410538502 0.24052591782 0.24298850497 0.18747097341 0.17912773447 0.23559977651 0.20650374065 
0.26530144093 0.22035972764 0.16719343617 0.1675165736 0.16778354917 0.16816681265 0.16755165729 0.16850141436 0.16895714625 
0.16818002607 0.16936731967 0.16987501831 0.16893412698 0.17034869132 0.17092773479 0.16983846651 0.17143102706 0.17197618352 
0.17084056989 0.17246844839 0.17300332558 0.17186282741 0.17344590772 0.17391145311 0.17282393999 0.17427079176 0.17465772431 
0.17365593052 0.17494436362 0.17522860544 0.17433663238 0.17540981552 0.17558061629 0.17482820278 0.17563892842 0.17565818026 
0.17509637972 0.17559844354 0.17546565315 0.17511108305 0.17525280532 0.17497647857 0.17484661634 0.17469591531 0.17432872311 
0.17435213741 0.17397278659 0.1735009283 0.17370307672 0.17301600974 0.17245351506 0.1728470617 0.17196001451 0.17138607774 
0.17184786579 0.1708917922 0.17032083166 0.1708363072 0.16984842545 0.16933348562 0.1698495031 0.16891725911 0.16846379368 
0.16893513323 0.16811859001 0.16775754262 0.16816880723 0.16747929978 0.16721602606 0.16752898638 0.16700813814 0.16682848425 
0.16704839614 0.13780743022 0.14913827585 0.20148809152 0.1977917357 0.18681010832 0.16663407447 0.17806802881 0.17104306659 
0.16629406865 0.16203674385 0.17124943267 0.15912712835 0.15693705089 0.16436777964 0.15480662566 0.15326032673 0.15952799974 
0.15166083565 0.15087231441 0.15605697524 0.14977283939 0.14930800795 0.15339734883 0.14871025697 0.14845584729 0.15192360205 
0.14809227763 0.14820082741 0.15100231702 0.14805912523 0.14835811894 0.15054692283 0.14837201341 0.1488077339 0.15044646552 
0.14901469298 0.14958463629 0.15070048101 0.14990276493 0.15067396851 0.15124307676 0.151163916 0.15202988445 0.15206875738 
0.1525952818 0.15353824101 0.15310652796 0.15416628779 0.15504972699 0.15426215418 0.15572610523 0.15660381189 0.15556241047 
0.15726474498 0.15804826457 0.15687582301 0.15858553419 0.15922734166 0.1580360635 0.1596603564 0.16015811853 0.15896604123 
0.16050854088 0.16087802324 0.15970548362 0.16113030589 0.1613392994 0.16026206693 0.16149818133 0.16155382445 0.16062682232 
0.16161757076 0.16151271833 0.16080549005 0.16145504701 0.16126471762 0.16077718138 0.16112779679 0.16086094772 0.16054698722 
0.16066662139 0.16031589196 0.16018971656 0.16009950933 0.15978446708 0.15974551609 0.15961642417 0.1593741947 0.15937816561 
0.15926903578 0.15909471771 0.15914449877 0.15904377295 0.15897135814 0.15903611826 0.15900445552 0.15904805495 0.15907808013 
0.15917987241 0.15934191756 0.1593007111 0.15955043021 0.15981062645 0.15969697132 0.16010135166 0.16045083727 0.16023999691 
0.16078595503 0.16119261626 0.16090356982 0.1615761887 0.16204102264 0.16164750635 0.16245078639 0.16295801069 0.16245365074 
0.16343655606 0.16392722666 0.16335792733 0.16434378312 0.16476772094 0.16427351221 0.16516294523 0.16554443866 0.1651017642 
0.16587963403 0.16615714234 0.1658286112 0.16643076845 0.16658888604 0.16644193075 0.15979288696 0.17570043779 0.19811007861 
0.18456991218 0.18192149146 0.16604034052 0.16577747625 0.1654618933 0.1650721332 0.16566749882 0.16469271912 0.16422996823 
0.16495884802 0.16378191223 0.16325792461 0.16411036566 0.16277813322 0.16227444422 0.16315187834 0.16188052197 0.16141271362 
0.1622527837 0.16100863795 0.16056141119 0.16142135528 0.16021277298 0.15985591936 0.16064822569 0.15958455585 0.15933473934 
0.15999710767 0.15912315534 0.15900116361 0.15948261303 0.1588731037 0.15888584954 0.15910043844 0.15883791976 0.15896699437 
0.1589260231 0.15899117608 0.15922099553 0.15892611628 0.15930302545 0.15962725082 0.15906571819 0.15975754493 0.16012305017 
0.15931879848 0.16034349923 0.16068338797 0.15973689046 0.16083350014 0.16110552636 0.16016430849 0.16119896943 0.16136248187 
0.16045623115 0.16141191468 0.16146874812 0.16063147856 0.16141985304 0.16132548319 0.16065833773 0.16117940283 0.16095114333 
0.16047612809 0.16069725225 0.16029288606 0.16008651448 0.15989299795 0.15926715454 0.15943859896 0.15874328346 0.15800422562 
0.1585235347 0.15744835124 0.1566055866 0.15743272381 0.15594609108 0.1550005672 0.15620275334 0.15430326794 0.15329140908 
0.15482333123 0.15265543874 0.15175745747 0.15341901658 0.15126676087 0.15037787644 0.15227617784 0.14995765491 0.14920193785 
0.15129513589 0.14887882158 0.14827614232 0.15049232676 0.14806948853 0.14759785423 0.14990305376 0.14759658478 0.14730095463 
0.14964260662 0.1475936614 0.14752834519 0.14986165788 0.14807428019 0.14839681918 0.15067043718 0.14921013778 0.14989966131 
0.15192467911 0.15100988326 0.15203743436 0.15385774578 0.153595245 0.15503861269 0.15631603601 0.15728632697 0.15982597326 
0.15994404175 0.16329951916 0.16809596424 0.16538197053 0.17276393737 0.18143272383 0.18517996294 0.17389518079 0.16674401218 
0.18818371302 0.18831717556 0.21646360721 0.26165691325 0.22944850567 0.18363497631 0.1766371197 0.17371229912 0.17232549119 
0.17661906552 0.16635195368 0.16593396784 0.17095458047 0.1643812042 0.16549340434 0.1676742422 0.16301629547 0.16440309836 
0.16521927455 0.16224064711 0.16302250125 0.16439760527 0.16149809212 0.16226702666 0.16393713249 0.16100580188 0.16235834082 
0.16360360821 0.16135093673 0.16208400406 0.16343953488 0.16136109004 0.162033964 0.16350163494 0.1615279463 0.16215810987 
0.16346302498 0.16201163613 0.1622364102 0.16335077354 0.16219124143 0.16176092229 0.16336544743 0.16213739299 0.16135812605 
0.163382723 0.16198609503 0.1611238003 0.16341149924 0.1620374182 0.16095457034 0.16346167337 0.16227911102 0.16133956581 
0.16353980841 0.16311497427 0.16197701212 0.16409356614 0.16431002046 0.16327526427 0.16503659076 0.16639242187 0.16585517792 
0.16689760253 0.16998579559 0.17031462835 0.169863739 0.1759601435 0.17815657492 0.17465166527 0.18644842481 0.26047052349 
0.22633099075 0.15540116489 0.16418514665 0.15551351062 0.15305229903 0.11788328562 0.11928001565 0.11564446245 0.11625959341 
0.1231256955 0.11459877647 0.11484254148 0.12077686725 0.1142471514 0.11433289355 0.11966026313 0.11501436402 0.11470826918 
0.11967511016 0.11711089355 0.11629174182 0.12120502601 0.12161179007 0.11942874583 0.12449304235 0.1337380451 0.1269342107 
0.13247280899 0.15386490652 0.14210749513 0.1453155946 0.16723511736 0.16207252883 0.15735573653 0.18522199057 0.16660866765 
0.17381774664 0.16090553767 0.16719028279 0.17956512605 0.1580886733 0.16895410735 0.11701123979 0.11877759842 0.11425825378 
0.11511989205 0.12173501671 0.11306130576 0.11333307433 0.11899608928 0.11248262282 0.11248182353 0.11755475283 0.11278109312 
0.11252539581 0.11713379081 0.11423161182 0.1135483459 0.11802677908 0.11750550803 0.11602362947 0.12053612258 0.12771505471 
0.1213744331 0.12687710578 0.14807376833 0.13672116238 0.140131711 0.16598132641 0.15615074229 0.15433161997 0.21892734165 
0.25798881184 0.22695257819 0.16691630225 0.12311353993 0.12973659252 0.12930550025 0.13807407388 0.14956396575 0.15629656749 
0.12325707436 0.1298277017 0.14177815315 0.12882624845 0.18248995658 0.14157630894 0.16662850402 0.16655964591 0.16648538629 
0.16663864813 0.20355934273 0.19456242632 0.18709026249 0.16627224213 0.18840289743 0.17066932008 0.18513957846 0.19823366157 
0.20399745943 0.16622782593 0.16697915965 0.1616782176 0.17867356616 0.15601645338 0.17351667454 0.18875914437 0.16026727202 
0.19794594258 0.17040621667 0.15240487653 0.15801503011 0.15691142665 0.15274676181 0.16767766862 0.16802521653 0.16837098128 
0.16879203786 0.16785649502 0.16921921808 0.16971693459 0.1686518822 0.17022721571 0.17076257871 0.16961926507 0.17124553483 
0.17176339095 0.17065508113 0.1722559368 0.17272460331 0.17167760539 0.17315468282 0.17352713589 0.17264043022 0.17386936875 
0.17418239585 0.17344519711 0.17441829305 0.17462728841 0.17405291232 0.1747573443 0.17483557151 0.17445664375 0.17482535381 
0.17477389298 0.17459485019 0.17462643134 0.17441752138 0.17444357972 0.17418136181 0.17389556694 0.17404552119 0.17355670261 
0.17318614851 0.17344830326 0.17276426081 0.17225924201 0.17265557993 0.17176602029 0.17123939436 0.17169829258 0.17074846587 
0.17023111186 0.170669209 0.16975758486 0.16926705181 0.16966594497 0.16883981775 0.16840622566 0.16873333377 0.16805185611 
0.16768663378 0.16792082639 0.16740001574 0.1671217789 0.16726771983 0.18053993232 0.17457405118 0.17033534537 0.16810637522 
0.16507329838 0.17032013815 0.16309710433 0.16123804915 0.16624439995 0.15969296082 0.15820774815 0.16291315231 0.1567729075 
0.15581566685 0.16011415097 0.15480314023 0.15424765091 0.15782215731 0.15361256692 0.15331246577 0.1562842297 0.15285619921 
0.15276509068 0.1552929369 0.15243661594 0.15247494634 0.15458555559 0.15227243052 0.15251103103 0.1541084402 0.15249800068 
0.15282608873 0.15394228665 0.15290426307 0.15338197578 0.15403568466 0.15353851605 0.15407614696 0.15428213461 0.15434730277 
0.15498637581 0.15469049794 0.15546788669 0.15613599701 0.15550155865 0.15661248685 0.15724931999 0.15649485355 0.15765646292 
0.1581677004 0.1573925195 0.15848029507 0.15888145301 0.15810831508 0.15913540626 0.1594496437 0.1586660879 0.15963755582 
0.15985112711 0.15909290249 0.15996733148 0.16008736502 0.15937603947 0.16013286539 0.16016115082 0.15951527316 0.16014373129 
0.16005524257 0.15951971131 0.16001135813 0.15984594908 0.15942670333 0.15975868559 0.15953843817 0.15925678179 0.15937577915 
0.15912662299 0.15896197832 0.15906198158 0.15893263111 0.15861046379 0.15893300082 0.15886592388 0.15858252599 0.15890751376 
0.1589058199 0.15865340833 0.15902342725 0.1591052767 0.15884446365 0.1592972292 0.15947451843 0.15919489045 0.15974259455 
0.15998701938 0.15969831993 0.16028816743 0.16060401887 0.16030494731 0.1609490117 0.16130083866 0.16097780334 0.16167493027 
0.16206421919 0.16171392303 0.16245450373 0.1628559154 0.16247635912 0.1633258803 0.16383215727 0.16328999368 0.16430829798 
0.1647379062 0.16430799839 0.16514779464 0.16555842577 0.16522260745 0.1659134406 0.16626096025 0.16601293317 0.16653528967 
0.16680843896 0.16710404076 0.16665349376 0.12606900947 0.12678579478 0.21141688938 0.19519857196 0.18245136832 0.17696264755 
0.17516416609 0.17774414326 0.16995562247 0.16104480333 0.16536972243 0.16496861313 0.16457111971 0.16409091422 0.16498652963 
0.16360775579 0.16308853039 0.16406535048 0.16266091181 0.16225215648 0.16305596979 0.16186673899 0.16144777459 0.16227245176 
0.16106277941 0.16070043118 0.16148589392 0.16036990512 0.16007377642 0.16074754316 0.15974147431 0.15952160727 0.16006991538 
0.1592638486 0.15913035686 0.15945224672 0.15893746569 0.15890190651 0.15901130805 0.15876522359 0.15881456097 0.15869028335 
0.15872075806 0.15883088605 0.15849159472 0.15879368665 0.15895731519 0.15840266951 0.15909531914 0.15937350581 0.15847535073 
0.15951593569 0.15971747889 0.15890834375 0.15978231235 0.15991794966 0.1591861663 0.15996647275 0.16004270778 0.15935199904 
0.16002485337 0.15999200796 0.15941636529 0.15993743564 0.15980174074 0.15936918097 0.1596721566 0.15942354828 0.15919803337 
0.15919413715 0.15879735654 0.15884928056 0.15848948809 0.157966764 0.15831371328 0.15758785413 0.15700843787 0.1576070231 
0.15658866066 0.15590257958 0.15677621206 0.15541841773 0.15469389776 0.15582090181 0.15420179511 0.15359375202 0.1547750595 
0.15337475973 0.15283839075 0.15410969734 0.15268444664 0.15221959835 0.15368024759 0.15214728591 0.15177010628 0.15340370801 
0.15181526667 0.1515790339 0.15329933955 0.15176818677 0.15173807459 0.15346594302 0.15227332154 0.15253018808 0.15412349498 
0.15315476952 0.15369696817 0.15532996599 0.15463021221 0.15545880587 0.15673835659 0.15637092818 0.15754441348 0.15864407564 
0.15871882195 0.16021211771 0.16084291435 0.16185183998 0.16404704641 0.16346100106 0.16624715044 0.16965796451 0.16715012132 
0.1879280052 0.20731268975 0.17779364515 0.17390977253 0.21120929732 0.18816060571 0.14172558157 0.14797132089 0.17178174127 
0.17016157977 0.1731664045 0.16891429259 0.16781949044 0.17033589791 0.16688306339 0.16618835613 0.16846532375 0.16585229923 
0.16546524967 0.16723384212 0.16528753804 0.16513183105 0.16669522063 0.16502758359 0.16493090803 0.16649593594 0.16494670111 
0.16500805889 0.16647753918 0.16502358329 0.16504783272 0.16657607056 0.16503368743 0.16502875029 0.16662122011 0.16503217565 
0.16510268887 0.16665372868 0.16505578235 0.16500082633 0.16664225164 0.16494709324 0.1649899745 0.1665932618 0.16489252966 
0.16488767329 0.16648819814 0.16480038469 0.16483441018 0.16636809124 0.16472205197 0.16487518699 0.16621526978 0.16498298569 
0.16537674635 0.16627346524 0.16563697046 0.16626654653 0.16669840938 0.16684794391 0.16806755971 0.16754406889 0.16912792386 
0.17104823029 0.16939976118 0.17263440476 0.17555218366 0.17617888055 0.17213463269 0.16287576799 0.15822155642 0.21955347049 
0.22167975768 0.20251442335 0.12488489252 0.12518579284 0.1308900659 0.12828807398 0.13053201303 0.13404466488 0.12522402544 
0.12468877251 0.12959352775 0.12738625595 0.12609785864 0.13072814093 0.13248559215 0.12924459792 0.13456428828 0.14131692957 
0.13628491634 0.14041369461 0.15104607783 0.14523257831 0.1472234485 0.15666481791 0.15392652303 0.15306421255 0.17618269994 
0.16669418517 0.16438718918 0.17292594785 0.15700544578 0.16131250673 0.16101305959 0.15532789467 0.1888459665 0.20529597973 
0.12602601719 0.12844167383 0.12192008863 0.12186156578 0.12320970582 0.12248930214 0.12670700301 0.12665090022 0.12487736978 
0.12865911016 0.13563760281 0.1309521696 0.13492906025 0.14719509551 0.14075578721 0.14314614627 0.15447775083 0.15054033718 
0.15007859054 0.21507499201 0.21906385119 0.20366741087 0.19889033713 0.16100899033 0.16963536303 0.16738474464 0.1660329483 
0.16570753879 0.16575035985 0.13269657903 0.13719407597 0.14367636179 0.13799492108 0.12341734253 0.12439945505 0.1303395025 
0.12205963541 0.12265401942 0.12749567794 0.12646763919 0.1516069441 0.17767274663 0.17811064478 0.17491493813 0.17235951903 
0.16691135302 0.16670480626 0.17524775402 0.1667087076 0.16644020534 0.17426453159 0.15710378803 0.15723242638 0.19233436196 
0.18651979149 0.16649308476 0.1662589038 0.17221840877 0.18053640958 0.14245528917 0.14911091455 0.15227422561 0.1823555729 
0.14999475535 0.1504710971 0.20312054215 0.1667614278 0.15636314298 0.15325681301 0.15296511691 0.16262766252 0.17869123689 
0.17003863915 0.17841763833 0.16902864627 0.17584478616 0.16721349823 0.15754682584 0.16632916446 0.18277624478 0.13240182697 
0.13744111897 0.14482672935 0.13651079397 0.17608163567 0.18472019893 0.15738352956 0.15456450732 0.15196839338 0.16787675508 
0.16833401279 0.16895904731 0.16951273561 0.16818106844 0.17001475139 0.17054904126 0.16938004558 0.17111307186 0.17165214379 
0.17051216271 0.17219335745 0.17265809994 0.17167754318 0.17313672932 0.17350784 0.17276071665 0.17384968452 0.17412498579 
0.17363717463 0.17436191545 0.17451893597 0.1742651618 0.17460514453 0.17460612696 0.17462277326 0.17450946951 0.17435702995 
0.17459916701 0.1740872013 0.17383472571 0.17423668724 0.17348811068 0.1731185322 0.1735921886 0.17268366422 0.17222560287 
0.17275233058 0.17167982001 0.17113560324 0.17171380544 0.1705702828 0.17003228862 0.17053791257 0.16949464289 0.16898689597 
0.16937967999 0.16851231542 0.16805716954 0.16832620773 0.16767645357 0.16730521618 0.16744251957 0.16700932707 0.16671484526 
0.16675405799 0.17215114911 0.16987377235 0.16611799298 0.16101522702 0.16085346996 0.16591690787 0.13531825196 0.13547917574 
0.15518301694 0.15837680024 0.15841945695 0.168550358 0.16636675334 0.16964850443 0.16537409833 0.16386996114 0.1671686301 
0.1627599882 0.16146721198 0.16493860187 0.16037565659 0.15944697795 0.16287825611 0.15864921668 0.15811412877 0.16105518187 
0.15753248556 0.15714865366 0.15977693606 0.15652239285 0.15624752327 0.15863614732 0.15571700875 0.15555106617 0.15752985016 
0.15520558258 0.1552263913 0.15670283485 0.15498808662 0.15507469779 0.15615025255 0.15493651125 0.15508496584 0.15579127156 
0.15504168423 0.1552731386 0.15560100699 0.15550975651 0.15603188531 0.15556785313 0.15639509584 0.1568989497 0.15634436737 
0.15718870151 0.15760568431 0.15704483032 0.15779913929 0.15811401079 0.15756127456 0.15825562122 0.15850136446 0.15791063301 
0.15859215397 0.15876717883 0.15815055175 0.15881347825 0.15891591524 0.15829122069 0.15892844353 0.15895262812 0.15834879459 
0.15895370744 0.15890532446 0.15834787688 0.15886636676 0.15878522828 0.15829073544 0.15873175449 0.15860458365 0.15817618141 
0.15859036011 0.15839088512 0.15808855038 0.15809403005 0.15807384903 0.15770489247 0.15815007436 0.15818156446 0.1575961144 
0.15831439519 0.15838662233 0.1578395894 0.15856429351 0.15872477456 0.15817548758 0.15900159936 0.15923503008 0.15868681691 
0.15958616329 0.15987838464 0.15937195503 0.16027736863 0.16059334199 0.16014785282 0.16098612725 0.16133791148 0.1609569844 
0.16175720241 0.16212343597 0.16177176672 0.16254812387 0.16292980226 0.16259692516 0.1633204149 0.16384482208 0.16339807754 
0.16438455173 0.16489060799 0.16444521079 0.16537255383 0.16580662329 0.16549780428 0.16623509068 0.16661784074 0.1664265499 
0.17735579481 0.18537637857 0.17355176865 0.13422182731 0.13658873585 0.17097728149 0.17385525914 0.17347278899 0.13619390171 
0.13739789376 0.14132346603 0.16467648439 0.16414123421 0.16357745815 0.16310599141 0.16418125212 0.16268266581 0.16230496964 
0.16315561629 0.16190680899 0.16151441156 0.16234658287 0.16119367071 0.1608486479 0.16163175746 0.1603573121 0.16003199347 
0.16079231921 0.15963973534 0.15937209331 0.15989940023 0.15904887152 0.15886445763 0.15918647731 0.158559673 0.15844600217 
0.15856242667 0.15819425496 0.15812932151 0.15802572302 0.15792333681 0.15792719631 0.15758684713 0.15777801778 0.15802483942 
0.15728169203 0.15831494735 0.15851437458 0.15755836066 0.15850011384 0.15862698226 0.15795685899 0.15865222481 0.15875476749 
0.15800905264 0.15884206104 0.15884042387 0.15818073024 0.15885271153 0.15881566967 0.15825828771 0.15876425597 0.15864123162 
0.15825275205 0.15858705013 0.15836224384 0.15816029467 0.15822527704 0.15791201812 0.15795831575 0.15770324214 0.15729859865 
0.15762215343 0.15705934817 0.1565922874 0.15713272585 0.15622967862 0.15570091176 0.15647648753 0.15528410596 0.15488191499 
0.155690009 0.15487757585 0.15462794936 0.1552804821 0.15468680688 0.15452494525 0.15537887285 0.15468128593 0.15457589253 
0.15561569684 0.15485570022 0.15485121649 0.15599527789 0.15518745277 0.15533306124 0.15653046647 0.15592497384 0.15642753522 
0.15744918645 0.15730306678 0.15796921557 0.15889570203 0.15888036465 0.15978555467 0.16059208322 0.1605087419 0.16160197132 
0.1622820059 0.1623619716 0.16358313038 0.16392088157 0.1646376497 0.16623433045 0.16574700786 0.16747259843 0.16958050436 
0.17058819246 0.1680146226 0.14994249875 0.15176995075 0.20268393019 0.19478760657 0.1692443541 0.16857139908 0.16831004944 
0.16794474198 0.16921654277 0.16786136701 0.16772435794 0.16888987214 0.16781036932 0.16778793009 0.16894496506 0.16795685411 
0.16804798789 0.169290486 0.16811418134 0.1681958416 0.16965076344 0.1681827882 0.16819184934 0.16972620271 0.16825031118 
0.16827387414 0.16983189144 0.16833280745 0.16830720945 0.1699485033 0.16832737635 0.1682742029 0.17000872165 0.16816744173 
0.16808731658 0.16993933731 0.16789589892 0.1678029733 0.16961607735 0.16756893793 0.16747353623 0.16913144069 0.16735009066 
0.1674597416 0.16872452061 0.16750302482 0.16780201915 0.16855471675 0.168077806 0.16868115046 0.16880646034 0.16916038038 
0.1702219132 0.16951174072 0.19359420647 0.20198479345 0.19414703111 0.16555935391 0.1651252402 0.16523606235 0.16653051455 
0.13712462488 0.13574512591 0.14087065934 0.13905500708 0.14099616736 0.14357211131 0.14090090998 0.13869221068 0.14300310145 
0.1460106431 0.14302693552 0.14631608736 0.15115561634 0.14812326057 0.1499275178 0.15432669902 0.15244960074 0.15424636783 
0.16359620318 0.16788703145 0.15336218582 0.1509741247 0.13142052675 0.13070713286 0.14766690325 0.14394545181 0.15169208138 
0.1493991176 0.1500025123 0.1511701025 0.15812988016 0.15496527844 0.18508880006 0.17551836897 0.18597844644 0.13483220818 
0.1327287657 0.13718970804 0.19158941874 0.18650597114 0.16261142458 0.15910313026 0.15777846998 0.14112774916 0.13766911905 
0.14085820886 0.145979451 0.15146477473 0.15351088297 0.15169524916 0.1662757809 0.17190063894 0.16591170858 0.17028796749 
0.17412222036 0.16753596743 0.16720470017 0.17221034793 0.15836317669 0.16434592188 0.16888293104 0.16591927074 0.15158976127 
0.15431742614 0.15361409767 0.15395225672 0.15659925974 0.1669361925 0.1328112822 0.13861519861 0.13161346264 0.14409066664 
0.14800277936 0.1503942985 0.18266711926 0.18093754378 0.17271967122 0.14224346751 0.13909901539 0.14257298226 0.16988381532 
0.16997646805 0.17086173313 0.17622446314 0.18630310811 0.1710368151 0.16607990755 0.15447699979 0.15422086194 0.15286308525 
0.16145003767 0.16102456958 0.15858771476 0.17143479308 0.16798548468 0.16431500854 0.161572944 0.16719632962 0.18566032725 
0.192283612 0.17050016845 0.16931728532 0.16445467499 0.13581027427 0.13046888794 0.13082221586 0.19924675831 0.19685750212 
0.19033814669 0.1984798826 0.17280317978 0.17442598047 0.16963027674 0.16637507948 0.1686737731 0.16923836216 0.16980026366 
0.17042703815 0.16911944054 0.17116514899 0.17181608899 0.17053913981 0.17250681748 0.17302570533 0.172063199 0.17354528235 
0.17394286218 0.17336440683 0.1743585663 0.17463838693 0.17435809695 0.17488445284 0.17498956367 0.17507436221 0.17499684732 
0.17488765085 0.17535739542 0.17462996259 0.17430692323 0.17508398058 0.17384743187 0.17345693515 0.17429930694 0.17294302268 
0.17243771681 0.17320257356 0.17186218478 0.17125540196 0.17207125037 0.17059021893 0.16995526882 0.17069293204 0.16923502954 
0.16864991532 0.16923934562 0.16803241078 0.16751680701 0.16785504715 0.16706607745 0.16666738001 0.16675577907 0.16099873541 
0.16420241253 0.14990679577 0.15228542168 0.14580183884 0.15706045168 0.15932040276 0.15950998189 0.17023845548 0.16897480404 
0.1698134853 0.16858454076 0.16737699644 0.16912326422 0.16691259923 0.16571677473 0.16806876534 0.16513004978 0.16403971001 
0.16680998687 0.16294782248 0.1622198361 0.16507703754 0.16192146348 0.16140024396 0.1637666216 0.16070126329 0.16011988185 
0.16277872196 0.15925672691 0.15875879611 0.16124657942 0.15803966605 0.1577282169 0.1596792746 0.15722083139 0.15699602474 
0.15848030455 0.15656756186 0.15642775773 0.15755227124 0.15606286173 0.15598014598 0.15674776492 0.15573552571 0.1558598388 
0.15603054122 0.15619475364 0.15659815774 0.15602850031 0.15683530375 0.15714501831 0.15662199369 0.15724558341 0.15743681501 
0.15696952239 0.15750917484 0.15763145746 0.15709249677 0.1576357139 0.1577071224 0.15713115457 0.15765542479 0.15767790569 
0.15703534302 0.15763936106 0.15762355292 0.15688300059 0.15764797488 0.1576108097 0.15682108291 0.15762337522 0.15753424605 
0.15682584655 0.15752180609 0.15741146055 0.15679138322 0.15736363049 0.15732427223 0.15668812922 0.15699662831 0.15695136278 
0.1570644993 0.15620738669 0.1573154602 0.15747341814 0.15665536124 0.15776192967 0.15797018264 0.15718663874 0.1583317985 
0.15864746825 0.15788901687 0.15911117545 0.15948903215 0.15873169524 0.16006233997 0.16045045046 0.15980465833 0.16101469433 
0.1613919848 0.16094477402 0.16179354391 0.16221992123 0.16187752739 0.16273766956 0.16315311966 0.16281308959 0.16355089768 
0.16393932841 0.16373300383 0.16453377074 0.16511968554 0.16463591794 0.16563215248 0.16614436047 0.1590782685 0.15662633514 
0.18267370314 0.17929909083 0.14521587349 0.14596940064 0.17045190786 0.17513136242 0.16360919354 0.16320090763 0.16278445906 
0.16237743124 0.16328212822 0.16202991866 0.4051536272 0.4209677971 0.1615233719 0.16101307117 0.16234194372 0.15996251342 
0.15955558595 0.16063915899 0.15920546644 0.43464511432 0.44458272951 0.15860190809 0.15830251873 0.15894082056 0.15778020453 
0.15751741833 0.1578304524 0.15722489048 0.15706245995 0.1569366291 0.15661354925 0.15647886736 0.15624380084 0.15681717409 
0.15711373985 0.15586234374 0.15716268406 0.45315288024 0.46052164224 0.15711649554 0.15723094474 0.15634674756 0.15711280949 
0.15722222703 0.1561841858 0.15768364786 0.15769327588 0.15654197512 0.15759530998 0.15755406825 0.15689895821 0.15760023067 
0.15755535797 0.15688769964 0.15769661726 0.15757931997 0.15707380861 0.15745498285 0.15724080154 0.15713500392 0.15716496443 
0.15686900168 0.15691380442 0.15668488441 0.15627836488 0.15664494105 0.15599027116 0.15550863963 0.15611091607 0.15566163974 
0.15567762748 0.15570734136 0.15597177717 0.1560499431 0.15622963754 0.15649456746 0.15663491563 0.15696897621 0.15714150005 
0.15740594402 0.15794525316 0.15799685049 0.15830084356 0.15906277807 0.15863515475 0.15920755998 0.15998859464 0.16040383487 
0.16126045341 0.16146238177 0.16227751432 0.16318834777 0.16366196975 0.16374825082 0.16459586414 0.16525312556 0.16514593675 
0.16606014211 0.16640750602 0.1666525752 0.16761833713 0.16756648881 0.1660021827 0.1655139399 0.16947060194 0.16923181007 
0.1417385267 0.140758712 0.16466942125 0.16139177715 0.15958988936 0.16498145985 0.16436081144 0.16434028766 0.17328246632 
0.1704553894 0.19067330939 0.19102974522 0.1694584861 0.16946314012 0.1697736405 0.16967608649 0.16979554572 0.17027721228 
0.17042239204 0.17068371847 0.17115763818 0.17105069322 0.17119431957 0.17230027627 0.1713743397 0.17142667285 0.17280949013 
0.17125433568 0.1713264879 0.17289297896 0.17184408805 0.1719346285 0.17331751954 0.17194701102 0.17192760897 0.17380884763 
0.17172465536 0.17155293409 0.17367832412 0.17127004876 0.17101257865 0.17315562967 0.1704449798 0.17016478799 0.1722238775 
0.16971701465 0.1695527575 0.17100658008 0.16925424223 0.1692537247 0.17021572254 0.16903721341 0.16925276435 0.16967025572 
0.1692770342 0.15027471765 0.14862613785 0.14690648552 0.14828632352 0.1501722667 0.14669415867 0.14280162651 0.15273955418 
0.15116449584 0.15292354356 0.15543196786 0.15418796014 0.18107456469 0.18766782546 0.18524610847 0.15437142198 0.15335003786 
0.15425618261 0.15473404612 0.18130015889 0.18610270802 0.17008441576 0.15504741701 0.15349304641 0.18742969672 0.17980885814 
0.1756767114 0.18475900064 0.14760268163 0.14623564862 0.15131895881 0.15427658767 0.15569532084 0.14501554699 0.14455711571 
0.14874545527 0.14919370644 0.15277298453 0.15324786782 0.16756600946 0.16823498224 0.16805985607 0.19229242814 0.1580393889 
0.15630665991 0.15591237841 0.16985209548 0.16941466115 0.16944424479 0.16940995953 0.16249939744 0.1652524938 0.18861853998 
0.18988662304 0.16111533071 0.16070955074 0.15910349035 0.16344946944 0.16633293721 0.15281117324 0.15432033464 0.15663628018 
0.1571161935 0.16579384121 0.15602820877 0.16675287757 0.13639574043 0.17632324584 0.17537258328 0.46643596236 0.39642793036 
0.17103126339 0.17619267332 0.17721331935 0.17760940131 0.16877717365 0.16820021749 0.15358616761 0.15249439818 0.15196731054 
0.16573776283 0.16950634266 0.1441550664 0.14638777973 0.15415254151 0.15494812879 0.15466343725 0.14458343208 0.14035583003 
0.14020700008 0.15885569257 0.16064373222 0.17151479351 0.15460417056 0.18382575982 0.16596399926 0.16363133154 0.14257399908 
0.14563772139 0.14490007975 0.15195585437 0.14939305694 0.1506517471 0.16879003951 0.1662355166 0.14239635419 0.14365367664 
0.14743117447 0.16819569609 0.16694785893 0.14774262147 0.15196643397 0.15055380471 0.15275331548 0.15307720137 0.15389931308 
0.16693613238 0.18604032076 0.18209146156 0.18791827977 0.14963456185 0.14746736841 0.15180626487 0.18539189911 0.16356524265 
0.16176408875 0.16148846723 0.16364660153 0.16911515365 0.16993664975 0.17302322801 0.17362859071 0.1744901346 0.17497539186 
0.17423514165 0.17550992231 0.17579178196 0.1757222073 0.17594283146 0.17596603972 0.17644903946 0.17601294614 0.17567267686 
0.17669992482 0.17444575184 0.17388071117 0.17544136137 0.17328301481 0.47317429841 0.40015065371 0.1718724255 0.17118592798 
0.17255543855 0.17040963409 0.47546062945 0.39984544191 0.1693672866 0.16855245782 0.16978032625 0.16762083297 0.16694298515 
0.1676161376 0.16621593282 0.148578925 0.15139374111 0.15360020669 0.15014710568 0.15638080027 0.15758245999 0.15611815499 
0.15775138347 0.15572602707 0.16906209263 0.16912538232 0.1685326936 0.16951615997 0.1684170105 0.16768880211 0.16937083074 
0.16691792093 0.16585509031 0.16857450159 0.16560315844 0.4727901354 0.39575958097 0.16326423506 0.16240086533 0.16114589088 
0.16040460871 0.16313301605 0.15978910599 0.15929216232 0.16124314907 0.15730546049 0.15692244475 0.15569138164 0.15606473843 
0.15632566159 0.15652958882 0.15594699354 0.15633779246 0.15637161348 0.15594072714 0.15646945558 0.1564666528 0.15560754474 
0.15637540685 0.1563210911 0.15545270574 0.15605002916 0.15593707842 0.15504376463 0.15577665429 0.15568409131 0.1545621866 
0.15567898434 0.15567161871 0.15432952879 0.15572865393 0.15570930564 0.1544004271 0.15589005824 0.15574845726 0.15555917452 
0.15550803396 0.15467032907 0.15599233955 0.15627633126 0.15513373412 0.15662047374 0.15691829704 0.15592375468 0.15744505115 
0.15784513444 0.15683030172 0.15837118467 0.15886366104 0.15792625297 0.16112626707 0.16170570867 0.16285874153 0.16338883972 
0.16416914597 0.16455599016 0.16432916479 0.16489874006 0.1655594921 0.16528109416 0.14043092436 0.14127828543 0.14585105931 
0.14450625423 0.15884400114 0.16034268269 0.16889510251 0.15518041593 0.15511290042 0.15549207529 0.15551511931 0.15638243482 
0.15637121886 0.15638188638 0.1567084489 0.15744646272 0.15797296847 0.15750227536 0.15863892765 0.15913820099 0.15913521287 
0.16038375653 0.16104264112 0.16102798533 0.16167679743 0.16202848862 0.16313342078 0.16324231814 0.46589421212 0.38804391195 
0.16507136541 0.16607389013 0.16564311909 0.1669412401 0.16753970461 0.16837086179 0.1675015179 0.16804177524 0.16904419684 
0.16832462205 0.16884737515 0.16924172941 0.16382060208 0.16660731542 0.16909588318 0.16889304186 0.16653260375 0.17114881649 
0.1717254697 0.17299471532 0.1734974681 0.17310582555 0.1740886363 0.17446830804 0.17495690509 0.17507946306 0.17494257232 
0.17654113222 0.17556587662 0.45266472966 0.44408256277 0.17606358044 0.17608761556 0.1776378476 0.17548966113 0.17522575623 
0.17775252497 0.17523222397 0.17471912802 0.17699093453 0.17352948765 0.17289037982 0.17553614985 0.17189060198 0.17140036361 
0.1731803825 0.17072464221 0.17039794761 0.17157678357 0.16968256412 0.1641462338 0.16372731333 0.16765823729 0.17101382578 
0.16601007006 0.16655791728 0.16721160706 0.16637120563 0.18214084766 0.18443363365 0.15146841313 0.15679460595 0.1554529312 
0.16542823521 0.16283169499 0.1808090426 0.18306309918 0.16767717076 0.15479316894 0.1540679939 0.16817405767 0.16875871241 
0.16805880708 0.1673177319 0.16590875516 0.16952297924 0.43451980806 0.42070815679 0.15349605008 0.16413690703 0.16279080319 
0.16326376693 0.16519549704 0.1604779103 0.15909947459 0.15383434673 0.15303005301 0.16975003349 0.17232908411 0.17138124765 
0.17245774611 0.16994806132 0.15546959831 0.15804211641 0.16429845275 0.16549272547 0.16499150495 0.15847126801 0.15803757706 
0.15630198197 0.15598224575 0.15578753449 0.15485436554 0.155865557 0.1648221647 0.40547174404 0.38509223883 0.16559959197 
0.16016072163 0.16095739767 0.16087420914 0.15954829893 0.1813639789 0.18416735841 0.18122965871 0.17814416494 0.17752728409 
0.17443875918 0.17664752707 0.17425269322 0.15467451348 0.15520933199 0.16540801479 0.15448582449 0.15356299486 0.38854588604 
0.47375744118 0.17072231128 0.33740158646 0.35007652987 0.15820257922 0.15607328252 0.15556876078 0.15467945764 0.15456447351 
0.15583253528 0.15576865989 0.15580262424 0.15646903376 0.15622478139 0.15495893072 0.15636653002 0.15632795865 0.15613435092 
0.15576198689 0.1558341619 0.15566019097 0.15588439867 0.15631206087 0.15531176934 0.16129033964 0.16289390589 0.17250526875 
0.17051907794 0.17758338834 0.17023034067 0.16712407099 0.14779667972 0.14754738834 0.15886004772 0.15530559834 0.15526813282 
0.14882551814 0.16693983787 0.15212891252 0.15293537097 0.15464878288 0.15537051885 0.14863244294 0.14805167249 0.15057561356 
0.15078969996 0.17058314596 0.15675807083 0.1582017752 0.15557992346 0.15416857277 0.15185830814 0.17464280717 0.17922278171 
0.15524509936 0.15523690494 0.15771759042 0.15391230265 0.15377369841 0.15629724636 0.15532076249 0.18077534168 0.18361541147 
0.17889398446 0.15113179108 0.1537610579 0.15298654802 0.17041857314 0.16811483325 0.18308238693 0.15394648353 0.15521675588 
0.18046949685 0.17849414952 0.17317884687 0.15537143811 0.15375642471 0.15460287937 0.1522977212 0.15683827634 0.17621765414 
0.17681658045 0.15027400419 0.15230075404 0.15543091459 0.1646453437 0.16378542279 0.17012324428 0.17061546707 0.16983569259 
0.17132641338 0.17167568299 0.17370003337 0.17316850345 0.15972403417 0.16151394681 0.16243971187 0.15429379225 0.15423834593 
0.1525305575 0.15251842482 0.15265158922 0.15278416925 0.15916620335 0.16688736582 0.15280104654 0.16612114948 0.16770815158 
0.16643656702 0.155166167 0.17227514041 0.15616052448 0.1704856374 0.17119290532 0.17231952258 0.17511672969 0.16618996285 
0.17036065204 0.15543049085 0.16942471625 0.16872544308 0.179947132 0.17909749615 0.17224645302 0.15004088172 0.15718867403 
0.15830426062 0.15258041094 0.15041366791 0.15278261714 0.17422818768 0.17526547427 0.1763288437 0.17335354709 0.15741096666 
0.17659827982 0.1788756575 0.15273465653 0.15437574927 0.15424620853 0.15803765174 0.17846644857 0.17907506192 0.17753514275 
0.17766368684 0.17058316536 0.16792674644 0.16687053924 0.16576597508 0.15649512207 0.14754707378 0.16483106703 0.16350894006 
0.15010722612 0.14782282783 0.16679206218 0.16735788044 0.17092068632 0.16781813383 0.16849206376 0.16905486126 0.15346869793 
0.15316753898 0.15082063544 0.1520538846 0.17807776372 0.17032119693 0.18015605606 0.17775905327 0.17766751452 0.17209614117 
0.14819269139 0.14927053855 0.17752832203 0.16937414564 0.17760961887 0.17621862884 0.18116644805 0.17275158794 0.1670678677 
0.16579178149 0.17313755124 0.17490044834 0.17786761107 0.17492377285 0.17538273045 0.17305485758 0.17892882529 0.17996202512 
0.16667868098 0.16670586262 0.1666674097 0.16709394061 0.16688841566 0.16687877372 0.16771605963 0.16738045457 0.16732240019 
0.16857282194 0.16810134789 0.16798078534 0.16960379506 0.16904981154 0.1688256669 0.17077950685 0.17011412155 0.16980472333 
0.1719975754 0.17133285762 0.17085672416 0.17318722905 0.17253026176 0.17192653927 0.17449277229 0.1737823417 0.1730371733 
0.17555251058 0.17498982237 0.17412196679 0.17634946739 0.17594398019 0.17500103305 0.17686163808 0.17664386594 0.17566622672 
0.17711134408 0.1770267867 0.17611862607 0.17698886669 0.17709372118 0.17623265606 0.17656454436 0.17683257775 0.17605555188 
0.17586675722 0.17627913627 0.17560705475 0.17493113857 0.17547029195 0.1749356667 0.17384996113 0.1744619066 0.17406818298 
0.17261171812 0.17329367264 0.17306592556 0.17139003187 0.17205602518 0.17199136683 0.1702037077 0.17086248212 0.1709215833 
0.16910507507 0.16967168216 0.16986155313 0.16817399092 0.16867806026 0.16890037014 0.16742960658 0.16779074126 0.16808720683 
0.16691528777 0.16714355895 0.16741091625 0.16666397767 0.16674882553 0.16693555892 0.16666675938 0.16665137933 0.1667084511 
0.16671123846 0.220211962 0.1926142308 0.2351712259 0.16972119472 0.17931921565 0.19400641081 0.15827779406 0.16240661035 
0.17312135047 0.15107543121 0.15365368275 0.1622587237 0.14707246288 0.14844334793 0.15565991362 0.144580375 0.14537388224 
0.15133523624 0.14316128667 0.14350139989 0.14855406459 0.14252698815 0.14248480338 0.14669201827 0.14260314413 0.14232917823 
0.14594597602 0.14309117605 0.14257415781 0.14568261007 0.1440527443 0.14334556523 0.14589944927 0.14539511148 0.14453018284 
0.14660668479 0.1469423406 0.14595847841 0.14761659247 0.14875968484 0.14761744382 0.14883817002 0.15081623625 0.14959437293 
0.15032996662 0.15295737395 0.15171395546 0.15202762368 0.15499755426 0.1538425893 0.1537760065 0.15707936974 0.15589215865 
0.1555079794 0.15892427988 0.15786524602 0.1571341913 0.16056941096 0.15968707513 0.1586374018 0.16184929305 0.16117471455 
0.15995238771 0.16270931381 0.1622729977 0.16095159694 0.16323938217 0.16299741112 0.16164446553 0.16335983583 0.16335077086 
0.16204928851 0.16314005123 0.16332119315 0.16214652177 0.16264531552 0.16297762841 0.16197366699 0.16190940045 0.16241247622 
0.16160197057 0.16107898159 0.16158622777 0.16107297221 0.16024810721 0.16077005441 0.16045504124 0.15948310926 0.15996206785 
0.15987212047 0.15892282084 0.15927239525 0.15937372325 0.15859980721 0.15880432591 0.15904485106 0.15855589562 0.15859403051 
0.1589256298 0.15881064316 0.1586780191 0.15903837857 0.15935111896 0.15904017117 0.15939274514 0.16007401591 0.15968261952 
0.15995313016 0.16102848802 0.1604845595 0.16069498151 0.16202627749 0.16147448185 0.16155509615 0.16307648054 0.1625164655 
0.16248400205 0.16411546748 0.16355608405 0.16344874743 0.16508114813 0.16456812469 0.16437501725 0.16583785304 0.16546711445 
0.16520666752 0.16639204197 0.16613222963 0.16588285173 0.2023132288 0.16655497988 0.16665185165 0.16660905385 0.16610786335 
0.16636809399 0.16633785813 0.16539384993 0.16579965244 0.16580182526 0.16453419026 0.1649988874 0.16508550961 0.1634972652 
0.16409766423 0.16424616201 0.16240797808 0.16298420902 0.16329281024 0.16134775438 0.16191411 0.16228337235 0.16036731061 
0.16090479725 0.16134552864 0.15952112662 0.15994898831 0.16048918459 0.15887934727 0.15918714578 0.15973585994 0.15847385693 
0.15865061594 0.15917566484 0.1583852308 0.15835819147 0.15880535182 0.15860405888 0.15840739374 0.15871615184 0.15910234244 
0.15873938619 0.15888194396 0.15983509161 0.15936553067 0.15928380167 0.16069938802 0.16014362809 0.1598609983 0.16160075687 
0.16102600581 0.1605099753 0.16241401034 0.16194962401 0.16118372037 0.1630555169 0.16267261524 0.16176430804 0.16339500611 
0.16322334929 0.162157255 0.16334370497 0.16339979806 0.16229308228 0.16291812692 0.16319143397 0.16211171727 0.16207320832 
0.1625870175 0.16162315241 0.16080317023 0.16157742601 0.16079543498 0.15929077053 0.16015567684 0.15966454553 0.15747085471 
0.15853054094 0.15827475615 0.15528057737 0.15656382719 0.15663854353 0.15314611859 0.15433649784 0.15482028931 0.15091020359 
0.15216918845 0.1529311512 0.14868125863 0.15000322884 0.15106428226 0.14664537517 0.14779879609 0.14929112918 0.14499893914 
0.14595838143 0.14774300735 0.14364768706 0.14444606487 0.14651650816 0.1425757264 0.14321849506 0.1455431019 0.14200690111 
0.14243561283 0.14496578493 0.14183451989 0.14206061352 0.14488082488 0.14217540865 0.14216505976 0.14526079179 0.14306469891 
0.14272376692 0.14613759171 0.14485341621 0.14410321742 0.14768468063 0.14776426665 0.14639356187 0.15021899644 0.15299830069 
0.15041327874 0.15428015188 0.16211947252 0.15761489205 0.16126307064 0.17879135832 0.17016363809 0.17267142044 0.21215669257 
0.1905266748 0.19474100493 0.2149687469 0.17793400675 0.19325479191 0.16610022403 0.17186069224 0.18182877288 0.15164281921 
0.16084378565 0.17743526781 0.14799079425 0.15450495748 0.17547180347 0.14984805452 0.15047323713 0.17758336056 0.14385571568 
0.14854686861 0.19275619802 0.1419525915 0.14484846142 0.17192291312 0.14175239234 0.14418478673 0.17181846082 0.14206189547 
0.14383155389 0.17141225471 0.14219812877 0.14354235706 0.17069963684 0.14181375526 0.14325836965 0.17042100538 0.14144314989 
0.14199545647 0.17010692436 0.14173684596 0.142171625 0.16916130415 0.14158855683 0.14167410245 0.16893085286 0.14193584139 
0.14202380253 0.1684115714 0.142267781 0.14181620178 0.16889629521 0.14314721489 0.14213605918 0.16906208278 0.1438783087 
0.14246568414 0.16980160838 0.14506267916 0.14279727785 0.17031709776 0.14570794906 0.14328521504 0.17096645243 0.14777052363 
0.14475939668 0.17209641509 0.1502600439 0.14628841838 0.174550892 0.15370722376 0.14913894724 0.1773812811 0.16017024357 
0.15360019828 0.1819344006 0.17086397369 0.16150991233 0.18840666688 0.18634884948 0.17291223905 0.20021253573 0.23488439037 
0.30421799449 0.32398668995 0.21646034633 0.16784378007 0.14578376217 0.1252183913 0.16956401101 0.11149431764 0.10795073716 
0.1343122639 0.10384743765 0.10461284901 0.11654308615 0.10275668864 0.10356885985 0.11144260537 0.10290094336 0.10340636543 
0.10968762726 0.10315196217 0.10332689616 0.10912673236 0.1034796023 0.10338754894 0.10899872929 0.1038194934 0.10347695924 
0.10963933481 0.1041713045 0.10358858141 0.11072881718 0.10527016062 0.10507465856 0.11272299378 0.10980514302 0.11380544817 
0.11824965022 0.1286000759 0.144877801 0.13799909194 0.17029031155 0.21382535985 0.17412800913 0.30191701444 0.32263354738 
0.20476558247 0.16442307821 0.1390110592 0.12349914429 0.16640523245 0.110647156 0.10860408506 0.13308244242 0.10500317312 
0.10545201514 0.11715706772 0.10359421205 0.1041554116 0.11272523923 0.10333481236 0.10363785172 0.11051118358 0.10330409494 
0.10332618793 0.10947386095 0.10330712441 0.10307526264 0.10912848902 0.10321551235 0.10264219648 0.10914239673 0.10364898342 
0.10285616262 0.10983521227 0.10477956886 0.10413871519 0.11195515799 0.10860801017 0.11246608838 0.11732191 0.12754101551 
0.14631406013 0.13574368405 0.17074469776 0.21127543665 0.16861514524 0.16669921758 0.21591629213 0.17614338915 0.26836894645 
0.22293357021 0.16666053673 0.16657077344 0.20648534639 0.19203581333 0.2426482886 0.28598136186 0.1781988534 0.25586016372 
0.18178181274 0.2282310079 0.28011706461 0.16661609642 0.18464183678 0.16636839089 0.16735493221 0.16706506128 0.166869606 
0.16671410012 0.16657881301 0.16684229359 0.16894072727 0.16847177722 0.16987114542 0.1693724157 0.16898086134 0.17085273871 
0.17030221643 0.16986456162 0.17185744955 0.17133339469 0.17078777946 0.17289896702 0.17232081341 0.17174747516 0.1738655501 
0.17338050733 0.1727015181 0.17464531016 0.17426568112 0.17358699881 0.17522572633 0.1749322973 0.17429868115 0.17555432456 
0.17540532274 0.17478430274 0.17561549886 0.1756287059 0.17505209398 0.17537394866 0.1755246208 0.17504369285 0.17488186926 
0.17516073079 0.17474910435 0.17419961315 0.17457803684 0.17423180577 0.17334045902 0.17380354947 0.17353044997 0.172373267 
0.17290521479 0.17269465529 0.17136622121 0.17190448515 0.17178743508 0.17036770398 0.17089083596 0.17082685898 0.16936888423 
0.16990259085 0.16987477738 0.16855398188 0.16898575574 0.16900869877 0.16778876579 0.16817661602 0.16821366389 0.16719221936 
0.16748454395 0.16752795623 0.16678922653 0.16697400486 0.16699107367 0.16527552228 0.16980722472 0.16620273057 0.1664234806 
0.26980695437 0.21426446015 0.17445613323 0.1816825094 0.17455248513 0.18590548909 0.20020696903 0.19387680094 0.18515445375 
0.15899866222 0.16166643107 0.16686579765 0.15490382519 0.15660486406 0.16175871216 0.15209360926 0.15321770162 0.1578493949 
0.15034309988 0.15102366948 0.1551595112 0.14930804932 0.14953173693 0.15327608046 0.14881837051 0.14885124707 0.15212545489 
0.14874861834 0.14850157029 0.1514093939 0.14908373105 0.1486314646 0.15101750889 0.14972004987 0.14917432816 0.15102900722 
0.15064144875 0.14999576299 0.15141492168 0.15186186835 0.15105882773 0.15210710245 0.15316699806 0.15233066992 0.1529819356 
0.15461448992 0.15377089416 0.15396124887 0.15607071829 0.15523817796 0.1552050681 0.15739070293 0.15665633576 0.15639278739 
0.15861872079 0.15792282859 0.15748219752 0.15963074174 0.15907971715 0.15843503991 0.16038450001 0.15999815 0.15921902552 
0.16089333362 0.16063237486 0.15979307281 0.16114777057 0.1610446275 0.16015526461 0.16118386826 0.16121728517 0.16034088822 
0.16102191782 0.16117043809 0.1603655607 0.16072611082 0.1609454841 0.16024580559 0.16026251947 0.16056430857 0.15998110265 
0.15978079208 0.16005443679 0.15958568956 0.15942098909 0.15965668364 0.15924896507 0.1591696334 0.1593425715 0.15909900473 
0.15905902702 0.15914153956 0.15904971568 0.15913087597 0.15911009822 0.15912700127 0.15940887713 0.1592665327 0.15936503161 
0.15987313554 0.15963177598 0.15977305231 0.16049121418 0.16016082159 0.16032398777 0.16123701909 0.16083382364 0.16098025247 
0.16206884587 0.16163510221 0.16173219838 0.16296170765 0.16247894759 0.16253961754 0.16387876693 0.16340455904 0.16339670183 
0.16477252959 0.16432362107 0.1643003813 0.1655661212 0.16517609636 0.16517155374 0.16619118975 0.16588968771 0.16591510524 
0.16456711248 0.15701550352 0.2320106892 0.26764523639 0.17401141748 0.16130705321 0.16564219873 0.16596987473 0.166089097 
0.16492719509 0.16533292879 0.16553413327 0.16408377458 0.16453403557 0.16480958093 0.16314987275 0.16367070876 0.16397359845 
0.16220726728 0.16269117158 0.16306814222 0.16137940612 0.16182176537 0.16221630458 0.16058203607 0.1609883364 0.1614319336 
0.1598915242 0.1602198835 0.16067263461 0.15938371449 0.15961360906 0.16002221104 0.15905723117 0.15917595259 0.15949100495 
0.15895294619 0.15892243394 0.1591452193 0.15905950756 0.15890981553 0.15898525748 0.15935780715 0.15909187456 0.15900470264 
0.1597599541 0.15944341571 0.15916783351 0.16023120462 0.15988013259 0.15942057515 0.16077969972 0.16043506269 0.15982519415 
0.16119242904 0.16094006853 0.16023760409 0.16143609063 0.16128767321 0.1605317984 0.16142701565 0.16144432294 0.16065551799 
0.16116735526 0.16132546604 0.16058010432 0.16064343521 0.16097591046 0.16029585726 0.15982908663 0.16032159083 0.15979383738 
0.15876633016 0.15940243028 0.15904519118 0.15749301753 0.1582434224 0.15809356756 0.15601706338 0.15690755578 0.15697086077 
0.15442448141 0.15535278986 0.15569231584 0.15277825312 0.15374229484 0.15431646569 0.15132885746 0.15223133016 0.1530086658 
0.14997925899 0.15085328747 0.15195808474 0.14885989951 0.14955639327 0.15100399766 0.14806697654 0.1486281641 0.15028503382 
0.14753008521 0.14795829499 0.14988670929 0.14754944843 0.14768012946 0.14986347603 0.1479251934 0.14788058161 0.15034765995 
0.14873430649 0.14840895751 0.15103879768 0.15001873896 0.14947434294 0.15220897695 0.15221561197 0.15115144703 0.15393474002 
0.15529957045 0.15371387992 0.15644234974 0.1604520402 0.15774705748 0.16018502429 0.16847057302 0.16385712035 0.16583412669 
0.18201517713 0.17327706328 0.17437280091 0.19895653356 0.18711640736 0.18566412161 0.18930404102 0.1692302734 0.17216629285 
0.17506648033 0.17953058551 0.17637982725 0.16639885108 0.18602647792 0.16766650989 0.1689425284 0.17057092752 0.16592631432 
0.16527107492 0.16760807911 0.16511253242 0.16455097778 0.16508964104 0.16415043223 0.16368615117 0.16484949609 0.16345644989 
0.16323406803 0.16413374313 0.16299405988 0.16270760651 0.16365232342 0.16299314043 0.16253317 0.16363668518 0.16263884598 
0.16256279316 0.16349527044 0.16229051996 0.16235264789 0.16354444718 0.16203344248 0.16216729118 0.16340548224 0.16207257995 
0.16205954076 0.16345453461 0.16192730069 0.16248075514 0.16339809899 0.16200128995 0.16281883117 0.16347122821 0.162385987 
0.16316124723 0.16358379647 0.1624061566 0.16360594145 0.1637629252 0.16305728909 0.16426815906 0.16419289765 0.16446600212 
0.16531167997 0.1650673938 0.16642262152 0.16724901121 0.16647091772 0.16932972794 0.17008261221 0.16876172387 0.1738498487 
0.17378649411 0.1721335879 0.18117932262 0.17964565874 0.17747332877 0.1774870758 0.16282621122 0.16314601047 0.18318331328 
0.22778794267 0.27126652471 0.1481577053 0.13726874325 0.15431443899 0.12964337701 0.123531709 0.14129346285 0.11937749791 
0.11785922231 0.12994197126 0.11578786177 0.11534129485 0.12275778555 0.11447977335 0.11425966314 0.12025623172 0.11401648338 
0.11423977454 0.11932715354 0.11466913183 0.11514928169 0.11966142546 0.11617159056 0.11684773955 0.12105628116 0.11918370226 
0.12075768851 0.12398159568 0.12568478209 0.13239546539 0.13237172929 0.13978504085 0.15052891655 0.14381327123 0.15932457419 
0.16780126913 0.15996703965 0.15655653662 0.14617274492 0.13597201696 0.12868656933 0.12320275739 0.14073987081 0.1203648678 
0.11848761581 0.1296663706 0.11672842018 0.11586865882 0.12369960625 0.11506852493 0.11468313654 0.12109502325 0.11437961438 
0.11430807034 0.11992785375 0.11451845154 0.11459445035 0.11973367106 0.11561340179 0.1163167362 0.12083253618 0.11813056456 
0.11964847423 0.12337103775 0.12437459577 0.13062055507 0.13034551773 0.13825588405 0.14936489329 0.14186855171 0.15682645792 
0.16682366158 0.15409356806 0.25830303756 0.21652006172 0.22513626658 0.16806885256 0.16768465969 0.16737364569 0.16812368495 
0.16773232379 0.15457046399 0.15691279179 0.16400482579 0.18409061299 0.18544363543 0.16664526905 0.16655183571 0.16663153114 
0.21060654692 0.18946989022 0.19848056772 0.20780695051 0.16645716076 0.15666362664 0.15392095518 0.17528703589 0.17383649772 
0.16387386941 0.17510837927 0.19268890831 0.20688087543 0.19099654088 0.18627016886 0.18694548128 0.16953149216 0.1746778255 
0.22803328216 0.20011583004 0.15941296163 0.21437484362 0.19509366824 0.17067986138 0.1701846973 0.16888300815 0.16843632865 
0.17164936287 0.17117145229 0.17058848149 0.17263458384 0.17214311889 0.17159720013 0.17348614274 0.17307248189 0.1725639804 
0.17416083435 0.17385146585 0.17341094296 0.17460528635 0.17441145389 0.17406003511 0.17481411027 0.174732148 0.17445778712 
0.17472240933 0.17480429839 0.17458761235 0.17436246562 0.17456993378 0.17442486438 0.17377019802 0.1740767002 0.17398553214 
0.17300274851 0.1734024769 0.17331494224 0.17214196892 0.17258478078 0.17250092163 0.17118839417 0.17166900903 0.17158481706 
0.17021992814 0.17071161055 0.17061590596 0.16930791824 0.16978489755 0.16967473497 0.16847382049 0.16888789307 0.16879045947 
0.16772011292 0.16811042033 0.16797657461 0.16709646058 0.16740916755 0.16727201688 0.16665470163 0.16687630577 0.1667322129 
0.16641274252 0.19468041158 0.21136227385 0.16349321765 0.16569721931 0.15422700026 0.15971946415 0.19317121756 0.21597135318 
0.16793569507 0.17114749326 0.16850405027 0.17992425356 0.16663991846 0.15783793406 0.15890393311 0.15596213198 0.15668379154 
0.16007698401 0.15461358212 0.15502717603 0.15812602603 0.15369047466 0.1539783881 0.15664463597 0.15313176587 0.15322610395 
0.15559508761 0.1529199539 0.15281671097 0.15484641553 0.15303568554 0.15277209586 0.15440077571 0.15342495748 0.15303241711 
0.15425564449 0.15399512732 0.15355017179 0.1543859816 0.1547261461 0.15420214807 0.15472013701 0.15579211945 0.15516930836 
0.15524746174 0.15678958664 0.15621788174 0.15615615686 0.1576599908 0.15715244364 0.15697158771 0.15840055845 0.1579749098 
0.15765902558 0.1589547212 0.15862769861 0.15819000431 0.1593415381 0.15912822182 0.15856247417 0.15958542128 0.15946530827 
0.15883252735 0.15970299252 0.15966113367 0.15900941125 0.15967273471 0.15971294272 0.15907115717 0.15952529811 0.15963142465 
0.15901382815 0.15924891148 0.15943767356 0.15884865512 0.15884774598 0.15908402116 0.15855073828 0.15870973658 0.15878396949 
0.15816374186 0.1587426581 0.15876439268 0.1582827902 0.15886534352 0.15883791158 0.15847092465 0.15911260989 0.15901352449 
0.15875358015 0.15951345794 0.15933873472 0.15917669087 0.16005493917 0.15980648753 0.15973560358 0.16068805089 0.16038903674 
0.16038555442 0.16140804182 0.16106619448 0.16110544487 0.16220766784 0.16181917537 0.16189015173 0.16300891784 0.16261298607 
0.16268694909 0.16390668624 0.16344267094 0.16348213203 0.16483188973 0.16436647553 0.16444540883 0.16568682401 0.1652598154 
0.165366709 0.16647073992 0.16613810573 0.1662754341 0.15887071487 0.15478772248 0.16617462384 0.16398009192 0.16442822235 
0.16301259304 0.16350879038 0.16395885207 0.16225878191 0.16264258902 0.16303333477 0.16149452811 0.16187258511 0.1623079506 
0.1607363159 0.16109631595 0.16153353274 0.16007864886 0.16036463124 0.16074922361 0.15955663208 0.15977713549 0.16005322103 
0.15916564555 0.1592856265 0.15947940162 0.15894800922 0.15896737225 0.15902169349 0.15887251492 0.15881078964 0.15872188893 
0.15892389031 0.15879746545 0.15855290255 0.15903266581 0.15888225536 0.15848806816 0.1594270062 0.1591676827 0.15857039724 
0.15976015959 0.15955676084 0.15894579032 0.15995586833 0.15983028841 0.15919668134 0.16002637924 0.15999976058 0.15935876891 
0.15988442771 0.15997276704 0.15937833081 0.15959291578 0.1597796747 0.15924226032 0.15910666895 0.1594221957 0.15897719424 
0.15843904946 0.15886914901 0.15857344366 0.15756698261 0.15810410608 0.15799321292 0.15655512078 0.15716800633 0.15723277275 
0.15544726269 0.15613188526 0.15636509152 0.15423627284 0.1549493244 0.15540557814 0.15330732389 0.15385551155 0.15436628452 
0.15268315977 0.15319955437 0.15395244769 0.15208533784 0.1525622389 0.15367127365 0.15170707016 0.15198736697 0.1533675219 
0.15170320668 0.15183315977 0.1533240695 0.1522229903 0.15210915254 0.15383617915 0.15299939912 0.15267364266 0.15469548186 
0.15405251261 0.15361571786 0.15563559126 0.15543328724 0.15473916502 0.15688719251 0.1576209669 0.15641083286 0.15859644485 
0.16046382153 0.15897773676 0.16079269772 0.16475082983 0.16230118881 0.16393662555 0.17049553288 0.16710786097 0.16800896496 
0.17811388027 0.17263726543 0.17329244238 0.17984235059 0.16785471352 0.16902402215 0.17022275618 0.17208071017 0.17008062125 
0.15796829325 0.15374460901 0.16462085891 0.17445657967 0.16505547465 0.17507468394 0.16636538463 0.16720312072 0.1683780016 
0.16590785307 0.16636664218 0.16759234239 0.16541177501 0.16569902299 0.16712943258 0.16510591874 0.16527471529 0.16672925126 
0.16514003309 0.16515864396 0.16655683876 0.16519084328 0.16529327149 0.16666479797 0.16516747356 0.16525498162 0.16678563312 
0.16502847206 0.16513445841 0.16675631113 0.1650730813 0.16505525185 0.16667820704 0.16507975965 0.16513000943 0.16670588034 
0.16515634357 0.16510411041 0.16674384176 0.16524989999 0.16515033291 0.16671129177 0.16524655159 0.16521127832 0.16663399727 
0.16565026681 0.16536346784 0.16670946045 0.16653066139 0.16597284308 0.16708071098 0.16789332831 0.1670584843 0.16789301747 
0.17009381682 0.16868323888 0.16931127303 0.17330350065 0.17135752909 0.17122701012 0.17821942202 0.17491409316 0.1742960902 
0.15568101727 0.15116499714 0.15391386027 0.17064348207 0.16141017075 0.15786809174 0.16024616683 0.16178498034 0.16518068473 
0.1623965941 0.17352550226 0.1780841142 0.2248476571 0.22410591782 0.14770775482 0.14206885312 0.1383507438 0.13420984012 
0.14500912913 0.13097553817 0.12794162454 0.13879880111 0.1264042476 0.12548841345 0.1336791986 0.12481735963 0.12457034713 
0.13019625582 0.12478146058 0.12510926533 0.12955021004 0.12608783431 0.1269268981 0.1305984837 0.12896557425 0.13236978338 
0.13448788695 0.1364415094 0.14115668382 0.14075690125 0.14536496478 0.15006279155 0.14771338936 0.14779049897 0.14208228275 
0.151308182 0.20622610181 0.18708186835 0.13826373204 0.13401564646 0.14493931465 0.13101112016 0.12834657293 0.13863388299 
0.12725979824 0.12625440637 0.13410627847 0.12561399391 0.12514388214 0.13122710096 0.1252053206 0.12524813523 0.13021833075 
0.12607274207 0.12689087424 0.13109265694 0.12853551623 0.13124924127 0.13411056516 0.13470266141 0.13895435224 0.13910550867 
0.14290345453 0.14836233679 0.14535459518 0.15091630893 0.154553521 0.15039027458 0.22362635168 0.21890528 0.20594049107 
0.16974693016 0.16929177134 0.16875853978 0.16963883755 0.16482682529 0.16524912206 0.16486696835 0.15452852672 0.15041304005 
0.15011475892 0.17811846155 0.16563505362 0.16558521629 0.16591441499 0.16799874361 0.16812095015 0.16770010248 0.17993162811 
0.18689917906 0.17068439775 0.17296663129 0.15308850694 0.15958128036 0.20498104625 0.16026955955 0.15671807776 0.16087486877 
0.16625061359 0.17944658165 0.1701112457 0.1738878211 0.17644888511 0.16083577353 0.17057428321 0.18060634835 0.16689574312 
0.18090870135 0.17461922456 0.17518946403 0.16657860237 0.18670533404 0.20911017375 0.15319146336 0.15706427313 0.15491242599 
0.15295837659 0.20061379436 0.19504479792 0.18862249539 0.18056576393 0.15226239471 0.17252764317 0.17043964408 0.16991727582 
0.17350818888 0.173105204 0.17416588804 0.173890533 0.17366181758 0.17454734332 0.17440778168 0.17433168924 0.17463473919 
0.17463713058 0.17465707443 0.17436587355 0.1745278727 0.17468960572 0.17381689894 0.17411691107 0.17428607276 0.17300035883 
0.17339387866 0.17359077561 0.17205826722 0.17251275823 0.17262018048 0.17102511096 0.17152668709 0.17155401161 0.16997080241 
0.170478676 0.17041833496 0.16899405309 0.16946027708 0.16932559989 0.16810543097 0.16855124596 0.1683338525 0.16731165944 
0.16770530713 0.16745789285 0.16667583264 0.16699605799 0.16671933718 0.16646724472 0.151861061 0.14990643608 0.15169226542 
0.15437817996 0.16241854187 0.16279788595 0.15876988013 0.15934878956 0.16010752779 0.16095883674 0.16200182889 0.16191138152 
0.1629443658 0.16359752301 0.15754229241 0.15797165419 0.16049747846 0.15659868555 0.15689957891 0.15910022284 0.15587754624 
0.15602756567 0.1579170492 0.15545688354 0.15547704365 0.15694335552 0.1552875851 0.15518417606 0.15628445848 0.1553295523 
0.15514891374 0.15586512352 0.1556735145 0.15525664164 0.15560888944 0.15649056705 0.15602011492 0.15593074865 0.15716214228 
0.15676990226 0.15660922182 0.15764217081 0.15732021442 0.15708474635 0.15793856351 0.15771743592 0.15732341809 0.1581357969 
0.15797407889 0.15743114013 0.15826324644 0.1581466535 0.15748058412 0.15836391337 0.15829305853 0.15754028354 0.1583798172 
0.15839671627 0.15762753908 0.15829321115 0.15837134226 0.15763497423 0.15809603484 0.15822453931 0.1575273621 0.15772877106 
0.15794882049 0.15728644185 0.15755241079 0.15757181974 0.15694247777 0.15781008754 0.15770768471 0.15700692472 0.15814242621 
0.1579965387 0.15740721196 0.15860563532 0.15842546683 0.15791984881 0.15920888774 0.15896638875 0.15860701821 0.1599351185 
0.15963791148 0.15940108376 0.1607245696 0.16039829896 0.16029489291 0.16152967564 0.16115623862 0.16117656679 0.16239314182 
0.16198808322 0.16206088405 0.16323523565 0.16283890414 0.16296032437 0.16410402225 0.16358435789 0.1637391167 0.16511661608 
0.16462135395 0.1647942829 0.16602918399 0.1655649016 0.1657969826 0.1668909857 0.1664165078 0.16665806621 0.15864793641 
0.15545077296 0.17964361879 0.19043030993 0.16810616408 0.16830804165 0.15374125279 0.15148486628 0.15145293399 0.15438192785 
0.19835653146 0.20446125011 0.16724182305 0.16626985856 0.16084770089 0.16313987821 0.16354731628 0.16327445446 0.16406590928 
0.16458471913 0.16416791427 0.16161727456 0.16200847842 0.16251196322 0.16078759012 0.16116881045 0.16165389046 0.16004005983 
0.16034985835 0.16075299611 0.1593853979 0.15965187375 0.15991606646 0.1588625297 0.15904166484 0.15916597448 0.15845777016 
0.15856047146 0.15853499599 0.1582009168 0.15823210412 0.15804183511 0.1580097227 0.15801031699 0.15767181409 0.15810093374 
0.15785570301 0.15734707962 0.15845251871 0.15825758853 0.15757847874 0.15867581509 0.15854677852 0.1579014581 0.15879612984 
0.15871830061 0.15809704757 0.15875715333 0.15878632033 0.15815233265 0.15864172956 0.15872908747 0.1581534188 0.15841098177 
0.15858385971 0.15809412547 0.15809360714 0.15833112666 0.15794231132 0.15759616783 0.15795138674 0.15772633939 0.15689959659 
0.15734367514 0.15730220385 0.15616091366 0.15661718635 0.15674072835 0.15526202625 0.1557854212 0.15609391083 0.15462023912 
0.15492440823 0.15530105889 0.15463791614 0.15476238926 0.15519193161 0.15464161855 0.15477063745 0.15547692775 0.15461380364 
0.15477399476 0.15575099791 0.15500352855 0.1549150054 0.15607424293 0.15598585719 0.15558643926 0.15699015321 0.15711027859 
0.15663681541 0.15821197961 0.15830232513 0.15775249587 0.15946639928 0.15963745824 0.15897243651 0.1606939974 0.16143948108 
0.16032860147 0.1621285745 0.1639554488 0.1624751973 0.16392317552 0.16688191984 0.16508834488 0.16623724658 0.17065416155 
0.16825577655 0.1686574282 0.17239958544 0.16583133548 0.16619071427 0.16756128674 0.16362526622 0.16985754406 0.17095319304 
0.16840146523 0.16859748521 0.16928229337 0.15772503383 0.1612748793 0.16385425608 0.16984818888 0.17185505119 0.17081716528 
0.17125051615 0.183465095 0.17551532396 0.16857993274 0.16920058542 0.17010031939 0.1692260077 0.16793776649 0.16805905166 
0.16925161664 0.16776683751 0.16774280014 0.16907218368 0.16830682892 0.16817374289 0.16938177068 0.16856947575 0.16852309211 
0.17003724895 0.16840388961 0.1684685104 0.17018491869 0.16828485045 0.16829860751 0.17003050023 0.16838630836 0.16837301616 
0.16999646589 0.16842834187 0.16845234479 0.17013634403 0.16825363453 0.16831100184 0.17005774473 0.16801114566 0.1680887466 
0.16975441529 0.16794978505 0.16786449357 0.16934199792 0.16820170281 0.16794706897 0.16906878418 0.16881833 0.16838178189 
0.16915778961 0.16975371171 0.16911421947 0.1694807175 0.15546340393 0.15351157311 0.16872318884 0.17261489032 0.17213660374 
0.17273841213 0.16079413379 0.15724207028 0.15628834564 0.16019373318 0.15648186911 0.16032502107 0.16010388414 0.16503391381 
0.16547201927 0.16518282107 0.17155743331 0.17102456713 0.17039603825 0.17161269855 0.20164239776 0.19294188625 0.18483609701 
0.14490591229 0.14236197914 0.14027064509 0.13819917433 0.14600398067 0.13666195104 0.13572764612 0.14267699992 0.1352234081 
0.13528385715 0.1411700645 0.13568730213 0.13687706639 0.14089385145 0.13864153074 0.14107827672 0.14289838076 0.14355771826 
0.1469014773 0.14681615689 0.14925916482 0.15191034241 0.15106229887 0.15357453727 0.15113051524 0.15352958249 0.14443662406 
0.14181763864 0.14019206561 0.13850709611 0.14541984058 0.13744225195 0.13637325839 0.14290247664 0.13610119287 0.13600865039 
0.14158828483 0.13662028416 0.1375285897 0.14178991921 0.13866836625 0.1403938466 0.14324508484 0.14216020269 0.14475297943 
0.1456756917 0.14664535625 0.14924042296 0.14868821569 0.15027636706 0.1517870917 0.15097815518 0.19812381849 0.20318700086 
0.19430659471 0.18904746066 0.20581311175 0.1995143378 0.14905677356 0.1464109129 0.14897966743 0.15099167377 0.14958883586 
0.14644755202 0.14873838552 0.15204347678 0.17173937443 0.16769443806 0.1673642845 0.16421537382 0.17028261681 0.17215965075 
0.17051252856 0.15186732142 0.19011117343 0.19108287913 0.16602123064 0.15509970752 0.19646964962 0.16849702927 0.1680562917 
0.16742221899 0.16546461772 0.16399650986 0.16522378834 0.15851498725 0.19216125721 0.16102873393 0.16718117336 0.16854428278 
0.16400380989 0.1699372423 0.165263868 0.15571906195 0.15631456981 0.1692543858 0.16941113467 0.16894700731 0.16602220408 
0.16782717714 0.16911102869 0.16715884685 0.16716658486 0.173210565 0.17611590894 0.1702760878 0.17208279481 0.16994638576 
0.15348564436 0.15290825514 0.18219576564 0.17602854248 0.17263413353 0.18165986507 0.16858470606 0.17414409407 0.17865786451 
0.16993511223 0.16989608368 0.16860764983 0.17411789122 0.17367760405 0.17493314163 0.17503142234 0.17448674663 0.17479469033 
0.17521551889 0.17350256706 0.17397793338 0.17454157371 0.17239562953 0.17294960448 0.17333334075 0.17097363031 0.17159150791 
0.17192518354 0.16978216889 0.17036601999 0.17038238713 0.16852169104 0.16908079355 0.16897643823 0.16752507927 0.16800450312 
0.16774102996 0.16664328394 0.1670688363 0.16671863184 0.16634057325 0.15215496241 0.15354436169 0.16968561266 0.16962349858 
0.17087351771 0.1704292701 0.16212628002 0.16289826919 0.1590175573 0.15959372678 0.15770126602 0.15812869042 0.15969517899 
0.1569805746 0.1572970107 0.15834876061 0.15626146877 0.15644724495 0.15738375946 0.15585030287 0.15597037195 0.15646830173 
0.15593764483 0.15552718314 0.15573598175 0.15653441454 0.15621450882 0.15579412562 0.15675747258 0.15660925557 0.15610253995 
0.15671676542 0.1566691797 0.15601797027 0.15651942832 0.1565174507 0.1556319407 0.15641433082 0.15643820318 0.15527206199 
0.15640120828 0.15638768165 0.15502506076 0.15643646106 0.15642888827 0.15498172759 0.15655269821 0.15660005518 0.1551306712 
0.15659247633 0.1567071173 0.15546581947 0.15637580134 0.15657701602 0.15559664676 0.15594651129 0.15618352777 0.15537986836 
0.15648722786 0.15628709422 0.15527675113 0.15690496465 0.15665761958 0.15591408155 0.15779625737 0.1574752299 0.156766822 
0.15859957728 0.158208878 0.15776976353 0.15966604637 0.15922317429 0.15888245523 0.16082205479 0.16034921535 0.16025122606 
0.16184404905 0.16137642379 0.16152800674 0.1626734546 0.16218369103 0.16250803532 0.16361535745 0.16315990232 0.16338306257 
0.16451237398 0.16401373978 0.16427786868 0.16567922174 0.16511933045 0.16544672424 0.16663337644 0.16615225391 0.16655499972 
0.16701683077 0.16898265929 0.15362628096 0.16185153675 0.16230582768 0.16347990946 0.16383371773 0.16417580098 0.16167794854 
0.16274022584 0.16315736144 0.16377930591 0.16441482052 0.16497501484 0.16464124704 0.16076798615 0.16120001041 0.16189795973 
0.1597688005 0.16017754696 0.16066087209 0.15896044774 0.15931736855 0.15954688253 0.15822489653 0.15850940821 0.15866717554 
0.15762482317 0.1578246237 0.15780414568 0.1570753946 0.1572392958 0.15701312934 0.15663430321 0.15680477702 0.15637298898 
0.15701049497 0.15677654514 0.15596453248 0.15721937304 0.15704379975 0.15626840558 0.15731873488 0.15723123858 0.15636192814 
0.15736232453 0.15735637778 0.15644490974 0.15730529105 0.15731585521 0.15634815419 0.15723487211 0.15729315586 0.15639173088 
0.15730196334 0.15737648261 0.15647390729 0.15724491003 0.15741028008 0.15674105471 0.15701931758 0.15728285512 0.15690254722 
0.1563816122 0.15673475088 0.15661150458 0.1556020769 0.15592691341 0.15601557037 0.15534404603 0.15561234154 0.15619849482 
0.15599498345 0.15600292011 0.15680266442 0.15665938183 0.15711248661 0.15731370642 0.15704109914 0.15790941872 0.15879375783 
0.15817613555 0.15897161277 0.16038774529 0.15975950504 0.1608207438 0.16183663391 0.16121791972 0.16262555982 0.16320893461 
0.16254534203 0.16408692274 0.16443285443 0.163632862 0.16526654759 0.16594514325 0.16475994664 0.16614489459 0.16817680526 
0.16703292581 0.16771520674 0.15527138899 0.15735593473 0.15441426992 0.15606527308 0.15454545125 0.15774101277 0.16067225794 
0.17020990959 0.17008081832 0.17058170459 0.17411230152 0.16954281193 0.19131021291 0.18704686386 0.17182777518 0.17156656562 
0.17268614789 0.1720807254 0.17213091381 0.17367532921 0.17151893242 0.17162264896 0.17358127357 0.17151831151 0.17144032901 
0.17302958959 0.17198937216 0.17197031956 0.17341170982 0.17151833257 0.17169995778 0.1735680959 0.17089412894 0.17110617351 
0.17280302336 0.17030412208 0.17055278426 0.17195153634 0.16976153009 0.16984483381 0.17099333378 0.16958543291 0.16956414307 
0.17016944413 0.16930030225 0.16923208753 0.16953947073 0.18640134102 0.19062258358 0.19368348667 0.1932543885 0.1884792745 
0.17052191158 0.1715239339 0.15419607061 0.15447572209 0.15902167498 0.15650679025 0.17303647535 0.17247408676 0.17350916309 
0.1636506515 0.16436721267 0.16519931169 0.14963152675 0.14826630876 0.16547127517 0.16595327964 0.15037592732 0.14878013566 
0.14679710262 0.14563742212 0.15109541417 0.14678404318 0.14648954153 0.15031155534 0.1446645597 0.14486963877 0.14975872264 
0.14583653825 0.14741044997 0.14906395769 0.14872062159 0.15082413728 0.15113253976 0.15218078975 0.15380886388 0.15366733499 
0.15423873198 0.15410466975 0.16051899804 0.16113838664 0.16348398895 0.16155258606 0.15864857618 0.16153693324 0.15770502912 
0.16348221469 0.16029050803 0.18645403761 0.1796114051 0.14758093596 0.14660683738 0.15118553348 0.14632823681 0.14599890069 
0.15030770043 0.14597595268 0.1463761794 0.14995647067 0.14681846163 0.14760158545 0.15020981829 0.148354271 0.14964158965 
0.15120106643 0.15039798239 0.15158931911 0.15240218307 0.15194692011 0.15253278223 0.15306960004 0.17515439669 0.17504959926 
0.17548336271 0.1747116752 0.17444921298 0.17528697124 0.16956854052 0.17454979514 0.16790466718 0.16544180641 0.17561579824 
0.18122298729 0.18204345868 0.16935831133 0.16922174811 0.16044086859 0.16291595677 0.16654277081 0.16575901598 0.15534506743 
0.15321964166 0.15527501714 0.15387272704 0.15585762199 0.16826558076 0.16670857505 0.16773632353 0.17029607564 0.16963318394 
0.16138394379 0.16421665305 0.16815874771 0.16471241582 0.16564064799 0.16778107253 0.16741482089 0.16300740014 0.16594877362 
0.16281692522 0.1687049076 0.1689590378 0.16841222593 0.16882190886 0.16905097146 0.15215925371 0.15046757589 0.15267493853 
0.15306550908 0.15220749138 0.15391898685 0.15883750273 0.16634061564 0.17262592402 0.17789522359 0.18181997854 0.15669526504 
0.17568065443 0.18792514669 0.1508935709 0.15310933682 0.15200151498 0.15501123747 0.17204179008 0.17174466819 0.17109548675 
0.15320242671 0.15285193277 0.15222819557 0.15408062323 0.15280001222 0.15397289706 0.1547259349 0.17421489986 0.16963464424 
0.16783008311 0.1899419339 0.18418953014 0.16258444798 0.19119373053 0.1835702043 0.18935997197 0.18567008201 0.17908004131 
0.16921377601 0.16656723489 0.15680884987 0.15525653243 0.17129433167 0.17228137273 0.16893949079 0.16957681497 0.16981931938 
0.16812205323 0.4245919529 0.1667383143 0.16729176686 0.16711570936 0.17390466398 0.17447543928 0.17339745921 0.17426213184 
0.17348776966 0.17037915492 0.16788019381 0.18516626841 0.18643533909 0.15556978674 0.15604244763 0.15548226032 0.1551255447 
0.15545764777 0.15538072969 0.15477602462 0.15491545607 0.15384372004 0.15411128034 0.15304164936 0.15321236787 0.15274523106 
0.15282408195 0.15267813567 0.15267293609 0.15316553739 0.15301426047 0.15436788275 0.15442448299 0.15426056634 0.15453973889 
0.15922560428 0.15855671861 0.16126866547 0.16050823262 0.16034050176 0.16295028807 0.16223158192 0.16284782519 0.16368307187 
0.1632700215 0.16434305272 0.16422775137 0.16505721855 0.16459348538 0.16509009873 0.16664496044 0.16599788337 0.16637043633 
0.16355844593 0.16405175176 0.18340338202 0.180623246 0.16776097892 0.15528171699 0.15593091232 0.16058668339 0.1611842207 
0.1622841009 0.16290641309 0.16230702911 0.159539901 0.1599763117 0.1641602471 0.16447461662 0.16484120526 0.16513971541 
0.16576803267 0.15748718799 0.15793370126 0.15508003551 0.15501050983 0.16025236136 0.15931833822 0.16270625545 0.1617425948 
0.16201441486 0.16501353236 0.16415782212 0.16506348315 0.16648076186 0.16577635641 0.16738486721 0.16723947172 0.16669813416 
0.16830169307 0.1677045763 0.16735736999 0.16859062532 0.15792965733 0.15502930479 0.15386801249 0.15947236143 0.15801585876 
0.16878383506 0.15705532029 0.16855657947 0.17024773066 0.16492782494 0.18183034408 0.17788008037 0.17450872427 0.17761202867 
0.1729416809 0.17092556001 0.17740583712 0.17096498338 0.17032504516 0.15698142826 0.17532163043 0.17584036214 0.15628909974 
0.1575369857 0.17438660379 0.17353796098 0.17564747106 0.17534266671 0.17554501697 0.17517677506 0.17559674943 0.17369022204 
0.17421295404 0.17622083128 0.17261413896 0.1731044683 0.17435885835 0.17108048065 0.17158129198 0.17265904843 0.16943846153 
0.15507774065 0.15574487762 0.1679414411 0.16825360088 0.16731102421 0.16804738125 0.17002183932 0.16754989013 0.16291592254 
0.16070692645 0.15651313543 0.15779110116 0.18631680345 0.18459514496 0.16259675109 0.16089430516 0.15887056421 0.15733711143 
0.17585015719 0.1754013618 0.1765636995 0.17767307107 0.17609770848 0.17514052761 0.47699559694 0.1635493965 0.17320686711 
0.17244989262 0.1715873318 0.17197423941 0.17209561156 0.17251406765 0.176184821 0.17627949938 0.17633847181 0.16575785729 
0.16453269438 0.16556620855 0.16887535785 0.16622078483 0.16954919172 0.16865867249 0.18398428033 0.18069090655 0.17050505679 
0.1695821509 0.17081715698 0.15990226341 0.16228266135 0.15647635996 0.16540010864 0.16612001943 0.16415616023 0.15741181422 
0.15991473273 0.15371327821 0.16945928263 0.17019897121 0.17055795017 0.15480776598 0.15422810172 0.15716664411 0.15764564755 
0.1670797358 0.16986074833 0.17650052297 0.17708170059 0.15584656697 0.16844595725 0.16769991682 0.15680242487 0.15698842701 
0.15660518152 0.1563947618 0.16555409636 0.15914116148 0.15964125066 0.15864291901 0.15557271612 0.15590102978 0.15534093436 
0.15523340205 0.15896879086 0.15840765483 0.15469575311 0.15467900329 0.15529588792 0.15528249645 0.1540590022 0.15413507338 
0.15585185781 0.15579286418 0.15639955382 0.15639713487 0.18045702682 0.16916197234 0.33361187225 0.39929996055 0.17524848749 
0.15795116615 0.15859217012 0.15378369422 0.17428449079 0.17530722319 0.17404238783 0.35296262886 0.43161803384 0.16070720514 
0.17573206246 0.44184160635 0.45097093131 0.17754537006 0.45753705303 0.46441879304 0.16843739438 0.39497728196 0.47233370699 
0.17086769309 0.15566194473 0.15507618222 0.15245927223 0.15084312446 0.15518761537 0.15476236568 0.15178286199 0.18305366139 
0.15373942708 0.15434668768 0.15562003736 0.18264561791 0.15240982733 0.15362559226 0.15421178895 0.15527684495 0.16797252316 
0.17122323847 0.15420115384 0.15625074921 0.17256397739 0.17569210085 0.18010616815 0.15491148228 0.17080766534 0.17377407448 
0.17922814378 0.18268550207 0.16789076033 0.16659551008 0.17922234127 0.178702149 0.173826654 0.17059913035 0.15544281499 
0.1814282459 0.16763066101 0.16599953544 0.16712451328 0.16740438454 0.16646578076 0.16870887934 0.17909031648 0.15409708563 
0.17899809554 0.18041868088 0.17138443381 0.17510926908 0.17630348683 0.15519633821 0.15530591843 0.15507955942 0.15323245024 
0.15265342958 0.39944215636 0.47521604201 0.16966742754 0.17302759396 0.16980488019 0.17123109531 0.17025651915 0.16424641942 
0.16186841434 0.16851277721 0.16399272314 0.17542627629 0.17620247502 0.16628780706 0.16503703364 0.16961619696 0.16641255381 
0.15147683981 0.18047048975 0.18034089072 0.17745209011 0.17062731283 0.17187612085 0.17511046101 0.17873548043 0.16396891323 
0.47537226036 0.39880691014 0.16013029055 0.47164643346 0.39391558754 0.17303659612 0.16970863674 0.17231582683 0.17374820593 
0.17535120063 0.17180817738 0.16596733118 0.17687381582 0.15843680054 0.17985775125 0.16997411661 0.16650006303 0.1719749925 
0.1754994713 0.3900301961 0.45575553378 0.17432686626 0.17730073079 0.17742488199 0.17998701358 0.1725559765 0.1754694768 
0.17409663163 0.17734964569 0.17008699839 0.16778002211 0.15971848469 0.44693527896 0.43667049056 0.1722675039 0.17037269721 
0.17774239682 0.42442157949 0.4088877744 0.33218286545 0.40277869545 0.17360605122 0.3925467146 0.3801976808 0.16672270728 
0.30416225 0.24302830316 0.16679309037 0.16678690137 0.16668917187 0.16650400876 0.16624131989 0.16588726004 0.16547357097 
0.16500314728 0.16452829327 0.16390437858 0.16328985743 0.16269989896 0.16211220845 0.16152853942 0.16095424016 0.16038352477 
0.15983967389 0.15933065475 0.15890879795 0.15856232159 0.1582645709 0.15805077002 0.15789875574 0.15787679356 0.15793195058 
0.15808846263 0.1583131492 0.15861356004 0.15900363322 0.15945495113 0.15994400173 0.1604732278 0.1610575434 0.16169194232 
0.1622994394 0.16283839333 0.16333319243 0.16377729561 0.16418575154 0.16442284082 0.16461851873 0.16468788865 0.16465090403 
0.16445971273 0.16418940357 0.16378970079 0.16327055927 0.16268080851 0.16189360215 0.16098166028 0.16009559652 0.15907493782 
0.15798748468 0.15671015155 0.1553824102 0.15411244489 0.15288472499 0.15141396423 0.15012891296 0.14892379061 0.14757992376 
0.14630015081 0.14513197248 0.14409781111 0.14312826253 0.1422151155 0.14141785333 0.14074878956 0.14009406738 0.13952722186 
0.13910453125 0.13879642863 0.13857874033 0.13851209444 0.13854668909 0.13875228579 0.1391187089 0.13970355527 0.14046558541 
0.14165946037 0.14311094483 0.14511276453 0.14788131476 0.15144113018 0.15619053327 0.16307727639 0.1746913844 0.19486570287 
0.2833512146 0.16673306067 0.16676427053 0.27358260571 0.19075672074 0.17177448034 0.1614711394 0.15586019014 0.15132341294 
0.14782915102 0.14505253517 0.14295061201 0.14159123665 0.14044304468 0.13968530452 0.13910899995 0.13882282243 0.13866042108 
0.13868241189 0.13881103363 0.13907372494 0.13944844238 0.13996848822 0.14052457271 0.14122078248 0.14199717943 0.14284479605 
0.14372897491 0.1446687045 0.14583061041 0.14697203798 0.14816025892 0.14939631631 0.1508397418 0.15212260424 0.15347076576 
0.15468259643 0.15604384623 0.15728725101 0.15838357021 0.15949110148 0.1605751364 0.16149214791 0.16229138589 0.16299012605 
0.16357473975 0.16402433721 0.16440706186 0.16464657224 0.16477633676 0.1647779659 0.1647036183 0.16450472499 0.16420362535 
0.16383871024 0.16339636142 0.16284735282 0.16229808385 0.16174905522 0.16119195456 0.16064698278 0.16009232473 0.15958742311 
0.15916868155 0.1587928482 0.15847769576 0.15825314933 0.15809229572 0.15803539861 0.15806178917 0.15818551959 0.15836093926 
0.15866243429 0.15901671358 0.15940434354 0.15987537679 0.16042468063 0.16098531931 0.16154624335 0.16212218771 0.1627005816 
0.16330897756 0.16389191765 0.16446442895 0.16499925594 0.16547099715 0.16585883113 0.16624923704 0.16651200462 0.16671603271 
0.16678935903 0.16664941188 0.16667657211 0.16666278366 0.16665887841 0.16666799229 0.16666730703 0.16680204186 0.1670923223 
0.16742709505 0.16784589537 0.16833102377 0.16883323874 0.16939417553 0.16998145907 0.17065921681 0.17133900946 0.17201785726 
0.17271946027 0.17339780824 0.17406851213 0.17481120936 0.17594505421 0.17651125739 0.17700060374 0.17737480371 0.17768650419 
0.17787475622 0.17801015762 0.17807350348 0.17800710687 0.1778757541 0.17764230814 0.17734845612 0.17695855409 0.17648910755 
0.17599535666 0.17542315847 0.17479535256 0.17413891301 0.1734395091 0.17265091297 0.17196900439 0.17130949429 0.1706275719 
0.1699490078 0.16936087731 0.16878523191 0.16825397578 0.1677703238 0.1673834724 0.16705296014 0.16677305569 0.16667876866 
0.1666623929 0.17540555944 0.55602801907 0.63081165043 0.67216969385 0.71778605905 0.74641992308 0.77470355988 0.79268167001 
0.81043565283 0.82432787284 0.83612571555 0.84204572123 0.84875636681 0.85029259909 0.85336595109 0.84987263296 0.8485802181 
0.84107635659 0.8221293834 0.80944256424 0.79026944343 0.77200304556 0.74211707999 0.70813414471 0.67097761463 0.54017562423 
0.48633785208 0.83522730178 0.45932577582 0.53710085223 0.71045166266 0.66629041553 0.76942991466 0.74341042316 0.80563932479 
0.78779664878 0.83205454593 0.81736381737 0.84662013891 0.83928439323 0.85305319439 0.84926087171 0.85108660018 0.85137015061 
0.83997938071 0.8445508084 0.81632919711 0.82891207614 0.78096249872 0.79807598681 0.72481206806 0.75515428917 0.64010805446 
0.68395900233 0.58646600518 0.35994632005 0.85096438478 0.85054476795 0.75319217546 0.81024985557 0.82628228217 0.80684606048 
0.81970094817 0.83590733198 0.83098204315 0.74362420166 0.84851715142 0.79092512733 0.58905917286 0.6587237231 0.83902505561 
0.51105571023 0.487742913 0.84310753893 0.7964289663 0.77363917565 0.84502076769 0.84777058082 0.71124662113 0.7708738707 
0.67500934406 0.70868623191 0.59379035157 0.15610694271 0.15903825599 0.15698884665 0.17661008628 0.17632265257 0.17592468399 
0.17567579345 0.15858719836 0.15855516732 0.15826365058 0.17179519127 0.17190140997 0.17229356212 0.17239634503 0.17252806464 
0.15611180416 0.15606791399 0.15540002196 0.1559039155 0.15511837245 0.10835938823 0.10418655258 0.17215052408 0.17267855755 
0.17261787774 0.17413374513 0.17451178827 0.17365693788 0.16189455491 0.16170644287 0.16124540927 0.17813406575 0.17698426389 
0.17692190136 0.17333789247 0.17389955879 0.15952051204 0.15974262614 0.15870146487 0.1590217455 0.17843151996 0.1856644409 
0.18339652966 0.19294512093 0.17275400007 0.17230164009 0.17296567431 0.15837821786 0.1726650194 0.17221448226 0.17613645532 
0.17680961558 0.17776404708 0.17864716938 0.15914253631 0.15984188814 0.15973965328 0.16939639886 0.1686391606 0.16924191195 
0.1684902291 0.17206479223 0.17144293643 0.17140465089 0.16226208629 0.16233238109 0.16263643082 0.16271366567 0.16199336347 
0.15516423459 0.15475699817 0.15472736268 0.15422935407 0.16249454089 0.16202412146 0.16208796348 0.14961919966 0.15109343052 
0.15057668693 0.15172746611 0.14614309923 0.14761782967 0.16952463699 0.16799911075 0.16878506165 0.16719999041 0.16400470428 
0.163551344 0.16350998841 0.16667419386 0.1659344621 0.167570156 0.16741910679 0.16835119964 0.16647798739 0.16539891891 
0.1701121475 0.17062564477 0.1699800187 0.17050863906 0.11314764664 0.1130693575 0.11843938208 0.16477518321 0.16621613656 
0.16682035515 0.16829169623 0.16891889078 0.16669756615 0.16665950973 0.16667712312 0.16664872433 0.1705239217 0.16863330619 
0.17245381441 0.17062702091 0.16944910745 0.16732801586 0.17158483124 0.1696245201 0.17406321255 0.17430106857 0.17386146028 
0.17413643458 0.15553512056 0.15573582141 0.15535505726 0.16323572127 0.16287224142 0.16204760651 0.15988954846 0.1592224563 
0.15804996185 0.15755496103 0.15831260624 0.15778750282 0.16803359131 0.16812712056 0.16843378949 0.16003208157 0.16024570746 
0.15963661537 0.15519031773 0.15987475375 0.15945916897 0.15928914827 0.15476979479 0.15482456473 0.15532134926 0.16329946136 
0.16218052944 0.16228964473 0.16039980024 0.16037714206 0.16008779001 0.16898084347 0.16935410699 0.16938179198 0.1563128416 
0.15717025948 0.1571384564 0.15797944264 0.15210156901 0.15146960773 0.15148353116 0.16006329501 0.15969835841 0.16029897857 
0.1753586453 0.17466753288 0.17496149318 0.16141491665 0.16140345567 0.16105299005 0.16108000705 0.16153839355 0.16064085028 
0.16110633568 0.16044223944 0.15994903437 0.16010790183 0.15963175992 0.15745905024 0.15762811735 0.15798215262 0.17048469485 
0.16969468991 0.16961900672 0.11699134021 0.11336805183 0.1233126071 0.17371863527 0.17333609804 0.17239648627 0.17162151071 
0.16985461535 0.17312732421 0.16442107077 0.1679337297 0.14809354593 0.15174949376 0.14852929081 0.15187860024 0.15298823357 
0.15246134622 0.15357437122 0.15577337173 0.15546291221 0.16492828138 0.16534290329 0.16491828639 0.16225026523 0.16317763635 
0.16211150929 0.16560062699 0.16596907033 0.16591814594 0.16775777222 0.16818102377 0.16810811104 0.16853482499 0.16933392456 
0.16910407868 0.16950210221 0.16932676878 0.15928021409 0.15866830333 0.15935230497 0.16654442929 0.16822998735 0.16660927676 
0.16527867745 0.16565557797 0.16386537626 0.1641574702 0.16430948037 0.15456132737 0.15497808162 0.15577066886 0.14706156164 
0.1488387365 0.1465911609 0.18392944761 0.18694997047 0.18169943684 0.19625864482 0.15987087263 0.15975472529 0.15920827929 
0.15084594677 0.1483684612 0.15065654841 0.16010254964 0.16007565151 0.15978954803 0.16883089647 0.16764503174 0.16899541545 
0.16366937055 0.16372818899 0.16507883705 0.16995047439 0.17000704733 0.17053861936 0.15888804185 0.15885026862 0.15894026192 
0.15898883445 0.1577946147 0.1577684535 0.15829992241 0.15924474266 0.15865333781 0.15881663188 0.16279832875 0.16019142234 
0.16499143029 0.16913114794 0.17229499942 0.17298570517 0.1712075182 0.14814830854 0.15750995165 0.15742242386 0.15720751288 
0.15712103293 0.15398164983 0.15386110338 0.15461867108 0.16144568755 0.17140965721 0.17166809454 0.17319544491 0.16148457759 
0.16001594705 0.16258341644 0.16057512243 0.17219055581 0.17177791421 0.17162262617 0.16892347915 0.16986054037 0.16955975462 
0.14185185837 0.17343910327 0.17480785233 0.17297294671 0.15095436164 0.15811838197 0.15731386305 0.15725784247 0.14217677848 
0.14549221335 0.14196875451 0.15702999245 0.16210961046 0.16311122988 0.16189205856 0.16004672199 0.16002763193 0.15974065503 
0.14671690579 0.14263525799 0.14614113359 0.16695836694 0.16803302602 0.16811223865 0.15542885973 0.16958763658 0.15467086131 
0.16116663277 0.17299089712 0.17147226586 0.17167001824 0.17451594906 0.16265222677 0.17650755697 0.15781369189 0.15814137114 
0.14870700475 0.14805515227 0.14697298505 0.16609951731 0.16571966215 0.16632566717 0.15557759144 0.15596474437 0.15568881353 
0.15615937721 0.15561349439 0.15609678503 0.15595949099 0.15641591208 0.16336363713 0.16292268086 0.16291004019 0.15335514686 
0.15297408935 0.15203818867 0.15168623259 0.1666141204 0.16505866857 0.16927558673 0.16477381967 0.16472414022 0.16430945327 
0.16060040997 0.1609850149 0.16063545104 0.16751980167 0.16887863971 0.16706946634 0.16825845505 0.15893251776 0.15854401258 
0.15910018642 0.17018855217 0.17143755444 0.17094032444 0.10258158045 0.10888084181 0.10914307544 0.15172871229 0.17416874897 
0.14247189456 0.16252035975 0.16498824634 0.16370047574 0.16831872806 0.16945699738 0.1697154961 0.1568488896 0.15719030291 
0.15694678702 0.17765987057 0.17697218597 0.17642088512 0.11099932972 0.1038958038 0.11142902069 0.17300248819 0.17257467971 
0.17390250196 0.16666541327 0.15654291652 0.1511667641 0.17239766186 0.17272152883 0.1744181041 0.16324909838 0.16527962929 
0.16474943035 0.25481036676 0.32284135248 0.15389496511 0.15417981486 0.15482306029 0.16986007905 0.169014176 0.16964671826 
0.16144438674 0.16171206403 0.16235581988 0.17444075566 0.16473792617 0.17956215718 0.21422790255 0.21039186615 0.2183047423 
0.31217566777 0.3176979165 0.15851599423 0.15503367646 0.15828409708 0.16383209004 0.16437181614 0.16389255612 0.15493956489 
0.15534937429 0.16129935809 0.1616923717 0.16171387164 0.16210813581 0.10978865963 0.10307411577 0.16213906654 0.16078869857 
0.10375784687 0.16372216884 0.16576747941 0.15921016427 0.15907406945 0.15889902344 0.14050147718 0.14473998591 0.17427172739 
0.16257694424 0.16219071751 0.16250063152 0.15660187354 0.15752084798 0.15616242333 0.15720039189 0.1670701377 0.16688958491 
0.16688030935 0.10520301222 0.16828114227 0.16999949641 0.16824805195 0.14887543791 0.14470640461 0.14929670941 0.14513140296 
0.16125904781 0.16218903426 0.16321216979 0.15785056781 0.15833886654 0.1585201235 0.16071206298 0.16106847961 0.16035197063 
0.15242265717 0.11827735241 0.12400392055 0.11672955201 0.1614425507 0.16059916817 0.16148065199 0.15853204326 0.15888680152 
0.15869411815 0.15537447895 0.15647448631 0.15690801609 0.16324521656 0.16381685761 0.16360520375 0.14184228613 0.17573523732 
0.16536417206 0.16600867195 0.16423168002 0.16424883888 0.16534778978 0.1633691827 0.15564483061 0.1556984199 0.16518463988 
0.1492772055 0.15012707745 0.14588583316 0.16970408956 0.16913611861 0.16924993588 0.16826815293 0.16793380772 0.16763148225 
0.15859062313 0.15831464009 0.15866589789 0.16308627806 0.1652531215 0.16585224679 0.17609722588 0.17386141977 0.17800675998 
0.17566948617 0.17993616527 0.16032115043 0.16036967532 0.17435004324 0.17408943219 0.17426968865 0.16572896916 0.17499705849 
0.17428203784 0.17035974308 0.17034797101 0.16988599747 0.17400052379 0.17441373259 0.17416726398 0.17378207622 0.17459867309 
0.16684153589 0.16490323989 0.14642210196 0.14272110362 0.14708300139 0.17183055532 0.17242509272 0.17131612304 0.1719288212 
0.15823223088 0.15828652539 0.15860261622 0.16091208459 0.16895392532 0.16887397726 0.16930447555 0.14911642392 0.15199712023 
0.1503918697 0.16770247746 0.16782183336 0.16817002136 0.15576398484 0.15506836554 0.15594029098 0.15827677087 0.1588393669 
0.16029219984 0.16079472619 0.15417497745 0.15543793411 0.15803081468 0.15875098893 0.15779367553 0.1586271298 0.16862551405 
0.16850764917 0.16855839621 0.16047463129 0.15889032145 0.15867992474 0.15897250708 0.15832682742 0.15862572031 0.12874907595 
0.13440845885 0.11928992416 0.12294490622 0.14606539279 0.14888248052 0.14948355607 0.15202875791 0.15251266453 0.1566940949 
0.15653421164 0.15624784677 0.1560474439 0.1554738605 0.15630174865 0.16440238785 0.16011918095 0.16253846744 0.16037508378 
0.16049109256 0.16113673492 0.15579737192 0.15670713232 0.15941388154 0.16484725202 0.16439240334 0.16443941862 0.16400039185 
0.16238748565 0.16309366667 0.16154020575 0.15952255727 0.15943627834 0.15978688619 0.15906953595 0.1591384977 0.15932584703 
0.16039185199 0.16290090056 0.16336627219 0.17500566839 0.16528490563 0.16543837164 0.16485692474 0.15259570746 0.15496370273 
0.15063612808 0.15335122925 0.16636098972 0.16018914953 0.15937436486 0.16340563708 0.15516206562 0.15384668943 0.15000895803 
0.14962158392 0.15226084527 0.16042230144 0.15994187107 0.16049039871 0.15217216284 0.15139041558 0.15179844519 0.15760000853 
0.15549359362 0.15901129863 0.16097411341 0.16093933521 0.15727876694 0.1577725663 0.1573031313 0.15386429535 0.15056856342 
0.15555229338 0.15239682742 0.15745817725 0.15410161762 0.16223069644 0.16183507149 0.16263085159 0.16224064187 0.15174496079 
0.14987748171 0.15340060538 0.15167507434 0.15935194272 0.15900489991 0.176864756 0.16838034391 0.15583078234 0.15057494347 
0.15796867555 0.1579267096 0.15865283648 0.16182511745 0.16137946753 0.16141089641 0.15918337256 0.15971279798 0.15908715021 
0.15725066434 0.15728160904 0.15788058102 0.16642227255 0.16672184524 0.16702419163 0.16731841644 0.15409085944 0.15415696066 
0.15602796883 0.15488479607 0.15606990586 0.16876146817 0.16831887166 0.16928681738 0.16885859841 0.16040706395 0.1600743882 
0.15396407342 0.15477567107 0.15526776952 0.16056882388 0.16010541521 0.16025111525 0.15979290468 0.15954208355 0.16146201331 
0.16231259955 0.16067395056 0.16145537858 0.16311959838 0.1627034285 0.16266623873 0.15983100711 0.15096940201 0.14956992674 
0.15045214735 0.15975365605 0.16551374541 0.16648606683 0.16371383163 0.1626894905 0.16246241486 0.16314759685 0.15920992314 
0.15906172721 0.15899222398 0.17071356457 0.16966920008 0.16570156789 0.15894106554 0.15901069872 0.15968174418 0.14802585447 
0.1484782053 0.15067351418 0.17765168059 0.16257958691 0.16229445299 0.1742757698 0.16334752481 0.16257301349 0.11046888763 
0.10292922589 0.11220180953 0.15931556045 0.15934790623 0.15898106453 0.15625256806 0.16416583452 0.16365748108 0.16397549323 
0.16375277335 0.16412757985 0.1702138406 0.16966175093 0.15865529032 0.15870809108 0.15844925177 0.15972087562 0.15951809849 
0.15916400846 0.17301407683 0.17207176275 0.16986622356 0.16938448303 0.16103285652 0.16146639993 0.16107508549 0.1571036759 
0.16426444982 0.16900979951 0.16789058462 0.16913329729 0.16796769369 0.1534216093 0.1546893347 0.1535390291 0.16215967064 
0.15473085713 0.15635018639 0.15623886168 0.15661433708 0.1567064585 0.1562247924 0.16661437024 0.16816100119 0.16825106666 
0.16977709588 0.15324029527 0.1527989199 0.15189011295 0.15245579659 0.17405477348 0.17373579768 0.1737813161 0.17304161666 
0.17260442894 0.17300949455 0.17067866466 0.17135545374 0.17048076353 0.15888631858 0.16012492585 0.15977731232 0.16116231971 
0.16298987558 0.16143062551 0.13701599691 0.13066161067 0.13218110224 0.17256439171 0.18172620856 0.16917309799 0.17593678885 
0.17670257958 0.17973490493 0.17925818743 0.15946901297 0.12430191023 0.11712785332 0.11927351779 0.16180552604 0.1637221623 
0.16943046136 0.16583239014 0.17012986637 0.12533881592 0.1210722553 0.12009079949 0.16993877946 0.17075123339 0.17051438916 
0.17138556564 0.17510567411 0.17490992777 0.17466911849 0.16756064325 0.16608723741 0.16916814711 0.14080774215 0.13674001065 
0.16618751424 0.16619464843 0.16592103999 0.158377102 0.15873060137 0.15854249557 0.17186923856 0.16000519317 0.15941229658 
0.12098018353 0.12026829867 0.11517461333 0.1634295718 0.16359457742 0.16304408785 0.16320527363 0.16062796391 0.15981005178 
0.13448711885 0.13720438988 0.1293451099 0.17402641225 0.10262279503 0.16587074715 0.17432828885 0.17385865526 0.14549315711 
0.15092148492 0.14365510443 0.15138853313 0.12474657734 0.11161853747 0.13531340834 0.15758669534 0.15718374417 0.15751865472 
0.15714989905 0.16501204602 0.16626497823 0.16378267238 0.14038159901 0.1431943423 0.10505534148 0.11529416431 0.1132749512 
0.1724036181 0.17131294638 0.16900850749 0.16947544567 0.14986736034 0.15184267331 0.17164348223 0.17112396812 0.17160440188 
0.17106697141 0.16212760234 0.16035904422 0.11738431655 0.11078674874 0.11259581431 0.10265832008 0.10929454849 0.17263958855 
0.15973578104 0.15976131453 0.15949079526 0.17028871138 0.16983640363 0.16840736119 0.16843216282 0.16916361725 0.16903702411 
0.16896901544 0.17046831123 0.14649424815 0.14925955514 0.14470728246 0.17352213617 0.17450569546 0.17495492609 0.15644310264 
0.15266600035 0.15373343979 0.17307850728 0.17002019961 0.1698923044 0.17053428937 0.17427536874 0.1745978101 0.17391885482 
0.17308755386 0.17349171713 0.17687400674 0.16128578258 0.16746301114 0.16639521959 0.16655301611 0.16998460856 0.15307830982 
0.15278268116 0.16816711802 0.16662312922 0.16798154189 0.16556205643 0.1568128021 0.15629179555 0.15642689685 0.15593270203 
0.15700497915 0.15737164496 0.15714988637 0.15009640734 0.14759742542 0.15046115827 0.16187081551 0.14893784787 0.1455647486 
0.17668528882 0.18648422216 0.20213212734 0.15666914587 0.15718856908 0.15659895687 0.15680034312 0.15746186345 0.15734586363 
0.15985469821 0.16044570369 0.25725754278 0.21958308853 0.15192196557 0.15115752327 0.15292076786 0.16122481821 0.16137918671 
0.15869955983 0.16385185856 0.15774864849 0.15850736482 0.15863081576 0.15965436646 0.15937138725 0.1595291381 0.17034219489 
0.17080581822 0.17088640909 0.16504115814 0.16473589485 0.15588523859 0.15043038882 0.10899955316 0.10862111353 0.15776454834 
0.15841112712 0.15853238137 0.15257485572 0.17341917058 0.17304909882 0.17310743936 0.16501236427 0.16550078921 0.16474003573 
0.16090719021 0.16159700586 0.16302326054 0.15448677139 0.15507400499 0.15455348641 0.15514647247 0.16596948572 0.16567741396 
0.1652100672 0.1558634233 0.22608912844 0.25555544769 0.23107829171 0.26556613019 0.15856270603 0.15882103462 0.1829090613 
0.18258926949 0.18663661952 0.21847722556 0.22224440175 0.21118807463 0.18083319264 0.17803502519 0.18488794395 0.18678388805 
0.16769828713 0.17112671784 0.17431558752 0.15543269086 0.15571470326 0.15526686772 0.15560939753 0.15616412705 0.15661757613 
0.15754521987 0.15815976882 0.15750680476 0.15812365984 0.15747109966 0.15632057107 0.15537090562 0.15293966856 0.16714031397 
0.16712917509 0.16739874671 0.16737217097 0.17922130479 0.15284700107 0.15366264952 0.1557873108 0.15625246497 0.1564041746 
0.1742728883 0.17397509836 0.12482536175 0.15661809498 0.15650803691 0.16587896731 0.16909435028 0.16712682672 0.17399840396 
0.15670867043 0.16931067105 0.16916525973 0.1698440092 0.16367505808 0.17364646943 0.17298263967 0.17342683848 0.17272054799 
0.15905593476 0.15855790222 0.16904803101 0.1516166165 0.15252101538 0.15116571441 0.16414182978 0.1791784198 0.16048643838 
0.16841454636 0.16775823428 0.16768296421 0.16649914066 0.16644995709 0.17881607825 0.17869982114 0.18256829549 0.18228008581 
0.16749284644 0.16435118274 0.16403517694 0.16948262261 0.16939566438 0.16717654002 0.17189283461 0.17236295542 0.17272141268 
0.14304541118 0.14632669052 0.13725031991 0.14093319417 0.17122709189 0.17097046109 0.11397336372 0.18568678583 0.19126760361 
0.18727497259 0.15882861087 0.17021411247 0.16983042087 0.14184342726 0.14455637988 0.1369388353 0.14051066027 0.14263458054 
0.14538048846 0.15350758775 0.15097489587 0.14530514958 0.14766048267 0.17194542131 0.17051098655 0.17082127648 0.16945881515 
0.17436960206 0.17458951568 0.14784988915 0.15465885987 0.15899630852 0.18097052382 0.1797778959 0.19011644726 0.19149607808 
0.13993002377 0.1372644488 0.1770144409 0.17622989792 0.17711532127 0.17511343045 0.1749923662 0.17558947384 0.16962755528 
0.16189360883 0.16522944523 0.16216232657 0.16445649211 0.17130139496 0.16146052477 0.16124972214 0.16033586927 0.16783480791 
0.16675089597 0.16796764699 0.17123511423 0.16985121025 0.15076265102 0.15250176572 0.15267938782 0.1755188801 0.17838757558 
0.17807124647 0.16745465529 0.1669203153 0.16643514131 0.16512027998 0.16365920281 0.16664810614 0.16511850867 0.16831740306 
0.16795951068 0.15685328244 0.15710412986 0.15742051295 0.16450992359 0.16510127856 0.16831235685 0.16766655597 0.1676948593 
0.17392137896 0.1732297999 0.16388241111 0.16939534642 0.16990337419 0.1701826953 0.17132945539 0.16996586568 0.17351534363 
0.15790418051 0.15775109228 0.15741322028 0.15725834783 0.15948208929 0.15770179387 0.17213827291 0.17258167036 0.15471008828 
0.15528815706 0.1741389789 0.16308772404 0.16316198343 0.14038595833 0.13851251174 0.13623485659 0.13387794598 0.15592533599 
0.15604933014 0.15557400404 0.15563851732 0.1600210578 0.15973872413 0.15976518391 0.15951459251 0.11426473705 0.1194092239 
0.1096882461 0.11430341003 0.14090239099 0.14074692128 0.14463964433 0.16648172789 0.16513793083 0.16517443236 0.16364982693 
0.16844808582 0.17445333224 0.16495783223 0.15679882301 0.15602290197 0.15537397138 0.15356000043 0.15179364145 0.14974718671 
0.1691366224 0.16887137962 0.16861216765 0.17920774215 0.18206241938 0.17929539006 0.14688007874 0.1748356021 0.15565620675 
0.15287168676 0.16896923751 0.16933499536 0.1561193077 0.15609540468 0.15722055933 0.1572402983 0.1556730468 0.16893421936 
0.16874720484 0.17011719833 0.16359500817 0.16309967773 0.16321551946 0.1688108798 0.15786284134 0.1585124823 0.16541928462 
0.16713912358 0.15927432916 0.15872118281 0.15929774234 0.14865246195 0.15033641785 0.17590736983 0.17631721269 0.17535409527 
0.15732605842 0.15676563428 0.15660820346 0.17553658943 0.1750104219 0.16709746867 0.15821665239 0.15821330465 0.15760249746 
0.15762867245 0.16133567481 0.14922675014 0.17264163365 0.1725561961 0.16439327954 0.16415269439 0.16666689654 0.16626854781 
0.16577451483 0.16403216465 0.16545652225 0.16638793919 0.16774092599 0.18438395128 0.18594763028 0.1880209913 0.16522115826 
0.17165914972 0.17214738219 0.17223828934 0.17431944618 0.17399002096 0.17466259543 0.13700639058 0.13594058994 0.13186304148 
0.13041868899 0.15355333307 0.15301254194 0.15515896683 0.15438468882 0.16775213875 0.16650228688 0.15087296557 0.14825609281 
0.15126685812 0.15892791857 0.15875047044 0.17678335373 0.1770549524 0.14313718152 0.16678458948 0.15706533883 0.15704526369 
0.15334550209 0.15634444265 0.17592288874 0.17566130384 0.17659016464 0.17451797635 0.17437879434 0.174537384 0.17452785906 
0.17482772606 0.15546277154 0.15590039017 0.16232634471 0.16242332296 0.16282858559 0.10334478476 0.10920114384 0.10339218322 
0.15926145806 0.15864615936 0.15870992185 0.18072141276 0.17821288307 0.15396377484 0.15452857123 0.26422859444 0.22495404297 
0.21247082063 0.15636587993 0.15597643633 0.15610193127 0.16737828247 0.16962692982 0.16676868658 0.16864268755 0.15221702192 
0.15334733507 0.1104181467 0.10291533592 0.10364983736 0.16634312715 0.16621110073 0.16611341071 0.17501331801 0.17547083009 
0.17491180067 0.15728358527 0.15831044105 0.15776014742 0.1727894726 0.1644825486 0.1644852264 0.14234999435 0.14579315842 
0.15579721734 0.15655907926 0.16361714513 0.16476286118 0.16413483201 0.16648860776 0.16657354286 0.15886651754 0.16867903782 
0.16902911271 0.1679205624 0.16685987594 0.16765809188 0.16654528508 0.1584276797 0.15787646561 0.15787838678 0.17554049797 
0.17293178624 0.25065985632 0.20209660378 0.21582849805 0.15481907604 0.15551545629 0.15799530846 0.16463880568 0.16723853399 
0.15840295799 0.14271483969 0.14400945323 0.16797557866 0.1678752783 0.16714231648 0.16675961805 0.15082827437 0.15283109539 
0.15299412671 0.18632404629 0.19683341415 0.16904733217 0.17054489606 0.20136033846 0.19296101402 0.20210379248 0.1762680014 
0.14468314811 0.16019486633 0.15955890572 0.21373625929 0.19699741795 0.20520561734 0.16008375027 0.1610643437 0.16281483422 
0.17139207482 0.16681436711 0.17464866021 0.14840502027 0.14617807636 0.16430761771 0.15818441174 0.16297750634 0.14563713507 
0.14548149066 0.15339539337 0.15094018504 0.14758241734 0.14727423204 0.15029369922 0.16666304817 0.15897413348 0.14635418275 
0.14098126233 0.15896937765 0.1589019065 0.1535368358 0.15373004126 0.15439496111 0.15911747523 0.1425626043 0.1140115813 
0.11479529597 0.10932496962 0.16121635389 0.14923163147 0.14852615919 0.14532119874 0.12502154178 0.1349453626 0.1302460555 
0.1362377074 0.17388920037 0.1738569232 0.17341985923 0.15494321069 0.15478348454 0.15402871248 0.14182430274 0.17382795469 
0.17340327589 0.15739855405 0.15655680003 0.14866536144 0.1420539 0.16027502725 0.16065815415 0.17667737473 0.16203226459 
0.16288760848 0.16393528649 0.15225474529 0.15072105545 0.15912359545 0.15920183664 0.15931693701 0.15943005573 0.15539358813 
0.1558216331 0.15499027282 0.1753115557 0.176995549 0.17418722065 0.14167965504 0.14155371485 0.17708882917 0.17046915239 
0.17038582413 0.16971931097 0.14300858855 0.14770759191 0.16304947651 0.1569862967 0.15758783378 0.1755625312 0.1733561909 
0.16913662276 0.17374529547 0.17287751276 0.17573306662 0.17459614333 0.18203490431 0.18373706206 0.18566772724 0.15850928283 
0.15759257682 0.15933182532 0.15919357656 0.16243912976 0.15853908928 0.15899565979 0.15910516846 0.2336995183 0.2068380948 
0.14812608551 0.1508428707 0.14974562195 0.1585984806 0.15871716897 0.15842654966 0.1587253154 0.14831246925 0.16155332036 
0.16079546423 0.15997944037 0.16897404833 0.15513409485 0.15423271435 0.15409636118 0.15905526433 0.15336993068 0.15552231846 
0.15626185995 0.17595797082 0.15727657471 0.163929338 0.16405899295 0.16257385838 0.16311265177 0.16319352561 0.16336188771 
0.16290932576 0.16359059846 0.20430693332 0.23160056723 0.15874500557 0.15884131618 0.17497596558 0.16223825046 0.16164005639 
0.16136826745 0.16304820699 0.15915220751 0.15886336592 0.15940430444 0.17311182626 0.15695586463 0.15731061332 0.16250427581 
0.1620232541 0.16259261034 0.16301380781 0.15797381979 0.15757699088 0.15805280987 0.1576110232 0.1745109993 0.17782240688 
0.14071765187 0.15618549327 0.16771072212 0.16703939841 0.152314327 0.14861189616 0.15101962032 0.15870185057 0.15890551736 
0.15869609318 0.16185379472 0.16476065962 0.16461351478 0.15623025617 0.15660317528 0.15154141525 0.18660254551 0.18719033008 
0.16888095604 0.17104956693 0.17113802864 0.17088644786 0.17032884025 0.15833886744 0.16725588369 0.16665840325 0.15695249386 
0.15675640806 0.15694726868 0.10441643943 0.11313952025 0.10366291769 0.16517023799 0.16698826111 0.15628728534 0.14369483809 
0.14792616248 0.14449207019 0.1731698098 0.17004443785 0.15230713194 0.12981631144 0.13688588003 0.14146676386 0.15833553634 
0.16894346272 0.17957607449 0.16203232451 0.1287433969 0.12269788103 0.13402825161 0.1578704439 0.15633319751 0.15629370959 
0.15870665609 0.1610642898 0.15927886455 0.15806934403 0.15854500499 0.15710904058 0.15440644213 0.19722176278 0.16651780039 
0.16798354117 0.1664499429 0.14767842054 0.14585327169 0.16163467308 0.26099671051 0.3178343201 0.20468665752 0.1861169226 
0.19199959494 0.1450129625 0.17460545367 0.17592241967 0.17711995793 0.17721180942 0.17148118329 0.17187197296 0.1709824864 
0.15376047855 0.15467742004 0.15497737172 0.16109522902 0.16180786322 0.16020999792 0.16083910436 0.11015736357 0.10270262428 
0.10318600045 0.15411128524 0.15304407268 0.13521272895 0.12953085947 0.13530693101 0.1599626228 0.14275234545 0.14460378798 
0.14733663624 0.16146729006 0.15782881125 0.15731893224 0.15152247811 0.17227151769 0.18426688801 0.17809463702 0.16952535721 
0.16946825199 0.16877622331 0.16774856144 0.16675993293 0.1672041929 0.15292879911 0.1847988222 0.16596472378 0.1648175474 
0.1954033179 0.19120559737 0.1975263831 0.1520241723 0.15132074846 0.15299501783 0.15947508552 0.15992515255 0.15912850545 
0.16920392877 0.16898630356 0.15178059109 0.15330913383 0.15329399416 0.1637467659 0.15877227053 0.18343740274 0.16792452556 
0.14808468672 0.13878748738 0.15139002499 0.19125297105 0.15764099326 0.22743443112 0.14994561308 0.15076176381 0.16921917853 
0.16986891433 0.16988198603 0.17049266395 0.17434872857 0.17440487966 0.17337529137 0.1680898814 0.22887843641 0.19146711657 
0.1719179088 0.17396872672 0.16328009537 0.15999008251 0.15956774996 0.15923107248 0.1584308099 0.16230352748 0.16106839354 
0.15578851501 0.14275465988 0.14497851421 0.14527700704 0.15610796567 0.15619002322 0.15528665335 0.16671720439 0.16471307369 
0.16499675191 0.16775840249 0.16755005775 0.16659572729 0.15605174986 0.15558287373 0.18121250223 0.17398876688 0.15403872288 
0.15417081962 0.15712108535 0.15621223046 0.17533201851 0.17332723913 0.17435826594 0.15493196103 0.17156746487 0.16995783736 
0.17148832086 0.20524344838 0.20043381729 0.20262557926 0.1562806275 0.15577155792 0.15643623967 0.14239003608 0.15107927477 
0.15229782349 0.15256991515 0.15333658139 0.1676096828 0.15651848306 0.15937529786 0.15981034316 0.15707206223 0.16609265564 
0.16487392892 0.16600676022 0.15931234498 0.158712646 0.15659535978 0.17052999469 0.17128241353 0.17915001065 0.18096505246 
0.16047782858 0.16080886188 0.16142947829 0.16182040714 0.17556557699 0.1751331899 0.15370798887 0.153798435 0.15915584713 
0.1708880758 0.16728965483 0.16689864764 0.16666024464 0.16628943485 0.15892343274 0.15875247529 0.16611483484 0.16589692892 
0.16580970924 0.16619410332 0.17071767797 0.17031389515 0.17080602836 0.18619386273 0.16703725483 0.14754031398 0.14484816497 
0.16189695248 0.16192110927 0.16235055356 0.16239812996 0.16992436771 0.16462907179 0.14029297527 0.1786767391 0.16984949334 
0.16964421237 0.17128866865 0.17851161893 0.1968121954 0.18855749331 0.16879935022 0.1696505772 0.17191437756 0.16822296271 
0.16961610435 0.15695977362 0.15897622007 0.15954490977 0.16467172804 0.16373600977 0.17304901312 0.17271270961 0.17379471996 
0.19930400188 0.17993461557 0.21549814796 0.16513830927 0.16484739113 0.16475073626 0.15968417683 0.13542337958 0.13717510401 
0.14138377932 0.16546101527 0.16395463453 0.15456447945 0.17064905155 0.17113768647 0.10348904898 0.10952106215 0.16571995417 
0.16428843115 0.16612270299 0.16538519709 0.15034928782 0.15077066006 0.15618656559 0.15519966617 0.15540557399 0.15480365662 
0.15594675062 0.15469108004 0.15294229466 0.15365408928 0.15595798153 0.14371133144 0.14665961638 0.14749118195 0.16624898071 
0.13289881396 0.13302446014 0.1283706829 0.12827868099 0.15511542411 0.15535551454 0.19298191288 0.18936266374 0.17465816884 
0.17489389303 0.16817849169 0.16775731685 0.16803174792 0.15736505477 0.14980127801 0.15341914091 0.17593859512 0.17702341347 
0.17565973555 0.17563540529 0.17622054021 0.16986140199 0.15914818328 0.15626651013 0.16111159067 0.16151183198 0.17122873751 
0.16141161835 0.16993735758 0.15672140771 0.1713852256 0.15538915977 0.15525503266 0.15420621126 0.15704719067 0.15653595698 
0.15622139297 0.15589243457 0.15595579317 0.15553432873 0.17201781123 0.15681089678 0.25788570855 0.1600679358 0.14233424491 
0.19158340613 0.19407339989 0.17723874886 0.17314776525 0.14952872829 0.15134694611 0.14888416679 0.18666984602 0.15166505628 
0.15426485707 0.15052066201 0.15300598967 0.15990062778 0.16030073928 0.15953035111 0.1592755872 0.17481857374 0.17457887636 
0.17474459733 0.16291038673 0.1642664943 0.16640801824 0.15923401628 0.1597936247 0.16453613922 0.16698695474 0.16202859764 
0.16219074856 0.17673520419 0.17395560996 0.15261763801 0.14056875789 0.14781480783 0.14880743327 0.16392396333 0.16274346718 
0.1621075288 0.17586472496 0.17776598921 0.17322698789 0.19553625372 0.18284701445 0.18370443636 0.15904909592 0.17569271482 
0.17709674385 0.16462171056 0.15422272078 0.15396658192 0.15931664725 0.16843251787 0.16798346239 0.16766275129 0.16715464106 
0.18618052985 0.19505489985 0.18403074266 0.18119062357 0.18411880426 0.17458176059 0.17583346129 0.17278457685 0.16078627158 
0.16094009982 0.18395975927 0.16678135874 0.17662065393 0.15822914973 0.15802837717 0.16352796255 0.17558723904 0.16074682216 
0.16080232945 0.10363497245 0.15971578409 0.15947273719 0.17258854411 0.15749280666 0.15666555736 0.1570068135 0.15659633274 
0.15640437361 0.15588245915 0.15928427843 0.16501180854 0.16539929513 0.16516479956 0.10448194268 0.16018062753 0.14213382018 
0.17648105103 0.17168641855 0.17262928555 0.15894611102 0.15880801229 0.15915004037 0.15667457628 0.15728051094 0.15702900822 
0.16871255149 0.16799614369 0.16845152552 0.14967303412 0.16774955304 0.16555132026 0.16742597033 0.16997497729 0.1696758271 
0.17011651746 0.16193253732 0.15149959095 0.15028934636 0.15317134255 0.16801764656 0.16403430459 0.16606264117 0.11963368873 
0.16948164322 0.16879979364 0.16901264512 0.16529635316 0.16550522122 0.16669247376 0.15897515982 0.16430193888 0.13822356647 
0.15628260676 0.15514915643 0.17011821216 0.17092529389 0.15925251835 0.17963788071 0.17787693637 0.16989461732 0.17047126644 
0.17217871697 0.17560104256 0.1663752861 0.16827624189 0.16832316197 0.16662992021 0.15932389053 0.15987310053 0.15922651549 
0.16379605297 0.16455691927 0.19865004484 0.20558117467 0.20982899548 0.22158843735 0.16343329649 0.16258505276 0.16239278676 
0.17405512737 0.16417022123 0.16652694879 0.16841191185 0.15522225898 0.2104607763 0.21000502827 0.17175406949 0.17374888568 
0.17122938688 0.17073539345 0.17024038766 0.17083815231 0.16072661969 0.158442191 0.11007055733 0.10997549506 0.11603581065 
0.17567743086 0.17337759879 0.17338635039 0.16597182816 0.16471030124 0.16552548706 0.15746896192 0.16008873251 0.16041524791 
0.16515723269 0.16446944868 0.16225719981 0.15967602496 0.11027384667 0.1156890324 0.10416844052 0.10264039214 0.15150152971 
0.14864828961 0.16206834677 0.1656057978 0.16518053565 0.15941136837 0.16003499481 0.16382788508 0.16422110125 0.16528072472 
0.15277806526 0.15497097989 0.15553049291 0.15504979396 0.1521735801 0.15652157562 0.16637980829 0.1665374944 0.1664138368 
0.1665747515 0.15424634803 0.1531980455 0.15920061563 0.1714956497 0.17144014262 0.1561168821 0.15597236237 0.15632900172 
0.12716178233 0.12918407319 0.12241447116 0.17499361967 0.16714693953 0.16980963652 0.15882216873 0.20576384682 0.18413415645 
0.22123676507 0.19587532007 0.17013180048 0.16968501308 0.16919203729 0.16976527339 0.14173484866 0.17486315751 0.17484288766 
0.17132272943 0.17120146087 0.16713321406 0.15394694956 0.15317685013 0.1533016979 0.17099427852 0.17027399026 0.1521866873 
0.15723303774 0.15723566094 0.17451343279 0.17465679321 0.17484637813 0.17501978896 0.15207390832 0.15933262931 0.15849156417 
0.15881548685 0.16191834185 0.16141635055 0.12458049942 0.12950095196 0.12375394206 0.15890331753 0.1545551372 0.15466986985 
0.15557590797 0.15597264044 0.15133182007 0.1546805171 0.15510707382 0.15798724917 0.15360172313 0.16710350995 0.16696102085 
0.16673652972 0.16298776881 0.16244416738 0.18084591015 0.17206204245 0.19347272168 0.16185273546 0.16270594547 0.17394043997 
0.17549309988 0.15228718405 0.15687695669 0.1696806899 0.16974467931 0.16988770418 0.16917861257 0.15410313294 0.1410820354 
0.17563431943 0.17488944969 0.16708895051 0.16745400529 0.15658978037 0.15713759434 0.15698250388 0.15513917164 0.15606292934 
0.1547670263 0.15528782472 0.16881082264 0.16820182235 0.16489333037 0.16184768335 0.14689500058 0.13224610126 0.12750314632 
0.16975321402 0.16970124921 0.20929752039 0.16415465587 0.16403844377 0.1640246782 0.17176578374 0.15771369838 0.15746346885 
0.1570521256 0.14514445847 0.15500663732 0.16150081419 0.15653830867 0.1542951629 0.16111000021 0.16078558872 0.16188155594 
0.16730305547 0.15687390889 0.15589826958 0.15859796809 0.16919384645 0.1683827395 0.16863684419 0.16909697456 0.18074290713 
0.18721635504 0.18152612381 0.15420961004 0.15319113028 0.15397175099 0.16052426324 0.15947767386 0.15875460907 0.16049490021 
0.16042671866 0.17050458172 0.15815559125 0.15754029662 0.15994385021 0.1594810034 0.15776115552 0.1574471001 0.16155139329 
0.16111123132 0.16158621694 0.16461074022 0.11416547146 0.11940913713 0.11330531686 0.11873451817 0.16515119836 0.16377812439 
0.1611937004 0.1447211116 0.15015447935 0.16925846569 0.14878768154 0.11161856529 0.16783935081 0.15754799738 0.15596216455 
0.15771890267 0.16686484047 0.1641088753 0.16640555767 0.15742686847 0.16107936284 0.16085740765 0.16025361388 0.15895884199 
0.15945084749 0.14503285263 0.14191615198 0.17602341161 0.17539053305 0.14203857034 0.17552895465 0.17594619182 0.16287741063 
0.15551633745 0.15631593451 0.15503318114 0.15938186504 0.15886330305 0.15923344439 0.16326825353 0.15656317218 0.15632348623 
0.15966252611 0.21214169584 0.15362818033 0.15653702768 0.16124639659 0.1657979036 0.16664849403 0.16671659945 0.18358289016 
0.18687612621 0.16646184093 0.15940926713 0.1591232933 0.1668933936 0.16653512471 0.16671976672 0.13388223325 0.13820095136 
0.14798264379 0.14193264872 0.16723825443 0.16942666107 0.16010006552 0.15852244672 0.15623253193 0.15696668358 0.16371681596 
0.16432661305 0.17204710314 0.17198576431 0.17102563442 0.17516856467 0.15846799666 0.14993924329 0.15100706134 0.17419341299 
0.17396047377 0.1732346006 0.17215045765 0.14935840308 0.17345539836 0.17148827047 0.17496353788 0.18369405783 0.1855738522 
0.17995489688 0.17985656389 0.15387056363 0.15501732145 0.15383551847 0.162194701 0.14111524704 0.15462106656 0.17328969459 
0.15621186557 0.16678727702 0.16665181626 0.15568782299 0.15586033918 0.14523415928 0.16998428948 0.15746958534 0.15976271071 
0.16075410148 0.15379629564 0.15597236824 0.15797684035 0.15754668231 0.15687775477 0.15659126883 0.15825155859 0.15866284917 
0.15833697606 0.16352633792 0.15764780926 0.15727609244 0.15781914791 0.15993349743 0.15968090056 0.15798959207 0.15791354418 
0.1605777118 0.15995331062 0.17411078908 0.1607000437 0.1636918913 0.15844955771 0.16111963921 0.15755076296 0.16141931018 
0.16032759135 0.15843574539 0.15795304513 0.16839324629 0.18196223747 0.17865689571 0.18138333083 0.16846825145 0.16044846031 
0.15994235618 0.15929820003 0.16188218006 0.15779802461 0.15780933605 0.15856396907 0.17196172037 0.14615353139 0.16134210489 
0.16248179804 0.16195845814 0.15607890922 0.15513695942 0.15559766378 0.16288800934 0.15883529614 0.15878715055 0.15820443297 
0.15651055243 0.1473223307 0.15445886512 0.16059524152 0.16066056832 0.16139513865 0.15878784746 0.12201675904 0.15607201171 
0.14029120687 0.14626664067 0.14412586055 0.14529605769 0.173891156 0.17451228808 0.17442640702 0.15902781559 0.15897692957 
0.15319112723 0.16875554501 0.16974400015 0.15568967985 0.15828459797 0.15825485564 0.15770086387 0.14414870186 0.16080769137 
0.16056118965 0.14825036282 0.14615903951 0.14669886186 0.16811171469 0.17303563636 0.1736989143 0.18005519934 0.17107910915 
0.16997408778 0.16346720892 0.16519829843 0.1666679765 0.16666670643 0.16520745185 0.1639586132 0.16517656452 0.16669451826 
0.15949597625 0.16341508278 0.16745459241 0.1674852684 0.16772787876 0.16777570766 0.15348779655 0.15263895514 0.14971352979 
0.14767224458 0.17566247481 0.17378315746 0.13604780125 0.13216911089 0.14083299555 0.16872411808 0.16740504003 0.1676586954 
0.17365427738 0.16926599677 0.16917224292 0.15542499729 0.12922593443 0.1580362262 0.12461229197 0.12496685363 0.11959747113 
0.16730236631 0.14591978511 0.1319466996 0.13804034228 0.12435769852 0.12369297548 0.12928465568 0.13378663931 0.12867957264 
0.14031838717 0.17363871268 0.17325384651 0.17354980493 0.18821996318 0.18860214375 0.19469532444 0.16586240228 0.16549484451 
0.16554310678 0.16571294427 0.16586706841 0.1684486752 0.16794036654 0.16757268457 0.16806373787 0.10357269031 0.10912554438 
0.1030555032 0.16670489099 0.16621649636 0.15863705806 0.16042192214 0.15390338529 0.16850273418 0.15804650731 0.15968746506 
0.15769715353 0.1771813364 0.17597393251 0.17405246052 0.17338330562 0.17398030522 0.16154696457 0.16907928371 0.15747547941 
0.15851623222 0.15902432584 0.16083638121 0.16050894205 0.16001916183 0.15441224107 0.15429134116 0.15026324645 0.15217644688 
0.15118418706 0.15555119753 0.15526219765 0.16815657738 0.15017056643 0.15048485128 0.16192654283 0.14726668451 0.1501799465 
0.16720818569 0.16700610487 0.15676468822 0.14669592855 0.1636926556 0.16636055599 0.16833840768 0.17004506647 0.17002723064 
0.17746592295 0.17670028928 0.16661944147 0.14557537898 0.10453356288 0.15815640136 0.158469655 0.16002040796 0.15901096357 
0.20769784176 0.23024325894 0.14459748629 0.10334930104 0.14242854964 0.17584251372 0.17582164102 0.17520744713 0.1554116343 
0.15506471271 0.15389504846 0.15311867877 0.15475255626 0.16000268332 0.15938018565 0.158713747 0.1672518226 0.16741508805 
0.1555148291 0.16310978085 0.15845298248 0.15885313738 0.15330940328 0.15807001412 0.15782843937 0.15770997659 0.16054910247 
0.15511500176 0.15506989543 0.16505472506 0.16383901734 0.163821221 0.14384824179 0.15702957437 0.16011853112 0.15985584034 
0.15828178362 0.15517787428 0.16027015905 0.17317450039 0.17290281465 0.16245375245 0.15826509708 0.15631930037 0.15605165938 
0.15724532632 0.15884674017 0.15897464013 0.15720222332 0.15584779101 0.17091993685 0.16190015376 0.11443681941 0.11466521405 
0.10978803019 0.16368733493 0.16149314088 0.16142020141 0.16305729703 0.18030931612 0.16001368261 0.16861640381 0.17283074993 
0.17330396794 0.1739236982 0.16789463064 0.16917691028 0.16310075688 0.16210646134 0.15787407108 0.15823165682 0.15820497132 
0.16381906106 0.16248767882 0.16641236197 0.16511831632 0.18384477793 0.17891219953 0.17719007055 0.14198338711 0.11994339586 
0.17997665779 0.18202866311 0.17594047544 0.17762466876 0.16551341317 0.16561536749 0.159617046 0.15898433392 0.15141204023 
0.14960603838 0.155712522 0.15440902526 0.13748157258 0.14429932697 0.13309986923 0.15933207045 0.15936265816 0.15910321431 
0.18136786478 0.15887664707 0.15933855868 0.17459948526 0.17711947944 0.18841915496 0.18935923697 0.18359008617 0.17548282238 
0.1586593826 0.17287061093 0.17171381189 0.17418529747 0.16936071589 0.16754029079 0.15063666485 0.14979854539 0.15729261278 
0.15714286599 0.15646603072 0.15825268012 0.15863644402 0.15826607048 0.15786691217 0.16690035742 0.16096678983 0.15310604211 
0.15524555737 0.15648000419 0.15634344235 0.15567516186 0.15584433646 0.15620965407 0.15437876437 0.15757476167 0.19103314786 
0.16564973157 0.17148412421 0.15000177472 0.15389656175 0.17310403083 0.1481760189 0.14182369061 0.14148160604 0.15959128361 
0.15874104943 0.15939733824 0.16927488409 0.16933284154 0.17100716015 0.19008940951 0.15591482633 0.15532597455 0.15985267248 
0.15502005941 0.32064004517 0.3315349777 0.15516900396 0.15425622518 0.18504894061 0.16780287643 0.14326438824 0.26117026146 
0.22895144827 0.22852246944 0.17594775388 0.17607679931 0.17534891825 0.17208877276 0.17280225785 0.15349131639 0.16750463979 
0.1677707582 0.17202618188 0.16782589762 0.17016451499 0.16962445985 0.16637144367 0.16326069405 0.16035772592 0.16064066643 
0.1605083803 0.15991706049 0.22037974969 0.15839213754 0.17260320099 0.210671542 0.15670133169 0.1566613782 0.15576715182 
0.16654779796 0.16710845044 0.16679600914 0.15339360622 0.15394810544 0.16682297968 0.15655653662 0.15747739073 0.15641922363 
0.15674467213 0.16728380965 0.16732436046 0.16758652297 0.1748179013 0.16103595847 0.16067335485 0.15739733569 0.15422954196 
0.15479073802 0.17472493563 0.17499354116 0.16572832828 0.16791849893 0.17058470384 0.17428665413 0.14123264351 0.17447556506 
0.16834888753 0.17472831355 0.16702891352 0.17716604698 0.17545697639 0.1736348062 0.16552398428 0.17343538398 0.17542802693 
0.17610952293 0.18008325783 0.1931494293 0.18895453925 0.16207109952 0.1606350903 0.16948867294 0.16951706728 0.16598750069 
0.14110366108 0.16023244546 0.12278180505 0.1681110045 0.159285474 0.16145875326 0.15201152432 0.15023473741 0.15270589753 
0.15466608247 0.15481308164 0.15942549269 0.16016637825 0.15803671467 0.20275372845 0.1941923929 0.16077901605 0.16372684364 
0.15849172498 0.15818056205 0.19095327519 0.15445443268 0.16122557799 0.15547485044 0.15660407315 0.15519262575 0.17450764413 
0.17457301702 0.16279432066 0.15778903656 0.15848545969 0.17752179862 0.15551912881 0.15955751673 0.16181762735 0.16223475023 
0.16182907962 0.15615620317 0.15504935548 0.15488838338 0.15538558379 0.17700609883 0.13372433124 0.16122884646 0.16178227264 
0.16999997887 0.17050528888 0.1785289088 0.17881998741 0.17059942235 0.16969559065 0.17961243545 0.16067603959 0.15997969217 
0.15949431252 0.17189996629 0.15796430902 0.16963057946 0.14070379842 0.1397316321 0.16357258187 0.14532546468 0.14756102118 
0.14594463062 0.14820279044 0.16566040978 0.16533158141 0.16264654841 0.16581059679 0.1663561674 0.16450072966 0.16792436146 
0.16515399304 0.17466551962 0.15728612055 0.14235675056 0.16530248701 0.16569309168 0.15497918422 0.20155591636 0.20405740882 
0.15930128799 0.15402159499 0.15313056022 0.16816087371 0.1724724763 0.18733456187 0.14571445399 0.17032703267 0.16985233153 
0.16908542279 0.15504249885 0.15323400482 0.19617516706 0.19355848356 0.17210144422 0.1699785286 0.15901569091 0.15450728657 
0.15353211982 0.16660554459 0.15849922875 0.16686111677 0.1666796917 0.16615223063 0.16585262601 0.15888793338 0.15905220845 
0.15891056892 0.15964531391 0.16411600875 0.15877692469 0.16092463971 0.1605921129 0.16040119855 0.15970856881 0.16262417752 
0.15584316359 0.16300829472 0.1619456973 0.15760371588 0.15538805508 0.15756984128 0.15692142189 0.15805049638 0.15133358861 
0.15026254658 0.14310903263 0.14910239615 0.14838020276 0.14365909339 0.14032767237 0.15196137155 0.13794780336 0.12681152091 
0.17513025063 0.17481866592 0.1586245184 0.1525554417 0.15680407299 0.12974040563 0.15901368052 0.1573561593 0.15720591201 
0.15721235955 0.15737235545 0.15211618067 0.1516214673 0.16698226329 0.15791334758 0.16549698667 0.16637336737 0.15479130909 
0.15305680047 0.15386182515 0.15318303327 0.15139603971 0.16056326789 0.16020567987 0.1606602047 0.10358039396 0.10873498581 
0.14181904759 0.14563629316 0.1452916889 0.16830209429 0.15746366389 0.12683286159 0.12347855306 0.18249976525 0.20768585886 
0.15147750979 0.16664463271 0.16596366399 0.16041373671 0.10304207345 0.19014850535 0.18472921942 0.16043151927 0.16077147607 
0.15983897144 0.16018830569 0.15936816578 0.15881265163 0.17119325968 0.1683738995 0.15558572904 0.12055251452 0.22221235511 
0.15763265806 0.1695078423 0.13783486147 0.13300427131 0.14062625541 0.16989343331 0.17001008754 0.15613571254 0.16529300468 
0.16337634944 0.15223570363 0.15681578343 0.15660984979 0.15961538837 0.15905863523 0.1230945194 0.11846403737 0.10340322391 
0.14378941125 0.1669120494 0.13570689599 0.12984509983 0.17623675071 0.17292676963 0.18707618903 0.17704739081 0.14028350284 
0.15107982517 0.15381519583 0.16091567396 0.16784517414 0.1670875413 0.17163029194 0.17160225203 0.17110115939 0.15964136071 
0.16011270703 0.16093993173 0.16328629575 0.16169696808 0.16267630852 0.15912662044 0.15910672826 0.1540556292 0.1541076924 
0.15697711999 0.15798867545 0.16335308622 0.11468864452 0.13870193216 0.14288594534 0.13933232103 0.17033707248 0.1588120026 
0.14203537393 0.16619915736 0.16588116647 0.12316258873 0.16077831367 0.15865958338 0.21048734164 0.15987529078 0.12049485856 
0.11550690433 0.12151605129 0.16507190591 0.16357766278 0.16511542603 0.16661865664 0.15959109913 0.16352346637 0.16234927337 
0.11870538986 0.12324437799 0.16228242686 0.16125972571 0.15781298762 0.16363086574 0.18029495805 0.16283946073 0.20193978357 
0.16269524227 0.16063762787 0.16139866173 0.16339985708 0.15013479625 0.14429059319 0.18307320265 0.17789576355 0.15516622614 
0.14239408377 0.19151032813 0.15594293173 0.14100390588 0.17677329605 0.14116320273 0.15471477511 0.17406647264 0.16389435632 
0.16008712352 0.16615501435 0.16643303981 0.16623992458 0.15994893923 0.16053901072 0.17344812078 0.17465349986 0.1742669618 
0.1729370749 0.16925036261 0.17227600823 0.17461412004 0.17461055037 0.1659438112 0.17880116001 0.1478528522 0.15845639682 
0.17083404253 0.167167823 0.16584893443 0.12623319892 0.16065560995 0.16566350259 0.15010610176 0.16603955653 0.18176169609 
0.18129372841 0.15991578495 0.15940567443 0.15877850247 0.14788347963 0.15454423841 0.14909854093 0.1578899303 0.14751544099 
0.14352727619 0.14716232585 0.15599988073 0.15994039659 0.12671636038 0.17528300784 0.17213508227 0.17058734267 0.15769723582 
0.15841039439 0.15820918725 0.15890395344 0.13736840358 0.16663799454 0.14847147361 0.15036497234 0.15197785379 0.11480086086 
0.17109186071 0.15641816182 0.17086354174 0.17145999318 0.17137581313 0.16203431153 0.17430838455 0.16100982868 0.15967863429 
0.16884873463 0.17435045926 0.15966990684 0.16239888203 0.16834239226 0.17225012658 0.15893020551 0.16206576185 0.16279250038 
0.15777344635 0.13150721805 0.1584544157 0.15928660847 0.16057133521 0.16121589401 0.16196675012 0.16190833393 0.16528270709 
0.15619816251 0.15444704859 0.15667986706 0.1420729622 0.14187912301 0.14476219276 0.16008203364 0.1632841323 0.11955787848 
0.12972650063 0.16709682405 0.18003620912 0.16304171335 0.1566430944 0.15726555402 0.15867047176 0.20354468716 0.16337662995 
0.16230129434 0.16224601828 0.16346001292 0.15881729653 0.1073940417 0.1591074001 0.15905254133 0.15730328196 0.17871135569 
0.17254973663 0.17254037183 0.16031076179 0.16070925494 0.16787364824 0.14411915313 0.12598958706 0.13491012186 0.10376434534 
0.11896509847 0.12673738606 0.14812232412 0.15500932205 0.15922936925 0.16768254883 0.17430919975 0.16345072552 0.16230021241 
0.1644583067 0.1575823017 0.17497908495 0.17460557567 0.172765543 0.17302900024 0.17246756908 0.16916433053 0.17352189949 
0.15900286903 0.14782879983 0.16667021093 0.16660692851 0.16638869725 0.1481890898 0.16604279157 0.14445518047 0.15422303775 
0.1579561162 0.15846142693 0.16443361067 0.1588179018 0.15885292002 0.15913210806 0.15903035625 0.15897326111 0.16605161597 
0.15108649179 0.14907435491 0.14959891817 0.16055486289 0.14383881943 0.14820219678 0.14779986586 0.14483112564 0.12863482468 
0.1229353855 0.11693163886 0.17535481231 0.15691610077 0.15864723972 0.16829589048 0.15801958117 0.16206341737 0.12311185959 
0.17166179763 0.15223015815 0.17415058496 0.163022982 0.1608014519 0.16221820741 0.20082575315 0.12498572608 0.16216455322 
0.14618165295 0.17060767005 0.16724030758 0.14380318271 0.15118117426 0.16633306489 0.15588071163 0.17508851324 0.16141632038 
0.15780000402 0.17492353208 0.1591023971 0.15915702402 0.1607039568 0.16809175995 0.16853682059 0.16304673714 0.16231854709 
0.17459619251 0.16008957002 0.14527535407 0.16142063837 0.16076997916 0.16660492703 0.16657149466 0.16681266164 0.16630850571 
0.16617240038 0.16016682855 0.16774436477 0.16768153191 0.16630614176 0.17193986098 0.16509299857 0.15129143831 0.16400582387 
0.16132037109 0.15279832326 0.152598143 0.16429699603 0.13504857559 0.15166841632 0.15154597575 0.15797387964 0.16602531225 
0.16100561482 0.16027600502 0.14247170257 0.14918089431 0.1163734477 0.1969369562 0.17968293752 0.1927184304 0.11359796395 
0.16659907732 0.16851402337 0.16715466125 0.17611757857 0.17544612962 0.17524606463 0.15884041124 0.15906432154 0.15922143534 
0.15478177164 0.1566609263 0.15864727218 0.15890885091 0.15840875407 0.16513319621 0.16466372919 0.17440083865 0.15586669263 
0.1593599844 0.15205508956 0.14984221526 0.15243940454 0.1523666058 0.1659670583 0.16630443409 0.16848600731 0.17403401729 
0.17320262604 0.12652404749 0.12570714422 0.10976969982 0.13320912275 0.13860658614 0.17010424248 0.16835652755 0.11223265442 
0.16415972324 0.17457539991 0.16448718797 0.12473013536 0.1251281539 0.14728781498 0.14796443853 0.14908278334 0.17112941558 
0.15695599142 0.18560034675 0.17877352177 0.16520953039 0.16340253899 0.17016856484 0.15496272764 0.1559403899 0.17835368632 
0.12813467994 0.18119726371 0.1592889875 0.16804045747 0.27272628496 0.17393402828 0.16248881069 0.16511627408 0.17165342854 
0.15825896113 0.17296107914 0.18113442359 0.17437664271 0.1551417672 0.16642079153 0.15122867857 0.1637150765 0.14305091825 
0.16122095504 0.1575845555 0.15902745729 0.16892350219 0.16369561815 0.17269781872 0.1677547169 0.16276495391 0.16553342683 
0.14986210395 0.16228922012 0.16219134114 0.10840468497 0.15356600134 0.1536717096 0.15819848924 0.1674346005 0.14344432959 
0.1577383075 0.15657555071 0.23785908327 0.15378318315 0.14345882981 0.15435008321 0.15884810432 0.16696088753 0.16656377393 
0.16869801657 0.15732372853 0.17043592712 0.16780515927 0.15388902826 0.15265089737 0.15089736114 0.15555331163 0.15446961094 
0.15152612949 0.17192675174 0.17147642078 0.1946604368 0.15437578779 0.16861900304 0.16878389569 0.16991616005 0.16652423554 
0.16728839541 0.15259022544 0.16836288233 0.15455484455 0.15427741078 0.15235851585 0.16319460521 0.15397491988 0.15561905907 
0.16152143657 0.15919432502 0.16233250117 0.16573112818 0.16522914314 0.17037685187 0.17148051008 0.14719821605 0.14299463578 
0.17175927746 0.13454238358 0.15609353453 0.15621171221 0.11488402991 0.16356442066 0.16703781417 0.17311899048 0.17049123364 
0.17106075818 0.16257588797 0.15529266553 0.16936696991 0.15662397767 0.1568824464 0.15887553273 0.16249657055 0.16327892023 
0.10600249873 0.16192168933 0.16380098941 0.15972220065 0.15713241906 0.15069000417 0.15289209816 0.15975879787 0.13411483951 
0.17963366196 0.170454392 0.18758678376 0.1764686005 0.1757066059 0.15583123384 0.16335860638 0.1132349604 0.17377178173 
0.16673738007 0.15690913263 0.16733213365 0.16221251667 0.15709043796 0.1193106136 0.16263572831 0.15740061947 0.16513342802 
0.15662707711 0.15682945468 0.15697260168 0.15714635065 0.16141270996 0.1582377728 0.15669657189 0.1573492619 0.16036780738 
0.17629200933 0.17656126215 0.14146258642 0.15659458777 0.17368923816 0.15268425956 0.16364152655 0.16254151931 0.17443646352 
0.17258249756 0.16321497146 0.16490361248 0.16638270479 0.17465084736 0.17298639404 0.17660901121 0.1771188417 0.15444858444 
0.20853029059 0.15707409264 0.14837810417 0.15321307714 0.15566081922 0.15042267596 0.16169374168 0.16355352209 0.16445538573 
0.16290241723 0.16153590616 0.17027423815 0.1807002371 0.1824392977 0.16463579889 0.14882679006 0.17010408709 0.15229222372 
0.17740693335 0.1747576713 0.1736337422 0.14826396342 0.15614159036 0.15803601857 0.1640721082 0.15470155196 0.16016023925 
0.15978782993 0.16667728394 0.16684051486 0.16745422911 0.1716988944 0.15164107451 0.15725068873 0.16146809162 0.17097177923 
0.1705497439 0.1661743867 0.18004423996 0.1565217782 0.18007253609 0.18138903788 0.12148890778 0.13320219679 0.15664875111 
0.15367443976 0.19306776123 0.24240357996 0.16125704901 0.1795234184 0.15789508984 0.15079074415 0.16019388682 0.16676377991 
0.16693459003 0.16507581665 0.15071715023 0.16702058793 0.16097948756 0.1550692374 0.16827431908 0.16665161349 0.15547141983 
0.16542519636 0.16673330948 0.16511250348 0.16667437632 0.16669072515 0.16663038334 0.1862812779 0.13052320195 0.12273006804 
0.12865485815 0.13265871314 0.15910047123 0.16342612205 0.17178278443 0.17522495577 0.17493599318 0.17118069855 0.1652463393 
0.16125969201 0.1777795793 0.1486538734 0.1550079576 0.14569058227 0.17192312594 0.17321315926 0.1434815051 0.1444992013 
0.1586076936 0.16800525069 0.11608185934 0.11757865534 0.1813042231 0.15852722033 0.16552741126 0.17031388141 0.15784930225 
0.15712511777 0.15431141534 0.1591382625 0.12868815984 0.17171805647 0.17325781291 0.16749782798 0.15937851041 0.15636658186 
0.15902295422 0.19071854095 0.16932262263 0.16278649987 0.145830507 0.15915373434 0.14600824227 0.16050799359 0.15653613493 
0.14744999171 0.11183955233 0.16484233195 0.14332767549 0.17324751171 0.17585885358 0.17583576678 0.15904318089 0.17364626332 
0.15781187486 0.17227160342 0.15750293892 0.15267547595 0.15338507561 0.15673563871 0.12846868568 0.15196148987 0.16365840248 
0.17142396311 0.15782943372 0.15810528636 0.15354561603 0.15867260443 0.16511287208 0.16911308356 0.20763154602 0.16825270917 
0.1476704781 0.16577072406 0.1551929853 0.15972736944 0.15575901028 0.1535809038 0.15855382402 0.18524099926 0.1692581587 
0.16952858823 0.14995167158 0.17271411873 0.1529097821 0.15827098478 0.15643062727 0.16103690853 0.16671856238 0.16836166438 
0.17631886409 0.13880543051 0.17232531197 0.14399669112 0.1634222489 0.1658929347 0.14789805157 0.16349172187 0.18042682884 
0.15826688508 0.15869985005 0.16366396397 0.16842819514 0.15991367698 0.15783830504 0.17485967508 0.1653016564 0.19469907613 
0.1681495985 0.14859750159 0.17160509458 0.16505465907 0.15121325699 0.14298731568 0.1694401487 0.14736851232 0.16784299994 
0.16817307241 0.14481647301 0.14561335647 0.14429486349 
Strain%20xx%20component 1 12442 double
1.01961e-06 1.13913e-06 -0.0242899 1.06159e-06 -0.133283 -0.133333 -0.133298 -0.133319 -0.135197 
-0.119968 -0.170072 -0.151206 -0.155601 -0.164064 -0.129251 -0.121917 -0.0199242 0.00167368 
-2.92247e-05 -0.0026546 0.00255409 -0.0013574 0.00138961 0.000811609 0.000462388 0.000350792 -2.38837e-06 
0.000404796 0.000200224 0.000262306 0.000378282 0.000731646 0.00088468 0.000280993 0.000232809 -4.423e-05 
0.000242072 0.000157243 0.000510171 0.00128626 0.00155348 0.0043623 -0.00514462 -0.0123444 0.00116287 
0.00062583 0.00304778 -0.00242109 4.78074e-05 0.0011209 0.000302187 0.000565735 0.00156082 0.00100143 
0.000399772 0.00075822 -6.48164e-05 0.000135125 -6.64607e-05 0.000757708 0.0009511 0.00134897 0.00100626 
0.0013035 0.00103138 0.00063209 0.000580001 0.000918975 -0.0138095 -0.133112 -0.133266 -0.134269 
-0.135889 -0.137871 -0.14019 -0.142883 -0.145677 -0.148368 -0.150779 -0.152842 -0.154672 
-0.155721 -0.156128 -0.155769 -0.154735 -0.153019 -0.150936 -0.148333 -0.145212 -0.14255 
-0.139806 -0.137462 -0.135464 -0.134018 -0.133233 -0.133141 -0.193752 -0.138904 -0.125101 
-0.118505 -0.114571 -0.112506 -0.111419 -0.111092 -0.111214 -0.111747 -0.112588 -0.113784 
-0.115054 -0.116849 -0.118699 -0.120966 -0.123093 -0.125232 -0.12696 -0.128677 -0.129947 
-0.130882 -0.131503 -0.131732 -0.131647 -0.131192 -0.130521 -0.129676 -0.128807 -0.127938 
-0.127266 -0.126753 -0.126482 -0.126491 -0.126738 -0.12726 -0.127982 -0.128852 -0.129755 
-0.130709 -0.131608 -0.132357 -0.132989 -0.133352 -0.133388 -0.133413 -0.133297 -0.133006 
-0.132419 -0.131669 -0.130673 -0.129744 -0.128824 -0.127931 -0.127153 -0.126639 -0.12635 
-0.126359 -0.126656 -0.12717 -0.127898 -0.128749 -0.129746 -0.130576 -0.131247 -0.131592 
-0.131674 -0.131357 -0.130708 -0.129761 -0.128315 -0.126689 -0.124658 -0.122648 -0.120318 
-0.11841 -0.116392 -0.114763 -0.113329 -0.112273 -0.11139 -0.110937 -0.110906 -0.111337 
-0.112388 -0.114558 -0.118299 -0.125075 -0.140877 -0.247931 -0.0489057 -0.0549497 -0.0596551 
-0.0625763 -0.0658732 -0.067062 -0.067162 -0.0670146 -0.0660403 -0.0619504 -0.0586875 -0.0535067 
-0.037356 -0.0567639 -0.0542807 -0.0588696 -0.062116 -0.0617871 -0.0636534 -0.0646509 -0.0637071 
-0.0625404 -0.0620452 -0.0588214 -0.0526605 -0.0529961 -0.133154 -0.133298 -0.134104 -0.135521 
-0.137479 -0.139748 -0.142476 -0.145201 -0.147906 -0.150843 -0.153181 -0.154857 -0.155783 
-0.156153 -0.155733 -0.154656 -0.152952 -0.150743 -0.148226 -0.14541 -0.142696 -0.139996 
-0.137689 -0.135632 -0.134191 -0.133296 -0.133047 -0.255453 -0.147122 -0.126638 -0.119354 
-0.114975 -0.112755 -0.11152 -0.111025 -0.111077 -0.111542 -0.112392 -0.113551 -0.114963 
-0.116576 -0.118413 -0.120399 -0.122432 -0.124341 -0.126308 -0.128053 -0.129505 -0.130611 
-0.131326 -0.131701 -0.13169 -0.131373 -0.130813 -0.129956 -0.129102 -0.128257 -0.127479 
-0.126913 -0.126577 -0.126518 -0.126736 -0.127243 -0.127874 -0.128752 -0.129641 -0.130552 
-0.131463 -0.132299 -0.1329 -0.133308 -0.133432 -0.133448 -0.133312 -0.132912 -0.13227 
-0.131532 -0.130565 -0.129637 -0.128727 -0.127858 -0.127168 -0.126663 -0.126379 -0.126416 
-0.126721 -0.127306 -0.12805 -0.128944 -0.129892 -0.13067 -0.131325 -0.131639 -0.131589 
-0.13116 -0.130344 -0.129095 -0.127697 -0.125978 -0.123882 -0.121946 -0.119899 -0.11776 
-0.115887 -0.114329 -0.113037 -0.111994 -0.111311 -0.110953 -0.110978 -0.11155 -0.112769 
-0.115062 -0.119454 -0.127604 -0.141561 -0.183535 -0.0280295 -0.0528252 -0.0586019 -0.0617411 
-0.062317 -0.0635646 -0.0641839 -0.0639275 -0.0628302 -0.0625277 -0.05957 -0.0550582 -0.0489158 
-0.0548185 -0.0558225 -0.0599257 -0.063248 -0.0664914 -0.0673729 -0.0674961 -0.0668972 -0.0653834 
-0.0618028 -0.0585109 -0.0555872 -0.0578125 -0.133604 -0.134308 -0.13551 -0.136998 -0.138784 
-0.140761 -0.142998 -0.145129 -0.147223 -0.149059 -0.150551 -0.151666 -0.152269 -0.152315 
-0.15176 -0.150618 -0.149193 -0.147315 -0.145132 -0.14289 -0.140642 -0.138625 -0.136868 
-0.13542 -0.134416 -0.133704 -0.133386 -0.131406 -0.135326 -0.128056 -0.123159 -0.120153 
-0.118047 -0.116906 -0.116316 -0.115958 -0.116133 -0.116628 -0.117343 -0.118287 -0.1196 
-0.121087 -0.122695 -0.12419 -0.125694 -0.127047 -0.128155 -0.129017 -0.129659 -0.130026 
-0.130125 -0.129953 -0.129618 -0.129148 -0.128533 -0.127908 -0.127401 -0.127024 -0.126814 
-0.126824 -0.127058 -0.127492 -0.128091 -0.128793 -0.129595 -0.130444 -0.131259 -0.131975 
-0.132621 -0.133085 -0.133342 -0.132972 -0.132556 -0.131922 -0.131169 -0.130316 -0.129475 
-0.128678 -0.127929 -0.127321 -0.126909 -0.126708 -0.126729 -0.126957 -0.127374 -0.127968 
-0.128598 -0.129166 -0.129631 -0.12992 -0.130016 -0.129863 -0.129485 -0.128821 -0.127782 
-0.126572 -0.125181 -0.123619 -0.121939 -0.120462 -0.119004 -0.117781 -0.11682 -0.116078 
-0.115626 -0.115493 -0.115928 -0.116824 -0.118217 -0.120158 -0.123397 -0.128996 -0.136808 
-0.139654 -0.0430426 -0.0349412 -0.0238442 -0.0217099 -0.0179763 -0.0182005 -0.0164926 -0.0163997 
-0.0157864 -0.0158397 -0.0160684 -0.0156578 -0.0156208 -0.0160532 -0.0160837 -0.0162185 -0.0160325 
-0.0159157 -0.0160926 -0.0168571 -0.017846 -0.0199796 -0.0239575 -0.0315588 -0.0487435 -0.262502 
-0.141242 -0.11701 -0.0868887 -0.0758209 -0.0712137 -0.0695336 -0.069048 -0.0689358 -0.0701035 
-0.0729773 -0.0798749 -0.0913415 -0.122197 -0.140974 -0.263655 -0.151382 -0.114845 -0.0868925 
-0.0755738 -0.0707506 -0.0684182 -0.067337 -0.0670287 -0.0674762 -0.0689701 -0.0728772 -0.0827911 
-0.110244 -0.152696 -0.100564 -0.110918 -0.126602 -0.0843003 -0.191899 -0.134884 -0.136008 
-0.13732 -0.138852 -0.140655 -0.142585 -0.144451 -0.146125 -0.147474 -0.148619 -0.149362 
-0.14962 -0.149441 -0.148649 -0.147618 -0.146278 -0.144445 -0.142544 -0.140665 -0.138893 
-0.137319 -0.136001 -0.134949 -0.134096 -0.121979 -0.0967803 -0.119212 -0.121952 -0.121824 
-0.121235 -0.120445 -0.119748 -0.119255 -0.11897 -0.118921 -0.119107 -0.119574 -0.120342 
-0.121407 -0.122668 -0.123901 -0.125197 -0.126448 -0.127439 -0.128212 -0.128795 -0.129177 
-0.129344 -0.129304 -0.129044 -0.128644 -0.12812 -0.127525 -0.126936 -0.126523 -0.126275 
-0.126283 -0.126546 -0.127004 -0.127689 -0.128481 -0.12934 -0.130238 -0.131173 -0.13199 
-0.132768 -0.133412 -0.133886 -0.101046 -0.094766 -0.133117 -0.132558 -0.131851 -0.130986 
-0.130049 -0.129198 -0.128289 -0.127491 -0.126873 -0.126408 -0.126197 -0.126245 -0.126504 
-0.126969 -0.127585 -0.128207 -0.128685 -0.129046 -0.129237 -0.12922 -0.128989 -0.128539 
-0.127829 -0.126863 -0.125807 -0.124527 -0.123162 -0.121841 -0.120704 -0.119737 -0.119045 
-0.118604 -0.118479 -0.118696 -0.119168 -0.119866 -0.120556 -0.121359 -0.122108 -0.122448 
-0.116861 -0.185313 -0.0706725 -0.0493334 -0.0437205 -0.0404933 -0.0388235 -0.0365966 -0.0358194 
-0.0351446 -0.0351992 -0.0349406 -0.0346542 -0.0351419 -0.0346294 -0.0349919 -0.0348866 -0.0349419 
-0.0353893 -0.0365612 -0.0383816 -0.0425137 -0.049616 -0.0614154 -0.189615 -0.125811 -0.0960599 
-0.0910511 -0.0882873 -0.0871807 -0.0886489 -0.0926781 -0.0997583 -0.111319 -0.125507 -0.126217 
-0.100869 -0.103425 -0.104475 -0.131342 -0.0951329 -0.0888045 -0.0856064 -0.0836738 -0.0840206 
-0.0867296 -0.0926492 -0.103687 -0.121107 -0.128244 -0.175471 -0.10666 -0.122232 -0.106318 
-0.133405 -0.126406 -0.117171 -0.118363 -0.110264 -0.126305 -0.113006 -0.135709 -0.136936 
-0.138431 -0.140201 -0.14188 -0.143607 -0.145114 -0.146315 -0.147196 -0.147672 -0.147638 
-0.147136 -0.146339 -0.145194 -0.143709 -0.141961 -0.140213 -0.13857 -0.137094 -0.135844 
-0.134794 -0.106363 -0.113943 -0.117862 -0.119661 -0.120516 -0.120607 -0.120481 -0.120289 
-0.120159 -0.120237 -0.120631 -0.12141 -0.122515 -0.123745 -0.12506 -0.126338 -0.127392 
-0.128141 -0.128694 -0.129056 -0.129207 -0.129143 -0.128848 -0.128381 -0.127815 -0.127103 
-0.126252 -0.125605 -0.125165 -0.125037 -0.125239 -0.125832 -0.126676 -0.127707 -0.128818 
-0.129959 -0.131122 -0.132224 -0.133188 -0.134021 -0.134587 -0.106053 -0.157234 -0.0945102 
-0.105963 -0.132872 -0.131978 -0.13086 -0.129732 -0.128617 -0.127487 -0.12645 -0.125649 
-0.125164 -0.124921 -0.125097 -0.125559 -0.126351 -0.127265 -0.127965 -0.128549 -0.128928 
-0.129096 -0.12904 -0.128794 -0.128301 -0.127582 -0.126652 -0.125539 -0.124236 -0.122849 
-0.12171 -0.120779 -0.120183 -0.119934 -0.119942 -0.120212 -0.120482 -0.120593 -0.120253 
-0.119373 -0.117414 -0.113262 -0.152492 -0.0772397 -0.154044 -0.121851 -0.0680906 -0.0624788 
-0.0584793 -0.0558261 -0.0541112 -0.0528135 -0.0523552 -0.0518154 -0.0513249 -0.0513648 -0.0513889 
-0.0516234 -0.0518938 -0.0521685 -0.0520567 -0.0531739 -0.0552146 -0.058575 -0.0666151 -0.0791611 
-0.111694 -0.17833 -0.10354 -0.110379 -0.103301 -0.106366 -0.111635 -0.11871 -0.125056 
-0.124367 -0.108363 -0.104937 -0.115553 -0.140474 -0.106945 -0.0980787 -0.0996316 -0.104444 
-0.112721 -0.121482 -0.12363 -0.168287 -0.107393 -0.133569 -0.113591 -0.101621 -0.0989524 
-0.103255 -0.133944 -0.12061 -0.121424 -0.11214 -0.133846 -0.123663 -0.122517 -0.118189 
-0.113403 -0.114764 -0.140939 -0.119308 -0.135953 -0.137901 -0.139461 -0.14115 -0.142918 
-0.144485 -0.1456 -0.146365 -0.146611 -0.146289 -0.145487 -0.144443 -0.143063 -0.141336 
-0.139502 -0.137828 -0.136381 -0.135216 -0.134267 -0.094367 -0.112302 -0.113833 -0.11529 
-0.112238 -0.107715 -0.113791 -0.117532 -0.119524 -0.120188 -0.120306 -0.120175 -0.120036 
-0.120139 -0.120689 -0.12177 -0.123278 -0.124816 -0.126356 -0.127577 -0.128396 -0.128929 
-0.129246 -0.129363 -0.129273 -0.128943 -0.128365 -0.127611 -0.126913 -0.125719 -0.124575 
-0.123725 -0.123233 -0.123246 -0.123869 -0.124979 -0.126362 -0.127855 -0.129436 -0.131005 
-0.132448 -0.133737 -0.134905 -0.126329 -0.114798 -0.0943831 -0.11672 -0.132194 -0.130699 
-0.129137 -0.127784 -0.126151 -0.124497 -0.124041 -0.123231 -0.123069 -0.123559 -0.124581 
-0.12591 -0.12714 -0.127923 -0.128656 -0.129076 -0.129206 -0.129159 -0.128916 -0.128433 
-0.127703 -0.126701 -0.125309 -0.123654 -0.122127 -0.120975 -0.120262 -0.120007 -0.120097 
-0.120288 -0.120279 -0.119703 -0.118315 -0.115855 -0.112033 -0.10552 -0.123797 -0.160883 
-0.0789685 -0.0756571 -0.0727988 -0.0714359 -0.0709645 -0.0697021 -0.0682482 -0.0681448 -0.068815 
-0.0696991 -0.0700195 -0.070001 -0.0696738 -0.0707401 -0.0725049 -0.0754428 -0.0782892 -0.159984 
-0.133378 -0.116248 -0.119794 -0.119403 -0.122951 -0.125629 -0.125205 -0.109719 -0.118286 
-0.110381 -0.122487 -0.12361 -0.111258 -0.139157 -0.112708 -0.138153 -0.112708 -0.1179 
-0.118616 -0.11398 -0.124035 -0.125717 -0.12092 -0.111933 -0.122688 -0.124922 -0.119621 
-0.0850298 -0.112867 -0.113232 -0.144447 -0.122995 -0.11003 -0.150133 -0.133706 -0.137098 
-0.138482 -0.140346 -0.142856 -0.144362 -0.145594 -0.146339 -0.146244 -0.145306 -0.14421 
-0.142546 -0.141039 -0.139004 -0.136986 -0.135298 -0.134134 -0.119474 -0.124963 -0.116927 
-0.0931354 -0.10379 -0.110854 -0.11555 -0.118316 -0.118881 -0.119109 -0.119016 -0.118866 
-0.119048 -0.119984 -0.121852 -0.124018 -0.125998 -0.127577 -0.128542 -0.129064 -0.129274 
-0.129253 -0.12911 -0.128857 -0.128285 -0.127323 -0.125966 -0.123964 -0.122302 -0.121378 
-0.121043 -0.121363 -0.122555 -0.12453 -0.12662 -0.128545 -0.130691 -0.132555 -0.134129 
-0.114937 -0.119737 -0.123877 -0.136898 -0.130122 -0.127859 -0.124145 -0.121554 -0.120885 
-0.120351 -0.122183 -0.123743 -0.12636 -0.127783 -0.128519 -0.129017 -0.129103 -0.129127 
-0.128954 -0.128591 -0.127799 -0.126481 -0.124593 -0.122443 -0.120539 -0.119241 -0.118766 
-0.118997 -0.119501 -0.119144 -0.118121 -0.116013 -0.112347 -0.10642 -0.0924116 -0.119547 
-0.118146 -0.132474 -0.117394 -0.155922 -0.089952 -0.0862607 -0.0889587 -0.0881705 -0.086601 
-0.0831384 -0.0876372 -0.0881462 -0.0886055 -0.088666 -0.0864529 -0.0861037 -0.0877977 -0.0902158 
-0.126419 -0.125153 -0.127099 -0.123379 -0.14938 -0.126468 -0.129273 -0.117945 -0.147395 
-0.124907 -0.118865 -0.12271 -0.123155 -0.135913 -0.118851 -0.0983128 -0.113501 -0.135895 
-0.114382 -0.127098 -0.126785 -0.11575 -0.119744 -0.122614 -0.122715 -0.123755 -0.11898 
-0.125266 -0.12086 -0.12634 -0.121902 -0.125077 -0.125977 -0.128876 -0.124797 -0.122516 
-0.135516 -0.142472 -0.144919 -0.14645 -0.146868 -0.146245 -0.143189 -0.139257 -0.136538 
-0.134104 -0.126181 -0.118631 -0.10136 -0.109766 -0.115692 -0.117566 -0.117424 -0.116563 
-0.118919 -0.125138 -0.12702 -0.128107 -0.128499 -0.12855 -0.128246 -0.1279 -0.127719 
-0.127514 -0.12559 -0.123305 -0.121341 -0.11895 -0.118915 -0.118826 -0.126474 -0.130585 
-0.132898 -0.119603 -0.127646 -0.128296 -0.120101 -0.11706 -0.11688 -0.116825 -0.117977 
-0.11711 -0.114243 -0.110114 -0.102399 -0.115591 -0.132133 -0.104692 -0.10221 -0.104515 
-0.1078 -0.104465 -0.108552 -0.103202 -0.098597 -0.100341 -0.13634 -0.134573 -0.150131 
-0.123346 -0.135591 -0.12903 -0.12849 -0.139027 -0.117497 -0.116927 -0.122156 -0.126959 
-0.130945 -0.119337 -0.149239 -0.120358 -0.102998 -0.127895 -0.127458 -0.12552 -0.122693 
-0.140721 -0.124705 -0.124871 -0.14391 -0.120965 -0.146676 -0.126685 -0.109901 -0.114949 
-0.116287 -0.124858 -0.143654 -0.126891 -0.148416 -0.133814 -0.117619 -0.12561 -0.133576 
-0.134251 -0.135359 -0.136828 -0.138667 -0.140646 -0.142791 -0.144849 -0.147151 -0.149077 
-0.150576 -0.15171 -0.152293 -0.152206 -0.15158 -0.150472 -0.148932 -0.147101 -0.144978 
-0.14286 -0.140797 -0.138717 -0.137055 -0.135535 -0.134368 -0.133662 -0.133368 -0.139189 
-0.138063 -0.129477 -0.124134 -0.120973 -0.11885 -0.117414 -0.116502 -0.116232 -0.116223 
-0.116622 -0.117352 -0.11828 -0.119398 -0.12077 -0.122262 -0.123712 -0.125157 -0.126439 
-0.127663 -0.128623 -0.129307 -0.12975 -0.129934 -0.129867 -0.129587 -0.129179 -0.128629 
-0.128072 -0.127532 -0.127109 -0.126873 -0.126856 -0.127056 -0.127466 -0.12805 -0.128773 
-0.129543 -0.130374 -0.131173 -0.131932 -0.132575 -0.133057 -0.133346 -0.132969 -0.132451 
-0.131793 -0.131067 -0.130222 -0.129396 -0.128642 -0.127928 -0.127339 -0.126939 -0.12675 
-0.126805 -0.127065 -0.127535 -0.1281 -0.128688 -0.129278 -0.129708 -0.12998 -0.129972 
-0.129724 -0.129178 -0.128367 -0.127312 -0.126081 -0.124612 -0.123088 -0.121503 -0.120011 
-0.118557 -0.117438 -0.116556 -0.115887 -0.115639 -0.115706 -0.116177 -0.116991 -0.118462 
-0.120685 -0.124401 -0.129745 -0.138937 -0.13782 -0.0508273 -0.0369919 -0.0280304 -0.0218586 
-0.0163162 -0.0180044 -0.0178487 -0.0168163 -0.0162565 -0.0169564 -0.0169909 -0.0160221 -0.0161396 
-0.0158324 -0.0160043 -0.0157661 -0.0161131 -0.0164591 -0.0166242 -0.0169223 -0.0181154 -0.0196747 
-0.0222677 -0.0271421 -0.0336577 -0.0409252 -0.29024 -0.165188 -0.111797 -0.0862644 -0.0758806 
-0.0709094 -0.0694196 -0.0684903 -0.0690659 -0.0705246 -0.072365 -0.0765925 -0.0882657 -0.11524 
-0.162569 -0.280157 -0.157231 -0.108203 -0.0854425 -0.0768389 -0.0719155 -0.0696859 -0.0687638 
-0.068638 -0.069069 -0.0716668 -0.0769095 -0.0872998 -0.11534 -0.152373 -0.0904907 -0.0695936 
-0.133317 -0.102717 -0.0859414 -0.134594 -0.133774 -0.137355 -0.138984 -0.140627 -0.142415 
-0.144125 -0.145915 -0.147425 -0.148509 -0.149195 -0.149519 -0.14918 -0.148393 -0.14728 
-0.145815 -0.144189 -0.142454 -0.140681 -0.138962 -0.137484 -0.136054 -0.134871 -0.133984 
-0.119308 -0.133396 -0.188815 -0.112516 -0.0929049 -0.1207 -0.12096 -0.120647 -0.120175 
-0.119668 -0.119346 -0.11915 -0.119199 -0.119547 -0.12021 -0.121174 -0.1223 -0.123571 
-0.124846 -0.126043 -0.127098 -0.127964 -0.128616 -0.129025 -0.129224 -0.129221 -0.129009 
-0.128631 -0.12809 -0.127456 -0.126813 -0.126344 -0.126081 -0.126083 -0.126303 -0.126811 
-0.127553 -0.128401 -0.129342 -0.130286 -0.131177 -0.132076 -0.132894 -0.133506 -0.127794 
-0.198839 -0.107644 -0.133008 -0.132441 -0.131687 -0.13089 -0.129988 -0.129122 -0.128253 
-0.127436 -0.126813 -0.126396 -0.126214 -0.126288 -0.126602 -0.127103 -0.127688 -0.12828 
-0.128775 -0.129111 -0.129239 -0.129131 -0.128814 -0.128235 -0.127454 -0.126462 -0.125322 
-0.124037 -0.12273 -0.121491 -0.120385 -0.119472 -0.118905 -0.118604 -0.118646 -0.118918 
-0.119342 -0.119866 -0.120807 -0.121814 -0.122971 -0.123384 -0.120632 -0.0951998 -0.0527163 
-0.0752017 -0.0414636 -0.0385495 -0.0385342 -0.0378593 -0.0368821 -0.0362924 -0.0364713 -0.0358519 
-0.0352816 -0.034738 -0.0351227 -0.0352119 -0.0359386 -0.0368659 -0.0366774 -0.03785 -0.0400713 
-0.0437021 -0.0498304 -0.0584955 -0.0723944 -0.101854 -0.101472 -0.185352 -0.121292 -0.106998 
-0.0970773 -0.0904925 -0.0877872 -0.0871548 -0.0887111 -0.0921239 -0.0996428 -0.110871 -0.1239 
-0.129283 -0.12121 -0.107051 -0.0977481 -0.0915941 -0.0886913 -0.0875323 -0.0881659 -0.0915228 
-0.09728 -0.107217 -0.121391 -0.126053 -0.180496 -0.135834 -0.130869 -0.0986697 -0.125041 
-0.124708 -0.105808 -0.116286 -0.115839 -0.157963 -0.140072 -0.137147 -0.141739 -0.143432 
-0.144944 -0.146234 -0.147112 -0.147561 -0.147525 -0.147005 -0.14602 -0.144754 -0.143338 
-0.141737 -0.140119 -0.138634 -0.137198 -0.135905 -0.134782 -0.133925 -0.149273 -0.113851 
-0.11115 -0.160924 -0.106852 -0.119391 -0.120297 -0.120458 -0.120326 -0.120154 -0.120135 
-0.120413 -0.12106 -0.122047 -0.123303 -0.124671 -0.125994 -0.127121 -0.128038 -0.12869 
-0.129069 -0.129235 -0.129208 -0.128968 -0.128505 -0.127831 -0.126925 -0.125967 -0.125174 
-0.124628 -0.124399 -0.124652 -0.125355 -0.12635 -0.127528 -0.128821 -0.130112 -0.131261 
-0.132378 -0.133415 -0.134476 -0.116523 -0.131839 -0.130746 -0.129698 -0.128532 -0.127351 
-0.126298 -0.125615 -0.125161 -0.125022 -0.125185 -0.125756 -0.126526 -0.127363 -0.12812 
-0.128646 -0.128987 -0.129077 -0.128937 -0.128601 -0.128015 -0.127183 -0.126157 -0.12501 
-0.123729 -0.122463 -0.121437 -0.120578 -0.120073 -0.119903 -0.120061 -0.120305 -0.120544 
-0.120548 -0.120362 -0.119533 -0.117255 -0.112351 -0.105745 -0.0602063 -0.0653331 -0.112714 
-0.105715 -0.105671 -0.0588787 -0.0587802 -0.0558373 -0.0532979 -0.0523681 -0.0529289 -0.0524134 
-0.0513806 -0.0513379 -0.0521433 -0.0529333 -0.0536291 -0.0539847 -0.0555733 -0.0591333 -0.0640309 
-0.071087 -0.0804805 -0.0940337 -0.125787 -0.10556 -0.117545 -0.177482 -0.122049 -0.116069 
-0.110164 -0.105262 -0.102987 -0.103427 -0.106226 -0.111935 -0.119381 -0.125392 -0.123109 
-0.149412 -0.116395 -0.11042 -0.106562 -0.104112 -0.103894 -0.105993 -0.110081 -0.116263 
-0.122054 -0.122054 -0.178772 -0.138587 -0.132739 -0.123055 -0.133452 -0.135989 -0.118122 
-0.114404 -0.115113 -0.0883112 -0.126065 -0.119745 -0.125502 -0.136641 -0.139198 -0.144336 
-0.145622 -0.146374 -0.146642 -0.146293 -0.145436 -0.144094 -0.142518 -0.140933 -0.139302 
-0.137747 -0.136418 -0.135196 -0.134198 -0.123257 -0.116895 -0.129267 -0.119633 -0.118931 
-0.116897 -0.119722 -0.119558 -0.119594 -0.12 -0.120929 -0.122384 -0.124 -0.125731 
-0.127227 -0.128279 -0.128927 -0.129223 -0.12932 -0.129286 -0.129085 -0.128603 -0.12782 
-0.126625 -0.125283 -0.123793 -0.122705 -0.122141 -0.122242 -0.123048 -0.124451 -0.126156 
-0.127989 -0.129803 -0.131367 -0.132827 -0.134106 -0.135189 -0.110829 -0.144695 -0.076864 
-0.117828 -0.154334 -0.111494 -0.130706 -0.132088 -0.127593 -0.125904 -0.12467 -0.123863 
-0.123411 -0.123306 -0.123831 -0.12489 -0.126106 -0.127294 -0.128188 -0.128789 -0.129128 
-0.129204 -0.129088 -0.128751 -0.128116 -0.12718 -0.125923 -0.124652 -0.123325 -0.122023 
-0.12074 -0.12011 -0.119953 -0.120033 -0.120191 -0.120179 -0.119655 -0.118492 -0.115695 
-0.110358 -0.10259 -0.110837 -0.0826767 -0.0821118 -0.113308 -0.111972 -0.0961988 -0.138221 
-0.0764507 -0.0725773 -0.0675987 -0.0708311 -0.0712804 -0.0694074 -0.0679702 -0.0692447 -0.0710401 
-0.0716356 -0.0720435 -0.0729875 -0.0757679 -0.0815545 -0.0879014 -0.121574 -0.142788 -0.113984 
-0.109347 -0.1333 -0.140999 -0.158998 -0.122278 -0.118797 -0.116202 -0.115463 -0.116177 
-0.119634 -0.123875 -0.12599 -0.125864 -0.12191 -0.118896 -0.116722 -0.115979 -0.116923 
-0.118735 -0.121438 -0.12349 -0.122375 -0.16257 -0.154897 -0.123703 -0.125047 -0.110829 
-0.134651 -0.13633 -0.112742 -0.121338 -0.114479 -0.12243 -0.137698 -0.106364 -0.126046 
-0.124101 -0.117841 -0.0949736 -0.144472 -0.146316 -0.145587 -0.144256 -0.142317 -0.140005 
-0.13854 -0.136561 -0.135228 -0.134064 -0.120826 -0.0948189 -0.118094 -0.117749 -0.118272 
-0.118399 -0.120233 -0.121834 -0.124321 -0.126612 -0.128028 -0.128617 -0.12861 -0.128475 
-0.12834 -0.128194 -0.128049 -0.127635 -0.126523 -0.124652 -0.122751 -0.120115 -0.120032 
-0.119239 -0.120089 -0.122164 -0.124691 -0.127024 -0.12933 -0.131647 -0.133539 -0.135082 
-0.126425 -0.130848 -0.115035 -0.128852 -0.132588 -0.123988 -0.12242 -0.121928 -0.120939 
-0.121025 -0.122287 -0.124154 -0.125891 -0.127242 -0.128164 -0.128664 -0.128859 -0.128952 
-0.129004 -0.128785 -0.128053 -0.12696 -0.123906 -0.120362 -0.118898 -0.119042 -0.118857 
-0.118932 -0.118788 -0.117757 -0.115837 -0.113037 -0.103708 -0.119864 -0.115333 -0.112391 
-0.0904514 -0.133887 -0.136577 -0.0891112 -0.0894585 -0.0841047 -0.0834513 -0.0890071 -0.0885065 
-0.0884068 -0.0892905 -0.0882265 -0.094987 -0.100322 -0.136904 -0.142957 -0.0868644 -0.124968 
-0.113773 -0.142642 -0.117131 -0.126222 -0.126431 -0.123569 -0.125695 -0.122739 -0.124532 
-0.12652 -0.127304 -0.124735 -0.118094 -0.115475 -0.116357 -0.147229 -0.1251 -0.124567 
-0.12433 -0.124812 -0.125595 -0.125798 -0.124387 -0.146411 -0.14572 -0.123855 -0.124527 
-0.116554 -0.116815 -0.108412 -0.138204 -0.114498 -0.115194 -0.116035 -0.136398 -0.127157 
-0.121552 -0.137796 -0.126379 -0.140514 -0.12519 -0.126977 -0.118333 -0.155429 -0.150899 
-0.13249 -0.120542 -0.13947 -0.13528 -0.133617 -0.143328 -0.126018 -0.116285 -0.119654 
-0.124574 -0.128404 -0.131728 -0.13465 -0.129347 -0.14871 -0.121271 -0.125319 -0.116646 
-0.131307 -0.117709 -0.117055 -0.117055 -0.117567 -0.116165 -0.113101 -0.107905 -0.125286 
-0.122704 -0.141672 -0.104215 -0.11648 -0.10406 -0.146357 -0.106381 -0.101448 -0.102884 
-0.102874 -0.112518 -0.116324 -0.126029 -0.107437 -0.144388 -0.14066 -0.102357 -0.117188 
-0.150087 -0.137487 -0.147396 -0.118414 -0.11952 -0.120976 -0.123862 -0.127339 -0.128126 
-0.128274 -0.104868 -0.113186 -0.12735 -0.132826 -0.144267 -0.117411 -0.121324 -0.133967 
-0.117756 -0.112152 -0.113999 -0.13894 -0.112896 -0.118488 1.01961e-06 1.06159e-06 1.19889e-06 
2.04594e-07 1.47703e-07 1.26272e-07 5.63217e-08 2.75932e-08 7.33949e-08 4.95154e-08 4.22436e-08 4.03748e-08 
4.95145e-08 4.83831e-08 4.7027e-08 5.07486e-08 5.05916e-08 4.75562e-08 4.39219e-08 4.40845e-08 4.27705e-08 
4.6106e-08 4.64068e-08 4.49711e-08 4.7662e-08 5.40959e-08 6.73675e-08 8.82447e-08 1.29993e-07 1.06159e-06 
1.01961e-06 1.00479e-07 8.83111e-08 4.31766e-08 5.92767e-08 1.18663e-07 4.76321e-08 4.95118e-08 5.77938e-08 
5.67389e-08 4.86191e-08 5.34777e-08 5.14182e-08 4.79591e-08 4.85155e-08 5.3611e-08 5.58605e-08 5.45388e-08 
5.76141e-08 5.46075e-08 5.93382e-08 6.42982e-08 6.63939e-08 7.4655e-08 8.37478e-08 1.37606e-07 6.9155e-07 
-0.133169 -0.133139 -0.133672 -0.134989 -0.136813 -0.138977 -0.141499 -0.144269 -0.147033 
-0.149602 -0.151869 -0.153913 -0.155276 -0.15606 -0.156069 -0.155362 -0.15398 -0.151989 
-0.149692 -0.146785 -0.143884 -0.141163 -0.138594 -0.1364 -0.134701 -0.133544 -0.133124 
-0.133225 -0.156214 -0.147259 -0.130098 -0.121241 -0.116116 -0.113332 -0.111809 -0.111167 
-0.111085 -0.111396 -0.112109 -0.113123 -0.114391 -0.115905 -0.117726 -0.119802 -0.122019 
-0.124183 -0.126116 -0.127856 -0.129352 -0.130464 -0.131249 -0.131662 -0.131744 -0.131471 
-0.130888 -0.130113 -0.129243 -0.128362 -0.127583 -0.126974 -0.126583 -0.126447 -0.126589 
-0.126967 -0.127595 -0.128401 -0.129297 -0.130233 -0.131169 -0.131998 -0.132698 -0.133193 
-0.133376 -0.133426 -0.133339 -0.133377 -0.133203 -0.132734 -0.132062 -0.131184 -0.130211 
-0.129282 -0.128367 -0.127519 -0.126871 -0.126463 -0.126314 -0.126483 -0.126898 -0.127516 
-0.128307 -0.129242 -0.130174 -0.130941 -0.131442 -0.13167 -0.13156 -0.131075 -0.130273 
-0.129093 -0.127536 -0.125706 -0.123671 -0.121494 -0.119356 -0.117385 -0.115556 -0.114014 
-0.112774 -0.111785 -0.11111 -0.110852 -0.111054 -0.111781 -0.113304 -0.116158 -0.121269 
-0.130815 -0.135199 -0.187006 -0.0856793 -0.0853132 -0.0536043 -0.0565545 -0.0601398 -0.0656325 
-0.0673704 -0.0682811 -0.0682638 -0.0673347 -0.0625376 -0.0594711 -0.0555041 -0.0499393 -0.0700837 
-0.102339 -0.0713199 -0.0530941 -0.0561378 -0.0598469 -0.062254 -0.0636745 -0.0644678 -0.0644707 
-0.0636441 -0.0621652 -0.0594679 -0.0549396 -0.0520797 -0.063982 -0.133219 -0.133105 -0.133629 
-0.134734 -0.136443 -0.138574 -0.141091 -0.143848 -0.146585 -0.149436 -0.152114 -0.154063 
-0.155433 -0.156102 -0.15607 -0.15532 -0.153883 -0.151966 -0.149521 -0.146854 -0.144044 
-0.141296 -0.138778 -0.136574 -0.134799 -0.133632 -0.133085 -0.133248 -0.194706 -0.139833 
-0.133892 -0.12286 -0.1169 -0.113804 -0.112064 -0.111236 -0.110999 -0.111293 -0.111945 
-0.112962 -0.114242 -0.11574 -0.117497 -0.119421 -0.12143 -0.123401 -0.125346 -0.127209 
-0.128811 -0.130097 -0.130995 -0.131554 -0.131722 -0.131547 -0.131105 -0.130394 -0.129523 
-0.128669 -0.127846 -0.127174 -0.126722 -0.12651 -0.126605 -0.126961 -0.127548 -0.128298 
-0.129196 -0.1301 -0.131016 -0.131896 -0.132618 -0.133137 -0.133402 -0.133407 -0.133343 
-0.133389 -0.133143 -0.132616 -0.131917 -0.131063 -0.130108 -0.129184 -0.128285 -0.127498 
-0.126901 -0.126487 -0.126366 -0.126533 -0.126976 -0.127649 -0.128473 -0.129407 -0.130274 
-0.131016 -0.131499 -0.131667 -0.131407 -0.130793 -0.129766 -0.128431 -0.126872 -0.124964 
-0.122934 -0.120943 -0.118833 -0.116826 -0.115105 -0.113673 -0.112495 -0.111644 -0.111127 
-0.110959 -0.111212 -0.112113 -0.113806 -0.116906 -0.122853 -0.132962 -0.150565 -0.112112 
-0.0936159 -0.0629897 -0.0532423 -0.0558742 -0.059562 -0.0620393 -0.0635401 -0.0644567 -0.0646436 
-0.0638248 -0.0624765 -0.0600926 -0.056026 -0.0500877 -0.0785451 -0.0797663 -0.0621963 -0.0532392 
-0.0566156 -0.0605367 -0.0663743 -0.06781 -0.0681856 -0.0680783 -0.0670931 -0.0621293 -0.0592568 
-0.058277 -0.0576036 -0.0755468 -0.133306 -0.133304 -0.130707 -0.133033 -0.164442 -0.16123 
9.56432e-07 0.000281654 -0.020235 1.08875e-07 0.00161757 9.36435e-08 6.20692e-08 0.00027057 -0.00315377 
0.00733342 -0.0030226 6.11001e-08 -0.00347623 0.00739486 -0.00433103 0.00636083 -0.00548552 0.00489139 
-0.00376653 0.00361589 -0.00217132 0.00380808 -0.00354179 0.00403019 -0.00319197 0.00336125 -0.00279069 
0.00363119 -0.00342315 0.00334361 -0.00326614 0.00322278 -0.00242845 0.0020988 -0.000847889 0.00113947 
-0.000503399 0.000655332 0.000497196 0.000279565 0.000169246 1.18912e-05 0.000937299 -0.00058482 0.00164107 
-0.00168557 0.00254781 -0.00266724 0.00400907 -0.00410033 0.00483709 -0.00318451 0.00828226 -0.0232873 
-0.133287 -0.133398 -0.133507 -0.133837 -0.134331 -0.133929 -0.134928 -0.135728 -0.134843 
-0.136476 -0.137457 -0.136219 -0.138359 -0.139494 -0.137873 -0.14049 -0.141815 -0.139755 
-0.142945 -0.144315 -0.141878 -0.14539 -0.146706 -0.144079 -0.14777 -0.148961 -0.14621 
-0.1499 -0.150905 -0.14817 -0.151657 -0.152553 -0.149869 -0.153113 -0.153597 -0.151174 
-0.153926 -0.154119 -0.15202 -0.154143 -0.153968 -0.152368 -0.153688 -0.153178 -0.152116 
-0.1526 -0.151766 -0.151276 -0.151028 -0.150024 -0.149947 -0.149065 -0.147799 -0.148308 
-0.146694 -0.145186 -0.14625 -0.144053 -0.142752 -0.144012 -0.141612 -0.140263 -0.14175 
-0.139243 -0.13809 -0.139598 -0.137206 -0.136222 -0.13771 -0.135492 -0.134787 -0.136099 
-0.134255 -0.133873 -0.134867 -0.133544 -0.133436 -0.134003 -0.133295 -0.133346 -0.133372 
-0.133526 -0.101771 -0.143813 -0.141193 -0.137631 -0.130986 -0.136773 -0.126701 -0.123538 
-0.131663 -0.12089 -0.118967 -0.125594 -0.117388 -0.116343 -0.121745 -0.115303 -0.114718 
-0.119155 -0.114173 -0.113969 -0.117491 -0.113748 -0.11377 -0.11663 -0.113607 -0.113838 
-0.116153 -0.113968 -0.114346 -0.116061 -0.114636 -0.115193 -0.11639 -0.115597 -0.116217 
-0.11699 -0.116708 -0.117553 -0.117795 -0.11824 -0.119135 -0.118936 -0.119909 -0.121 
-0.120344 -0.121847 -0.122865 -0.121885 -0.123653 -0.124677 -0.123435 -0.125469 -0.126293 
-0.124933 -0.12701 -0.127826 -0.12636 -0.128414 -0.129015 -0.127584 -0.129474 -0.12992 
-0.128566 -0.130264 -0.130557 -0.129325 -0.130751 -0.130858 -0.129825 -0.13092 -0.130866 
-0.13007 -0.130789 -0.130565 -0.130032 -0.130391 -0.130071 -0.129784 -0.129822 -0.129422 
-0.129382 -0.129096 -0.128684 -0.128843 -0.12835 -0.127943 -0.128226 -0.127673 -0.127358 
-0.127667 -0.127147 -0.126911 -0.127226 -0.12679 -0.126672 -0.126934 -0.126665 -0.126678 
-0.126834 -0.126785 -0.12692 -0.126951 -0.127121 -0.12739 -0.127285 -0.12768 -0.128044 
-0.127796 -0.128392 -0.128822 -0.128445 -0.129226 -0.12967 -0.129193 -0.1301 -0.130567 
-0.130016 -0.130983 -0.13142 -0.130845 -0.131787 -0.13215 -0.131607 -0.132483 -0.132787 
-0.13229 -0.133021 -0.133208 -0.132836 -0.133334 -0.133372 -0.133208 -0.0945069 -0.133338 
-0.133131 -0.132963 -0.132775 -0.132477 -0.132742 -0.132163 -0.131789 -0.13223 -0.131413 
-0.13092 -0.131539 -0.13049 -0.130033 -0.130741 -0.129606 -0.129156 -0.129898 -0.128748 
-0.128313 -0.12908 -0.127931 -0.12755 -0.12831 -0.127245 -0.126995 -0.12763 -0.126784 
-0.126652 -0.127123 -0.126544 -0.126548 -0.126824 -0.126564 -0.126704 -0.126736 -0.126825 
-0.127075 -0.126853 -0.127288 -0.12764 -0.127174 -0.127945 -0.128359 -0.127673 -0.128686 
-0.129164 -0.128281 -0.129464 -0.129853 -0.128875 -0.130107 -0.130416 -0.129389 -0.13058 
-0.130725 -0.129762 -0.130805 -0.13081 -0.129955 -0.13076 -0.130584 -0.129922 -0.130407 
-0.130079 -0.129658 -0.12975 -0.129276 -0.12914 -0.128755 -0.12804 -0.128295 -0.12742 
-0.126625 -0.127168 -0.125907 -0.124925 -0.125867 -0.124109 -0.123146 -0.124396 -0.12226 
-0.121145 -0.12278 -0.120363 -0.119464 -0.121208 -0.118674 -0.117732 -0.119742 -0.117059 
-0.116309 -0.118404 -0.11576 -0.115112 -0.117311 -0.114669 -0.114212 -0.11646 -0.113905 
-0.113536 -0.115865 -0.113404 -0.113235 -0.115578 -0.113397 -0.113441 -0.11573 -0.113839 
-0.114119 -0.116406 -0.11476 -0.115379 -0.117573 -0.116272 -0.117447 -0.119298 -0.119023 
-0.120967 -0.121899 -0.123518 -0.127028 -0.12612 -0.131492 -0.138711 -0.132406 -0.141442 
-0.149042 -0.136596 -0.149124 -0.0262897 -0.0194934 -0.0169865 -0.0155903 -0.0416205 -0.00925364 
-0.0107656 -0.0274236 -0.00781174 -0.0111197 -0.0267268 -0.0113426 -0.0106587 -0.0193808 -0.00767063 
-0.00778013 -0.0208016 -0.00838135 -0.00826245 -0.0174313 -0.00884612 -0.00859702 -0.016246 -0.00852585 
-0.00761687 -0.0161614 -0.00820948 -0.00763303 -0.0170794 -0.00865532 -0.0083423 -0.0165257 -0.00859929 
-0.00806009 -0.0158668 -0.00842351 -0.00815832 -0.0166693 -0.00882186 -0.0083052 -0.0161252 -0.00891254 
-0.00858776 -0.0168148 -0.00902517 -0.00838311 -0.0160021 -0.00851224 -0.00840069 -0.016301 -0.00820721 
-0.00827069 -0.0159934 -0.00817697 -0.0084748 -0.0168612 -0.00854849 -0.00897145 -0.0163412 -0.00880088 
-0.00976416 -0.0176233 -0.00960857 -0.0109779 -0.0190354 -0.0111781 -0.0128544 -0.0218882 -0.0136992 
-0.0162492 -0.0276966 -0.0212947 -0.0291475 -0.0415813 -0.22385 -0.230721 -0.107749 -0.159445 
-0.0788243 -0.0869289 -0.137187 -0.0679822 -0.0678206 -0.099935 -0.0647761 -0.0642837 -0.0809792 
-0.063798 -0.0632553 -0.0737492 -0.0637203 -0.063351 -0.0706744 -0.0638262 -0.0636047 -0.0696795 
-0.0636801 -0.0637325 -0.0692621 -0.0636437 -0.0639435 -0.0698695 -0.0640412 -0.0645206 -0.0718081 
-0.0658933 -0.0659936 -0.0766335 -0.0703549 -0.0693181 -0.0852152 -0.0888314 -0.0811864 -0.103704 
-0.150146 -0.111752 -0.142899 -0.240634 -0.237432 -0.115042 -0.172348 -0.0796658 -0.0866599 
-0.139684 -0.0676721 -0.0685301 -0.0991524 -0.0643653 -0.0641047 -0.0810358 -0.0633184 -0.062854 
-0.0735357 -0.062849 -0.062666 -0.070076 -0.0625798 -0.0625787 -0.0684436 -0.0623456 -0.0625528 
-0.0677374 -0.0620708 -0.06255 -0.0677322 -0.0617333 -0.0625525 -0.0687465 -0.0623356 -0.0630263 
-0.071315 -0.0657463 -0.0657298 -0.0779232 -0.0824246 -0.0766636 -0.0959156 -0.158491 -0.108529 
-0.136624 -0.133419 -0.0779886 -0.200333 -0.136516 -0.157194 -0.193503 -0.0890032 -0.1125 
-0.204825 -0.162992 -0.114687 -0.147713 -0.17611 -0.0925787 -0.111731 -0.0895988 -0.0885116 
-0.229947 -0.160158 -0.1346 -0.135235 -0.135771 -0.136538 -0.135429 -0.137176 -0.138064 
-0.136645 -0.138839 -0.139829 -0.13807 -0.14071 -0.141838 -0.139751 -0.14279 -0.143847 
-0.141621 -0.144779 -0.145812 -0.143531 -0.146645 -0.147554 -0.145319 -0.148235 -0.14899 
-0.146861 -0.149528 -0.150088 -0.148131 -0.150429 -0.150769 -0.149068 -0.150871 -0.150919 
-0.149575 -0.150806 -0.150555 -0.149614 -0.150137 -0.149603 -0.149119 -0.149071 -0.148366 
-0.148195 -0.147692 -0.14678 -0.146992 -0.145854 -0.144769 -0.14539 -0.143834 -0.142714 
-0.143504 -0.141781 -0.140671 -0.141604 -0.139779 -0.138775 -0.139765 -0.138002 -0.137117 
-0.138073 -0.136455 -0.135753 -0.136642 -0.135208 -0.134693 -0.135433 -0.134266 -0.133923 
-0.134493 -0.107288 -0.118217 -0.116542 -0.0699688 -0.119395 -0.13348 -0.126178 -0.124896 
-0.124757 -0.123399 -0.12109 -0.122484 -0.121488 -0.121883 -0.120764 -0.11997 -0.121507 
-0.119288 -0.118781 -0.120813 -0.11836 -0.118128 -0.12013 -0.117844 -0.117686 -0.119483 
-0.117528 -0.117606 -0.119084 -0.11759 -0.117809 -0.118921 -0.117921 -0.118254 -0.118983 
-0.118505 -0.11896 -0.119319 -0.119359 -0.119997 -0.119929 -0.120532 -0.121272 -0.120846 
-0.121894 -0.122701 -0.122006 -0.123301 -0.124057 -0.123258 -0.124692 -0.125448 -0.124525 
-0.126061 -0.126742 -0.125805 -0.12723 -0.12778 -0.126926 -0.128167 -0.128589 -0.127811 
-0.128887 -0.129196 -0.128496 -0.129397 -0.129567 -0.128986 -0.129665 -0.129705 -0.129265 
-0.129702 -0.129603 -0.129332 -0.129494 -0.129305 -0.129189 -0.129128 -0.128871 -0.128856 
-0.128637 -0.128305 -0.128399 -0.128041 -0.127702 -0.127837 -0.12744 -0.127165 -0.127244 
-0.12698 -0.126782 -0.126743 -0.12667 -0.126561 -0.126406 -0.126566 -0.126575 -0.126284 
-0.126694 -0.126829 -0.126415 -0.127037 -0.127278 -0.126776 -0.12759 -0.127921 -0.127342 
-0.128283 -0.128663 -0.128081 -0.129061 -0.129489 -0.128904 -0.129907 -0.130356 -0.129782 
-0.130794 -0.131225 -0.130698 -0.131609 -0.131987 -0.131574 -0.13235 -0.132697 -0.132386 
-0.132994 -0.133239 -0.133086 -0.133474 -0.133573 -0.133655 -0.110248 -0.101482 -0.108949 
-0.117692 -0.109924 -0.133044 -0.13283 -0.13256 -0.132231 -0.132831 -0.131892 -0.131501 
-0.132199 -0.131088 -0.130642 -0.131416 -0.130197 -0.129756 -0.130519 -0.129347 -0.128927 
-0.129628 -0.1285 -0.128104 -0.128742 -0.127739 -0.12741 -0.127884 -0.127128 -0.126898 
-0.127182 -0.12668 -0.126562 -0.126644 -0.126462 -0.126472 -0.126309 -0.126488 -0.12661 
-0.126229 -0.126723 -0.126951 -0.12638 -0.127162 -0.127479 -0.126736 -0.127761 -0.128098 
-0.127272 -0.128386 -0.128693 -0.127888 -0.128914 -0.129159 -0.12844 -0.129327 -0.129477 
-0.128861 -0.129571 -0.129619 -0.129135 -0.129611 -0.129535 -0.129224 -0.129421 -0.129227 
-0.129097 -0.129003 -0.12867 -0.128758 -0.128311 -0.127802 -0.128179 -0.127312 -0.126712 
-0.127346 -0.126181 -0.125492 -0.126331 -0.124849 -0.124072 -0.12517 -0.123386 -0.122557 
-0.123849 -0.12189 -0.12116 -0.122507 -0.120572 -0.119867 -0.12128 -0.119356 -0.118781 
-0.120227 -0.118398 -0.11796 -0.119403 -0.11769 -0.11737 -0.11883 -0.117261 -0.117074 
-0.118552 -0.117167 -0.117134 -0.118591 -0.117349 -0.117576 -0.118965 -0.11791 -0.118319 
-0.119539 -0.118807 -0.119412 -0.12026 -0.11998 -0.120777 -0.12106 -0.121484 -0.122731 
-0.121888 -0.123562 -0.125473 -0.122409 -0.125066 -0.125398 -0.108504 -0.120008 -0.133777 
-0.0660586 -0.0699419 -0.15372 -0.222503 -0.194871 -0.0518587 -0.0457568 -0.0384516 -0.0355006 
-0.0578873 -0.0322788 -0.0317079 -0.0463924 -0.0306189 -0.0295434 -0.04153 -0.0277562 -0.0277063 
-0.0386956 -0.0262968 -0.0258432 -0.036622 -0.0258593 -0.0254049 -0.0352224 -0.0248277 -0.0260822 
-0.0344412 -0.0251558 -0.025594 -0.0341768 -0.0248903 -0.0252758 -0.0341054 -0.0248941 -0.0253101 
-0.0338202 -0.0251965 -0.0255351 -0.0338556 -0.025385 -0.02502 -0.033754 -0.0252145 -0.025125 
-0.0337399 -0.0250645 -0.0251776 -0.033854 -0.025352 -0.0247691 -0.0339171 -0.0252756 -0.0256271 
-0.0340826 -0.0261128 -0.026008 -0.0349607 -0.0274289 -0.0273417 -0.0363073 -0.0299056 -0.0305483 
-0.0392498 -0.0347775 -0.0359258 -0.0446285 -0.042755 -0.0463086 -0.0536634 -0.0635086 -0.22388 
-0.16898 -0.126621 -0.135114 -0.112229 -0.125779 -0.0842157 -0.0869299 -0.0806805 -0.081896 
-0.0936557 -0.0792535 -0.0796272 -0.0896255 -0.0786121 -0.0786139 -0.0877371 -0.0799861 -0.079234 
-0.0878916 -0.0835346 -0.0817476 -0.0906337 -0.0910345 -0.0870576 -0.096234 -0.102304 -0.096346 
-0.105171 -0.122914 -0.111372 -0.118445 -0.132926 -0.133074 -0.129087 -0.107002 -0.105939 
-0.101039 -0.1189 -0.113959 -0.105317 -0.127106 -0.135741 -0.0836767 -0.0863911 -0.0793098 
-0.0807139 -0.0918898 -0.0772563 -0.0778088 -0.0871152 -0.076204 -0.0762274 -0.0845479 -0.076673 
-0.0761977 -0.0837682 -0.0789858 -0.0777049 -0.0852316 -0.0841145 -0.081541 -0.0894757 -0.0949286 
-0.0893124 -0.0978483 -0.116338 -0.104576 -0.112296 -0.135319 -0.126241 -0.127612 -0.142305 
-0.214865 -0.187704 -0.134123 -0.0918061 -0.0977957 -0.101123 -0.106189 -0.116504 -0.128973 
-0.0920112 -0.0973763 -0.114597 -0.100627 -0.0747459 -0.114464 -0.133576 -0.133411 -0.133265 
-0.13374 -0.15741 -0.127705 -0.0831737 -0.133188 -0.112038 -0.108475 -0.116753 -0.148349 
-0.151956 -0.133267 -0.134363 -0.1105 -0.114608 -0.113959 -0.110543 -0.111753 -0.115518 
-0.138731 -0.109514 -0.125396 -0.129113 -0.109817 -0.118766 -0.135862 -0.136524 -0.13714 
-0.13791 -0.136323 -0.138647 -0.139552 -0.137683 -0.140429 -0.141392 -0.139304 -0.142223 
-0.143151 -0.141049 -0.14401 -0.144841 -0.142764 -0.145605 -0.146271 -0.144403 -0.146873 
-0.147444 -0.14577 -0.147854 -0.148247 -0.146816 -0.148463 -0.148607 -0.14751 -0.148569 
-0.148495 -0.14773 -0.148231 -0.147851 -0.147462 -0.147442 -0.146948 -0.146799 -0.146365 
-0.145709 -0.145817 -0.144966 -0.144057 -0.144486 -0.143198 -0.14224 -0.142854 -0.141381 
-0.140441 -0.141085 -0.139625 -0.13874 -0.139384 -0.138005 -0.137213 -0.137818 -0.136605 
-0.135928 -0.136451 -0.135404 -0.134871 -0.135311 -0.0950172 -0.111998 -0.114648 -0.117538 
-0.118516 -0.110476 -0.119747 -0.119996 -0.115862 -0.120396 -0.120383 -0.118771 -0.120486 
-0.120323 -0.120101 -0.120187 -0.120036 -0.120542 -0.119907 -0.1198 -0.120525 -0.119676 
-0.119654 -0.120368 -0.119586 -0.119667 -0.120202 -0.119713 -0.119938 -0.120171 -0.120136 
-0.120525 -0.12041 -0.120897 -0.121456 -0.12099 -0.12197 -0.122634 -0.121933 -0.123206 
-0.123863 -0.123103 -0.124477 -0.125159 -0.12438 -0.125759 -0.126411 -0.125679 -0.12691 
-0.12742 -0.126851 -0.127783 -0.128174 -0.127749 -0.128449 -0.128739 -0.128405 -0.128926 
-0.129105 -0.128871 -0.129191 -0.129258 -0.129132 -0.129243 -0.129194 -0.129179 -0.129076 
-0.128912 -0.129005 -0.128717 -0.12848 -0.128626 -0.12824 -0.127933 -0.128111 -0.127626 
-0.127272 -0.127474 -0.126912 -0.126561 -0.126687 -0.126293 -0.126042 -0.125936 -0.125863 
-0.125708 -0.125395 -0.125668 -0.125664 -0.125101 -0.125765 -0.125913 -0.125139 -0.126184 
-0.126447 -0.125536 -0.126828 -0.127215 -0.126255 -0.127681 -0.128128 -0.127191 -0.128632 
-0.129105 -0.12826 -0.129628 -0.130124 -0.129393 -0.130654 -0.131172 -0.130542 -0.131682 
-0.132125 -0.131666 -0.132567 -0.13299 -0.132713 -0.133375 -0.13372 -0.133609 -0.133989 
-0.134247 -0.13473 -0.134302 -0.0971787 -0.0986247 -0.17224 -0.144182 -0.0944246 -0.106966 
-0.100723 -0.0779084 -0.109735 -0.103962 -0.132725 -0.132349 -0.131932 -0.131465 -0.13242 
-0.130948 -0.130438 -0.131415 -0.12991 -0.12944 -0.130301 -0.128937 -0.128433 -0.129171 
-0.12792 -0.127468 -0.128045 -0.126996 -0.126642 -0.126953 -0.126281 -0.126024 -0.126064 
-0.125795 -0.125681 -0.125401 -0.125561 -0.125591 -0.125043 -0.125659 -0.125817 -0.125011 
-0.126008 -0.126285 -0.125328 -0.126626 -0.126993 -0.125947 -0.12739 -0.127754 -0.126801 
-0.128067 -0.128351 -0.127611 -0.128599 -0.128811 -0.128268 -0.128976 -0.129087 -0.128744 
-0.129157 -0.129158 -0.129012 -0.129122 -0.129013 -0.12907 -0.128886 -0.128666 -0.128916 
-0.128414 -0.128062 -0.12855 -0.127705 -0.127218 -0.127947 -0.126761 -0.126221 -0.12712 
-0.12568 -0.125021 -0.126098 -0.124396 -0.12369 -0.124909 -0.12302 -0.122337 -0.123568 
-0.121791 -0.121203 -0.122287 -0.120749 -0.120265 -0.121242 -0.119954 -0.119628 -0.120485 
-0.119481 -0.11929 -0.120069 -0.119281 -0.119232 -0.119941 -0.119377 -0.119487 -0.12008 
-0.119673 -0.119832 -0.120343 -0.119959 -0.120192 -0.12058 -0.120209 -0.120286 -0.120401 
-0.120203 -0.120256 -0.119895 -0.119723 -0.119497 -0.11854 -0.118183 -0.117289 -0.115573 
-0.13602 -0.167108 -0.074201 -0.0631856 -0.172045 -0.136865 -0.115127 -0.121376 -0.0586928 
-0.0558842 -0.0723418 -0.0530302 -0.0513142 -0.0650938 -0.0492772 -0.0481112 -0.0604339 -0.0470364 
-0.0455655 -0.0570413 -0.044935 -0.0444396 -0.0548174 -0.0439458 -0.0435077 -0.0532872 -0.0434516 
-0.0432492 -0.0525148 -0.0432562 -0.0428362 -0.0520045 -0.0427825 -0.0425014 -0.0515137 -0.0426558 
-0.0427259 -0.051289 -0.0428477 -0.042499 -0.0513121 -0.0426939 -0.0427946 -0.0514343 -0.0429807 
-0.0429168 -0.0516707 -0.0431166 -0.0431066 -0.0519258 -0.043037 -0.0432632 -0.0519866 -0.0439229 
-0.0444784 -0.0525033 -0.0454221 -0.046259 -0.054019 -0.0479533 -0.0500868 -0.0567188 -0.0540487 
-0.057747 -0.0621862 -0.0641425 -0.0702638 -0.0860924 -0.0725765 -0.106663 -0.116125 -0.183054 
-0.184955 -0.167317 -0.0954281 -0.0960421 -0.104763 -0.100775 -0.103219 -0.10806 -0.0959478 
-0.0952534 -0.103299 -0.0995427 -0.0975946 -0.104785 -0.105718 -0.102334 -0.108981 -0.114854 
-0.109917 -0.115256 -0.124425 -0.119234 -0.121838 -0.125367 -0.12621 -0.125345 -0.115375 
-0.105261 -0.103872 -0.108233 -0.122035 -0.110954 -0.110543 -0.119911 -0.124475 -0.155896 
-0.0980538 -0.101091 -0.091112 -0.0909023 -0.093266 -0.0918478 -0.098809 -0.098626 -0.0956888 
-0.101907 -0.108053 -0.103166 -0.10859 -0.120259 -0.113638 -0.117313 -0.124988 -0.1234 
-0.123209 -0.172513 -0.17873 -0.164526 -0.155265 -0.104106 -0.111362 -0.135307 -0.13334 
-0.133056 -0.133217 -0.105245 -0.109988 -0.117711 -0.112059 -0.093679 -0.0952953 -0.104239 
-0.0913618 -0.0923288 -0.100243 -0.0984506 -0.117957 -0.109271 -0.0889581 -0.0901968 -0.113799 
-0.134447 -0.134018 -0.119399 -0.113277 -0.11447 -0.121032 -0.107849 -0.109439 -0.145339 
-0.132016 -0.133664 -0.133525 -0.108553 -0.135667 -0.115956 -0.122064 -0.125367 -0.13526 
-0.122643 -0.123381 -0.168011 -0.134358 -0.117653 -0.123918 -0.116566 -0.109892 -0.122721 
-0.113271 -0.125485 -0.109769 -0.113605 -0.135146 -0.108579 -0.133755 -0.125023 -0.105373 
-0.110206 -0.119468 -0.110842 -0.131618 -0.146522 -0.116071 -0.121293 -0.117323 -0.136452 
-0.137197 -0.138163 -0.139064 -0.136901 -0.139825 -0.140668 -0.138682 -0.141513 -0.142368 
-0.140326 -0.143244 -0.143997 -0.142047 -0.144779 -0.145384 -0.143741 -0.145911 -0.146366 
-0.145101 -0.146728 -0.146979 -0.146049 -0.147094 -0.147082 -0.146582 -0.146902 -0.146676 
-0.146495 -0.146265 -0.145889 -0.145961 -0.145354 -0.14479 -0.145032 -0.144106 -0.143374 
-0.143787 -0.14251 -0.141637 -0.142225 -0.140736 -0.139859 -0.140414 -0.139027 -0.138205 
-0.138654 -0.137483 -0.136744 -0.137093 -0.13616 -0.135538 -0.135792 -0.135057 -0.134532 
-0.13474 -0.0998213 -0.104477 -0.115407 -0.109304 -0.11084 -0.116855 -0.109395 -0.109505 
-0.111486 -0.109878 -0.112896 -0.110502 -0.113134 -0.10128 -0.115652 -0.117055 -0.110862 
-0.118511 -0.119291 -0.115658 -0.119992 -0.120239 -0.11855 -0.120419 -0.12044 -0.119838 
-0.120413 -0.120357 -0.120246 -0.120256 -0.120202 -0.120225 -0.120119 -0.120164 -0.12008 
-0.120211 -0.120419 -0.120068 -0.120668 -0.121103 -0.120381 -0.121587 -0.122211 -0.121205 
-0.122888 -0.123578 -0.122496 -0.124271 -0.124996 -0.124027 -0.125695 -0.126389 -0.125571 
-0.126953 -0.127508 -0.126957 -0.127891 -0.128276 -0.12798 -0.128541 -0.128812 -0.128652 
-0.128979 -0.129146 -0.129083 -0.129219 -0.129276 -0.129306 -0.129255 -0.129196 -0.129325 
-0.129066 -0.128877 -0.129107 -0.128632 -0.128342 -0.128652 -0.128016 -0.127676 -0.128001 
-0.127377 -0.126968 -0.127288 -0.126441 -0.125928 -0.126321 -0.125446 -0.125046 -0.125146 
-0.124696 -0.124417 -0.124153 -0.124216 -0.124119 -0.123479 -0.124152 -0.124254 -0.123214 
-0.124548 -0.124883 -0.123559 -0.125385 -0.125865 -0.124425 -0.12649 -0.127068 -0.125663 
-0.127748 -0.128367 -0.12712 -0.129082 -0.12972 -0.128651 -0.130434 -0.131085 -0.130224 
-0.131749 -0.132356 -0.13173 -0.132954 -0.133476 -0.133099 -0.134021 -0.13447 -0.134319 
-0.119282 -0.133376 -0.0931794 -0.108406 -0.1108 -0.104056 -0.0983447 -0.0859782 -0.110253 
-0.111433 -0.116018 -0.132106 -0.131497 -0.130808 -0.130187 -0.131436 -0.129465 -0.128843 
-0.129937 -0.128226 -0.127603 -0.128474 -0.126862 -0.126263 -0.126961 -0.125517 -0.125053 
-0.125302 -0.124848 -0.124582 -0.124299 -0.124215 -0.124077 -0.123617 -0.123994 -0.124101 
-0.12314 -0.124295 -0.124581 -0.123314 -0.125038 -0.125522 -0.124063 -0.126086 -0.126632 
-0.125231 -0.127185 -0.127587 -0.126487 -0.127908 -0.128259 -0.127567 -0.128575 -0.128799 
-0.128297 -0.128991 -0.129086 -0.128891 -0.129153 -0.129133 -0.129139 -0.129101 -0.128985 
-0.129198 -0.128856 -0.128616 -0.12905 -0.128371 -0.128013 -0.128674 -0.127647 -0.127169 
-0.128095 -0.126695 -0.126107 -0.127218 -0.125437 -0.124709 -0.125984 -0.123989 -0.123215 
-0.124511 -0.122518 -0.121894 -0.122897 -0.121393 -0.120883 -0.121525 -0.120555 -0.120237 
-0.12059 -0.120105 -0.119985 -0.120145 -0.120032 -0.120045 -0.120053 -0.120181 -0.120271 
-0.120163 -0.120329 -0.120361 -0.12028 -0.12019 -0.120086 -0.120015 -0.119623 -0.11922 
-0.119019 -0.118325 -0.117432 -0.117125 -0.115892 -0.114389 -0.11411 -0.111792 -0.108979 
-0.100255 -0.108922 -0.123114 -0.12316 -0.169448 -0.157771 -0.0709131 -0.0689724 -0.0672286 
-0.0659185 -0.0770684 -0.0644293 -0.0636129 -0.0739654 -0.0628733 -0.0622929 -0.0718789 -0.0620396 
-0.0617303 -0.0710698 -0.0611351 -0.0608559 -0.0701679 -0.060113 -0.0598714 -0.0688971 -0.0598039 
-0.0598449 -0.068064 -0.0601555 -0.0601814 -0.0684136 -0.0606058 -0.0607321 -0.0691409 -0.0609054 
-0.0610435 -0.069691 -0.061035 -0.0611617 -0.0698297 -0.0610431 -0.0609921 -0.0696369 -0.0615421 
-0.062067 -0.0699869 -0.0630039 -0.0639507 -0.071449 -0.0654814 -0.067218 -0.0737501 -0.0686542 
-0.0726886 -0.0767746 -0.156699 -0.168601 -0.161964 -0.133138 -0.13266 -0.132772 -0.134178 
-0.111352 -0.10991 -0.115599 -0.113191 -0.115198 -0.118169 -0.115399 -0.113203 -0.117894 
-0.120498 -0.117565 -0.121315 -0.124964 -0.122454 -0.124338 -0.124833 -0.125376 -0.122182 
-0.107844 -0.111018 -0.116175 -0.120379 -0.105066 -0.104315 -0.121561 -0.118155 -0.123284 
-0.122763 -0.123157 -0.12099 -0.10884 -0.111333 -0.146108 -0.130155 -0.150113 -0.108573 
-0.106375 -0.111532 -0.147504 -0.136555 -0.110301 -0.111779 -0.115922 -0.115157 -0.111609 
-0.115283 -0.120308 -0.119956 -0.116035 -0.12121 -0.13392 -0.081522 -0.111771 -0.114337 
-0.119249 -0.135916 -0.135434 -0.0873066 -0.111548 -0.118975 -0.123349 -0.133559 -0.125043 
-0.125886 -0.123006 -0.123209 -0.118846 -0.134857 -0.106788 -0.113367 -0.105552 -0.118227 
-0.122108 -0.123474 -0.131054 -0.129602 -0.13196 -0.117166 -0.113626 -0.116959 -0.0738949 
-0.0817325 -0.0767108 -0.121866 -0.15092 -0.0809572 -0.133819 -0.115399 -0.11458 -0.125437 
-0.109514 -0.111701 -0.113495 -0.0893681 -0.114882 -0.111288 -0.113114 -0.135321 -0.135523 
-0.142862 -0.0861012 -0.122082 -0.117717 -0.110174 -0.104137 -0.104512 -0.159524 -0.153562 
-0.144316 -0.155222 -0.130034 -0.136287 -0.128426 -0.134289 -0.137498 -0.138283 -0.138969 
-0.139834 -0.137776 -0.140728 -0.141647 -0.139411 -0.142874 -0.143664 -0.141605 -0.1444 
-0.144961 -0.143646 -0.145562 -0.145952 -0.145022 -0.146302 -0.14644 -0.146028 -0.146384 
-0.146222 -0.146369 -0.145769 -0.145347 -0.145816 -0.144836 -0.144307 -0.144798 -0.143475 
-0.142776 -0.143384 -0.142048 -0.141182 -0.141822 -0.140178 -0.139259 -0.140007 -0.138251 
-0.137423 -0.137975 -0.136571 -0.135844 -0.136128 -0.13526 -0.13468 -0.134707 -0.116784 
-0.121233 -0.123883 -0.125383 -0.120448 -0.114415 -0.11529 -0.118149 -0.0936919 -0.100478 
-0.0856604 -0.105466 -0.108931 -0.098487 -0.112122 -0.114353 -0.1074 -0.11645 -0.117682 
-0.113171 -0.118917 -0.119391 -0.116961 -0.119509 -0.119658 -0.118647 -0.11972 -0.119689 
-0.118967 -0.119618 -0.119551 -0.119051 -0.119474 -0.119528 -0.118918 -0.11961 -0.119915 
-0.118944 -0.120331 -0.120963 -0.119484 -0.121775 -0.12265 -0.12089 -0.123594 -0.124472 
-0.122951 -0.125375 -0.126222 -0.125028 -0.126961 -0.127605 -0.126796 -0.128066 -0.128474 
-0.12808 -0.12873 -0.128982 -0.128803 -0.129112 -0.129249 -0.129172 -0.129278 -0.129312 
-0.12927 -0.129267 -0.129203 -0.129185 -0.129092 -0.128901 -0.128982 -0.12865 -0.128309 
-0.128571 -0.12788 -0.127427 -0.127799 -0.126833 -0.126436 -0.126629 -0.125794 -0.124899 
-0.124212 -0.124952 -0.12349 -0.122961 -0.123107 -0.122582 -0.122273 -0.12184 -0.122151 
-0.122145 -0.121164 -0.122288 -0.122634 -0.121177 -0.123173 -0.123803 -0.121968 -0.12471 
-0.125489 -0.123533 -0.126419 -0.127244 -0.125564 -0.128129 -0.129016 -0.127614 -0.129999 
-0.130865 -0.12962 -0.131735 -0.132517 -0.131635 -0.133252 -0.133943 -0.113586 -0.112906 
-0.128987 -0.122946 -0.119641 -0.120271 -0.130837 -0.138983 -0.130437 -0.129568 -0.128538 
-0.127792 -0.129036 -0.126949 -0.055167 -0.0576934 -0.125234 -0.124249 -0.126041 -0.12307 
-0.122853 -0.122859 -0.122343 -0.0596836 -0.06129 -0.122052 -0.121939 -0.121201 -0.12174 
-0.122041 -0.120633 -0.12282 -0.123429 -0.121214 -0.124085 -0.124921 -0.122988 -0.126094 
-0.126733 -0.125099 -0.127179 -0.0628027 -0.0640389 -0.127823 -0.128242 -0.127083 -0.128581 
-0.128794 -0.128153 -0.129073 -0.129153 -0.128721 -0.129162 -0.129147 -0.129054 -0.129161 
-0.129051 -0.129135 -0.128957 -0.128726 -0.129021 -0.128526 -0.12817 -0.128787 -0.127758 
-0.127233 -0.128208 -0.126631 -0.125852 -0.127172 -0.125014 -0.124058 -0.12552 -0.123118 
-0.12227 -0.123523 -0.121416 -0.120739 -0.121466 -0.120165 -0.119754 -0.119911 -0.119556 
-0.119428 -0.118932 -0.119506 -0.119569 -0.118872 -0.11983 -0.119909 -0.119235 -0.119777 
-0.119694 -0.119332 -0.119266 -0.118831 -0.118597 -0.118008 -0.117111 -0.117117 -0.115519 
-0.113935 -0.114266 -0.111378 -0.108938 -0.10948 -0.133764 -0.133145 -0.0858505 -0.0843938 
-0.116119 -0.115108 -0.120188 -0.115424 -0.116335 -0.132362 -0.13154 -0.13135 -0.120487 
-0.118195 -0.157972 -0.158357 -0.0828801 -0.0815887 -0.0908989 -0.079647 -0.0790405 -0.0878575 
-0.0803029 -0.080197 -0.0874313 -0.0796822 -0.0790743 -0.0883068 -0.0782521 -0.0775755 -0.0871972 
-0.0757678 -0.0757713 -0.0848204 -0.0779861 -0.0782947 -0.0853128 -0.078629 -0.0790473 -0.0877966 
-0.0792406 -0.0794136 -0.0881682 -0.0795481 -0.0794519 -0.0884919 -0.0784155 -0.0781539 -0.0872853 
-0.0780746 -0.0785455 -0.0860251 -0.0795003 -0.0802926 -0.0867604 -0.0815908 -0.0829049 -0.0887812 
-0.0844688 -0.124544 -0.123145 -0.121267 -0.122466 -0.124471 -0.121288 -0.116919 -0.126187 
-0.125174 -0.126811 -0.121459 -0.124042 -0.145516 -0.154521 -0.153268 -0.125855 -0.126168 
-0.126774 -0.124975 -0.128047 -0.136634 -0.0956151 -0.114932 -0.117862 -0.15377 -0.14336 
-0.140307 -0.152489 -0.122127 -0.120844 -0.125676 -0.118342 -0.115859 -0.119574 -0.119012 
-0.123296 -0.123727 -0.123337 -0.121162 -0.135939 -0.136914 -0.136494 -0.148709 -0.115881 
-0.118776 -0.121121 -0.0919453 -0.0889279 -0.0950547 -0.101564 -0.111922 -0.113456 -0.140653 
-0.142713 -0.112201 -0.11397 -0.113482 -0.123352 -0.125888 -0.126014 -0.12621 -0.117748 
-0.116619 -0.133353 -0.116141 -0.134811 -0.110913 -0.11736 -0.120591 -0.0648543 -0.064199 
-0.116624 -0.123002 -0.124379 -0.143151 -0.102419 -0.105452 -0.120371 -0.120653 -0.122831 
-0.133308 -0.0914737 -0.118957 -0.121053 -0.124633 -0.122602 -0.12515 -0.119249 -0.114763 
-0.114581 -0.114986 -0.114842 -0.117175 -0.120931 -0.133257 -0.124302 -0.121776 -0.116991 
-0.120218 -0.119301 -0.125861 -0.123355 -0.124331 -0.131726 -0.115314 -0.117083 -0.118318 
-0.122244 -0.129039 -0.135055 -0.122454 -0.12426 -0.123958 -0.123877 -0.124906 -0.124562 
-0.134987 -0.133862 -0.124092 -0.139646 -0.123534 -0.121742 -0.124931 -0.132849 -0.123664 
-0.120475 -0.121945 -0.125197 -0.137119 -0.138043 -0.142664 -0.143414 -0.144634 -0.14525 
-0.143703 -0.145986 -0.146358 -0.145725 -0.146559 -0.14653 -0.146718 -0.146233 -0.145738 
-0.146631 -0.144251 -0.143699 -0.144735 -0.14283 -0.0659479 -0.0650565 -0.14094 -0.140166 
-0.141233 -0.139092 -0.066371 -0.0649081 -0.137812 -0.136768 -0.137842 -0.135571 -0.134715 
-0.135252 -0.133891 -0.123212 -0.125404 -0.126531 -0.124551 -0.11942 -0.118657 -0.119489 
-0.116037 -0.121067 -0.0971893 -0.102333 -0.106197 -0.0958851 -0.110163 -0.112696 -0.105688 
-0.115666 -0.116921 -0.112838 -0.117431 -0.0658009 -0.0640052 -0.118341 -0.118279 -0.118226 
-0.118098 -0.117534 -0.117789 -0.117846 -0.116919 -0.119429 -0.120522 -0.124489 -0.125572 
-0.126541 -0.127332 -0.126143 -0.127846 -0.128313 -0.127602 -0.128589 -0.128819 -0.12834 
-0.128862 -0.128947 -0.128505 -0.1288 -0.128751 -0.1284 -0.128622 -0.128531 -0.128088 
-0.128446 -0.128333 -0.127828 -0.128169 -0.127907 -0.127633 -0.126516 -0.125718 -0.124754 
-0.123589 -0.124426 -0.122738 -0.121776 -0.122346 -0.120738 -0.12016 -0.120151 -0.120107 
-0.119932 -0.118913 -0.119933 -0.120084 -0.118852 -0.122404 -0.123539 -0.126515 -0.127559 
-0.129464 -0.130645 -0.128522 -0.131743 -0.13272 -0.131789 -0.114949 -0.115775 -0.12068 
-0.119255 -0.119269 -0.120443 -0.0997068 -0.126096 -0.124888 -0.128425 -0.128445 -0.128475 
-0.128116 -0.121394 -0.120318 -0.119013 -0.118195 -0.118582 -0.117997 -0.117808 -0.116831 
-0.117764 -0.117941 -0.116924 -0.11845 -0.118705 -0.117314 -0.118612 -0.0645962 -0.0623906 
-0.118152 -0.11764 -0.117777 -0.11609 -0.114781 -0.115469 -0.113217 -0.111118 -0.112469 
-0.107619 -0.104191 -0.106178 -0.114563 -0.115078 -0.117177 -0.132888 -0.128752 -0.0948875 
-0.0962902 -0.0969245 -0.0966017 -0.103478 -0.095337 -0.0945316 -0.103026 -0.0956961 -0.0939718 
-0.103273 -0.0962206 -0.0625753 -0.06122 -0.0978953 -0.0980167 -0.105967 -0.0964954 -0.0966427 
-0.10598 -0.0988003 -0.0988062 -0.106401 -0.0962561 -0.0950096 -0.105617 -0.0927595 -0.0924846 
-0.100708 -0.0934972 -0.0942017 -0.0993282 -0.0948856 -0.130509 -0.129415 -0.13189 -0.136734 
-0.133537 -0.134356 -0.135248 -0.133756 -0.149762 -0.152922 -0.124586 -0.116943 -0.11829 
-0.116787 -0.115219 -0.126568 -0.1293 -0.135824 -0.127688 -0.127416 -0.136355 -0.13703 
-0.135551 -0.135091 -0.133244 -0.0975341 -0.0597785 -0.0579197 -0.12627 -0.125934 -0.124545 
-0.126567 -0.128179 -0.115187 -0.115666 -0.127364 -0.12686 -0.0964899 -0.141389 -0.139683 
-0.140793 -0.137258 -0.128384 -0.116535 -0.118342 -0.117534 -0.118139 -0.117991 -0.118544 
-0.121926 -0.123182 -0.127128 -0.12625 -0.127642 -0.131728 -0.0554687 -0.0531389 -0.132539 
-0.120987 -0.121001 -0.118762 -0.120311 -0.150329 -0.152536 -0.148415 -0.124618 -0.122177 
-0.120234 -0.112298 -0.110623 -0.127103 -0.126873 -0.129034 -0.120841 -0.122866 -0.0420955 
-0.0679577 -0.0965684 -0.051925 -0.0470678 -0.119051 -0.120656 -0.121518 -0.123318 -0.127377 
-0.128488 -0.128543 -0.127897 -0.127664 -0.12696 -0.127386 -0.128771 -0.128662 -0.126066 
-0.124978 -0.126566 -0.12375 -0.122472 -0.121432 -0.124028 -0.115135 -0.115911 -0.137263 
-0.136105 -0.14384 -0.10061 -0.116577 -0.122158 -0.121923 -0.116992 -0.125959 -0.124523 
-0.122932 -0.132428 -0.126033 -0.126511 -0.127252 -0.126931 -0.122872 -0.12234 -0.124822 
-0.124779 -0.102285 -0.120521 -0.1179 -0.123564 -0.127669 -0.125785 -0.140667 -0.1466 
-0.124617 -0.12592 -0.117889 -0.124244 -0.125315 -0.120968 -0.122941 -0.122469 -0.128866 
-0.147186 -0.125247 -0.126028 -0.125988 -0.116582 -0.117489 -0.124755 -0.12718 -0.12751 
-0.116863 -0.112582 -0.140091 -0.128263 -0.12703 -0.128041 -0.126289 -0.119471 -0.145797 
-0.146485 -0.124688 -0.126392 -0.122843 -0.130042 -0.128404 -0.105152 -0.109559 -0.112985 
-0.105317 -0.113177 -0.112235 -0.115726 -0.116767 -0.115197 -0.12537 -0.127481 -0.12765 
-0.126326 -0.126275 -0.126314 -0.126326 -0.118952 -0.134272 -0.126119 -0.131316 -0.133962 
-0.13303 -0.119778 -0.109874 -0.128814 -0.10919 -0.114851 -0.139997 -0.143636 -0.117406 
-0.106312 -0.126788 -0.11574 -0.116851 -0.114528 -0.112641 -0.104382 -0.124422 -0.118678 
-0.116814 -0.12641 -0.124792 -0.126599 -0.14304 -0.144299 -0.145276 -0.141251 -0.11709 
-0.145255 -0.148163 -0.126794 -0.127791 -0.127772 -0.117043 -0.116288 -0.114559 -0.147408 
-0.14765 -0.137973 -0.135228 -0.134002 -0.132305 -0.120622 -0.121999 -0.116723 -0.116555 
-0.124522 -0.122263 -0.117492 -0.116565 -0.118648 -0.117559 -0.135018 -0.136574 -0.127191 
-0.126938 -0.125226 -0.126235 -0.147575 -0.116888 -0.14927 -0.147389 -0.14519 -0.11891 
-0.122711 -0.123726 -0.111173 -0.135677 -0.118899 -0.112159 -0.118404 -0.139858 -0.134106 
-0.131398 -0.106611 -0.10925 -0.146221 -0.14229 -0.117867 -0.118195 -0.147769 -0.148987 
-0.133299 -0.13348 -0.133396 -0.134252 -0.133831 -0.133866 -0.135491 -0.134807 -0.134763 
-0.137189 -0.136238 -0.136045 -0.139238 -0.13812 -0.137697 -0.141575 -0.140237 -0.13963 
-0.143997 -0.142659 -0.141703 -0.146361 -0.145038 -0.143824 -0.148953 -0.14753 -0.146019 
-0.151055 -0.149928 -0.148168 -0.152633 -0.151826 -0.1499 -0.153666 -0.153226 -0.151217 
-0.154154 -0.153981 -0.152124 -0.153905 -0.154112 -0.152348 -0.153061 -0.153593 -0.151991 
-0.151681 -0.152496 -0.151099 -0.149811 -0.150893 -0.14977 -0.147665 -0.148883 -0.148053 
-0.14521 -0.146565 -0.146066 -0.142782 -0.144114 -0.143936 -0.140418 -0.141742 -0.141825 
-0.138237 -0.139375 -0.139739 -0.136388 -0.137401 -0.137846 -0.134911 -0.135632 -0.136247 
-0.133872 -0.134335 -0.134908 -0.133365 -0.133545 -0.133967 -0.133353 -0.13325 -0.133479 
-0.133382 -0.134938 -0.149621 -0.157564 -0.13268 -0.142854 -0.138555 -0.124448 -0.128457 
-0.133628 -0.119634 -0.121939 -0.126997 -0.116823 -0.118043 -0.122476 -0.115119 -0.115853 
-0.119878 -0.114172 -0.114508 -0.118093 -0.113746 -0.113792 -0.116991 -0.113843 -0.113684 
-0.116344 -0.114262 -0.113916 -0.116206 -0.115042 -0.114544 -0.11641 -0.116108 -0.115497 
-0.116971 -0.117436 -0.11666 -0.117798 -0.118875 -0.118035 -0.118811 -0.120551 -0.119627 
-0.120067 -0.122309 -0.121361 -0.121491 -0.123986 -0.123096 -0.122968 -0.125689 -0.124768 
-0.124416 -0.127197 -0.126375 -0.125779 -0.12854 -0.127855 -0.127046 -0.129582 -0.129055 
-0.128139 -0.130282 -0.129941 -0.128966 -0.130706 -0.130514 -0.129528 -0.130799 -0.130787 
-0.129849 -0.130611 -0.13075 -0.129912 -0.130197 -0.130452 -0.12974 -0.129578 -0.129969 
-0.129393 -0.128883 -0.129274 -0.128917 -0.128185 -0.128576 -0.128365 -0.127524 -0.127887 
-0.127812 -0.127034 -0.127296 -0.127329 -0.126748 -0.126898 -0.126998 -0.126705 -0.126727 
-0.126873 -0.12691 -0.126803 -0.126959 -0.127364 -0.127115 -0.127263 -0.127969 -0.12766 
-0.127755 -0.128765 -0.128334 -0.128407 -0.129591 -0.129158 -0.129152 -0.130459 -0.130015 
-0.129951 -0.13131 -0.130867 -0.130765 -0.132105 -0.131696 -0.131544 -0.132723 -0.132429 
-0.132245 -0.133171 -0.132965 -0.132808 -0.0847281 -0.13329 -0.13337 -0.133355 -0.132918 
-0.133138 -0.133159 -0.132347 -0.132676 -0.132702 -0.131653 -0.132025 -0.132113 -0.130813 
-0.131293 -0.131424 -0.129931 -0.130387 -0.13064 -0.129068 -0.12951 -0.129809 -0.12826 
-0.128678 -0.129023 -0.127562 -0.127887 -0.128284 -0.127024 -0.127249 -0.127636 -0.126679 
-0.126799 -0.127144 -0.126604 -0.12657 -0.126854 -0.126783 -0.126617 -0.126788 -0.127196 
-0.126899 -0.126947 -0.127803 -0.127433 -0.127305 -0.128521 -0.128088 -0.127822 -0.129276 
-0.128829 -0.128395 -0.129951 -0.129599 -0.128981 -0.130487 -0.130199 -0.129486 -0.130774 
-0.13066 -0.129836 -0.130751 -0.130811 -0.129972 -0.130417 -0.130646 -0.129832 -0.129739 
-0.130158 -0.12944 -0.128717 -0.12934 -0.128761 -0.127498 -0.128184 -0.127827 -0.126029 
-0.126867 -0.126686 -0.124258 -0.125269 -0.125343 -0.122534 -0.123459 -0.123847 -0.120722 
-0.121698 -0.122298 -0.11892 -0.119931 -0.120765 -0.117263 -0.118128 -0.11929 -0.115932 
-0.116634 -0.118008 -0.114844 -0.115416 -0.117016 -0.113987 -0.114432 -0.116239 -0.113519 
-0.113787 -0.115787 -0.113375 -0.113468 -0.11569 -0.113628 -0.113515 -0.115961 -0.114312 
-0.113919 -0.116618 -0.115672 -0.114913 -0.117745 -0.117929 -0.116591 -0.119609 -0.122015 
-0.119511 -0.122579 -0.12918 -0.124663 -0.127308 -0.140953 -0.133549 -0.133698 -0.151458 
-0.143872 -0.141394 -0.11165 -0.0281454 -0.0353731 -0.0178573 -0.0175511 -0.0460236 -0.0152997 
-0.0152152 -0.032448 -0.00821536 -0.0104455 -0.0227325 -0.0107671 -0.00469983 -0.0207315 -0.00928574 
-0.0111351 -0.0131382 -0.00841095 -0.00826798 -0.02049 -0.00856975 -0.00831989 -0.0181535 -0.00841299 
-0.00779639 -0.0180613 -0.00868496 -0.00860163 -0.0183473 -0.00868955 -0.00909266 -0.0170856 -0.00841278 
-0.00847168 -0.0174966 -0.008543 -0.00864654 -0.0165521 -0.00837376 -0.00868622 -0.016652 -0.00825544 
-0.00821924 -0.0166707 -0.00791443 -0.00793033 -0.0172578 -0.00823111 -0.00799584 -0.0175068 -0.00859742 
-0.00824553 -0.0169228 -0.00866541 -0.0084837 -0.0181076 -0.00901167 -0.00878193 -0.0172827 -0.00942572 
-0.00872683 -0.0186277 -0.0100129 -0.00940439 -0.0202085 -0.0110446 -0.00995908 -0.0220895 -0.013401 
-0.0117301 -0.0268826 -0.0144865 -0.0143536 -0.0317094 -0.0272577 -0.0201105 -0.0438792 -0.0751722 
-0.234368 -0.256592 -0.173175 -0.119104 -0.0818508 -0.0768616 -0.143125 -0.0683451 -0.0677418 
-0.0961202 -0.0639149 -0.0642213 -0.0811059 -0.0626846 -0.0633193 -0.0736552 -0.0630067 -0.0633048 
-0.0705387 -0.063241 -0.0633725 -0.0693799 -0.0635971 -0.0635337 -0.069279 -0.0640213 -0.0637775 
-0.0701791 -0.0641982 -0.0636619 -0.0718491 -0.0651399 -0.0648885 -0.0747756 -0.0690048 -0.0696924 
-0.0826437 -0.0800349 -0.085265 -0.100627 -0.113711 -0.170715 -0.144032 -0.236937 -0.231097 
-0.153745 -0.108951 -0.0820462 -0.076429 -0.134973 -0.0677267 -0.0673755 -0.0960993 -0.0647204 
-0.0653796 -0.0813909 -0.0638375 -0.064342 -0.0746635 -0.0636726 -0.0639429 -0.0711122 -0.0636588 
-0.0637089 -0.0696005 -0.0635652 -0.0634016 -0.0690452 -0.063277 -0.0628396 -0.0691795 -0.0635664 
-0.0631859 -0.0706214 -0.0646126 -0.0644805 -0.0743798 -0.0675192 -0.0684024 -0.0817178 -0.0797703 
-0.0868299 -0.0988752 -0.112181 -0.173479 -0.140929 -0.133426 -0.119663 -0.117931 -0.179655 
-0.128486 -0.133373 -0.133291 -0.0759877 -0.0909925 -0.144454 -0.191591 -0.0965636 -0.180974 
-0.0993893 -0.132283 -0.19056 -0.133443 -0.0924812 -0.133182 -0.135023 -0.134459 -0.134052 
-0.133706 -0.13352 -0.134161 -0.138028 -0.137116 -0.139819 -0.13885 -0.138153 -0.14171 
-0.140637 -0.139801 -0.143611 -0.142601 -0.141516 -0.145597 -0.144478 -0.143285 -0.147445 
-0.146512 -0.145049 -0.148945 -0.148209 -0.146707 -0.150057 -0.149474 -0.148018 -0.150686 
-0.150391 -0.148919 -0.150808 -0.15083 -0.149437 -0.15033 -0.150619 -0.149427 -0.149384 
-0.149915 -0.14886 -0.148075 -0.148809 -0.147896 -0.146429 -0.147321 -0.14659 -0.144577 
-0.145607 -0.145033 -0.142663 -0.143705 -0.143341 -0.140758 -0.141771 -0.141569 -0.138855 
-0.139886 -0.139814 -0.137288 -0.138137 -0.138213 -0.135827 -0.136581 -0.136737 -0.134656 
-0.135239 -0.135447 -0.133841 -0.134217 -0.1344 -0.122618 -0.123816 -0.133178 -0.133378 
-0.230229 -0.146111 -0.122887 -0.123071 -0.116888 -0.118709 -0.109841 -0.0678385 -0.104508 
-0.121592 -0.122435 -0.12054 -0.120326 -0.121092 -0.120855 -0.119262 -0.119841 -0.120811 
-0.118421 -0.118849 -0.120388 -0.118036 -0.118151 -0.119899 -0.117854 -0.117881 -0.119476 
-0.117927 -0.117768 -0.119222 -0.118295 -0.117976 -0.119147 -0.11893 -0.1185 -0.119348 
-0.119818 -0.11929 -0.119853 -0.12099 -0.120321 -0.120664 -0.122297 -0.121556 -0.121706 
-0.123651 -0.12293 -0.122911 -0.125002 -0.124279 -0.124181 -0.12623 -0.125589 -0.125417 
-0.127356 -0.126754 -0.126552 -0.12826 -0.127794 -0.127518 -0.128923 -0.128596 -0.128281 
-0.129344 -0.129137 -0.128814 -0.129533 -0.129456 -0.129122 -0.129497 -0.129546 -0.129226 
-0.129255 -0.129412 -0.129124 -0.128869 -0.129093 -0.128827 -0.128326 -0.12863 -0.12837 
-0.127741 -0.128046 -0.127785 -0.127167 -0.127458 -0.127147 -0.126733 -0.12696 -0.126587 
-0.126495 -0.126616 -0.126223 -0.126497 -0.126496 -0.126093 -0.12672 -0.126596 -0.126205 
-0.127182 -0.126947 -0.126563 -0.127843 -0.127515 -0.127186 -0.128621 -0.128229 -0.12798 
-0.129469 -0.129055 -0.128868 -0.130349 -0.129908 -0.129805 -0.13119 -0.130766 -0.130725 
-0.132008 -0.13161 -0.131614 -0.132729 -0.132396 -0.132485 -0.133272 -0.133026 -0.133199 
-0.132919 -0.126544 -0.163328 -0.232663 -0.100672 -0.124482 -0.132719 -0.132991 -0.133195 
-0.132105 -0.132447 -0.132717 -0.131365 -0.131743 -0.132057 -0.130543 -0.130984 -0.131283 
-0.12968 -0.130111 -0.130439 -0.12888 -0.129274 -0.129547 -0.128096 -0.128474 -0.128685 
-0.127396 -0.127713 -0.127844 -0.126886 -0.127107 -0.127135 -0.126576 -0.126685 -0.12661 
-0.126518 -0.126492 -0.12631 -0.126694 -0.126554 -0.126255 -0.127085 -0.126838 -0.126448 
-0.127617 -0.127317 -0.126856 -0.128204 -0.127888 -0.127395 -0.128788 -0.128478 -0.12798 
-0.129248 -0.129016 -0.128522 -0.129542 -0.129405 -0.128941 -0.129606 -0.129602 -0.12917 
-0.129421 -0.129547 -0.129183 -0.128992 -0.129261 -0.128967 -0.128297 -0.128698 -0.128523 
-0.127378 -0.127901 -0.127839 -0.126268 -0.126876 -0.126957 -0.124968 -0.125693 -0.125895 
-0.123563 -0.124318 -0.124681 -0.122115 -0.122895 -0.123383 -0.120758 -0.121488 -0.122112 
-0.11949 -0.120184 -0.120948 -0.11848 -0.119001 -0.119938 -0.117765 -0.118156 -0.119196 
-0.117281 -0.11756 -0.118767 -0.117178 -0.117253 -0.118643 -0.117346 -0.117271 -0.118765 
-0.117778 -0.117528 -0.119149 -0.118476 -0.118091 -0.119671 -0.119603 -0.118923 -0.120334 
-0.12116 -0.120213 -0.121353 -0.123467 -0.122026 -0.122497 -0.126137 -0.124592 -0.123582 
-0.128141 -0.12692 -0.122297 -0.113305 -0.120477 -0.109242 -0.0697468 -0.0368279 -0.0401957 
-0.0511085 -0.0555262 -0.0628126 -0.133416 -0.0658263 -0.0291565 -0.0314825 -0.0466308 -0.0264217 
-0.0262112 -0.0396864 -0.0283581 -0.0279768 -0.0376198 -0.0278318 -0.027435 -0.0375047 -0.0268515 
-0.0270565 -0.036439 -0.0266114 -0.0266925 -0.0353628 -0.0268804 -0.026184 -0.0352331 -0.026372 
-0.026135 -0.0349059 -0.0256484 -0.0255225 -0.0345288 -0.0255447 -0.0250601 -0.0339481 -0.0257521 
-0.0251628 -0.033915 -0.0258465 -0.0255171 -0.0341785 -0.0261599 -0.0260461 -0.034525 -0.0266412 
-0.0265504 -0.03518 -0.0264661 -0.0269974 -0.0355738 -0.0271587 -0.0273146 -0.0361199 -0.0288193 
-0.0288877 -0.037694 -0.0313668 -0.0315989 -0.0407031 -0.0353337 -0.0357091 -0.0456369 -0.0417791 
-0.0418193 -0.0529894 -0.0515755 -0.0512804 -0.0637768 -0.10374 -0.112936 -0.111989 -0.103661 
-0.15019 -0.227487 -0.116242 -0.105759 -0.126993 -0.0975463 -0.0920992 -0.114116 -0.0873705 
-0.0843532 -0.102064 -0.0815286 -0.0804371 -0.0937344 -0.0793265 -0.0788843 -0.0891059 -0.0784853 
-0.0788222 -0.0874484 -0.0794737 -0.0803938 -0.0879522 -0.0818809 -0.0832178 -0.0904655 -0.0865716 
-0.0893972 -0.0958313 -0.095024 -0.101444 -0.105143 -0.108624 -0.119679 -0.117478 -0.129268 
-0.136904 -0.111123 -0.12934 -0.114681 -0.104878 -0.0975111 -0.0928663 -0.113893 -0.0884671 
-0.0855408 -0.102177 -0.0827276 -0.0813201 -0.094564 -0.08001 -0.0793913 -0.0901049 -0.0788369 
-0.0788276 -0.0880817 -0.0790046 -0.0794581 -0.0877813 -0.0808404 -0.0825606 -0.0897521 -0.0849748 
-0.0882395 -0.0942418 -0.0928883 -0.0984357 -0.10203 -0.106721 -0.117131 -0.114226 -0.126147 
-0.135644 -0.12678 -0.221779 -0.143853 -0.192396 -0.136365 -0.135625 -0.135192 -0.136561 
-0.139142 -0.124857 -0.117891 -0.108949 -0.106709 -0.0837542 -0.133506 -0.133704 -0.133627 
-0.156071 -0.113775 -0.127167 -0.160041 -0.133649 -0.109623 -0.127627 -0.11458 -0.104181 
-0.106376 -0.112794 -0.115151 -0.149246 -0.063946 -0.0809514 -0.112523 -0.11226 -0.110718 
-0.191278 -0.147982 -0.106944 -0.17123 -0.143915 -0.141231 -0.140351 -0.138077 -0.137254 
-0.142915 -0.142076 -0.140915 -0.144644 -0.143768 -0.142601 -0.146143 -0.145399 -0.14421 
-0.147328 -0.146781 -0.14563 -0.148106 -0.147759 -0.14673 -0.14849 -0.148318 -0.147401 
-0.148305 -0.14846 -0.147617 -0.147661 -0.148029 -0.147326 -0.146618 -0.147153 -0.146579 
-0.145258 -0.145969 -0.145434 -0.143756 -0.144543 -0.144076 -0.142095 -0.142943 -0.142555 
-0.140405 -0.141281 -0.140933 -0.138811 -0.139663 -0.139376 -0.137343 -0.138092 -0.137911 
-0.135993 -0.136717 -0.136545 -0.134851 -0.135443 -0.135334 -0.133969 -0.134421 -0.134348 
-0.133657 -0.132145 -0.166983 -0.118096 -0.117038 -0.117223 -0.107551 -0.142934 -0.177889 
-0.114529 -0.112367 -0.110848 -0.0933791 -0.134056 -0.120102 -0.120065 -0.120193 -0.12027 
-0.119881 -0.120022 -0.120133 -0.120381 -0.119811 -0.119891 -0.120384 -0.119726 -0.119707 
-0.120221 -0.119878 -0.11972 -0.120125 -0.120344 -0.120021 -0.120253 -0.121153 -0.120662 
-0.12071 -0.122217 -0.121626 -0.12153 -0.123486 -0.122812 -0.122647 -0.124799 -0.124117 
-0.123965 -0.126041 -0.125408 -0.12531 -0.127117 -0.126565 -0.126539 -0.127992 -0.127554 
-0.127573 -0.128633 -0.128315 -0.128359 -0.129022 -0.128831 -0.128874 -0.129202 -0.129117 
-0.12915 -0.129188 -0.12921 -0.12923 -0.128955 -0.129093 -0.129093 -0.128522 -0.128759 
-0.128731 -0.127913 -0.12824 -0.128177 -0.127147 -0.12753 -0.127387 -0.126352 -0.12674 
-0.12645 -0.125735 -0.126022 -0.125578 -0.12535 -0.125512 -0.124902 -0.12526 -0.125262 
-0.124524 -0.125509 -0.12538 -0.124533 -0.126122 -0.125825 -0.125007 -0.126993 -0.126568 
-0.125858 -0.128007 -0.127525 -0.12694 -0.129113 -0.128585 -0.128168 -0.130219 -0.129696 
-0.129467 -0.131241 -0.130749 -0.13069 -0.132241 -0.131752 -0.131809 -0.13316 -0.132716 
-0.132897 -0.133976 -0.133662 -0.133953 -0.115001 -0.122126 -0.13347 -0.131343 -0.131778 
-0.130348 -0.130837 -0.13129 -0.129397 -0.129877 -0.130206 -0.128379 -0.128866 -0.129111 
-0.127382 -0.127842 -0.127937 -0.126558 -0.126904 -0.126836 -0.125991 -0.126233 -0.12596 
-0.125685 -0.125783 -0.125382 -0.125663 -0.125614 -0.125082 -0.125912 -0.125726 -0.125101 
-0.12646 -0.12616 -0.125473 -0.127142 -0.126793 -0.126141 -0.127852 -0.127501 -0.126938 
-0.128462 -0.128177 -0.127757 -0.12889 -0.128693 -0.128377 -0.12912 -0.129036 -0.128821 
-0.129108 -0.12915 -0.129037 -0.128876 -0.129028 -0.129015 -0.128418 -0.128702 -0.128774 
-0.127731 -0.128122 -0.128313 -0.126814 -0.127318 -0.127605 -0.125732 -0.126316 -0.12668 
-0.12452 -0.12518 -0.125589 -0.123226 -0.123906 -0.124391 -0.12196 -0.122596 -0.123073 
-0.120905 -0.121468 -0.121943 -0.120039 -0.120479 -0.12099 -0.1195 -0.119761 -0.120329 
-0.11927 -0.119395 -0.12 -0.119375 -0.119326 -0.11997 -0.119628 -0.119519 -0.120159 
-0.119922 -0.119763 -0.120434 -0.120179 -0.120028 -0.120608 -0.120532 -0.120307 -0.120509 
-0.120481 -0.12032 -0.119924 -0.119785 -0.119913 -0.118588 -0.117122 -0.118294 -0.115126 
-0.112265 -0.115616 -0.109592 -0.0988954 -0.0496424 -0.050557 -0.053445 -0.0595327 -0.0625437 
-0.109206 -0.117856 -0.103944 -0.109367 -0.103085 -0.112242 -0.0486806 -0.0484333 -0.0592385 
-0.0480308 -0.0483017 -0.058699 -0.0460089 -0.0464335 -0.0571245 -0.0444291 -0.0446456 -0.0544293 
-0.0440242 -0.0438155 -0.0526908 -0.0439196 -0.0441325 -0.0525562 -0.0433772 -0.0437368 -0.0526109 
-0.042592 -0.0428712 -0.0518211 -0.0428382 -0.0425731 -0.0512993 -0.0433205 -0.0431796 -0.0516822 
-0.0441209 -0.0435937 -0.0524568 -0.0447923 -0.0442982 -0.0531653 -0.0448605 -0.0449578 -0.0536704 
-0.0463016 -0.0456752 -0.0545867 -0.0493061 -0.0479639 -0.0571324 -0.0536119 -0.0516253 -0.0613429 
-0.0603614 -0.0570633 -0.0672287 -0.0694625 -0.0649356 -0.0753863 -0.0835829 -0.0763888 -0.0867257 
-0.127159 -0.124793 -0.12125 -0.109533 -0.103439 -0.109699 -0.119547 -0.119186 -0.115892 
-0.118478 -0.107523 -0.101912 -0.183347 -0.182926 -0.120499 -0.115332 -0.111163 -0.107002 
-0.119385 -0.103663 -0.100623 -0.113205 -0.0979861 -0.096651 -0.107722 -0.0953939 -0.0951797 
-0.104104 -0.0954147 -0.0962517 -0.103205 -0.0976207 -0.0993601 -0.104738 -0.102231 -0.105743 
-0.109022 -0.110001 -0.114812 -0.115671 -0.118909 -0.123449 -0.122452 -0.121553 -0.116067 
-0.124847 -0.166076 -0.13181 -0.111824 -0.107578 -0.119749 -0.104275 -0.101308 -0.11332 
-0.0992941 -0.0978256 -0.108476 -0.0965572 -0.0959805 -0.1053 -0.0958604 -0.0962096 -0.103971 
-0.0972852 -0.0989894 -0.104902 -0.10117 -0.103946 -0.108006 -0.107522 -0.111827 -0.11318 
-0.116057 -0.121099 -0.119366 -0.123246 -0.124411 -0.122801 -0.188791 -0.179866 -0.17226 
-0.139604 -0.138785 -0.13786 -0.139334 -0.132198 -0.132601 -0.132281 -0.124416 -0.123157 
-0.122701 -0.091503 -0.13309 -0.13294 -0.133235 -0.136561 -0.136689 -0.13593 -0.118321 
-0.132081 -0.111321 -0.101101 -0.115881 -0.10792 -0.164193 -0.110111 -0.119268 -0.109847 
-0.133688 -0.119349 -0.110066 -0.0709748 -0.082351 -0.111046 -0.116129 -0.125707 -0.134565 
-0.133983 -0.118735 -0.0961911 -0.112967 -0.142932 -0.169707 -0.12595 -0.127009 -0.1193 
-0.125756 -0.164967 -0.146827 -0.131996 -0.125442 -0.11697 -0.0765731 -0.140463 -0.139638 
-0.145247 -0.144608 -0.146323 -0.145884 -0.145009 -0.146919 -0.146702 -0.146067 -0.147042 
-0.147038 -0.146535 -0.146584 -0.146854 -0.146565 -0.145696 -0.146172 -0.145894 -0.144392 
-0.145013 -0.144823 -0.14291 -0.143605 -0.143324 -0.141329 -0.142118 -0.141752 -0.139711 
-0.140509 -0.140111 -0.138198 -0.138934 -0.138518 -0.136817 -0.137534 -0.137081 -0.135557 
-0.136211 -0.135808 -0.134495 -0.135057 -0.134701 -0.134122 -0.122987 -0.122785 -0.119246 
-0.114821 -0.128853 -0.1295 -0.120108 -0.120086 -0.119899 -0.119631 -0.11932 -0.118873 
-0.118071 -0.117939 -0.120026 -0.120086 -0.119674 -0.119919 -0.119925 -0.119627 -0.120067 
-0.119929 -0.119567 -0.120607 -0.120261 -0.119764 -0.121565 -0.121025 -0.120453 -0.122899 
-0.122211 -0.121616 -0.124395 -0.12363 -0.123217 -0.125912 -0.125174 -0.12488 -0.1272 
-0.12659 -0.126492 -0.128177 -0.127699 -0.127768 -0.128822 -0.1285 -0.128619 -0.129159 
-0.128985 -0.129091 -0.129287 -0.129218 -0.129283 -0.129255 -0.129277 -0.129313 -0.129022 
-0.129167 -0.129199 -0.128539 -0.128814 -0.128847 -0.127792 -0.128191 -0.128204 -0.126722 
-0.127268 -0.12722 -0.125572 -0.126145 -0.125955 -0.124433 -0.124919 -0.124536 -0.123645 
-0.123988 -0.123258 -0.123275 -0.123413 -0.122422 -0.123475 -0.123323 -0.122181 -0.124246 
-0.123834 -0.122639 -0.12545 -0.124874 -0.123737 -0.126881 -0.126206 -0.125286 -0.128436 
-0.127708 -0.127086 -0.129978 -0.129254 -0.128896 -0.131328 -0.130694 -0.130585 -0.132613 
-0.132009 -0.132098 -0.133772 -0.133207 -0.133471 -0.134847 -0.134272 -0.134645 -0.108483 
-0.110833 -0.135509 -0.152497 -0.066504 -0.0679959 -0.115581 -0.120078 -0.120311 -0.114295 
-0.152162 -0.165113 -0.135175 -0.114628 -0.108678 -0.13017 -0.130757 -0.129976 -0.131396 
-0.13199 -0.131395 -0.12743 -0.128104 -0.128433 -0.126064 -0.126669 -0.126731 -0.12512 
-0.125512 -0.125292 -0.124504 -0.124761 -0.12426 -0.124207 -0.124285 -0.123619 -0.124262 
-0.12415 -0.123332 -0.12483 -0.124483 -0.123579 -0.125744 -0.125274 -0.124348 -0.126765 
-0.126269 -0.125487 -0.12774 -0.127278 -0.126703 -0.128438 -0.128129 -0.127741 -0.128905 
-0.128702 -0.128509 -0.129107 -0.129041 -0.128971 -0.129073 -0.129125 -0.129181 -0.128846 
-0.129001 -0.129169 -0.128385 -0.128671 -0.128932 -0.127641 -0.128065 -0.12844 -0.126636 
-0.127178 -0.127645 -0.125458 -0.126069 -0.126577 -0.124146 -0.124826 -0.125334 -0.122914 
-0.123589 -0.12402 -0.121705 -0.122298 -0.122603 -0.120659 -0.121146 -0.12134 -0.120113 
-0.120367 -0.120426 -0.119955 -0.120024 -0.120032 -0.120081 -0.120019 -0.119984 -0.120276 
-0.120197 -0.120099 -0.120332 -0.120313 -0.120166 -0.120047 -0.120188 -0.11998 -0.119306 
-0.119708 -0.11914 -0.11742 -0.118236 -0.117127 -0.113523 -0.115368 -0.113042 -0.10709 
-0.110467 -0.106793 -0.101008 -0.133461 -0.133831 -0.111998 -0.108836 -0.0716434 -0.0739328 
-0.0705803 -0.0707525 -0.079124 -0.113163 -0.110187 -0.109263 -0.117322 -0.0942549 -0.100986 
-0.0887006 -0.14444 -0.128731 -0.0676068 -0.068362 -0.0793928 -0.0794678 -0.0630244 -0.0643125 
-0.0744408 -0.0600849 -0.0605642 -0.0699286 -0.0619454 -0.0616522 -0.0691195 -0.0619243 -0.0621826 
-0.0709313 -0.0604705 -0.061018 -0.0702639 -0.0597299 -0.0597607 -0.068587 -0.0607886 -0.0603839 
-0.068524 -0.0620701 -0.0616807 -0.0700486 -0.0627103 -0.0623718 -0.0711755 -0.0631504 -0.0629524 
-0.0716193 -0.0644315 -0.0636256 -0.0723451 -0.0676042 -0.0658234 -0.0740609 -0.0730742 -0.0705907 
-0.0783809 -0.0799704 -0.0762827 -0.0843691 -0.119726 -0.123504 -0.105528 -0.143833 -0.143092 
-0.143595 -0.110192 -0.1147 -0.117665 -0.112219 -0.109641 -0.107498 -0.110589 -0.132552 
-0.133033 -0.132702 -0.142195 -0.141358 -0.140098 -0.141899 -0.168376 -0.154743 -0.148796 
-0.11902 -0.116591 -0.114354 -0.11229 -0.12059 -0.110689 -0.109692 -0.117407 -0.109218 
-0.109428 -0.115953 -0.109944 -0.111214 -0.11573 -0.113092 -0.115682 -0.117911 -0.118339 
-0.121534 -0.121863 -0.123522 -0.125296 -0.125139 -0.125739 -0.124911 -0.123772 -0.119093 
-0.116541 -0.114695 -0.113002 -0.120397 -0.111733 -0.110632 -0.117794 -0.110216 -0.110121 
-0.116333 -0.110665 -0.111623 -0.116441 -0.112734 -0.114502 -0.117844 -0.116293 -0.118793 
-0.120128 -0.12058 -0.122523 -0.122598 -0.122711 -0.122226 -0.123169 -0.162214 -0.170159 
-0.162044 -0.154498 -0.166366 -0.156451 -0.122415 -0.120408 -0.12307 -0.12351 -0.123884 
-0.121192 -0.123428 -0.125477 -0.0959671 -0.136155 -0.135582 -0.108786 -0.113138 -0.0852643 
-0.0929355 -0.119587 -0.142355 -0.144538 -0.133746 -0.112774 -0.156234 -0.137465 -0.13673 
-0.135757 -0.114893 -0.116437 -0.114922 -0.111434 -0.146964 -0.112053 -0.135207 -0.120859 
-0.116507 -0.114997 -0.112425 -0.118906 -0.117888 -0.138448 -0.138884 -0.138143 -0.112371 
-0.109686 -0.101562 -0.109668 -0.11892 -0.126148 -0.134936 -0.0841136 -0.129248 -0.0916867 
-0.12467 -0.124445 -0.129883 -0.119845 -0.118818 -0.125744 -0.114079 -0.118613 -0.124945 
-0.0890946 -0.0984718 -0.103113 -0.145013 -0.144353 -0.146256 -0.146422 -0.145468 -0.145933 
-0.14599 -0.144126 -0.144826 -0.145003 -0.142393 -0.143181 -0.143261 -0.140448 -0.141267 
-0.141172 -0.138931 -0.13974 -0.139266 -0.13716 -0.137941 -0.137524 -0.135832 -0.136501 
-0.135901 -0.134635 -0.135255 -0.13465 -0.134248 -0.121523 -0.1191 -0.0861844 -0.0887008 
-0.0789422 -0.0772544 -0.11896 -0.118855 -0.118708 -0.118686 -0.119148 -0.118955 -0.117984 
-0.119793 -0.119264 -0.118309 -0.121336 -0.12055 -0.119304 -0.123019 -0.122101 -0.121033 
-0.125103 -0.124102 -0.12314 -0.126976 -0.12614 -0.125506 -0.128183 -0.127646 -0.127331 
-0.128775 -0.128487 -0.12832 -0.128924 -0.128827 -0.128597 -0.128935 -0.128918 -0.128561 
-0.128864 -0.128891 -0.128406 -0.128696 -0.128793 -0.128265 -0.128389 -0.128623 -0.128116 
-0.127744 -0.128154 -0.127848 -0.126558 -0.127229 -0.127061 -0.124902 -0.125715 -0.125587 
-0.123242 -0.124098 -0.123724 -0.12137 -0.122053 -0.121365 -0.121054 -0.121347 -0.120058 
-0.120753 -0.120707 -0.119604 -0.121616 -0.121128 -0.119652 -0.12336 -0.122523 -0.121099 
-0.125446 -0.124475 -0.123367 -0.127513 -0.126504 -0.125863 -0.129569 -0.128568 -0.128205 
-0.131511 -0.130666 -0.130502 -0.133174 -0.132396 -0.132592 -0.134595 -0.133921 -0.134325 
-0.135197 -0.0976562 -0.123183 -0.126095 -0.127049 -0.130021 -0.130791 -0.114361 -0.113167 
-0.128138 -0.129079 -0.129863 -0.131614 -0.132351 -0.131691 -0.124283 -0.125001 -0.125207 
-0.123116 -0.123561 -0.123231 -0.12263 -0.122906 -0.122158 -0.122117 -0.122193 -0.121355 
-0.122463 -0.122156 -0.120962 -0.123653 -0.123008 -0.121639 -0.125184 -0.12447 -0.123194 
-0.126646 -0.125956 -0.125036 -0.127732 -0.12723 -0.126578 -0.128494 -0.128163 -0.127722 
-0.12891 -0.128728 -0.128437 -0.129046 -0.128997 -0.128719 -0.129052 -0.129083 -0.128981 
-0.128899 -0.129043 -0.128966 -0.128448 -0.128789 -0.128854 -0.127642 -0.128118 -0.128415 
-0.126333 -0.127073 -0.12751 -0.124326 -0.124984 -0.125455 -0.123527 -0.122902 -0.120493 
-0.121298 -0.122098 -0.119531 -0.119901 -0.119675 -0.11951 -0.119589 -0.118983 -0.119483 
-0.119442 -0.118951 -0.119604 -0.119548 -0.118911 -0.119473 -0.119588 -0.118863 -0.118624 
-0.119069 -0.118331 -0.116993 -0.117866 -0.116839 -0.114258 -0.115944 -0.114582 -0.106716 
-0.10997 -0.108594 -0.120724 -0.117014 -0.115812 -0.11276 -0.117904 -0.110849 -0.111811 
-0.0816779 -0.0838279 -0.092339 -0.136331 -0.12752 -0.145183 -0.136989 -0.0803799 -0.0800236 
-0.0876748 -0.079549 -0.0804477 -0.0891774 -0.0760993 -0.0768428 -0.0866999 -0.0764076 -0.075809 
-0.0837264 -0.0800801 -0.0792201 -0.0862107 -0.0801797 -0.0799221 -0.0885663 -0.0803844 -0.0801627 
-0.0881766 -0.0812189 -0.0808352 -0.0886773 -0.082199 -0.0808695 -0.0886093 -0.0884849 -0.085711 
-0.0913789 -0.0942932 -0.0913762 -0.0973053 -0.135959 -0.145282 -0.148749 -0.148616 -0.140258 
-0.0797978 -0.0883407 -0.125652 -0.123825 -0.112476 -0.112052 -0.14346 -0.142682 -0.14357 
-0.118474 -0.117948 -0.11759 -0.124046 -0.12287 -0.133068 -0.133692 -0.12417 -0.122897 
-0.121094 -0.119986 -0.125052 -0.121127 -0.120942 -0.124643 -0.119181 -0.119407 -0.124194 
-0.120497 -0.121921 -0.123696 -0.123258 -0.125052 -0.125531 -0.125986 -0.126591 -0.127036 
-0.123384 -0.125284 -0.118847 -0.118931 -0.1181 -0.117926 -0.114208 -0.113135 -0.117602 
-0.118266 -0.114179 -0.152828 -0.142979 -0.122091 -0.121179 -0.125615 -0.120773 -0.120468 
-0.124845 -0.120346 -0.120748 -0.124467 -0.121099 -0.12183 -0.124581 -0.122472 -0.123495 
-0.125201 -0.123969 -0.124544 -0.125724 -0.124161 -0.123422 -0.122616 -0.146469 -0.146351 
-0.146415 -0.145995 -0.145613 -0.146129 -0.0859198 -0.145117 -0.128521 -0.122879 -0.121507 
-0.12946 -0.130341 -0.0989407 -0.0932871 -0.114388 -0.114488 -0.120471 -0.133334 -0.122324 
-0.125153 -0.114104 -0.116973 -0.11535 -0.137013 -0.112857 -0.11028 -0.139614 -0.138704 
-0.114851 -0.112886 -0.115758 -0.117254 -0.11598 -0.111983 -0.135726 -0.127604 -0.115339 
-0.115412 -0.102988 -0.137816 -0.137057 -0.137298 -0.0995939 -0.126039 -0.124824 -0.126749 
-0.119924 -0.12237 -0.119099 -0.115249 -0.116278 -0.132053 -0.141172 -0.130666 -0.113761 
-0.140532 -0.140357 -0.124385 -0.12643 -0.124981 -0.12626 -0.141577 -0.141657 -0.140729 
-0.123298 -0.124177 -0.124633 -0.126422 -0.126204 -0.127007 -0.125844 -0.120999 -0.116437 
-0.116922 -0.157139 -0.151844 -0.120001 -0.158944 -0.148072 -0.15645 -0.153933 -0.144668 
-0.133313 -0.128125 -0.117581 -0.120824 -0.139759 -0.140942 -0.136996 -0.137671 -0.137292 
-0.135946 -0.0779026 -0.134438 -0.135108 -0.134412 -0.14329 -0.144226 -0.141961 -0.143866 
-0.142907 -0.139341 -0.136387 -0.131607 -0.134364 -0.122595 -0.12113 -0.12577 -0.124447 
-0.127531 -0.126764 -0.127848 -0.127681 -0.127428 -0.127547 -0.126812 -0.126999 -0.126487 
-0.126602 -0.126324 -0.12638 -0.126572 -0.126523 -0.126194 -0.126715 -0.124448 -0.125502 
-0.118225 -0.117769 -0.120967 -0.119682 -0.117943 -0.124602 -0.12314 -0.122048 -0.127604 
-0.126449 -0.126478 -0.128902 -0.131676 -0.130455 -0.130146 -0.134073 -0.133084 -0.133233 
-0.127784 -0.129054 -0.151919 -0.148044 -0.106842 -0.12425 -0.122295 -0.121822 -0.122669 
-0.124448 -0.125933 -0.123309 -0.115735 -0.113731 -0.130096 -0.131096 -0.130418 -0.132204 
-0.13311 -0.119393 -0.119435 -0.127243 -0.126829 -0.11797 -0.118079 -0.118087 -0.118 
-0.117125 -0.11814 -0.118233 -0.117323 -0.116855 -0.117566 -0.116764 -0.114288 -0.115559 
-0.11481 -0.110242 -0.112028 -0.110704 -0.115218 -0.122629 -0.126724 -0.11674 -0.117494 
-0.104532 -0.118567 -0.125762 -0.131251 -0.120837 -0.129032 -0.123686 -0.120657 -0.144331 
-0.137871 -0.136909 -0.145304 -0.0976365 -0.0996419 -0.119338 -0.0944632 -0.0971432 -0.115815 
-0.11452 -0.096869 -0.095594 -0.145934 -0.145366 -0.14498 -0.0975611 -0.0978002 -0.0950524 
-0.0951204 -0.103794 -0.0961697 -0.0958175 -0.101941 -0.0957368 -0.0963846 -0.102544 -0.088218 
-0.120375 -0.117956 -0.115073 -0.11363 -0.117212 -0.116585 -0.114571 -0.135726 -0.122216 
-0.11893 -0.120075 -0.118207 -0.134351 -0.131412 -0.116858 -0.116475 -0.116781 -0.115755 
-0.0984564 -0.0984112 -0.105609 -0.105811 -0.146356 -0.14501 -0.0949856 -0.117118 -0.141992 
-0.141672 -0.140572 -0.0966145 -0.102842 -0.0948727 -0.146444 -0.146726 -0.146091 -0.116589 
-0.117568 -0.11764 -0.117555 -0.133901 -0.10164 -0.105836 -0.152587 -0.149814 -0.139035 
-0.137857 -0.139037 -0.116222 -0.115703 -0.118197 -0.128707 -0.130853 -0.127178 -0.118624 
-0.116801 -0.1268 -0.101889 -0.105183 -0.0990993 -0.121788 -0.122914 -0.118346 -0.117826 
-0.134961 -0.105808 -0.14688 -0.147075 -0.12608 -0.136447 -0.135547 -0.119697 -0.118065 
-0.116155 -0.120426 -0.132434 -0.120738 -0.120956 -0.120099 -0.122665 -0.121549 -0.124888 
-0.123906 -0.117894 -0.117383 -0.127519 -0.127301 -0.128177 -0.128095 -0.127469 -0.127447 
-0.128502 -0.128564 -0.128142 -0.128542 -0.124778 -0.11063 -0.0545673 -0.0552166 -0.0941099 
-0.11638 -0.114343 -0.125849 -0.102864 -0.108877 -0.108077 -0.0557736 -0.0591892 -0.116109 
-0.0970359 -0.0608981 -0.0624472 -0.105623 -0.0636659 -0.0646076 -0.136028 -0.0640659 -0.065803 
-0.107908 -0.119702 -0.128157 -0.126514 -0.125053 -0.128266 -0.122386 -0.125841 -0.126156 
-0.122779 -0.124631 -0.127112 -0.150538 -0.126403 -0.127265 -0.127491 -0.127745 -0.129108 
-0.135193 -0.121128 -0.127672 -0.138724 -0.141228 -0.147428 -0.119075 -0.118049 -0.120578 
-0.123099 -0.128989 -0.117685 -0.117202 -0.148661 -0.147971 -0.118626 -0.117449 -0.117434 
-0.123635 -0.133986 -0.132431 -0.116264 -0.134322 -0.132779 -0.135753 -0.14759 -0.127711 
-0.114838 -0.116867 -0.117543 -0.121302 -0.119537 -0.126263 -0.128208 -0.125508 -0.126756 
-0.126461 -0.0649657 -0.0662747 -0.136175 -0.140563 -0.108871 -0.108422 -0.112213 -0.122078 
-0.118225 -0.117028 -0.124694 -0.108535 -0.107794 -0.128498 -0.124955 -0.117596 -0.133243 
-0.12541 -0.115609 -0.115923 -0.14634 -0.138242 -0.139839 -0.143093 -0.148188 -0.115874 
-0.0661629 -0.0649761 -0.120449 -0.0655498 -0.0639244 -0.141178 -0.136443 -0.108064 -0.108047 
-0.113155 -0.112326 -0.131262 -0.145473 -0.1185 -0.116255 -0.114349 -0.130368 -0.114885 
-0.117653 -0.062891 -0.0630433 -0.115582 -0.117071 -0.110561 -0.119686 -0.10743 -0.143777 
-0.141378 -0.112901 -0.136005 -0.133414 -0.118148 -0.0617105 -0.0600351 -0.115103 -0.116816 
-0.118633 -0.0581675 -0.0561498 -0.0574083 -0.0733567 -0.112413 -0.0551622 -0.0576571 -0.133361 
-0.171556 -0.205301 -0.133437 -0.133416 -0.133316 -0.133192 -0.132963 -0.132686 -0.132348 
-0.131982 -0.131602 -0.131114 -0.130619 -0.130159 -0.12969 -0.129229 -0.128774 -0.12832 
-0.127893 -0.127486 -0.12716 -0.12688 -0.126653 -0.126473 -0.126363 -0.126334 -0.126391 
-0.126502 -0.126691 -0.126917 -0.127235 -0.127584 -0.127974 -0.128385 -0.128845 -0.129344 
-0.12982 -0.130244 -0.130622 -0.130984 -0.131286 -0.131481 -0.131618 -0.131688 -0.131647 
-0.131496 -0.131267 -0.13096 -0.130536 -0.130074 -0.129447 -0.128725 -0.128014 -0.127213 
-0.126341 -0.125337 -0.124272 -0.123274 -0.122297 -0.121135 -0.120105 -0.119156 -0.118079 
-0.117066 -0.116132 -0.115312 -0.114538 -0.113809 -0.113176 -0.11264 -0.112119 -0.111667 
-0.111343 -0.111092 -0.110941 -0.110879 -0.110946 -0.111093 -0.111439 -0.111893 -0.112574 
-0.11351 -0.114824 -0.116399 -0.118935 -0.121722 -0.126198 -0.131403 -0.140457 -0.154749 
-0.197067 -0.13338 -0.133404 -0.218245 -0.150027 -0.142334 -0.130159 -0.12608 -0.121745 
-0.118946 -0.116417 -0.114771 -0.113533 -0.112609 -0.111923 -0.111452 -0.11118 -0.111046 
-0.111035 -0.11115 -0.111329 -0.111637 -0.112036 -0.112491 -0.113031 -0.113667 -0.114326 
-0.115004 -0.115749 -0.116714 -0.117607 -0.118558 -0.119533 -0.120684 -0.121698 -0.122765 
-0.12372 -0.124797 -0.12578 -0.126642 -0.127522 -0.128378 -0.129111 -0.129737 -0.130308 
-0.130754 -0.13113 -0.131428 -0.131633 -0.131717 -0.131746 -0.131669 -0.131539 -0.131288 
-0.131019 -0.130673 -0.130249 -0.129815 -0.129392 -0.128952 -0.12853 -0.128091 -0.127695 
-0.12737 -0.12707 -0.126826 -0.126646 -0.126521 -0.126471 -0.126501 -0.126592 -0.126735 
-0.126963 -0.127252 -0.12755 -0.127925 -0.128354 -0.128801 -0.129243 -0.129698 -0.130154 
-0.130631 -0.131094 -0.131537 -0.13197 -0.132328 -0.132648 -0.132951 -0.133172 -0.13334 
-0.133431 -0.133208 -0.133254 -0.1331 -0.133111 -0.133116 -0.133279 -0.133596 -0.134152 
-0.134833 -0.135671 -0.136643 -0.137648 -0.138775 -0.139951 -0.141312 -0.142674 -0.144037 
-0.145444 -0.146806 -0.148154 -0.149641 -0.151922 -0.153058 -0.154032 -0.154765 -0.155396 
-0.155803 -0.15606 -0.156197 -0.156055 -0.155803 -0.155324 -0.154744 -0.153934 -0.152987 
-0.152017 -0.150874 -0.1496 -0.148282 -0.146883 -0.145307 -0.143938 -0.142613 -0.141248 
-0.139882 -0.138708 -0.13755 -0.13649 -0.135513 -0.134747 -0.1341 -0.133541 -0.133261 
-0.133069 -0.15083 -0.0452444 -0.0469844 -0.0518319 -0.0591634 -0.0629795 -0.064851 -0.0668266 
-0.0680798 -0.0689049 -0.0703218 -0.0709281 -0.0715161 -0.0717111 -0.072035 -0.0717109 -0.0715934 
-0.0708782 -0.069708 -0.0681283 -0.0666308 -0.0645159 -0.0625144 -0.0576353 -0.0562471 -0.0430888 
-0.0395127 -0.0703558 -0.0370663 -0.0427135 -0.0582059 -0.0518956 -0.0642354 -0.0617703 -0.0678082 
-0.0664637 -0.0700999 -0.0694167 -0.0713519 -0.0707555 -0.0718712 -0.0716147 -0.0716554 -0.0718215 
-0.0706708 -0.0712346 -0.0686773 -0.0694098 -0.0653528 -0.0672922 -0.0596902 -0.0633188 -0.0487 
-0.0569204 -0.0464657 -0.0755391 -0.0729181 -0.0729611 -0.0636446 -0.0689795 -0.0706409 -0.0686368 
-0.070051 -0.0716099 -0.0711136 -0.063333 -0.0727913 -0.0671699 -0.0482651 -0.0537502 -0.0719514 
-0.0410693 -0.0370519 -0.0722838 -0.0676543 -0.065597 -0.0723543 -0.0726735 -0.0599531 -0.0653565 
-0.0577846 -0.0596609 -0.0454568 -0.120503 -0.120157 -0.120529 -0.153177 -0.152583 -0.151688 
-0.151215 -0.124053 -0.123244 -0.123194 -0.143375 -0.143704 -0.144293 -0.144647 -0.144998 
-0.127503 -0.126787 -0.126933 -0.128026 -0.127528 -0.0682861 -0.0645415 -0.143523 -0.144745 
-0.144313 -0.148175 -0.148992 -0.147222 -0.126265 -0.126857 -0.126028 -0.147884 -0.147096 
-0.147038 -0.146657 -0.147786 -0.117822 -0.119697 -0.117638 -0.119481 -0.139477 -0.149933 
-0.144633 -0.155966 -0.145169 -0.144323 -0.145752 -0.11905 -0.144748 -0.143947 -0.105785 
-0.0940178 -0.115542 -0.102757 -0.128425 -0.128716 -0.128497 -0.0777013 -0.0689919 -0.0694895 
-0.0604821 -0.144121 -0.142866 -0.142811 -0.129721 -0.129849 -0.13002 -0.130148 -0.127151 
-0.122723 -0.123084 -0.122336 -0.122647 -0.12981 -0.129455 -0.129344 -0.119491 -0.12043 
-0.119885 -0.120396 -0.116461 -0.1175 -0.111145 -0.11248 -0.114147 -0.115448 -0.131349 
-0.130896 -0.130804 -0.133731 -0.132512 -0.134546 -0.135014 -0.135935 -0.133862 -0.132287 
-0.140137 -0.140987 -0.139762 -0.140599 -0.0767579 -0.0765263 -0.0855058 -0.131142 -0.117256 
-0.116451 -0.116932 -0.115834 -0.133494 -0.13337 -0.133391 -0.133265 -0.113097 -0.115109 
-0.114028 -0.115976 -0.135573 -0.133145 -0.139022 -0.136513 -0.146783 -0.147158 -0.145888 
-0.146333 -0.122929 -0.122228 -0.122066 -0.130655 -0.130378 -0.129784 -0.128919 -0.128689 
-0.118825 -0.119068 -0.118904 -0.119096 -0.136151 -0.136297 -0.136946 -0.128924 -0.129117 
-0.129041 -0.123476 -0.128096 -0.12794 -0.12762 -0.123747 -0.123674 -0.124301 -0.130742 
-0.129919 -0.130011 -0.12637 -0.126963 -0.12662 -0.138168 -0.138824 -0.138921 -0.127491 
-0.127954 -0.127566 -0.128044 -0.122334 -0.122921 -0.120299 -0.127988 -0.127661 -0.128066 
-0.150582 -0.149004 -0.149561 -0.126974 -0.127622 -0.127088 -0.125536 -0.125388 -0.12473 
-0.124479 -0.127884 -0.127758 -0.127566 -0.127472 -0.124745 -0.124215 -0.125148 -0.139497 
-0.137997 -0.138336 -0.0803496 -0.0758178 -0.0918311 -0.103439 -0.108485 -0.102454 -0.107788 
-0.109817 -0.114755 -0.108393 -0.111661 -0.121673 -0.124986 -0.121399 -0.121105 -0.121819 
-0.121739 -0.122487 -0.123143 -0.123717 -0.132358 -0.132803 -0.132287 -0.129951 -0.130613 
-0.129822 -0.132785 -0.133295 -0.133062 -0.136006 -0.136652 -0.136662 -0.137334 -0.0859689 
-0.0783746 -0.0887884 -0.081598 -0.128593 -0.12862 -0.128787 -0.0523396 -0.0615268 -0.052237 
-0.132499 -0.133001 -0.131119 -0.131349 -0.131485 -0.122745 -0.121284 -0.119786 -0.117333 
-0.118243 -0.116955 -0.0818555 -0.0643054 -0.0525551 -0.0355348 -0.129214 -0.129129 -0.129216 
-0.118997 -0.11779 -0.119002 -0.128033 -0.128014 -0.127745 -0.0717103 -0.0627177 -0.0712871 
-0.034791 -0.0353693 -0.0438299 -0.0805508 -0.0724784 -0.083809 -0.126521 -0.126872 -0.126268 
-0.126627 -0.127017 -0.126662 -0.127163 -0.128033 -0.127918 -0.127643 -0.107216 -0.110464 
-0.105212 -0.0612492 -0.087378 -0.0884792 -0.079552 -0.117629 -0.127434 -0.126915 -0.127419 
-0.126894 -0.122078 -0.12157 -0.12176 -0.129261 -0.0787148 -0.0790105 -0.0877657 -0.119341 
-0.119931 -0.118469 -0.128446 -0.142782 -0.141789 -0.14195 -0.0999028 -0.0944174 -0.0905302 
-0.113307 -0.141226 -0.143512 -0.141199 -0.120735 -0.128713 -0.128663 -0.128399 -0.113522 
-0.116047 -0.113415 -0.123482 -0.129901 -0.130602 -0.129718 -0.125973 -0.125147 -0.125632 
-0.116904 -0.113874 -0.116466 -0.0391256 -0.0507345 -0.0411114 -0.0161614 -0.0175091 -0.010032 
-0.129463 -0.0797858 -0.0735774 -0.0875608 -0.0172323 -0.0255903 -0.0149233 -0.1237 -0.124726 
-0.118778 -0.118378 -0.117473 -0.133727 -0.133304 -0.134142 -0.124117 -0.122994 -0.123268 
-0.121954 -0.124626 -0.126307 -0.125194 -0.126668 -0.13071 -0.130319 -0.130269 -0.121317 
-0.120817 -0.120721 -0.120255 -0.0518213 -0.0429894 -0.0966269 -0.132168 -0.132043 -0.13163 
-0.127616 -0.127606 -0.127129 -0.108455 -0.101961 -0.11168 -0.105813 -0.128696 -0.128929 
-0.128863 -0.0640319 -0.0666062 -0.0754964 -0.0630393 -0.068083 -0.0676939 -0.00968395 -0.0216308 
-0.00825273 -0.118222 -0.11572 -0.117298 -0.107991 -0.0999861 -0.104001 -0.1279 -0.127895 
-0.128299 -0.147382 -0.14648 -0.146364 -0.0709492 -0.0644161 -0.0725222 -0.0884372 -0.0883589 
-0.0952104 -0.136319 -0.127444 -0.114556 -0.114706 -0.111273 -0.113836 -0.11864 -0.116931 
-0.11792 -0.148652 -0.233165 -0.123762 -0.122094 -0.124023 -0.0815729 -0.0748252 -0.0834858 
-0.129223 -0.12946 -0.129928 -0.020145 -0.0281285 -0.0154348 -0.136979 -0.093163 -0.0885378 
-0.271037 -0.243873 -0.108049 -0.112301 -0.108683 -0.131166 -0.131746 -0.131198 -0.123536 
-0.124174 -0.12844 -0.128904 -0.128581 -0.129102 -0.0686359 -0.0630628 -0.129804 -0.128835 
-0.0637768 -0.117136 -0.114329 -0.126697 -0.126569 -0.126829 -0.00919752 -0.00801135 -0.0192904 
-0.129405 -0.12882 -0.129625 -0.119408 -0.116385 -0.119383 -0.116496 -0.134275 -0.134094 
-0.13388 -0.0654995 -0.0603732 -0.0697386 -0.0606238 -0.122518 -0.118894 -0.123161 -0.119327 
-0.117575 -0.117767 -0.11676 -0.127219 -0.127224 -0.127666 -0.128577 -0.128894 -0.128358 
-0.121929 -0.0855367 -0.0947032 -0.0826006 -0.12958 -0.129267 -0.129626 -0.126703 -0.126832 
-0.126825 -0.120299 -0.12004 -0.119855 -0.129993 -0.130783 -0.130707 -0.00878324 -0.0160284 
-0.116171 -0.113986 -0.117108 -0.117542 -0.116812 -0.118617 -0.124241 -0.123377 -0.115147 
-0.123638 -0.124276 -0.120285 -0.13952 -0.138506 -0.138711 -0.137043 -0.136455 -0.136056 
-0.125118 -0.124155 -0.124886 -0.121633 -0.125499 -0.124041 -0.0984506 -0.0885375 -0.106358 
-0.0964216 -0.149201 -0.124586 -0.125606 -0.146612 -0.146231 -0.147071 -0.133039 -0.149875 
-0.148256 -0.140743 -0.14071 -0.139843 -0.147457 -0.147821 -0.147387 -0.146277 -0.148568 
-0.112593 -0.115862 -0.116665 -0.113934 -0.117152 -0.14346 -0.144708 -0.142494 -0.143755 
-0.122019 -0.120903 -0.122161 -0.128969 -0.138066 -0.137805 -0.138652 -0.123142 -0.12527 
-0.123903 -0.135964 -0.136019 -0.136661 -0.124828 -0.123697 -0.123948 -0.120341 -0.120333 
-0.119963 -0.119846 -0.123541 -0.125164 -0.1194 -0.12016 -0.117297 -0.118277 -0.137288 
-0.137207 -0.137384 -0.119918 -0.120266 -0.123803 -0.123827 -0.122687 -0.122677 -0.100732 
-0.106128 -0.0867702 -0.0920302 -0.11637 -0.117914 -0.118155 -0.119402 -0.119597 -0.126181 
-0.126059 -0.125497 -0.12504 -0.124468 -0.12519 -0.119266 -0.121928 -0.122441 -0.128728 
-0.128912 -0.129215 -0.124671 -0.125439 -0.127448 -0.131155 -0.131173 -0.129945 -0.130033 
-0.119239 -0.118864 -0.119576 -0.127456 -0.127222 -0.127718 -0.126416 -0.126639 -0.127037 
-0.129216 -0.130144 -0.13068 -0.130036 -0.132793 -0.133039 -0.132308 -0.126418 -0.128338 
-0.125018 -0.127073 -0.131014 -0.129778 -0.127657 -0.130631 -0.125748 -0.124177 -0.124447 
-0.124122 -0.12639 -0.128285 -0.127897 -0.128274 -0.117655 -0.119944 -0.122653 -0.120461 
-0.120464 -0.120243 -0.128478 -0.128661 -0.129108 -0.129064 -0.129223 -0.120174 -0.119345 
-0.121034 -0.120474 -0.121676 -0.121915 -0.129589 -0.129161 -0.129877 -0.129398 -0.119413 
-0.118744 -0.119916 -0.119256 -0.126807 -0.126924 -0.153664 -0.135693 -0.124756 -0.112933 
-0.129309 -0.129319 -0.129291 -0.129304 -0.129035 -0.128894 -0.128326 -0.128415 -0.128037 
-0.129267 -0.129263 -0.129269 -0.134228 -0.134711 -0.13508 -0.135563 -0.120282 -0.120497 
-0.128769 -0.128279 -0.128839 -0.137876 -0.13714 -0.138773 -0.138031 -0.128305 -0.12798 
-0.125542 -0.126862 -0.126085 -0.123542 -0.122785 -0.124135 -0.123471 -0.122242 -0.129602 
-0.13001 -0.129237 -0.129632 -0.130168 -0.129445 -0.129722 -0.128646 -0.120354 -0.119504 
-0.120236 -0.127743 -0.117255 -0.113599 -0.118494 -0.12711 -0.127706 -0.128357 -0.127211 
-0.126778 -0.12701 -0.0790004 -0.0707669 -0.13165 -0.12756 -0.127358 -0.127925 -0.121278 
-0.120845 -0.123193 -0.0146078 -0.0262412 -0.0253512 -0.0180458 -0.0344698 -0.0253322 -0.0709667 
-0.0632659 -0.0730202 -0.123009 -0.121774 -0.122564 -0.12611 -0.131358 -0.13094 -0.131221 
-0.130228 -0.131059 -0.140409 -0.139386 -0.126785 -0.128448 -0.128761 -0.127608 -0.127538 
-0.12725 -0.0711519 -0.0573471 -0.139805 -0.138915 -0.128267 -0.128408 -0.127893 -0.127454 
-0.133017 -0.0724213 -0.0644183 -0.0719872 -0.0637022 -0.120376 -0.120443 -0.120676 -0.125334 
-0.127227 -0.127963 -0.128306 -0.120428 -0.12025 -0.121366 -0.0525664 -0.0616538 -0.0613678 
-0.0702318 -0.126336 -0.126352 -0.125753 -0.126155 -0.146748 -0.146181 -0.145742 -0.144582 
-0.143899 -0.144975 -0.0943753 -0.0934511 -0.0872164 -0.119012 -0.118057 -0.11892 -0.117879 
-0.116944 -0.116994 -0.111348 -0.104702 -0.106146 -0.132358 -0.137292 -0.132386 -0.151819 
-0.0781711 -0.0661334 -0.0835373 -0.117929 -0.0958635 -0.0832964 -0.0866617 -0.118385 -0.117498 
-0.122646 -0.122569 -0.116692 -0.0966449 -0.0900368 -0.0885217 -0.0794856 -0.0882754 -0.080855 
-0.0895621 -0.145873 -0.145454 -0.145794 -0.117475 -0.117042 -0.117529 -0.113474 -0.105107 
-0.133071 -0.133014 -0.132848 -0.126583 -0.126766 -0.126737 -0.087831 -0.129008 -0.128951 
-0.0902175 -0.0886414 -0.0802046 -0.130537 -0.130428 -0.129805 -0.129617 -0.117165 -0.118301 
-0.108512 -0.111586 -0.102341 -0.145615 -0.0631713 -0.132752 -0.148094 -0.146836 -0.119273 
-0.124146 -0.116711 -0.124242 -0.0774505 -0.0680121 -0.0988016 -0.128641 -0.128702 -0.128333 
-0.128389 -0.115604 -0.113079 -0.117258 -0.115097 -0.117837 -0.0654656 -0.0780628 -0.0742968 
-0.0958718 -0.0969602 -0.138249 -0.138992 -0.122426 -0.122563 -0.142683 -0.141811 -0.142283 
-0.141438 -0.11939 -0.12017 -0.083714 -0.0711499 -0.073178 -0.0632778 -0.068166 -0.145268 
-0.126829 -0.126251 -0.126601 -0.0796888 -0.0796149 -0.107005 -0.105057 -0.105178 -0.102799 
-0.109113 -0.106129 -0.120966 -0.123294 -0.119172 -0.0879661 -0.0958206 -0.0959318 -0.125892 
-0.125318 -0.12407 -0.0959605 -0.139813 -0.139403 -0.140625 -0.148261 -0.149081 -0.147582 
-0.145493 -0.146215 -0.153681 -0.119343 -0.112113 -0.115356 -0.118449 -0.112686 -0.119734 
-0.119669 -0.109489 -0.117373 -0.117428 -0.117335 -0.126185 -0.125492 -0.125584 -0.124965 
-0.126785 -0.127348 -0.126698 -0.118631 -0.117165 -0.118787 -0.129576 -0.123463 -0.120281 
-0.105377 -0.113944 -0.0943467 -0.125588 -0.12549 -0.124649 -0.123845 -0.124161 -0.124773 
-0.127826 -0.128345 -0.194259 -0.11995 -0.123504 -0.123777 -0.124396 -0.129308 -0.129462 
-0.117856 -0.131186 -0.117859 -0.116756 -0.11556 -0.124839 -0.124583 -0.123951 -0.1407 
-0.141619 -0.141766 -0.132124 -0.131945 -0.124882 -0.124137 -0.0675623 -0.0676276 -0.127679 
-0.127709 -0.128078 -0.121284 -0.145679 -0.145037 -0.144693 -0.13241 -0.133108 -0.13214 
-0.129248 -0.129497 -0.130241 -0.123444 -0.123967 -0.123601 -0.124146 -0.13373 -0.133334 
-0.132743 -0.124758 -0.180967 -0.216205 -0.195606 -0.227204 -0.112442 -0.112959 -0.129597 
-0.130856 -0.137555 -0.181493 -0.186449 -0.178469 -0.129233 -0.124824 -0.134261 -0.136754 
-0.116092 -0.123931 -0.123072 -0.122398 -0.124772 -0.124282 -0.124631 -0.116436 -0.112973 
-0.115381 -0.129166 -0.12914 -0.129114 -0.129117 -0.1203 -0.120171 -0.119804 -0.134313 
-0.134378 -0.134844 -0.134845 -0.123454 -0.121058 -0.121089 -0.124654 -0.125603 -0.126152 
-0.14591 -0.145467 -0.096173 -0.128278 -0.128536 -0.125416 -0.12945 -0.124309 -0.103103 
-0.119668 -0.138557 -0.138155 -0.139327 -0.0344634 -0.147203 -0.145779 -0.146623 -0.114904 
-0.127258 -0.127001 -0.0759884 -0.120546 -0.120587 -0.120058 -0.132484 -0.147739 -0.112156 
-0.136529 -0.0600335 -0.0603269 -0.0523152 -0.052549 -0.145558 -0.14668 -0.149265 -0.1499 
-0.135346 -0.130894 -0.129902 -0.137219 -0.136631 -0.133214 -0.141307 -0.142518 -0.142438 
-0.117696 -0.121253 -0.11177 -0.115453 -0.140525 -0.139626 -0.075923 -0.153585 -0.158812 
-0.155789 -0.127122 -0.140448 -0.13969 -0.11496 -0.118567 -0.109663 -0.114348 -0.116766 
-0.119515 -0.127238 -0.125253 -0.119634 -0.121758 -0.0873208 -0.0793599 -0.0793756 -0.0709027 
-0.147736 -0.148125 -0.121584 -0.123744 -0.127124 -0.124594 -0.118499 -0.139028 -0.133381 
-0.114056 -0.11108 -0.153963 -0.152307 -0.154158 -0.149582 -0.149317 -0.150786 -0.139277 
-0.114782 -0.119687 -0.117458 -0.121545 -0.139406 -0.122829 -0.1204 -0.121399 -0.108035 
-0.111117 -0.13253 -0.136738 -0.13327 -0.119117 -0.11974 -0.119696 -0.14278 -0.145402 
-0.146263 -0.135482 -0.134837 -0.134058 -0.0429235 -0.0342584 -0.0517219 -0.0427862 -0.136751 
-0.136009 -0.119518 -0.121159 -0.120701 -0.131906 -0.132623 -0.137103 -0.13614 -0.136132 
-0.14757 -0.146026 -0.131185 -0.138895 -0.139876 -0.103113 -0.103398 -0.107026 -0.145353 
-0.12725 -0.126762 -0.126723 -0.12627 -0.119969 -0.120321 -0.143525 -0.14427 -0.125646 
-0.124926 -0.147336 -0.106072 -0.104148 -0.114567 -0.112649 -0.110075 -0.10782 -0.122977 
-0.12212 -0.123592 -0.122852 -0.126331 -0.12666 -0.126054 -0.126411 -0.0786953 -0.0871225 
-0.06879 -0.0786781 -0.115603 -0.115313 -0.119149 -0.0529604 -0.0441152 -0.0441365 -0.0356212 
-0.104878 -0.147417 -0.13243 -0.129039 -0.128723 -0.128389 -0.119894 -0.119267 -0.118599 
-0.138304 -0.137797 -0.137255 -0.113603 -0.123451 -0.11729 -0.0882924 -0.144014 -0.119129 
-0.120446 -0.138082 -0.138716 -0.128433 -0.128165 -0.128712 -0.128432 -0.123973 -0.113546 
-0.111684 -0.109718 -0.130938 -0.130472 -0.130594 -0.10898 -0.127617 -0.127991 -0.0389811 
-0.0492919 -0.129214 -0.129238 -0.129165 -0.123338 -0.124595 -0.151779 -0.15258 -0.150561 
-0.125388 -0.124297 -0.125097 -0.151025 -0.149904 -0.134242 -0.129194 -0.129147 -0.129142 
-0.129092 -0.128072 -0.122951 -0.145272 -0.145054 -0.131599 -0.131399 -0.133382 -0.134097 
-0.13337 -0.118405 -0.117956 -0.11708 -0.116504 -0.130994 -0.136141 -0.139371 -0.132539 
-0.141983 -0.143155 -0.142854 -0.148083 -0.147455 -0.149008 -0.111127 -0.109978 -0.105516 
-0.104212 -0.115707 -0.1182 -0.111234 -0.114904 -0.0587033 -0.0482566 -0.118996 -0.117619 
-0.119114 -0.127672 -0.127309 -0.0171109 -0.0181615 -0.00952247 -0.133689 -0.126545 -0.126809 
-0.122344 -0.126776 -0.151696 -0.15119 -0.153113 -0.146928 -0.146702 -0.146379 -0.146301 
-0.149028 -0.124187 -0.124964 -0.128799 -0.128392 -0.129204 -0.0639434 -0.0688442 -0.0637368 
-0.12889 -0.128707 -0.128954 -0.149464 -0.147356 -0.1228 -0.123289 -0.203535 -0.159245 
-0.108119 -0.125735 -0.125095 -0.125259 -0.109773 -0.134523 -0.129833 -0.134379 -0.11737 
-0.11731 -0.0700647 -0.063509 -0.0637403 -0.133181 -0.133182 -0.132969 -0.146434 -0.14638 
-0.146312 -0.115827 -0.115694 -0.117645 -0.145226 -0.131848 -0.131769 -0.113696 -0.116213 
-0.128528 -0.128803 -0.127695 -0.12917 -0.127193 -0.133379 -0.133308 -0.126822 -0.136895 
-0.137655 -0.0649059 -0.0560852 -0.0632549 -0.0543107 -0.126556 -0.125814 -0.126346 -0.142519 
-0.139791 -0.160067 -0.0805184 -0.135143 -0.120165 -0.120314 -0.120425 -0.027933 -0.0289406 
-0.126093 -0.11397 -0.115084 -0.134741 -0.050797 -0.0491266 -0.0405423 -0.125071 -0.126602 
-0.126855 -0.0204104 -0.0289428 -0.136543 -0.13824 -0.167797 -0.159561 -0.166217 -0.152397 
-0.115567 -0.128482 -0.12811 -0.174137 -0.157579 -0.170395 -0.119162 -0.119198 -0.118433 
-0.120427 -0.113486 -0.119867 -0.117916 -0.116604 -0.131674 -0.1269 -0.130032 -0.116154 
-0.116038 -0.11972 -0.119016 -0.122066 -0.121797 -0.124648 -0.134671 -0.124709 -0.121044 
-0.115306 -0.126223 -0.12564 -0.122892 -0.125559 -0.125882 -0.108111 -0.113772 -0.0782831 
-0.0794393 -0.0688468 -0.129179 -0.123308 -0.122777 -0.119751 -0.0784587 -0.109159 -0.103996 
-0.110691 -0.144823 -0.144233 -0.144137 -0.123961 -0.123819 -0.123196 -0.116374 -0.146793 
-0.145663 -0.118342 -0.119961 -0.111538 -0.0859859 -0.128718 -0.129053 -0.0152461 -0.0256917 
-0.0259003 -0.0350662 -0.120151 -0.119606 -0.125555 -0.124828 -0.125664 -0.12494 -0.119088 
-0.116993 -0.116702 -0.0909746 -0.0762285 -0.0826354 -0.00832338 -0.00831263 -0.0147722 -0.140246 
-0.13975 -0.138823 -0.114122 -0.11754 -0.118305 -0.126197 -0.127273 -0.0970288 -0.0862075 
-0.0981307 -0.141529 -0.141353 -0.144152 -0.143751 -0.125084 -0.127362 -0.133086 -0.126681 
-0.121592 -0.126275 -0.126166 -0.129876 -0.129223 -0.12906 -0.129144 -0.194331 -0.156178 
-0.122685 -0.12502 -0.124135 -0.125147 -0.12506 -0.12422 -0.12911 -0.117648 -0.114345 
-0.115853 -0.115997 -0.100872 -0.120904 -0.121222 -0.1208 -0.126584 -0.119814 -0.120269 
-0.127941 -0.146423 -0.128954 -0.131158 -0.131186 -0.126822 -0.12783 -0.126773 -0.12922 
-0.128249 -0.128924 -0.153496 -0.187205 -0.121391 -0.124978 -0.149908 -0.129843 -0.129406 
-0.129163 -0.130381 -0.127106 -0.126991 -0.127323 -0.146153 -0.128671 -0.128336 -0.129985 
-0.129571 -0.130067 -0.130412 -0.128823 -0.128869 -0.128977 -0.128996 -0.132408 -0.13332 
-0.00877522 -0.12718 -0.136207 -0.1352 -0.12646 -0.123078 -0.125403 -0.126729 -0.126474 
-0.126729 -0.128892 -0.131858 -0.13183 -0.119538 -0.11771 -0.0120286 -0.0278018 -0.0224924 
-0.0770331 -0.141073 -0.140819 -0.141758 -0.140666 -0.12656 -0.114429 -0.115756 -0.127471 
-0.126884 -0.126921 -0.0645147 -0.074685 -0.0636268 -0.117829 -0.117334 -0.121815 -0.118157 
-0.122223 -0.11901 -0.116764 -0.117283 -0.12254 -0.0979513 -0.105859 -0.114225 -0.126554 
-0.138089 -0.12038 -0.127698 -0.0962632 -0.0908635 -0.105079 -0.113765 -0.128811 -0.1289 
-0.116272 -0.114414 -0.114203 -0.126714 -0.12689 -0.11762 -0.121955 -0.161005 -0.0527146 
-0.061875 -0.0528352 -0.122378 -0.120598 -0.109771 -0.220944 -0.27017 -0.164374 -0.134338 
-0.15057 -0.119564 -0.102148 -0.104906 -0.116191 -0.111892 -0.0878409 -0.0940694 -0.0874495 
-0.126139 -0.126779 -0.125725 -0.129358 -0.129614 -0.128901 -0.129147 -0.0701171 -0.0628637 
-0.0633001 -0.127413 -0.126766 -0.10919 -0.102991 -0.109427 -0.12868 -0.117664 -0.11947 
-0.121933 -0.129337 -0.126181 -0.126005 -0.124889 -0.111227 -0.120927 -0.123391 -0.0845441 
-0.081893 -0.0740027 -0.135929 -0.134482 -0.135262 -0.126646 -0.13943 -0.113781 -0.11588 
-0.152339 -0.146093 -0.15522 -0.123703 -0.124223 -0.124725 -0.128422 -0.128423 -0.128109 
-0.0692267 -0.0693826 -0.119549 -0.119998 -0.120128 -0.118403 -0.117964 -0.15611 -0.138255 
-0.12173 -0.113268 -0.125123 -0.144161 -0.126612 -0.164961 -0.122796 -0.123483 -0.137574 
-0.138768 -0.138307 -0.139493 -0.145317 -0.144834 -0.142733 -0.0659024 -0.162005 -0.143611 
-0.140812 -0.143691 -0.130712 -0.126899 -0.127025 -0.117485 -0.117677 -0.129928 -0.129008 
-0.110413 -0.114075 -0.11574 -0.115977 -0.126206 -0.126919 -0.126074 -0.133496 -0.118017 
-0.117624 -0.135046 -0.135126 -0.133778 -0.123394 -0.124251 -0.152506 -0.117123 -0.125726 
-0.124963 -0.127575 -0.127456 -0.0976159 -0.0885052 -0.0951515 -0.127721 -0.0764871 -0.0683539 
-0.0761846 -0.11453 -0.0693748 -0.0467222 -0.128532 -0.128255 -0.12842 -0.113794 -0.124845 
-0.125776 -0.125214 -0.125496 -0.115295 -0.110491 -0.12725 -0.127245 -0.123089 -0.132235 
-0.129553 -0.130227 -0.129069 -0.129111 -0.125603 -0.138938 -0.140435 -0.148389 -0.149749 
-0.120837 -0.119558 -0.122315 -0.121184 -0.14605 -0.146077 -0.123902 -0.117125 -0.127446 
-0.13792 -0.135533 -0.135016 -0.134599 -0.134134 -0.127802 -0.127394 -0.133921 -0.133595 
-0.133465 -0.13385 -0.141307 -0.140639 -0.141545 -0.0977014 -0.110938 -0.11714 -0.11563 
-0.127042 -0.126366 -0.127917 -0.127341 -0.0687342 -0.131725 -0.00826879 -0.0143826 -0.0707284 
-0.0707297 -0.0802642 -0.0172593 -0.0422167 -0.0359425 -0.0518752 -0.0424118 -0.135353 -0.130353 
-0.129108 -0.119648 -0.127084 -0.127635 -0.130178 -0.12853 -0.142553 -0.141607 -0.142887 
-0.149345 -0.116664 -0.150475 -0.132335 -0.13196 -0.131975 -0.117489 -0.109359 -0.111215 
-0.11571 -0.117803 -0.118429 -0.127532 -0.141037 -0.141848 -0.0637246 -0.0693127 -0.0465324 
-0.0380743 -0.0469749 -0.0381645 -0.12301 -0.123145 -0.128869 -0.128472 -0.128529 -0.127865 
-0.128507 -0.127932 -0.117614 -0.115213 -0.128612 -0.118107 -0.120979 -0.121918 -0.133947 
-0.10692 -0.10701 -0.100923 -0.101001 -0.123826 -0.124354 -0.0956828 -0.0659206 -0.146545 
-0.146249 -0.136402 -0.13555 -0.136139 -0.123476 -0.119101 -0.121339 -0.145362 -0.146811 
-0.150916 -0.150875 -0.152286 -0.139801 -0.126806 -0.11212 -0.127421 -0.128006 -0.109044 
-0.104166 -0.11105 -0.125866 -0.142708 -0.124036 -0.123312 -0.12005 -0.120445 -0.120432 
-0.126256 -0.125895 -0.125206 -0.12462 -0.144002 -0.126749 -0.192949 -0.128144 -0.00822352 
-0.143075 -0.136298 -0.137745 -0.119187 -0.123765 -0.124778 -0.123048 -0.0278735 -0.125635 
-0.127612 -0.124737 -0.126727 -0.124628 -0.125149 -0.126003 -0.126404 -0.148561 -0.147618 
-0.148402 -0.121126 -0.118853 -0.117282 -0.128658 -0.128725 -0.116878 -0.116802 -0.129797 
-0.129924 -0.0144727 -0.0176503 -0.12011 -0.0086253 -0.118124 -0.118816 -0.034796 -0.0255581 
-0.0255481 -0.0592127 -0.0448481 -0.0409467 -0.0277662 -0.129456 -0.132868 -0.128122 -0.108514 
-0.111352 -0.131666 -0.12301 -0.122426 -0.0128033 -0.0682171 -0.0658983 -0.0596618 -0.0570804 
-0.121508 -0.12037 -0.152455 -0.150196 -0.152633 -0.0952057 -0.104199 -0.108 -0.128254 
-0.128033 -0.104463 -0.102107 -0.109805 -0.124352 -0.123432 -0.130747 -0.150789 -0.125215 
-0.126161 -0.0643618 -0.127728 -0.127452 -0.135716 -0.117988 -0.125685 -0.126403 -0.127358 
-0.128038 -0.127835 -0.127346 -0.132176 -0.132513 -0.132192 -0.0645086 -0.116918 -0.0084499 
-0.0145726 -0.142993 -0.143907 -0.126916 -0.126811 -0.126681 -0.122239 -0.122976 -0.121601 
-0.137786 -0.136637 -0.13738 -0.119145 -0.110573 -0.115826 -0.113696 -0.0747552 -0.083203 
-0.0872535 -0.128184 -0.125505 -0.124574 -0.12632 -0.13653 -0.117531 -0.113053 -0.0877971 
-0.138977 -0.137789 -0.138235 -0.0451432 -0.0455733 -0.0549724 -0.0129823 -0.0121851 -0.110755 
-0.120342 -0.120548 -0.0543125 -0.0454145 -0.127002 -0.113173 -0.106913 -0.0900975 -0.0937653 
-0.143853 -0.114298 -0.104362 -0.0597367 -0.0601143 -0.0513045 -0.129058 -0.129082 -0.128986 
-0.0364152 -0.0365994 -0.153544 -0.166524 -0.167608 -0.181934 -0.0346237 -0.0255467 -0.0254208 
-0.0178767 -0.0356479 -0.053606 -0.136891 -0.120018 -0.0809156 -0.0515251 -0.0219279 -0.110034 
-0.142202 -0.141333 -0.14045 -0.141611 -0.111811 -0.113469 -0.0694902 -0.0702041 -0.0815803 
-0.0962098 -0.0854266 -0.0857772 -0.0474946 -0.0366222 -0.0450646 -0.118892 -0.115321 -0.117144 
-0.132638 -0.131831 -0.11911 -0.120168 -0.0697179 -0.0810679 -0.0642478 -0.0634086 -0.119219 
-0.117775 -0.119532 -0.133055 -0.132614 -0.12904 -0.129115 -0.0280505 -0.0268009 -0.0377868 
-0.119574 -0.12022 -0.120349 -0.120654 -0.119392 -0.121041 -0.133211 -0.133339 -0.133428 
-0.133528 -0.123392 -0.122556 -0.126857 -0.0772079 -0.0763182 -0.125228 -0.124895 -0.125839 
-0.0995644 -0.102375 -0.092352 -0.149951 -0.111144 -0.139648 -0.120245 -0.146497 -0.106365 
-0.151066 -0.093308 -0.140164 -0.139419 -0.138598 -0.139626 -0.0852496 -0.109187 -0.104107 
-0.142506 -0.142143 -0.129044 -0.123098 -0.122482 -0.122482 -0.0791028 -0.0686218 -0.121662 
-0.129181 -0.129083 -0.145073 -0.144682 -0.145651 -0.145309 -0.121607 -0.127538 -0.123955 
-0.124768 -0.129554 -0.129154 -0.0955971 -0.102739 -0.0939493 -0.126472 -0.120773 -0.12125 
-0.120851 -0.121352 -0.120928 -0.122874 -0.120774 -0.121538 -0.125959 -0.134847 -0.134782 
-0.134349 -0.130485 -0.130071 -0.0246611 -0.0361055 -0.0219247 -0.129608 -0.130212 -0.0963363 
-0.102948 -0.11962 -0.120728 -0.0924562 -0.0981707 -0.0914144 -0.0710275 -0.123093 -0.00884569 
-0.0161615 -0.0167585 -0.0573074 -0.0584296 -0.121046 -0.119616 -0.120056 -0.123347 -0.121399 
-0.124277 -0.122016 -0.120534 -0.123473 -0.132148 -0.129435 -0.117426 -0.105541 -0.0995294 
-0.0986619 -0.0934701 -0.165265 -0.131423 -0.131399 -0.131338 -0.139857 -0.118601 -0.128581 
-0.128844 -0.115793 -0.125049 -0.12922 -0.120378 -0.120224 -0.128928 -0.128642 -0.129526 
-0.13549 -0.126309 -0.125326 -0.12843 -0.138153 -0.136767 -0.137377 -0.137744 -0.0964223 
-0.0815906 -0.0730093 -0.123355 -0.122515 -0.123128 -0.118384 -0.119284 -0.119203 -0.129027 
-0.128855 -0.13997 -0.120292 -0.120321 -0.12021 -0.12538 -0.120681 -0.119119 -0.129164 
-0.128782 -0.129043 -0.132035 -0.0783898 -0.0873569 -0.0770282 -0.0859666 -0.0427475 -0.0343486 
-0.128639 -0.115353 -0.119241 -0.0953257 -0.118329 -0.0685714 -0.0624594 -0.116069 -0.119191 
-0.114006 -0.0556264 -0.0268391 -0.133187 -0.125991 -0.12912 -0.128901 -0.128633 -0.126881 
-0.127475 -0.007783 -0.00903901 -0.0167768 -0.0167527 -0.00919951 -0.0167589 -0.0166475 -0.0267436 
-0.128289 -0.128564 -0.127953 -0.127339 -0.126699 -0.127036 -0.115674 -0.125844 -0.125432 
-0.127549 -0.172662 -0.120047 -0.123819 -0.125914 -0.128571 -0.133364 -0.133396 -0.127292 
-0.135827 -0.0537464 -0.12724 -0.126781 -0.134417 -0.133933 -0.133481 -0.0960334 -0.111169 
-0.121719 -0.115295 -0.134903 -0.0873447 -0.128384 -0.125372 -0.122991 -0.113119 -0.102177 
-0.036118 -0.144084 -0.143933 -0.117633 -0.121224 -0.12566 -0.119241 -0.118842 -0.0651871 
-0.0505384 -0.146053 -0.143193 -0.118004 -0.0858007 -0.0761858 -0.144831 -0.104859 -0.116745 
-0.122816 -0.136238 -0.123776 -0.120738 -0.122993 -0.0252716 -0.113224 -0.113802 -0.14338 
-0.12132 -0.133851 -0.133526 -0.122021 -0.121355 -0.115636 -0.0704303 -0.12035 -0.120178 
-0.119842 -0.119929 -0.120777 -0.118701 -0.119235 -0.119957 -0.120482 -0.128807 -0.128692 
-0.128975 -0.130899 -0.123669 -0.12247 -0.123215 -0.129053 -0.12751 -0.128773 -0.128446 
-0.129299 -0.129177 -0.0189867 -0.128424 -0.127996 -0.10949 -0.106609 -0.109222 -0.129107 
-0.126724 -0.126437 -0.125647 -0.0312975 -0.0195604 -0.019672 -0.0223303 -0.0346552 -0.128427 
-0.128084 -0.12755 -0.115636 -0.126516 -0.126328 -0.126951 -0.0363396 -0.11683 -0.127389 
-0.129979 -0.129557 -0.124899 -0.124121 -0.124572 -0.128632 -0.129013 -0.129104 -0.12909 
-0.127755 -0.120262 -0.112271 -0.129077 -0.129175 -0.129524 -0.128861 -0.0918528 -0.111539 
-0.115043 -0.120902 -0.118805 -0.00860533 -0.147756 -0.148984 -0.114139 -0.126554 -0.126391 
-0.121611 -0.0732315 -0.0809111 -0.12048 -0.127292 -0.126963 -0.126455 -0.00761218 -0.11992 
-0.128383 -0.117861 -0.116685 -0.117121 -0.125849 -0.126421 -0.120335 -0.118326 -0.0984367 
-0.107526 -0.0346272 -0.0432209 -0.0520714 -0.0523333 -0.0438865 -0.0351404 -0.043653 -0.0518041 
-0.116223 -0.0350605 -0.135131 -0.135336 -0.135681 -0.135917 -0.122132 -0.121665 -0.11853 
-0.117341 -0.121669 -0.120525 -0.109609 -0.104777 -0.114524 -0.069851 -0.134866 -0.135415 
-0.146833 -0.0539619 -0.0647679 -0.128463 -0.0808345 -0.128407 -0.0952201 -0.0957476 -0.0875554 
-0.135578 -0.120768 -0.105966 -0.112492 -0.095164 -0.093864 -0.102684 -0.107991 -0.101457 
-0.114702 -0.145009 -0.144414 -0.144319 -0.152819 -0.155222 -0.161904 -0.13273 -0.132427 
-0.132506 -0.132778 -0.132768 -0.137298 -0.136492 -0.135865 -0.136621 -0.0637812 -0.0686109 
-0.0637179 -0.134528 -0.133863 -0.120989 -0.121098 -0.119813 -0.114164 -0.12485 -0.120048 
-0.120518 -0.145607 -0.143897 -0.144426 -0.143525 -0.144979 -0.129201 -0.138193 -0.127895 
-0.111954 -0.113724 -0.112761 -0.115294 -0.128242 -0.120094 -0.120155 -0.119688 -0.119544 
-0.120906 -0.126298 -0.127281 -0.0673393 -0.124453 -0.1247 -0.119861 -0.121679 -0.124546 
-0.134678 -0.13427 -0.119357 -0.0107474 -0.0272882 -0.0472153 -0.0603992 -0.0694199 -0.0689255 
-0.105825 -0.104749 -0.0513049 -0.116066 -0.0647596 -0.127796 -0.128157 -0.125593 -0.128266 
-0.163138 -0.12365 -0.115568 -0.0638925 -0.113704 -0.146267 -0.145883 -0.145902 -0.114877 
-0.117852 -0.11745 -0.120267 -0.123822 -0.127142 -0.127953 -0.127701 -0.135303 -0.135432 
-0.120145 -0.130496 -0.126049 -0.126385 -0.119932 -0.12822 -0.128568 -0.128277 -0.120088 
-0.121933 -0.122639 -0.0440197 -0.0352671 -0.0353377 -0.11476 -0.127918 -0.128082 -0.127783 
-0.126762 -0.128167 -0.128399 -0.144265 -0.143306 -0.119156 -0.126674 -0.119974 -0.120059 
-0.119524 -0.126975 -0.126934 -0.119792 -0.120099 -0.141834 -0.128578 -0.0787848 -0.0793395 
-0.0686453 -0.117879 -0.119646 -0.119609 -0.118947 -0.135067 -0.129158 -0.121705 -0.0962705 
-0.0959953 -0.103006 -0.0622537 -0.0707575 -0.0258346 -0.0261722 -0.127691 -0.127629 -0.128097 
-0.0343967 -0.0251688 -0.0530124 -0.0440333 -0.131289 -0.125514 -0.120672 -0.00802817 -0.0878945 
-0.141923 -0.146176 -0.138429 -0.142545 -0.132461 -0.132605 -0.11984 -0.119789 -0.125495 
-0.124122 -0.128294 -0.127713 -0.110784 -0.118924 -0.106474 -0.127374 -0.12307 -0.121794 
-0.124641 -0.126513 -0.127177 -0.149085 -0.154168 -0.140566 -0.140611 -0.132279 -0.150905 
-0.129267 -0.0932952 -0.106524 -0.100201 -0.138614 -0.135863 -0.118568 -0.119734 -0.127894 
-0.127405 -0.12711 -0.120168 -0.121661 -0.121609 -0.129218 -0.133831 -0.109834 -0.123522 
-0.127272 -0.115017 -0.12248 -0.122055 -0.120955 -0.127358 -0.121164 -0.122075 -0.14438 
-0.133041 -0.0883026 -0.118335 -0.120164 -0.145503 -0.12264 -0.115036 -0.114633 -0.124257 
-0.12031 -0.12076 -0.10067 -0.0456891 -0.0491212 -0.093179 -0.12151 -0.120032 -0.131045 
-0.128177 -0.228613 -0.242209 -0.127724 -0.127209 -0.116089 -0.135025 -0.117849 -0.220274 
-0.188908 -0.180883 -0.146582 -0.146606 -0.146377 -0.141493 -0.142761 -0.127168 -0.135407 
-0.135783 -0.141695 -0.111496 -0.14035 -0.139271 -0.134277 -0.123242 -0.126075 -0.125687 
-0.129296 -0.129199 -0.179755 -0.127387 -0.115167 -0.165754 -0.128787 -0.128881 -0.124427 
-0.134248 -0.135083 -0.134707 -0.126342 -0.126325 -0.134527 -0.120065 -0.117587 -0.119649 
-0.119631 -0.135273 -0.13521 -0.135841 -0.149008 -0.126327 -0.126515 -0.128861 -0.119403 
-0.121032 -0.146626 -0.146413 -0.112249 -0.114428 -0.114853 -0.0182457 -0.00909919 -0.147476 
-0.0614255 -0.148374 -0.11017 -0.105319 -0.0968237 -0.0885879 -0.121139 -0.145209 -0.150482 
-0.152076 -0.100148 -0.120807 -0.140852 -0.108972 -0.11274 -0.114185 -0.110435 -0.133231 
-0.115758 -0.122678 -0.0931096 -0.136424 -0.120176 -0.118557 -0.126068 -0.124627 -0.126624 
-0.120162 -0.120051 -0.128847 -0.128086 -0.118021 -0.169315 -0.161711 -0.117928 -0.119624 
-0.125374 -0.124481 -0.140681 -0.122743 -0.100887 -0.128428 -0.128995 -0.128258 -0.146865 
-0.147587 -0.0256517 -0.120105 -0.12021 -0.0606914 -0.128379 -0.128803 -0.12825 -0.128368 
-0.127666 -0.128649 -0.128244 -0.124203 -0.125203 -0.153939 -0.107183 -0.123408 -0.12461 
-0.0923603 -0.0900209 -0.118629 -0.12313 -0.116318 -0.117063 -0.125917 -0.122378 -0.121386 
-0.125775 -0.10072 -0.117061 -0.0858761 -0.115424 -0.114251 -0.130866 -0.116154 -0.11777 
-0.116665 -0.11826 -0.13234 -0.132254 -0.129104 -0.11589 -0.114116 -0.11695 -0.110034 
-0.0428135 -0.145968 -0.128972 -0.113743 -0.132668 -0.133162 -0.127039 -0.161002 -0.162502 
-0.127245 -0.116477 -0.119631 -0.136535 -0.109836 -0.0162167 -0.00952064 -0.0976506 -0.104129 
-0.104916 -0.127536 -0.126491 -0.150079 -0.149818 -0.110059 -0.0703737 -0.126569 -0.122281 
-0.121837 -0.133325 -0.129152 -0.134223 -0.133826 -0.133231 -0.132975 -0.125776 -0.126289 
-0.12561 -0.128244 -0.131451 -0.126058 -0.128704 -0.129176 -0.129063 -0.12896 -0.130146 
-0.118592 -0.130471 -0.12967 -0.127128 -0.121455 -0.126744 -0.126936 -0.119494 -0.120982 
-0.120173 -0.00774752 -0.119209 -0.116944 -0.0852359 -0.10907 -0.120903 -0.10026 -0.0896977 
-0.149575 -0.148542 -0.126795 -0.121154 -0.123849 -0.103227 -0.126209 -0.126555 -0.126136 
-0.117771 -0.119492 -0.121099 -0.120966 -0.134597 -0.126374 -0.133073 -0.133137 -0.119988 
-0.122324 -0.122945 -0.122286 -0.119246 -0.128104 -0.127728 -0.12786 -0.0636018 -0.0678603 
-0.00863293 -0.120004 -0.119802 -0.0612398 -0.126066 -0.0993043 -0.0861577 -0.156868 -0.162707 
-0.119639 -0.133345 -0.115868 -0.128435 -0.0635574 -0.157463 -0.152498 -0.122777 -0.124225 
-0.122004 -0.123516 -0.129082 -0.129138 -0.130324 -0.0674405 -0.113596 -0.0889603 -0.114757 
-0.109166 -0.0869745 -0.111891 -0.105561 -0.114659 -0.0679857 -0.0686964 -0.120597 -0.132709 
-0.130779 -0.121721 -0.125978 -0.125565 -0.1281 -0.127616 -0.0928398 -0.0857166 -0.0633918 
-0.00829706 -0.13386 -0.109978 -0.103237 -0.102119 -0.0835381 -0.153585 -0.0146528 -0.00840384 
-0.124483 -0.126163 -0.128818 -0.136395 -0.135275 -0.142676 -0.142331 -0.141532 -0.128388 
-0.128521 -0.119409 -0.118613 -0.119337 -0.105622 -0.127199 -0.127055 -0.124736 -0.126236 
-0.12582 -0.12898 -0.130694 -0.079344 -0.113105 -0.117392 -0.113641 -0.140705 -0.12568 
-0.116728 -0.133466 -0.133161 -0.0931627 -0.112729 -0.114132 -0.109442 -0.127417 -0.0892013 
-0.080631 -0.0906899 -0.0435072 -0.0350207 -0.0426032 -0.0513085 -0.127123 -0.0354172 -0.0261851 
-0.0861228 -0.0932692 -0.129998 -0.129369 -0.127379 -0.113089 -0.103725 -0.130269 -0.162579 
-0.11048 -0.129233 -0.129599 -0.130808 -0.00886032 -0.0102602 -0.0528269 -0.0493278 -0.126543 
-0.116235 -0.146351 -0.128708 -0.00823913 -0.0141857 -0.00870503 -0.128099 -0.0181102 -0.130499 
-0.127923 -0.133255 -0.133667 -0.133517 -0.129147 -0.129175 -0.146679 -0.146575 -0.0186318 
-0.091318 -0.0315995 -0.0170505 -0.147058 -0.147689 -0.0283857 -0.0180125 -0.00809552 -0.126651 
-0.141673 -0.134573 -0.0386673 -0.0980565 -0.128657 -0.133298 -0.11897 -0.133508 -0.148353 
-0.148969 -0.124351 -0.120542 -0.126905 -0.117564 -0.121829 -0.118384 -0.128214 -0.122231 
-0.118389 -0.115066 -0.124779 -0.11434 -0.0791104 -0.12192 -0.119157 -0.117003 -0.119312 
-0.118659 -0.119239 -0.118556 -0.105431 -0.116044 -0.120697 -0.119253 -0.119826 -0.0711944 
-0.100208 -0.120399 -0.141717 -0.142895 -0.142693 -0.129617 -0.146058 -0.128773 -0.127804 
-0.138006 -0.137162 -0.127801 -0.122653 -0.137118 -0.130906 -0.11994 -0.12365 -0.12559 
-0.127832 -0.105002 -0.127085 -0.128564 -0.1286 -0.129047 -0.109757 -0.110662 -0.107338 
-0.1202 -0.120096 -0.120291 -0.113509 -0.113379 -0.115547 -0.119355 -0.129668 -0.0872168 
-0.101478 -0.122646 -0.107812 -0.130441 -0.120017 -0.120041 -0.119528 -0.148931 -0.130811 
-0.130043 -0.129997 -0.130858 -0.128877 -0.0667839 -0.12616 -0.126158 -0.119542 -0.113841 
-0.124633 -0.131756 -0.127454 -0.127437 -0.13166 -0.118488 -0.0975191 -0.106636 -0.0643444 
-0.0830073 -0.0961391 -0.122399 -0.120161 -0.123959 -0.0619345 -0.139349 -0.117826 -0.118593 
-0.117842 -0.122343 -0.149281 -0.148168 -0.143662 -0.143598 -0.142801 -0.124376 -0.146251 
-0.122754 -0.122427 -0.133965 -0.133688 -0.133409 -0.116459 -0.133055 -0.11925 -0.124594 
-0.125305 -0.125726 -0.131606 -0.125863 -0.123332 -0.125679 -0.125041 -0.125566 -0.133789 
-0.119534 -0.118506 -0.118942 -0.128434 -0.114945 -0.117438 -0.117202 -0.115595 -0.0967986 
-0.0860991 -0.0796651 -0.1463 -0.128901 -0.128374 -0.029818 -0.129168 -0.0256164 -0.0849685 
-0.140491 -0.124868 -0.148204 -0.0260549 -0.119691 -0.119039 -0.108868 -0.0965036 -0.02585 
-0.11643 -0.0952093 -0.0166008 -0.117877 -0.00839996 -0.0529547 -0.120688 -0.149511 -0.128706 
-0.119786 -0.0862818 -0.116783 -0.127047 -0.128738 -0.136797 -0.137509 -0.130528 -0.112421 
-0.14703 -0.122832 -0.116101 -0.129636 -0.126891 -0.134006 -0.134033 -0.134034 -0.0289206 
-0.132974 -0.119493 -0.135537 -0.135461 -0.133748 -0.112449 -0.0439144 -0.119848 -0.0354706 
-0.129554 -0.125385 -0.119913 -0.131564 -0.0963142 -0.122791 -0.120824 -0.129256 -0.128905 
-0.126158 -0.12726 -0.116668 -0.123732 -0.0789034 -0.149405 -0.138966 -0.138705 -0.0774396 
-0.133384 -0.137201 -0.134736 -0.152096 -0.150506 -0.150128 -0.124167 -0.124217 -0.125164 
-0.120122 -0.120172 -0.128056 -0.128339 -0.128403 -0.132435 -0.131767 -0.145577 -0.120333 
-0.126912 -0.119267 -0.118561 -0.119443 -0.121675 -0.133446 -0.13377 -0.104407 -0.0688642 
-0.0536372 -0.0982823 -0.0969486 -0.0694159 -0.107096 -0.112966 -0.0702821 -0.0609618 -0.0682725 
-0.11757 -0.148528 -0.126146 -0.0954143 -0.0961776 -0.117604 -0.118165 -0.118621 -0.101588 
-0.124068 -0.109541 -0.0894859 -0.0433908 -0.130756 -0.0878464 -0.119949 -0.124926 -0.124918 
-0.100918 -0.126098 -0.125784 -0.1182 -0.179176 -0.0885177 -0.109558 -0.10997 -0.112746 
-0.112962 -0.100503 -0.122779 -0.118591 -0.126672 -0.133607 -0.125159 -0.131037 -0.117727 
-0.126783 -0.127767 -0.125572 -0.114039 -0.112263 -0.118146 -0.114995 -0.128739 -0.132839 
-0.122705 -0.129163 -0.118971 -0.0682761 -0.12349 -0.125747 -0.128922 -0.13579 -0.114394 
-0.128914 -0.128941 -0.134239 -0.127481 -0.118067 -0.12785 -0.125957 -0.13505 -0.134511 
-0.136498 -0.120704 -0.0579193 -0.042594 -0.12479 -0.125261 -0.12496 -0.119217 -0.12475 
-0.122506 -0.0794104 -0.0765798 -0.152413 -0.12003 -0.137396 -0.137797 -0.139155 -0.134174 
-0.135459 -0.126247 -0.106857 -0.127888 -0.127801 -0.126419 -0.118223 -0.119986 -0.12009 
-0.124074 -0.123549 -0.112148 -0.118017 -0.131156 -0.0973542 -0.0794182 -0.12152 -0.117561 
-0.0798725 -0.108956 -0.121458 -0.121425 -0.0797578 -0.129526 -0.134611 -0.146168 -0.140309 
-0.141138 -0.124681 -0.124255 -0.0966503 -0.126616 -0.127386 -0.126231 -0.0251052 -0.0341805 
-0.0665208 -0.111892 -0.113951 -0.112473 -0.111827 -0.124853 -0.126055 -0.12322 -0.108092 
-0.126821 -0.0791364 -0.148875 -0.121403 -0.121675 -0.120185 -0.0260109 -0.0768429 -0.143473 
-0.134686 -0.125568 -0.134771 -0.125704 -0.120237 -0.0870322 -0.118508 -0.126129 -0.043456 
-0.126312 -0.126427 -0.125638 -0.125943 -0.119284 -0.128518 -0.117265 -0.116513 -0.119697 
-0.114449 -0.118831 -0.116067 -0.128995 -0.139353 -0.126587 -0.118425 -0.11617 -0.11685 
-0.118067 -0.115215 -0.11587 -0.1152 -0.10913 -0.106406 -0.141936 -0.10737 -0.127374 
-0.166322 -0.119695 -0.122827 -0.121724 -0.121516 -0.120171 -0.119002 -0.122337 -0.12498 
-0.123529 -0.127526 -0.11789 -0.117026 -0.123545 -0.13193 -0.119 -0.117957 -0.126101 
-0.104354 -0.144109 -0.144997 -0.117715 -0.120095 -0.128493 -0.127393 -0.128041 -0.128156 
-0.127943 -0.133329 -0.133576 -0.11298 -0.106442 -0.125869 -0.129244 -0.126262 -0.111175 
-0.114354 -0.130696 -0.144237 -0.117075 -0.11531 -0.122645 -0.0905969 -0.102135 -0.128414 
-0.126119 -0.137697 -0.134519 -0.125125 -0.148713 -0.121741 -0.119279 -0.114729 -0.133565 
-0.133986 -0.132093 -0.124765 -0.134454 -0.128773 -0.123634 -0.0598118 -0.0513216 -0.124402 
-0.0303922 -0.133574 -0.132132 -0.133312 -0.133425 -0.133473 -0.119546 -0.103234 -0.0931498 
-0.0999316 -0.10527 -0.1267 -0.0263399 -0.141741 -0.150078 -0.149529 -0.140977 -0.132289 
-0.1295 -0.110535 -0.118236 -0.121397 -0.116303 -0.0799793 -0.118709 -0.114596 -0.00817407 
-0.0143541 -0.01624 -0.0816355 -0.0840089 -0.126844 -0.126684 -0.132679 -0.113942 -0.128099 
-0.128025 -0.121688 -0.12629 -0.101653 -0.14307 -0.146489 -0.135247 -0.127807 -0.125249 
-0.126548 -0.141859 -0.0804752 -0.130313 -0.116335 -0.110869 -0.120654 -0.128862 -0.121243 
-0.117164 -0.0717751 -0.113773 -0.114546 -0.119516 -0.145025 -0.145629 -0.127112 -0.146836 
-0.120506 -0.138923 -0.129109 -0.126245 -0.126551 -0.120386 -0.100843 -0.125338 -0.125625 
-0.142851 -0.119053 -0.122931 -0.0103194 -0.129049 -0.0425713 -0.078868 -0.0391659 -0.116775 
-0.122061 -0.128317 -0.123008 -0.12528 -0.124625 -0.122859 -0.120314 -0.0313374 -0.102037 
-0.104968 -0.11934 -0.143605 -0.126517 -0.127516 -0.125175 -0.128821 -0.133716 -0.0604429 
-0.118133 -0.113328 -0.0624209 -0.114869 -0.130819 -0.133526 -0.117617 -0.130813 -0.0260991 
-0.119834 -0.126849 -0.123837 -0.137242 -0.128855 -0.122047 -0.0378691 -0.0451246 -0.069494 
-0.0618692 -0.117614 -0.103304 -0.0433933 -0.118979 -0.114253 -0.0934513 -0.121916 -0.136154 
-0.136813 -0.00753174 -0.00804725 -0.118672 
Strain%20xy%20component 1 12442 double
-0.359556 -0.327025 0.315631 0.350179 -7.97403e-05 -1.97025e-05 3.85008e-05 3.35077e-05 0.113311 
0.147643 -0.158341 -0.14384 0.145685 0.158739 -0.140801 -0.120707 -0.178117 -0.12327 
-0.102195 -0.0800451 -0.0737922 -0.0676274 -0.0524579 -0.0457641 -0.0384773 -0.0310863 -0.0220629 
-0.0129253 -0.00418495 0.00511701 0.0139179 0.0221633 0.0294233 0.0369049 0.044821 0.0535822 
0.0623077 0.0707817 0.0795287 0.0882289 0.0994854 0.11391 0.178419 -0.172029 -0.12285 
-0.10671 -0.101342 -0.0900488 -0.0696142 -0.0658943 -0.0560129 -0.0454381 -0.036191 -0.0276607 
-0.0180299 -0.00880923 0.000493227 0.00961269 0.0197045 0.0296898 0.0395292 0.0488866 0.0585633 
0.0687945 0.080104 0.0927985 0.107952 0.124999 0.164974 9.52599e-05 1.25844e-05 1.55249e-05 
-1.86606e-05 -3.82655e-05 -5.60394e-05 -7.54924e-05 -9.02971e-05 -0.000102936 -9.42803e-05 -2.84601e-05 -3.27784e-05 
4.51348e-05 6.6742e-05 8.74017e-05 9.63247e-05 7.78854e-05 0.000105534 5.0113e-05 7.00715e-05 9.43643e-05 
0.000100151 9.38693e-05 7.48896e-05 2.04865e-05 2.34364e-05 -0.000109609 0.0198706 -0.00122073 -0.000325833 
-0.000167911 -0.000306311 -0.000304705 -0.000275508 -0.000193633 -0.000165941 -0.000164308 -0.000148684 -0.000160629 
-0.000177158 -0.000185102 -0.00021912 -0.00025203 -0.000252585 -0.000228463 -0.000225846 -0.000176541 -0.000147608 
-0.000114847 -6.34513e-05 -5.42761e-05 -3.66999e-06 7.10356e-05 0.000101066 0.000123597 0.000133805 0.000129566 
0.000129297 0.000112896 9.06895e-05 5.28846e-05 3.61525e-05 -5.58003e-06 -3.42756e-05 -5.81516e-05 -7.48947e-05 
-8.57377e-05 -9.10456e-05 -8.84469e-05 -5.3306e-05 1.31327e-05 0.000128557 -9.85372e-05 2.51866e-05 3.02899e-05 
4.97154e-05 5.9101e-05 7.22862e-05 6.6984e-05 6.06236e-05 4.14843e-05 8.66867e-06 -1.55508e-05 -5.01721e-05 
-9.26413e-05 -0.000119418 -0.000124556 -0.000129029 -0.000126749 -0.000114484 -9.08803e-05 -4.12838e-05 -2.67566e-05 
2.36046e-06 5.09252e-05 7.63292e-05 7.76576e-05 0.000133195 0.000165032 0.000198286 0.000211726 0.000221034 
0.000215871 0.000202261 0.000196858 0.000175542 0.000190161 0.000166897 0.000188646 0.00019144 0.000215787 
0.00024791 0.000196416 0.00031201 0.000454701 0.00708887 0.00370628 0.0942283 0.0514641 0.0317051 
0.0210384 0.0111198 0.00537906 -6.79227e-05 -0.0058318 -0.0113236 -0.0237354 -0.0364036 -0.0599066 
-0.10672 0.12511 0.0555863 0.0347732 0.0223187 0.0171387 0.00791894 7.46857e-05 -0.00728156 
-0.0151566 -0.0219073 -0.032981 -0.0621708 -0.116323 5.39849e-05 7.02064e-06 -7.27087e-05 -7.08031e-05 
-7.83551e-05 -8.1458e-05 -8.80042e-05 -8.40845e-05 -7.69052e-05 -6.78145e-05 -0.000106142 -5.47666e-05 -9.65291e-05 
-5.57675e-05 -3.55863e-05 -1.77671e-05 6.24439e-05 4.87234e-05 0.000103607 9.19171e-05 7.68872e-05 4.92142e-05 
2.90406e-05 -6.78531e-06 6.51373e-06 -4.75284e-05 -9.41892e-05 -0.0227403 -0.0137849 -0.0031831 -0.00149729 
-0.000949719 -0.000598061 -0.000418003 -0.000297841 -0.00026531 -0.000225804 -0.000224193 -0.000230062 -0.000161257 
-0.000250608 -0.000226735 -0.000216485 -0.00020183 -0.000186518 -0.00016214 -0.000121618 -7.49507e-05 -1.87241e-05 
1.76131e-05 8.17868e-05 0.000121835 0.000133829 0.000141771 0.000163615 0.000152425 0.000135599 0.000105067 
7.19437e-05 3.71575e-05 -1.81056e-05 -4.13084e-05 -8.10585e-05 -7.27812e-05 -8.00598e-05 -7.48875e-05 -6.84091e-05 
-5.35696e-05 -1.60946e-05 1.34242e-05 7.30065e-05 0.00012485 -9.93861e-05 -5.44079e-05 -1.90661e-05 9.49359e-06 
2.20479e-05 4.43077e-05 5.74805e-05 6.99212e-05 7.35817e-05 8.13394e-05 7.8204e-05 3.34033e-05 1.7175e-05 
-2.11687e-05 -6.5793e-05 -9.39746e-05 -0.000125681 -0.000150643 -0.000170175 -0.000141793 -0.000137002 -3.76591e-05 
-2.32443e-05 2.06681e-05 6.3819e-05 7.50907e-05 0.000104051 0.000136255 0.000144919 0.000172059 0.000172752 
0.000171576 0.000164925 0.000157632 0.000152955 0.000191338 0.000255831 0.000346974 0.000436426 0.00061704 
0.000940246 0.00152197 0.00379499 0.00446707 -0.023324 0.0914964 0.0513402 0.0340427 0.0229689 
0.0160209 0.00867938 0.00137557 -0.00659598 -0.0148199 -0.0220829 -0.0341014 -0.0544449 -0.114648 
0.0819063 0.0488407 0.0306388 0.0190632 0.00935395 0.00316334 -0.00213485 -0.00744083 -0.0135469 
-0.0238857 -0.0359101 -0.0499813 -0.118707 -0.000332565 -0.00095271 -0.00161065 -0.00228719 -0.00285145 
-0.00313907 -0.00330638 -0.00329531 -0.00308206 -0.00266586 -0.00205753 -0.00130606 -0.00048387 0.000385551 
0.00120723 0.00199074 0.00252933 0.00291284 0.00311623 0.00320121 0.00310691 0.00281946 0.00229309 
0.00165362 0.00099816 0.000466842 4.45295e-05 0.0990321 0.0414832 0.0225618 0.0127663 0.00769515 
0.00421095 0.00201897 0.000324593 -0.00101391 -0.00218511 -0.00327039 -0.0041984 -0.00484704 -0.00556107 
-0.00608844 -0.00618125 -0.00593813 -0.00550602 -0.0048558 -0.00391915 -0.00291411 -0.00184399 -0.000809092 
0.000202015 0.00108786 0.00176526 0.00216265 0.0023487 0.00227649 0.00194392 0.00134034 0.000637556 
-0.000182131 -0.00100859 -0.00172315 -0.00226339 -0.00261619 -0.00284911 -0.00288746 -0.00269831 -0.00238758 
-0.0018198 -0.00114371 -0.000449425 0.00102573 0.00158997 0.00212896 0.00254868 0.00275604 0.00280756 
0.00259843 0.002181 0.00160525 0.000909139 5.61489e-05 -0.000735935 -0.00146657 -0.00200706 -0.00231929 
-0.00238703 -0.00216437 -0.001635 -0.000871959 5.80238e-05 0.00106733 0.00201508 0.00294198 0.00393603 
0.00480332 0.00545371 0.00579175 0.00601482 0.0058032 0.00525873 0.00456783 0.00374905 0.00278689 
0.00176012 0.000636393 -0.000730524 -0.00260071 -0.00504666 -0.00811807 -0.013162 -0.0227078 -0.0419461 
-0.103319 -0.140683 -0.118463 -0.0997882 -0.0863908 -0.0740194 -0.0612843 -0.0518639 -0.0429609 
-0.0339822 -0.0250994 -0.0160585 -0.00685016 0.00152433 0.0107827 0.0184164 0.0269861 0.0355008 
0.0444763 0.0529278 0.0630986 0.0725284 0.0830361 0.0959476 0.112109 0.128355 -0.00143274 
0.0615024 0.09599 0.0729692 0.0509708 0.0342793 0.0196319 0.00726799 -0.00543229 -0.0189501 
-0.0341914 -0.053197 -0.0751074 -0.100044 -0.0492609 0.0198379 0.0578455 0.10061 0.075211 
0.0516424 0.0337558 0.0191594 0.00537882 -0.00744228 -0.0198672 -0.035191 -0.053056 -0.0765261 
-0.104165 -0.0882287 -0.11486 0.123445 -0.123424 0.133415 -0.0555283 -0.00232876 -0.00353252 
-0.00460268 -0.00542343 -0.0059184 -0.00595406 -0.00567201 -0.00508695 -0.00416706 -0.00296605 -0.00157551 
-4.44009e-05 0.00150724 0.00297465 0.00409127 0.00492978 0.00555511 0.00588036 0.00587868 0.00546427 
0.00473807 0.00377237 0.00270502 0.00164604 0.0464955 -0.103914 0.0575323 0.0361841 0.0236541 
0.0153871 0.00906642 0.00451963 0.00154149 -0.000996369 -0.00326625 -0.00533867 -0.00703815 -0.00853133 
-0.0096835 -0.0102806 -0.0102192 -0.00973893 -0.00879287 -0.00748794 -0.00600915 -0.00433521 -0.00257175 
-0.0007956 0.000787389 0.00209639 0.00298762 0.00352568 0.0035839 0.00321294 0.00246404 0.0013207 
-1.75906e-05 -0.00145165 -0.00273319 -0.00383825 -0.00460068 -0.00510455 -0.00526211 -0.0051592 -0.00476468 
-0.00399627 -0.00292393 -0.0016455 0.0430525 0.100888 0.00250179 0.0035742 0.00448861 0.00507779 
0.00521863 0.00498936 0.00441604 0.00359 0.00248208 0.00116544 -0.000248373 -0.00157096 -0.00263586 
-0.00343789 -0.00371259 -0.00344956 -0.00275719 -0.00161062 -0.000226489 0.0014417 0.00305182 0.00468263 
0.00635558 0.00785224 0.00902498 0.00983075 0.0100928 0.00981581 0.0090302 0.00778212 0.00624792 
0.00442014 0.00251406 0.00018196 -0.00263113 -0.0061579 -0.0107924 -0.0167114 -0.0254887 -0.0394892 
-0.0650586 0.0552518 -0.0975137 -0.0884818 -0.0776872 -0.0694515 -0.0590574 -0.0500085 -0.0403865 
-0.0314507 -0.0231988 -0.013969 -0.00520465 0.00335036 0.0119914 0.0207014 0.0298041 0.0383842 
0.0473876 0.0563466 0.0660589 0.0758861 0.0858176 0.0972375 -0.0314895 0.0352237 0.0357748 
0.0241588 0.0129314 0.00171031 -0.00982208 -0.0216969 -0.0335436 -0.0434383 -0.0448988 -0.0302043 
-0.0429311 -0.0435139 0.0389095 0.0389869 0.0352687 0.0228027 0.0103814 -0.00182385 -0.0131319 
-0.0252571 -0.0378966 -0.0493621 -0.0539915 -0.0421257 0.0603187 0.0459038 0.0514222 0.0467818 
0.00110554 -0.0543762 -0.0666305 0.0638789 0.0608246 0.0196412 -0.021727 -0.00544074 -0.00685464 
-0.00773925 -0.00822703 -0.00823849 -0.00758638 -0.00642981 -0.00498648 -0.00321094 -0.00110023 0.00110876 
0.00328198 0.00498049 0.00637786 0.00742468 0.00803203 0.00819696 0.00787039 0.00707686 0.0059018 
0.00449629 0.0596357 0.042519 0.0292196 0.0199704 0.0122997 0.00682404 0.00292878 -0.000525145 
-0.00370285 -0.00655515 -0.00891632 -0.010966 -0.0122628 -0.012777 -0.0125723 -0.0117489 -0.0103041 
-0.00857875 -0.00661569 -0.0044912 -0.00237148 -0.000321819 0.00149582 0.00285639 0.00369448 0.00407645 
0.00385571 0.00305702 0.00181637 9.94829e-05 -0.00181304 -0.00365157 -0.00510573 -0.00624788 -0.00702825 
-0.00746506 -0.00749688 -0.0070491 -0.00625993 -0.00506576 -0.00367015 0.0148258 -0.0251419 0.0795838 
-0.033787 0.00580179 0.00686174 0.00738499 0.00731894 0.00687766 0.00598812 0.00487128 0.00317037 
0.00134235 -0.000384652 -0.00206426 -0.00333382 -0.00405163 -0.00403405 -0.00339672 -0.00216665 -0.000580546 
0.00133811 0.00333922 0.00531173 0.00746517 0.00940474 0.011056 0.0121344 0.0126751 0.0124654 
0.0115585 0.00990988 0.0077203 0.00529644 0.00248466 -0.00105552 -0.00487876 -0.00978763 -0.0157948 
-0.0229248 -0.0325995 -0.046377 0.0438023 -0.0798769 -0.0456707 0.0252174 -0.0738753 -0.0663787 
-0.0586555 -0.0508223 -0.0422323 -0.0339387 -0.0261492 -0.0178577 -0.00927702 -0.000661882 0.00761046 
0.0162813 0.0245093 0.032833 0.0412428 0.0492098 0.0571476 0.0655084 0.0724814 0.0774466 
-0.0142216 0.00149573 0.00751276 0.0217744 -0.00130489 -0.0095798 -0.0158978 -0.0206713 -0.0207459 
-0.0142077 -0.0256389 0.0261685 0.0158497 0.0489386 0.0198554 -0.00723722 -0.0160952 -0.0249459 
-0.0296867 -0.0298199 -0.0238436 0.0173095 0.0312264 0.00439381 0.0283979 0.0114159 0.00221118 
-0.0670932 0.00292545 -0.0427903 0.0408243 0.0176993 -0.0339499 0.0257821 0.0185296 -0.0286223 
0.0372197 0.0256944 0.0323829 -0.00150308 -0.00898713 -0.00986247 -0.0103553 -0.0101697 -0.00905564 
-0.00727087 -0.00530407 -0.00278814 0.000121547 0.00305514 0.00549259 0.00739791 0.0088595 0.00987984 
0.0103481 0.0101494 0.00933005 0.00796606 0.00627867 0.0592992 -0.0244646 0.0221239 0.00420895 
0.0123073 0.0422393 0.0308925 0.0215689 0.0141258 0.00882995 0.00465378 0.000514864 -0.00339932 
-0.00669484 -0.00964381 -0.0119786 -0.0134284 -0.0138194 -0.0133027 -0.0120097 -0.0103358 -0.00837518 
-0.00622029 -0.00401548 -0.0018424 0.000197329 0.00187567 0.00309062 0.00379981 0.00378848 0.00313379 
0.0018232 -1.26089e-05 -0.00240958 -0.00473399 -0.00666515 -0.00800248 -0.00910402 -0.00974503 -0.00980745 
-0.00930322 -0.00844936 -0.00717511 0.034984 0.00816115 -0.0634134 0.00857406 0.00915686 0.00959583 
0.00937121 0.008553 0.00831719 0.00652091 0.00386649 0.00212749 -1.90117e-05 -0.00195729 -0.00330913 
-0.00374103 -0.00350711 -0.00240481 -0.000750482 0.00109731 0.00320509 0.00530469 0.00736128 0.00951573 
0.0114577 0.0128844 0.0137379 0.0136846 0.0126223 0.010768 0.00820096 0.00509017 0.00163346 
-0.00244905 -0.00721846 -0.0128764 -0.0190069 -0.0266208 -0.0358191 -0.0478719 0.0086713 -0.0167914 
-0.0549225 -0.0489386 -0.0424551 -0.0353945 -0.0283929 -0.0211766 -0.0132453 -0.00489475 0.00316064 
0.0115442 0.0195746 0.0271852 0.0347198 0.0417881 0.0482931 0.0549236 0.0611753 0.0160776 
0.00788644 -0.00078258 0.0115893 -0.00398624 -0.00585982 -0.00568454 -0.00299579 0.0160334 -0.0103524 
-0.00949179 -0.0165564 -0.0131123 -0.0144473 -0.0344908 -0.0147862 -0.019404 -0.00533029 -0.0178631 
0.00693715 0.0227409 0.0283568 0.00577488 0.0038293 0.00270901 0.0137031 -0.0260541 0.0114273 
-0.0601665 0.00775034 -0.0113121 0.0272894 -0.029528 -0.00349135 0.0010947 -0.025923 -0.0118304 
-0.0126121 -0.0125818 -0.00985604 -0.00790409 -0.00506468 -0.00157795 0.00241105 0.00611012 0.00809038 
0.0104261 0.0112763 0.012192 0.01214 0.0114491 0.00994641 0.0160255 0.00953863 0.00836244 
0.0502416 0.039297 0.0299516 0.0220498 0.0151631 0.0116284 0.00715293 0.00234875 -0.00211429 
-0.00572812 -0.0090222 -0.0115953 -0.0129381 -0.0130247 -0.0120879 -0.0106677 -0.00905084 -0.00715505 
-0.00525902 -0.00344374 -0.00167506 6.31604e-05 0.00162221 0.00284425 0.00256225 0.00133964 -0.000512518 
-0.0030188 -0.0060587 -0.00896585 -0.0106814 -0.0110841 -0.0124138 -0.0123309 -0.0115118 -0.0103628 
-0.0103131 -0.0191206 0.00539796 0.0241036 0.0115953 0.0118364 0.0124075 0.00733976 0.00369832 
0.00146731 -0.00137593 -0.00218209 -0.00223226 -0.000202635 0.00195428 0.00305215 0.00485809 0.00668167 
0.0084986 0.0101695 0.0117686 0.0129441 0.0133854 0.0124793 0.0103045 0.00707968 0.0032705 
-0.000624776 -0.00379818 -0.00942319 -0.0152781 -0.0208768 -0.0279499 -0.0367223 -0.0439779 -0.00873963 
-0.0191877 0.0116494 -0.0183632 -0.000680164 -0.0393334 -0.0355493 -0.0296787 -0.0234719 -0.0160623 
-0.00898407 -0.00169007 0.00666326 0.0153359 0.0224334 0.0288584 0.0350209 0.0399035 0.0448975 
0.00309426 0.00580571 0.00359127 0.00594704 0.0172049 0.00477398 0.0265266 -0.00407919 -0.0208473 
0.00321088 0.00197402 0.00367437 0.00100624 -0.010827 0.00503604 -0.0468725 0.00804295 0.0147241 
0.00187824 0.0207062 -0.0043836 -0.0240342 0.0249336 -0.00405078 0.00302692 -0.00456434 -0.00589227 
-0.0212085 -0.0111004 0.0047462 -0.000123981 -0.0062729 0.00252868 -0.00410924 -0.00801201 -0.0146436 
-0.0157948 -0.0116346 -0.00836358 -0.00407341 0.000759167 0.00682702 0.0115445 0.0142289 0.0141917 
0.0135218 0.000404882 -0.00293837 0.0359335 0.0278332 0.0202106 0.0103843 0.00455257 0.00147008 
-0.00680793 -0.010384 -0.0104499 -0.00807192 -0.00785952 -0.00676242 -0.00551798 -0.00462055 -0.00385988 
-0.00305346 -0.000160909 0.000447583 0.000242796 -0.00226678 -0.00404265 -0.00710286 -0.015265 -0.0154962 
-0.0139951 -0.00269637 0.00537005 0.00844904 0.00901642 0.00386668 0.000317819 -0.00594079 -0.00950188 
-0.0170928 -0.0231139 -0.0277953 -0.0350251 0.0130069 -0.0197775 -0.0249011 -0.0185964 -0.00939562 
0.00131653 0.0106849 0.0187214 0.0247582 0.0294491 0.0325727 0.0188248 -0.012268 0.0062192 
0.0206849 -0.0136658 0.0166454 0.00710821 -0.0160548 0.0152921 -0.00281363 -0.00957264 -0.00184892 
0.0140418 -0.011637 -0.00963209 0.0239926 -0.0302664 0.00437953 0.00971577 0.0106592 0.0104491 
-0.0194347 -0.00575656 -0.00657699 0.0151387 0.0107716 -0.00740965 -0.00315902 0.0264468 0.0237495 
0.0221726 -0.00493671 -0.0131467 -0.00459536 -0.000750343 0.0161813 0.0187519 -0.00427582 -0.000268334 
-0.00104151 -0.00173225 -0.00231607 -0.00275149 -0.00314566 -0.0033806 -0.00344156 -0.003121 -0.00265659 
-0.00201508 -0.00126883 -0.000352982 0.000502581 0.00136428 0.0021082 0.00272671 0.0031701 0.00343147 
0.00340461 0.00322963 0.00297264 0.00246701 0.00178954 0.00105673 0.000353945 -5.88414e-05 0.115937 
0.045804 0.0278474 0.0168292 0.0102757 0.00603686 0.00301762 0.000972167 -0.000554719 -0.00189266 
-0.00302822 -0.0041302 -0.00503945 -0.00566133 -0.00634712 -0.00668499 -0.00664227 -0.00632884 -0.00574104 
-0.00476072 -0.00362245 -0.00248238 -0.00130136 -0.000161067 0.000903143 0.00176865 0.00234332 0.00266671 
0.00262948 0.0022497 0.00169952 0.000902836 3.45451e-05 -0.000882701 -0.00169485 -0.00234008 -0.00278053 
-0.00303921 -0.00319097 -0.00302347 -0.00264861 -0.00197398 -0.00117555 0.000494234 0.00103951 0.00168971 
0.00217941 0.00253931 0.00267256 0.00272811 0.00252862 0.00208292 0.0015219 0.000787125 -5.99414e-05 
-0.000858679 -0.00152914 -0.00210571 -0.00236598 -0.00241322 -0.00210087 -0.00153343 -0.00071369 0.000341769 
0.0014051 0.00246323 0.00343527 0.00424855 0.00498352 0.00551238 0.00568978 0.00567295 0.00547631 
0.00494409 0.00420711 0.00334857 0.00240266 0.00142501 0.000251433 -0.00115375 -0.00279344 -0.00519779 
-0.00834358 -0.0135377 -0.0229703 -0.0462965 -0.0945696 -0.129583 -0.117167 -0.101246 -0.0895233 
-0.0770677 -0.0694389 -0.0603853 -0.0514684 -0.0418761 -0.0320723 -0.0230709 -0.014359 -0.00494759 
0.00309462 0.0119031 0.0207393 0.0303123 0.0396325 0.0489459 0.0582787 0.0685779 0.0791861 
0.0912692 0.104887 0.123977 0.146163 0.0207455 0.0692238 0.102236 0.0751993 0.0532288 
0.0351397 0.0210118 0.00766518 -0.00503842 -0.0183563 -0.0336335 -0.0518564 -0.0753826 -0.102452 
-0.0781719 0.0122992 0.0854725 0.0944242 0.0692094 0.0472824 0.0289952 0.0149392 0.0017593 
-0.0102565 -0.0229215 -0.0374268 -0.0549931 -0.0769111 -0.099633 -0.0527906 0.0926755 0.120837 
-0.000411762 -0.155866 -0.131502 -0.00274704 -0.00145435 -0.00456004 -0.00536704 -0.00596397 -0.00615004 
-0.00601369 -0.00530404 -0.00428567 -0.003026 -0.00154447 8.28596e-05 0.00169674 0.00320178 0.00440978 
0.00536996 0.00599315 0.00620288 0.00612982 0.0056631 0.00487601 0.00391022 0.00276201 0.00157719 
0.0458817 0.00179987 0.0583143 0.0701325 0.103928 0.0301129 0.0194538 0.0121596 0.00700584 
0.00299645 -7.49258e-05 -0.00269609 -0.00489801 -0.00679495 -0.00845483 -0.00978435 -0.0106082 -0.0109599 
-0.0107855 -0.0100135 -0.00874153 -0.00709987 -0.00525168 -0.00342127 -0.00158689 0.000164794 0.00173717 
0.00291036 0.00365702 0.00389939 0.00360234 0.00276145 0.00155226 7.72437e-05 -0.001461 -0.00293781 
-0.00411752 -0.00498405 -0.0055593 -0.00579147 -0.00559052 -0.00507163 -0.00415763 -0.00290317 0.0407964 
-0.0420905 0.0341986 0.00280647 0.00377272 0.00448244 0.00500293 0.00522625 0.00500886 0.00449518 
0.00357037 0.00240824 0.0010026 -0.000447464 -0.00177391 -0.00289065 -0.00354386 -0.00373356 -0.00340243 
-0.00258569 -0.00132602 0.000240965 0.00199838 0.00368235 0.00541085 0.00696358 0.00825537 0.0091343 
0.00965774 0.00971492 0.00951697 0.00862258 0.0072031 0.00564922 0.00386813 0.00181767 -0.000624062 
-0.0034311 -0.00674867 -0.0112909 -0.0170348 -0.0264179 -0.0402968 -0.0649821 -0.106085 -0.0897406 
-0.0957463 -0.0777636 -0.0683694 -0.0578041 -0.0494367 -0.041283 -0.0330733 -0.0242362 -0.0156745 
-0.00725216 0.00150022 0.00969089 0.0181719 0.026312 0.034356 0.0428812 0.0517231 0.0603292 
0.0692242 0.0786076 0.0875082 0.0962006 0.0456749 -0.0408548 -0.0600296 0.0532918 0.0477752 
0.0369756 0.0249995 0.0133852 0.00188335 -0.00963145 -0.0210421 -0.032765 -0.0421854 -0.0482325 
-0.0364049 0.0474445 0.0408151 0.0295433 0.0178899 0.00660022 -0.00414143 -0.0152966 -0.0265926 
-0.038316 -0.0488128 -0.052476 -0.0404483 0.0630509 -0.00375731 0.0376673 -0.0529925 0.0595836 
-0.0724714 0.0295684 -0.0635983 0.0635345 0.0389787 -0.00838433 -0.0068846 -0.00836444 -0.00777904 
-0.0067023 -0.00506969 -0.00317599 -0.00108344 0.00127276 0.00344131 0.00539621 0.00690252 0.00788734 
0.00844803 0.00852806 0.00814601 0.00727938 0.00609772 0.00469053 0.00318575 -0.0453707 0.0374923 
-0.0239978 -0.041591 0.0535676 0.0173508 0.0105174 0.00521018 0.00109477 -0.00241194 -0.00553069 
-0.00819842 -0.0104602 -0.0120933 -0.0130859 -0.0132784 -0.0127297 -0.0115915 -0.00985694 -0.0078434 
-0.00565656 -0.00352463 -0.001402 0.000585798 0.00220675 0.00339601 0.00402127 0.00391977 0.003155 
0.00174643 -0.000155191 -0.00219384 -0.00407151 -0.00562092 -0.00689217 -0.00779186 -0.00820431 -0.00810653 
-0.00750105 -0.00639812 -0.00482165 0.0137408 0.00687774 0.00737089 0.00746231 0.00708448 0.00615593 
0.00472512 0.00302202 0.00108867 -0.00078399 -0.00233689 -0.00352847 -0.00410089 -0.00398316 -0.00314267 
-0.00183273 -7.66098e-05 0.00204838 0.00419358 0.00628053 0.00827555 0.0100692 0.0114839 0.0122176 
0.0122812 0.0120695 0.0111367 0.00927267 0.00698781 0.00444941 0.00131317 -0.00203276 -0.00587973 
-0.0102812 -0.0160175 -0.0239064 -0.0349712 -0.0508045 -0.0683809 -0.0679187 -0.075839 0.022416 
-0.0279466 -0.0409689 -0.0591248 -0.0509602 -0.0432609 -0.0360284 -0.0278276 -0.019941 -0.0119822 
-0.00357578 0.0050581 0.0131209 0.0211593 0.0290511 0.036423 0.044414 0.0521653 0.0591031 
0.065549 0.071167 0.0740901 0.0168546 0.0343195 0.0258804 -0.00507595 0.0274338 0.0259769 
0.0216795 0.0145942 0.0065709 -0.00164206 -0.00948549 -0.0165016 -0.0197864 -0.0197382 0.0209568 
0.0477644 0.0194286 0.0138503 0.0070174 -0.000471496 -0.0081549 -0.0159313 -0.0225647 -0.0271171 
-0.0276106 -0.023533 0.00925964 -0.00786689 0.00589784 0.0236465 0.00463205 -0.00561716 -0.0392183 
-0.015235 0.0340612 -0.0723908 -0.0481907 0.04238 -0.0199395 0.0389732 -0.0105942 -0.00762445 
-0.00528323 -0.00270036 0.000169436 0.00305113 0.00570539 0.00799831 0.00962093 0.0104315 0.0106724 
0.0103964 0.0095566 0.00821713 0.00651418 0.0110107 -0.0111676 0.00976919 0.00827583 0.0134135 
0.0205804 0.00340949 -0.000794251 -0.00461649 -0.00799552 -0.0107775 -0.0127841 -0.0136372 -0.0136022 
-0.0127039 -0.0111958 -0.00930741 -0.00730357 -0.00534492 -0.00339135 -0.00140019 0.000420321 0.0018743 
0.00292716 0.00330165 0.00263695 0.00125802 -0.000934384 -0.00346583 -0.00589309 -0.00781616 -0.00902235 
-0.0100602 -0.0107044 -0.0105696 -0.00994396 -0.00878354 -0.00722939 0.0158809 -0.0335593 -0.0425345 
0.0109058 -0.0175058 0.0246923 0.00972184 0.00919778 0.00926148 0.00802035 0.00611021 0.00382051 
0.00141908 -0.000626774 -0.00230972 -0.00348108 -0.00375189 -0.00313004 -0.00191242 -0.000284273 0.0018689 
0.0040067 0.00618271 0.00834802 0.0104474 0.0122929 0.0134027 0.0135304 0.0133567 0.0124739 
0.0102404 0.00744513 0.00414601 0.000127103 -0.00396129 -0.00837441 -0.0134792 -0.0192605 -0.0277656 
-0.0386209 -0.0527539 0.0132116 -0.063262 -0.048389 -0.0046774 -0.0310247 0.0546142 0.0348935 
-0.0576772 -0.0360194 -0.0302723 -0.0231247 -0.0156091 -0.00762041 0.000646202 0.00882016 0.016206 
0.0237242 0.0304135 0.0370865 0.0433587 0.0479043 0.0518415 0.00182728 -0.00930076 0.00484106 
-0.0192927 0.00804873 -0.0103275 0.0201468 0.0119946 0.0112567 0.00775764 0.00380223 -0.00117835 
-0.00435826 -0.00526506 -0.00334513 0.00379983 0.0056742 0.00298667 -0.00043287 -0.00467568 -0.0086849 
-0.0120404 -0.0138047 -0.0134937 -0.0112911 -0.0112821 0.0170899 0.0118142 0.00604692 -0.0172949 
-0.0336548 -0.00893555 0.0293522 0.0290962 0.0199516 -0.00175951 -0.010062 0.0403541 -0.0339748 
0.0301595 -0.0270895 -0.0494687 -0.00809604 0.00196907 0.00574119 0.00840341 0.0111391 0.0127173 
0.0125487 0.0125248 0.0115743 0.0100033 -0.00284054 -0.0384114 0.0117645 0.00189644 -0.00308023 
-0.00586411 -0.00950445 -0.0107423 -0.01145 -0.0110802 -0.00991626 -0.0085098 -0.00704682 -0.00598954 
-0.0049388 -0.00382672 -0.00253709 -0.00105378 0.000230934 0.00102988 0.0012591 -0.00085946 -0.00203394 
-0.00540743 -0.00873463 -0.0112834 -0.0125801 -0.0125804 -0.0132257 -0.0129967 -0.0122307 -0.0107651 
0.0121701 0.0120352 0.0039391 0.0124392 0.0113543 0.0104132 0.00777114 0.00470756 0.00285333 
0.000634196 -0.00143628 -0.00243735 -0.00219986 -0.00099573 0.00044339 0.00205082 0.00381765 0.00549695 
0.00737085 0.0093368 0.0112314 0.012253 0.0133425 0.0101032 0.00632191 0.00341207 -0.00131525 
-0.00645491 -0.0112654 -0.0165612 -0.0220931 -0.0280144 -0.0385818 0.00704214 -0.00744748 -0.0158456 
-0.034161 0.0260704 0.0234901 -0.0189092 -0.0105756 -0.00317135 0.00418389 0.0109947 0.0184493 
0.0253347 0.0305931 0.0357142 0.0377754 0.0394175 -0.0186889 0.00293371 -0.0274236 0.00835781 
0.0112136 -0.0104664 0.0165773 -0.00334156 0.00484287 0.00660401 0.00508798 0.00348715 0.00268146 
0.00328792 0.00593532 -0.00623205 0.00665752 0.000724806 0.0165106 0.0204446 -0.00350681 -0.00442738 
-0.00541498 -0.00617281 -0.00616975 -0.00505342 -0.00365481 -0.00165283 -0.00487366 0.0213556 -0.0265116 
-0.0233565 0.00593042 0.0300078 -0.012713 -0.0119168 0.0212995 0.0112226 -0.0121911 -0.00360833 
0.00384473 -0.0266535 0.00373727 -0.0120105 0.0022862 -0.00488567 0.0217631 0.00329596 -0.0163021 
0.0198036 -0.00591029 0.0154273 0.015452 0.013348 -0.0117501 -0.00568061 -0.0122668 -0.0168568 
-0.0182035 -0.0166971 -0.0153542 -0.014345 0.0159971 0.00902222 0.0133542 0.0161065 -0.00303129 
0.0143755 0.00622012 -0.00150459 -0.00899074 -0.0149278 -0.0195509 -0.0244867 -0.0308088 -0.0253452 
0.0241317 0.0181717 -0.0305917 -0.00660782 -0.0217395 -0.00628616 0.0133131 0.02093 0.025743 
0.0299877 0.0241825 0.0207918 0.0125018 -0.0127051 0.010607 -0.013404 -0.0276905 0.0148427 
-0.00401046 -0.0148788 0.002444 0.0029157 0.00848314 0.000627952 -0.000166088 0.00435593 0.00671337 
0.00893161 0.000616881 -0.0239585 0.00548604 -0.0217258 -0.0158957 -0.0200906 -0.020813 -0.0173184 
-0.023165 -0.0253528 0.0211437 -0.0167714 0.0244085 -0.026558 -0.352694 0.346222 -0.25177 
-0.139589 -0.112855 -0.0931272 -0.0744867 -0.0705192 -0.0575944 -0.0480774 -0.0408409 -0.0341336 
-0.0259078 -0.0161899 -0.00778394 0.00145423 0.0109133 0.0193581 0.0265877 0.0332502 0.0407768 
0.0488034 0.0577212 0.0658379 0.0739941 0.0821717 0.0912039 0.104836 0.123264 0.252825 
-0.270302 -0.135053 -0.115231 -0.102289 -0.0977662 -0.0794075 -0.0715212 -0.0626037 -0.0526135 
-0.041239 -0.0324973 -0.0239258 -0.0138076 -0.00516983 0.00396557 0.0134404 0.0245763 0.0344012 
0.0443373 0.0538083 0.0637933 0.0748313 0.0868934 0.101286 0.117678 0.141258 0.239654 
6.89462e-05 6.57125e-05 -7.32457e-06 -1.18756e-05 -3.90181e-05 -6.0022e-05 -7.97212e-05 -9.57226e-05 -0.000107844 
-0.00010159 -5.34817e-05 -2.80925e-05 -3.41024e-06 5.31915e-05 7.49896e-05 9.53881e-05 8.26956e-05 9.5688e-05 
9.11888e-05 7.10275e-05 8.84303e-05 0.000106117 0.000106123 9.05977e-05 4.95225e-05 -8.00161e-06 -5.77017e-05 
-9.84994e-05 0.163139 0.00675547 -0.00132658 -0.000413119 -0.000331171 -0.000379969 -0.000355284 -0.000250743 
-0.000197088 -0.000192885 -0.000174579 -0.000170533 -0.000170723 -0.000213227 -0.000214318 -0.000263311 -0.000276694 
-0.000267036 -0.000248876 -0.000224101 -0.000177179 -0.000137534 -9.05912e-05 -5.72865e-05 -2.86935e-05 4.48975e-05 
0.000102371 0.000131458 0.000146992 0.000152513 0.00014393 0.000131096 0.000107255 7.37589e-05 4.37667e-05 
1.20503e-05 -2.66704e-05 -5.45588e-05 -7.49255e-05 -8.90629e-05 -9.69933e-05 -9.51041e-05 -7.50923e-05 -2.20929e-05 
8.87188e-05 6.58801e-05 -8.28447e-05 -2.21598e-05 -8.37621e-07 4.35533e-05 5.90039e-05 7.57381e-05 7.8211e-05 
7.39285e-05 6.12691e-05 3.83253e-05 6.59262e-06 -2.54609e-05 -6.73193e-05 -0.000110311 -0.000130022 -0.000141188 
-0.000141721 -0.000143066 -0.000123301 -8.6829e-05 -5.06827e-05 -2.50483e-05 1.17598e-05 6.42517e-05 8.36299e-05 
0.000108561 0.000162492 0.000209067 0.000231515 0.00025331 0.000245025 0.000248789 0.000231129 0.000220626 
0.000211223 0.000218225 0.000212035 0.000232803 0.000254439 0.000303299 0.000305735 0.000383835 0.000722813 
0.0022426 0.00910003 -0.155654 0.000620863 0.17547 0.0719574 0.0403626 0.0259182 0.0121016 
0.00666267 0.00207787 -0.00238216 -0.00724395 -0.0187072 -0.0298824 -0.0476084 -0.0635698 -0.169586 
-0.00146695 0.147392 0.0769901 0.0444599 0.0282922 0.0176261 0.0102236 0.00350673 -0.00318384 
-0.00964333 -0.0171768 -0.0271464 -0.0425408 -0.0721267 -0.126937 3.7755e-05 2.68475e-05 -2.84322e-05 
-8.30648e-05 -8.51028e-05 -8.76992e-05 -9.70488e-05 -9.71668e-05 -9.14474e-05 -8.13075e-05 -0.000110141 -8.55273e-05 
-6.44452e-05 -7.95323e-05 -4.29798e-05 -2.29953e-05 3.11273e-05 5.38641e-05 7.76389e-05 0.000103735 8.99739e-05 
7.21427e-05 4.70921e-05 1.81453e-05 -6.41107e-06 -2.17857e-05 -6.80841e-05 -6.44998e-05 0.164451 -0.0294769 
-0.00777364 -0.00263347 -0.00134736 -0.000845305 -0.000587399 -0.000418265 -0.000308105 -0.000274292 -0.000249851 
-0.000247343 -0.000243159 -0.000199678 -0.00026794 -0.000243024 -0.000237457 -0.000218717 -0.000203854 -0.000157096 
-0.000114577 -5.56891e-05 -1.64993e-06 5.40336e-05 0.000113235 0.000139163 0.000151148 0.000176582 0.000174735 
0.000160292 0.000137819 9.8514e-05 6.07938e-05 9.3592e-06 -3.41916e-05 -6.95505e-05 -8.39697e-05 -8.53451e-05 
-8.60413e-05 -8.12611e-05 -7.15847e-05 -4.63023e-05 -7.90759e-06 3.89421e-05 0.000109718 7.3128e-05 -6.68136e-05 
-7.29248e-05 -3.8494e-05 2.52841e-07 2.10505e-05 4.29764e-05 5.9641e-05 7.25383e-05 8.16524e-05 8.57041e-05 
8.85765e-05 5.81593e-05 3.25811e-05 3.99452e-06 -4.92661e-05 -8.12094e-05 -0.000118995 -0.000154188 -0.000170829 
-0.000174535 -0.000151422 -0.000102702 -3.96887e-05 -3.10032e-06 5.39475e-05 7.91017e-05 0.000111222 0.000149541 
0.000171769 0.000183797 0.000208211 0.000208652 0.000200947 0.000192062 0.000189438 0.000206086 0.000257243 
0.000336887 0.000440164 0.000591452 0.000852926 0.00140494 0.00263218 0.00514322 -0.00866856 -0.148616 
-0.00396366 0.158288 0.0738232 0.0430001 0.0283509 0.0181611 0.0106446 0.00431369 -0.00218428 
-0.00912943 -0.0170726 -0.0277554 -0.0435665 -0.0749053 -0.141306 0.000941287 0.0912153 0.0668348 
0.0389538 0.0243925 0.0106768 0.00507569 0.000358344 -0.00402509 -0.00865719 -0.0196832 -0.0298412 
-0.0333366 -0.059553 -0.151444 -4.36187e-05 2.48232e-05 0.136069 -0.136168 -0.153806 0.155606 
-0.263441 0.251193 -0.175411 -0.134694 -0.124122 -0.113563 -0.0999986 -0.104782 -0.0897426 
-0.0865806 -0.0841536 -0.0781132 -0.0663803 -0.0613575 -0.0590579 -0.055479 -0.0513597 -0.0467645 
-0.0424753 -0.0379094 -0.033555 -0.0293932 -0.0247929 -0.0201996 -0.0156504 -0.0109714 -0.00644439 
-0.00192281 0.00272921 0.00728183 0.01168 0.0160352 0.0205256 0.0249506 0.0292579 0.0335211 
0.0379492 0.0423756 0.0468738 0.0512611 0.0559568 0.0606804 0.0654635 0.0701398 0.0752557 
0.080276 0.0856887 0.0911712 0.0976314 0.104259 0.112315 0.120393 0.130172 0.162058 
8.75844e-05 -0.000111406 -0.000195168 -0.00044709 -0.000495972 -0.000648151 -0.000788002 -0.000832918 -0.0013006 
-0.00115655 -0.00118887 -0.00195843 -0.00144873 -0.00147481 -0.0025756 -0.00159661 -0.00161863 -0.0030104 
-0.00169096 -0.00170015 -0.00324883 -0.00169501 -0.0016939 -0.0033187 -0.00159316 -0.00158251 -0.00320598 
-0.00139705 -0.00134309 -0.00287475 -0.00107742 -0.00103129 -0.00236968 -0.000708484 -0.000619887 -0.00168136 
-0.000256805 -0.000201908 -0.000900279 0.000187849 0.000240449 -4.35933e-05 0.000614297 0.000659217 0.000805875 
0.00101214 0.0010542 0.00160643 0.00129043 0.00131713 0.00227323 0.00149674 0.00150001 0.00274025 
0.00159053 0.00161913 0.00303556 0.00163831 0.00164793 0.00317921 0.00160072 0.00159269 0.00317689 
0.00145747 0.00143657 0.00298057 0.00119617 0.00116326 0.00257553 0.000864503 0.000814168 0.00198174 
0.00052275 0.000459992 0.00132821 0.000273055 0.000131475 0.000722665 -5.25838e-05 -3.35717e-05 -4.66008e-05 
0.000235626 0.121753 0.0590176 0.0446206 0.0203072 0.0192029 0.0661114 0.0111317 0.0105442 
0.0309734 0.00642074 0.00598855 0.0173228 0.0037692 0.00353595 0.0100478 0.00202658 0.00187095 
0.00581352 0.000884747 0.000795703 0.00300127 7.00161e-05 2.6055e-06 0.00113858 -0.00058146 -0.000647219 
-0.000387816 -0.00116976 -0.00122032 -0.00162362 -0.00170451 -0.00176358 -0.00275379 -0.00218615 -0.00226379 
-0.00375934 -0.00250118 -0.00256292 -0.00453946 -0.00286317 -0.00290888 -0.00526241 -0.003152 -0.00318678 
-0.00586819 -0.00321719 -0.00321619 -0.00618653 -0.00310082 -0.00307046 -0.00610317 -0.00287659 -0.00284603 
-0.00576232 -0.00256279 -0.00249406 -0.00521928 -0.0020642 -0.00200565 -0.00441011 -0.00154235 -0.00148001 
-0.00343063 -0.000994705 -0.000919055 -0.00238636 -0.000448878 -0.000398717 -0.00132323 5.76392e-05 0.000127388 
-0.000293664 0.000529161 0.000608025 0.000661774 0.000907478 0.000949542 0.00145421 0.00112053 0.00114853 
0.00199549 0.00123063 0.00123708 0.00229223 0.00121125 0.0011948 0.00234908 0.00104207 0.00102091 
0.00213724 0.000738269 0.000700733 0.00166387 0.000383587 0.00033657 0.00100654 -3.42007e-05 -9.29881e-05 
0.000237293 -0.000468806 -0.000511927 -0.000595366 -0.000834925 -0.00088744 -0.00137215 -0.00112675 -0.00116546 
-0.00200651 -0.00131964 -0.00134706 -0.00245475 -0.00144948 -0.00146448 -0.00274898 -0.00147919 -0.00148202 
-0.00288636 -0.00139049 -0.00138252 -0.00281115 -0.00123713 -0.00121892 -0.00255837 -0.000958677 -0.000908628 
-0.00212195 -0.000596192 -0.000523527 -0.00148954 -0.000231121 -0.000136457 -0.000786739 -0.00619927 7.65042e-05 
0.000492602 0.000529504 0.00078611 0.000826867 0.0013048 0.00106923 0.00109954 0.00187393 0.0012931 
0.00131541 0.00235806 0.00141019 0.00141207 0.00267678 0.00144678 0.00143603 0.00280352 0.00134874 
0.00132006 0.00272293 0.00113189 0.0010857 0.00240788 0.000832447 0.000785494 0.00190133 0.000478205 
0.000417685 0.00126146 5.37837e-05 -1.78407e-05 0.000476532 -0.000374199 -0.000431314 -0.000349361 -0.000763216 
-0.0008031 -0.00112018 -0.00104504 -0.00107797 -0.00176474 -0.0012127 -0.00122379 -0.00220137 -0.00126611 
-0.00125145 -0.00239179 -0.00116422 -0.00112839 -0.00231516 -0.000904182 -0.000838393 -0.00193578 -0.000506372 
-0.000450183 -0.00128265 -3.57591e-05 4.25456e-05 -0.000424587 0.000485465 0.000578117 0.000551131 0.000994973 
0.00106891 0.00154549 0.00147705 0.00154066 0.00249004 0.00197156 0.00206158 0.00345838 0.00244837 
0.00250902 0.00440038 0.00280052 0.00285066 0.00517045 0.00299267 0.00301503 0.00567767 0.00314221 
0.00313619 0.00596349 0.00304507 0.00301836 0.00596363 0.00278116 0.00272896 0.00558672 0.00243322 
0.00237701 0.00496605 0.00203507 0.00196155 0.00420436 0.00154545 0.00148781 0.0033092 0.00104469 
0.000952557 0.0023132 0.000474341 0.000394722 0.00125027 -0.000165516 -0.000280905 2.24709e-05 -0.00103776 
-0.00117273 -0.00156678 -0.00218479 -0.00236277 -0.0037156 -0.00364045 -0.00395291 -0.00645007 -0.0060114 
-0.0064298 -0.0104123 -0.0105863 -0.0114473 -0.017487 -0.0198338 -0.0197496 -0.0320503 -0.0378157 
-0.0472053 -0.0641944 -0.0900108 -0.148787 -0.131317 -0.120841 -0.114779 -0.125962 -0.106582 
-0.0975297 -0.111212 -0.0962364 -0.0844572 -0.0909445 -0.0865683 -0.0678686 -0.0794672 -0.0650968 
-0.0574486 -0.0691795 -0.0615372 -0.0472809 -0.0560092 -0.0529156 -0.0378108 -0.0469311 -0.043712 
-0.0283113 -0.0383106 -0.0343395 -0.0194988 -0.0287659 -0.0252383 -0.0100485 -0.0200677 -0.0162402 
-0.000977105 -0.0109061 -0.0074846 0.00775798 -0.00204186 0.00148637 0.0167177 0.00664167 0.00955385 
0.02525 0.0148474 0.018519 0.034082 0.0229388 0.0276381 0.0429667 0.0314379 0.036675 
0.0522594 0.0398159 0.0456237 0.0610642 0.0490182 0.0553024 0.0709015 0.0580021 0.0648822 
0.081063 0.0676467 0.0753604 0.0918971 0.0776809 0.0876084 0.105431 0.0888641 0.103033 
0.122538 0.103152 0.120737 0.140829 0.118662 0.0469798 -0.053755 0.140332 0.14563 
0.0971382 0.135945 0.0899173 0.0667888 0.0823436 0.0836189 0.0457228 0.0540562 0.0617725 
0.0291943 0.0362122 0.0425351 0.0157987 0.0210019 0.0269453 0.00402152 0.00898859 0.0133786 
-0.00823526 -0.00303572 0.000962506 -0.0211184 -0.0157455 -0.0120584 -0.0374278 -0.0296077 -0.0264907 
-0.0580322 -0.0482904 -0.043708 -0.0876382 -0.0704443 -0.0642929 -0.142544 -0.1018 -0.0878905 
-0.144063 -0.136103 -0.089767 0.061325 -0.0396621 0.134621 0.151456 0.100244 0.138576 
0.0963499 0.0693264 0.0858931 0.0877106 0.0465713 0.056355 0.0630991 0.0295339 0.0363578 
0.0427169 0.0160913 0.0213251 0.0264833 0.00311385 0.00831265 0.0123009 -0.00899322 -0.00413379 
-0.000990494 -0.0213414 -0.0160009 -0.0135785 -0.036987 -0.0298386 -0.0273999 -0.0558877 -0.0470925 
-0.0439634 -0.0855958 -0.0691842 -0.0645374 -0.132937 -0.103778 -0.0904414 -0.182355 -0.143377 
-0.104545 -6.327e-05 0.137699 -0.0944813 -0.163371 0.155537 0.0970433 -0.154511 0.0741468 
-0.0825077 -0.161577 -0.0667878 0.164292 0.106672 0.0670856 -0.0825025 -0.137092 0.126062 
-0.0362985 -0.0957384 -0.00162541 -0.00199001 -0.00255052 -0.00292111 -0.00293655 -0.00343397 -0.00374863 
-0.00407751 -0.00413078 -0.00430037 -0.00502313 -0.00452763 -0.00463173 -0.00569374 -0.00463725 -0.00463905 
-0.00595424 -0.0044987 -0.00438239 -0.0058368 -0.00411043 -0.00384639 -0.0054026 -0.0034362 -0.00307075 
-0.00464734 -0.00253935 -0.00209751 -0.00358725 -0.00147368 -0.000969591 -0.00228242 -0.000291791 0.000232405 
-0.000819466 0.000924369 0.00141243 0.000732872 0.00207292 0.00252233 0.00224692 0.00301953 0.00334942 
0.00354972 0.00373303 0.00395269 0.00452525 0.00423603 0.00435905 0.00526783 0.00450499 0.00456167 
0.00573968 0.00455796 0.00451002 0.00590207 0.00431084 0.00414494 0.00569191 0.00380267 0.0035152 
0.00512437 0.00306722 0.00271053 0.00426509 0.00221612 0.00183002 0.00323938 0.00134508 0.00103836 
0.00216982 0.0609843 0.0676261 -0.102984 -0.120077 -0.0723722 -0.000373829 0.0507852 0.0396315 
0.0300046 0.0239489 0.045968 0.0187119 0.015425 0.0295979 0.0118502 0.0095345 0.0192786 
0.00684948 0.00542843 0.0120479 0.00338432 0.00231484 0.00660017 0.00101632 0.000131994 0.00300227 
-0.000943798 -0.00170028 0.000229034 -0.00267606 -0.00338225 -0.00216613 -0.00426502 -0.0048573 -0.00433941 
-0.00558601 -0.00607555 -0.00621453 -0.00670067 -0.00715139 -0.0078239 -0.00763312 -0.0079745 -0.00915405 
-0.00821021 -0.00831145 -0.0100319 -0.00823873 -0.00813908 -0.0102899 -0.00789765 -0.00765951 -0.0100181 
-0.00722417 -0.00683744 -0.0092999 -0.00623784 -0.00570714 -0.00815577 -0.00503433 -0.00445709 -0.00675546 
-0.0036959 -0.00306718 -0.00517332 -0.00226913 -0.00165464 -0.00344714 -0.000856892 -0.000244259 -0.00166985 
0.00045564 0.000988066 1.8656e-05 0.00156362 0.00198155 0.00147121 0.00237047 0.00262882 0.00257187 
0.00285914 0.00298466 0.00328968 0.00299126 0.00295121 0.00359344 0.00278141 0.0025937 0.00343129 
0.00225024 0.00191273 0.00285922 0.00139354 0.000977121 0.00191034 0.000368882 -0.000113016 0.000656295 
-0.000759192 -0.00124558 -0.000739432 -0.00182169 -0.00224775 -0.00210474 -0.00274046 -0.00307299 -0.00330516 
-0.00340633 -0.00362802 -0.00424173 -0.00384753 -0.00399468 -0.00487313 -0.00405535 -0.00408759 -0.005204 
-0.00403617 -0.00393601 -0.00523319 -0.0037556 -0.00357372 -0.00497908 -0.00322678 -0.00289789 -0.00439855 
-0.00240457 -0.00202401 -0.00346834 -0.00143674 -0.00101908 -0.00227969 0.0460823 0.071029 0.103882 
0.0722868 0.0774296 0.00174903 0.00207134 0.00257212 0.00287363 0.00305174 0.00330494 0.00353838 
0.004054 0.00381397 0.00392954 0.00481405 0.0039916 0.00401129 0.00518081 0.00389883 0.00377808 
0.00512605 0.00351676 0.00326757 0.00473392 0.00290109 0.00255215 0.00402484 0.00205563 0.00164122 
0.0030529 0.00105837 0.000565575 0.00183315 -8.04088e-05 -0.000533559 0.000454835 -0.00113611 -0.00155372 
-0.000928355 -0.00203903 -0.00235516 -0.00213344 -0.00272216 -0.00291284 -0.00308578 -0.00302679 -0.00306288 
-0.00363062 -0.00293512 -0.00279985 -0.0036346 -0.00248046 -0.00217513 -0.00314507 -0.00164964 -0.00121065 
-0.00222681 -0.000563812 -3.9918e-05 -0.000943236 0.000727542 0.00129708 0.000590991 0.00203584 0.00258046 
0.0022439 0.0033229 0.00386234 0.00387649 0.00462737 0.00520499 0.00553892 0.00588235 0.00637271 
0.00714284 0.00691861 0.00729024 0.0084826 0.00766085 0.00786089 0.00949029 0.00798091 0.00808017 
0.010031 0.00794635 0.00782014 0.0100236 0.00745866 0.00714565 0.00948476 0.00658461 0.00617459 
0.00847016 0.00546448 0.00497658 0.00706208 0.00413931 0.00357154 0.00538031 0.00270138 0.00209536 
0.0035103 0.00103591 0.000353435 0.00141776 -0.000872945 -0.00173905 -0.00116782 -0.00331522 -0.00452048 
-0.00428111 -0.00652734 -0.00804344 -0.00838906 -0.0107206 -0.0126224 -0.0135823 -0.0165504 -0.019742 
-0.020824 -0.0259372 -0.0318688 -0.0319564 -0.0432471 -0.0560878 -0.0828808 -0.0516555 -0.000954007 
-0.112765 0.111369 0.0992678 0.0370197 0.00450565 -0.10883 -0.0990433 -0.0916415 -0.0937908 
-0.0928566 -0.0822687 -0.07819 -0.0826099 -0.0696847 -0.0722077 -0.0730655 -0.0579802 -0.0629504 
-0.0637129 -0.0481893 -0.0537276 -0.0543214 -0.0380743 -0.0445227 -0.0449877 -0.0283088 -0.0355745 
-0.0359593 -0.0204842 -0.0270882 -0.0272328 -0.0112122 -0.0175505 -0.0185571 -0.00195747 -0.00913144 
-0.00960275 0.00652314 -7.29451e-05 -0.000747085 0.0155723 0.00810308 0.00768983 0.0241975 0.017388 
0.0164566 0.0335654 0.0266541 0.0252216 0.0421993 0.035488 0.0341381 0.0518383 0.0445704 
0.0428053 0.0602554 0.0543682 0.051924 0.070604 0.0641877 0.0611383 0.0806931 0.0750749 
0.0709911 0.0915882 0.0869785 0.0810385 0.104686 0.101248 0.0915639 0.115774 -0.0103475 
-0.0817161 0.0664947 0.0485994 0.0350991 0.042231 0.0349462 0.0435179 0.0216146 0.0293605 
0.029946 0.00986791 0.0163492 0.0185513 -0.00233061 0.00459003 0.00736489 -0.0148422 -0.00751786 
-0.00403537 -0.0285089 -0.0203111 -0.0157448 -0.0437532 -0.0342342 -0.0275977 -0.0592242 -0.0487466 
-0.0383418 -0.0700204 -0.0621739 -0.0447513 -0.0471735 -0.0685407 -0.0394208 -0.0735128 -0.0499892 
-0.0701424 -0.0556294 0.0519384 0.0716987 0.0746372 0.0576572 0.0347563 0.0439628 0.0210678 
0.0287849 0.028945 0.00787932 0.0151939 0.0165204 -0.00470981 0.00215843 0.00425827 -0.0165852 
-0.00994371 -0.00748953 -0.0302884 -0.0222972 -0.0191956 -0.0453703 -0.0364454 -0.0316428 -0.0623515 
-0.0514524 -0.0438822 -0.0756453 -0.066121 -0.0525897 -0.0599396 -0.0721808 -0.0494248 0.0973524 
0.0501798 0.0143783 -0.00132748 0.0485736 0.058961 0.0410347 0.0643139 0.074726 0.0474241 
0.0497639 0.0611896 0.0494925 0.0409672 0.0999179 0.0469171 0.000775172 0.000542609 0.000525761 
0.00138405 -0.0505486 -0.0760555 -0.101234 0.00108559 -0.0890323 -0.0556334 0.0827626 0.0676602 
-0.0717828 0.0018042 -0.00199614 -0.0327274 -0.0499627 -0.0401419 0.0493795 0.0790324 0.0349972 
0.0697373 0.0528001 0.0364244 0.0291351 -0.0319475 -0.0304431 -0.00449484 -0.00503305 -0.00573188 
-0.00615481 -0.00615303 -0.00657442 -0.00683492 -0.00732008 -0.00706998 -0.00710082 -0.00801591 -0.00710357 
-0.0069634 -0.00825851 -0.00664648 -0.00633076 -0.00794652 -0.00578033 -0.00527981 -0.007039 -0.00461246 
-0.00394509 -0.00573589 -0.00312008 -0.00236026 -0.00411839 -0.00138265 -0.000537324 -0.00217114 0.000490541 
0.00134538 -5.8506e-07 0.00235892 0.0031562 0.00220801 0.00395504 0.0045644 0.004148 0.00521979 
0.00567209 0.00570363 0.00617216 0.00650824 0.00692791 0.00679389 0.00696844 0.00776011 0.00704477 
0.00704506 0.00813996 0.0068846 0.00667106 0.00806119 0.00628479 0.00590943 0.00749592 0.00533494 
0.00483541 0.00650817 0.0041518 0.00359267 0.00520595 -0.0828256 0.0591137 0.0479235 0.0398373 
0.032798 0.0505085 0.0266872 0.0221334 0.0356088 0.0178749 0.0142643 0.0244325 0.0107526 
0.00828081 0.0159745 0.00579522 0.00405092 0.00946265 0.00228806 0.000828249 0.0048251 -0.000725505 
-0.00202421 0.00115747 -0.00346384 -0.00466131 -0.00215223 -0.00594497 -0.00690039 -0.00516644 -0.00797281 
-0.00884918 -0.00776669 -0.00975979 -0.0104359 -0.00999127 -0.0109812 -0.0113574 -0.0116765 -0.0115396 
-0.0115732 -0.0125751 -0.0114215 -0.0112047 -0.0127287 -0.0107874 -0.0103041 -0.0122077 -0.00958752 
-0.00892 -0.0110571 -0.00806965 -0.00730135 -0.0094545 -0.00634303 -0.0054677 -0.00760488 -0.00444068 
-0.00351196 -0.00555441 -0.00249174 -0.0015504 -0.00342426 -0.000568514 0.000278501 -0.00132973 0.00114357 
0.00185078 0.000613456 0.00248453 0.00296641 0.00220901 0.00334779 0.00364567 0.00330899 0.00381343 
0.00386322 0.00392131 0.00375291 0.00355169 0.00401199 0.00316171 0.00276533 0.00348935 0.00217081 
0.00156068 0.0024596 0.000738385 2.68951e-05 0.000972192 -0.000880103 -0.00164936 -0.000853396 -0.00252082 
-0.0032035 -0.0027437 -0.00389623 -0.00448741 -0.00439797 -0.0050269 -0.00543782 -0.00569909 -0.00581002 
-0.00607153 -0.00666809 -0.00629039 -0.00636247 -0.00727708 -0.00639344 -0.00632874 -0.00750384 -0.00611845 
-0.00589938 -0.00729701 -0.00553567 -0.00511646 -0.00667621 -0.00454748 -0.00397806 -0.00568054 -0.00330987 
-0.00263015 -0.00300317 -0.00437838 0.0140379 0.0192315 -0.0272821 -0.0417784 0.088647 0.0689503 
0.0692301 0.0888761 -0.0495437 -0.0396535 0.0046852 0.00515584 0.00567225 0.00598002 0.00635947 
0.00622575 0.00630327 0.00716225 0.00626602 0.00614568 0.00739004 0.00594069 0.0056387 0.00712287 
0.00521763 0.00477001 0.00645881 0.00424622 0.00364876 0.00546056 0.0028465 0.002133 0.00403477 
0.00125208 0.000503626 0.00225905 -0.00031555 -0.00102311 0.000468877 -0.00181428 -0.00238115 -0.00125941 
-0.0029861 -0.00341168 -0.00275066 -0.00374393 -0.00389733 -0.00376191 -0.00387256 -0.00373601 -0.00411207 
-0.00341878 -0.00305525 -0.00375914 -0.0024742 -0.0018674 -0.00282934 -0.00109321 -0.000380736 -0.00140905 
0.000544556 0.00141818 0.000353188 0.002384 0.00322317 0.00233427 0.00417243 0.00503077 0.00432921 
0.00606093 0.00693999 0.00640606 0.00787429 0.00866557 0.00846916 0.00946385 0.0100694 0.0102807 
0.0105868 0.0109951 0.0116607 0.0112626 0.0113954 0.0124576 0.0113069 0.0111495 0.0126327 
0.010709 0.0102804 0.0120766 0.00950627 0.00882354 0.0107827 0.00779656 0.00697311 0.00886074 
0.0058261 0.00483599 0.00655149 0.00348736 0.00245125 0.00393558 0.000816794 -0.000511255 0.00080228 
-0.00221863 -0.00381701 -0.00291201 -0.00611317 -0.00811815 -0.00719776 -0.0108399 -0.0135288 -0.0126744 
-0.016801 -0.0200339 -0.0192475 -0.0245952 -0.0293985 -0.0275146 -0.0359112 -0.0435322 -0.0391029 
0.0570121 0.0484826 -0.087464 -0.0844954 -0.0486746 -0.0587364 0.0357863 0.0350576 -0.080558 
-0.0759327 -0.0771979 -0.0717997 -0.0672541 -0.0700542 -0.0633312 -0.0582961 -0.0625391 -0.054519 
-0.0498875 -0.0547244 -0.045672 -0.0409134 -0.0465476 -0.0369501 -0.0324005 -0.0381351 -0.0286463 
-0.024213 -0.0300717 -0.0203533 -0.0155985 -0.0220272 -0.0115356 -0.00690853 -0.0135994 -0.00277865 
0.00171174 -0.00497715 0.00558867 0.0101799 0.00347027 0.0143073 0.018826 0.0119481 0.0226841 
0.0273565 0.0204089 0.0312945 0.035821 0.028695 0.0397968 0.0443763 0.0370384 0.0482212 
0.0529382 0.0452432 0.0567454 0.0616954 0.0532136 0.0657466 0.0707408 0.0613528 0.0741715 
0.0791398 0.0691089 0.081772 0.0869245 0.0790976 0.0751368 -0.0278719 -0.0209519 0.025228 
-0.0203665 0.0259937 0.00467957 0.00999296 0.0112038 0.0234476 0.0285077 0.018534 -0.00542698 
4.6983e-05 0.00314251 -0.0154578 -0.00990785 -0.00547751 -0.0244468 -0.0192037 -0.0129376 -0.0311679 
-0.0276204 -0.0186605 -0.031495 -0.0324514 -0.0208935 -0.0225069 -0.029613 -0.0177274 -0.040287 
-0.0346443 0.0329799 0.042578 0.0261126 0.0270445 0.0202566 0.0174417 0.0584013 0.0546122 
0.0215109 0.0272895 -0.0101611 -0.00468314 -0.020628 -0.0148436 -0.0117253 -0.0313439 -0.0255118 
-0.0206554 -0.0391733 -0.0344327 -0.027617 -0.0409928 -0.0404077 -0.0302627 -0.0320967 -0.0389655 
-0.0272235 0.0361153 -0.00190483 -0.00602188 0.0348536 0.0374197 0.0460637 -0.00361504 0.00344221 
0.00399982 0.00511728 0.0324394 0.0368879 0.0271666 0.0250366 0.011003 0.0169386 0.0156201 
0.000268104 0.00615245 0.00677469 -0.002554 -0.0218474 -0.0665801 -0.0821538 -0.0739549 -0.0532555 
0.0028377 0.00226693 -0.0528761 -0.0391363 0.0362862 0.050304 0.0294643 0.0236313 -0.0303651 
-0.0433909 0.00200195 0.00272187 -0.0562476 0.0441601 0.0367971 0.0375636 0.0232004 -0.0473796 
0.0220872 0.0321331 -0.0241697 0.00371356 -0.0131504 0.0264885 0.0246564 -0.0196636 -0.0392902 
-0.0277296 -0.0314585 0.0318873 0.0459111 -0.00454793 -0.0269585 0.00366168 0.0449463 0.0307783 
0.0355813 0.0260619 0.0228443 0.0376744 0.0370178 -0.00805407 -0.00761941 0.0174511 -0.00793504 
-0.00839622 -0.00880242 -0.00904427 -0.00946583 -0.00928589 -0.00929754 -0.0101305 -0.00920483 -0.00887023 
-0.010312 -0.00832078 -0.00773688 -0.00965463 -0.00686857 -0.00610957 -0.00821233 -0.00516712 -0.00422755 
-0.0063271 -0.00303333 -0.00191057 -0.00407081 -0.000518105 0.000654982 -0.00133982 0.00203707 0.00319432 
0.00159499 0.00435945 0.0052514 0.00430888 0.00616579 0.0069005 0.00647835 0.00760514 0.00815116 
0.00816229 0.00864665 0.00896093 0.00940475 0.00918571 0.00927756 0.0101495 0.00918129 0.00901376 
0.0102853 0.00861093 0.00820875 0.00976889 0.0075311 0.00694434 0.00866575 0.00610355 0.00539502 
0.00713179 0.059807 0.05126 -0.0336496 -0.0290454 0.0265317 0.0312086 0.00162219 0.00572735 
0.0150666 0.0212931 0.0171358 0.0426245 0.0357609 0.0505462 0.0302843 0.0253917 0.0364067 
0.0208886 0.0168376 0.0261398 0.0133008 0.0103703 0.0177679 0.00787653 0.00578089 0.0114212 
0.00382382 0.0019588 0.00669984 1.92508e-05 -0.0016987 0.00254589 -0.00353218 -0.00508656 -0.00147852 
-0.00662668 -0.00790217 -0.00508099 -0.00927032 -0.0104049 -0.0082157 -0.0114725 -0.0122327 -0.0108808 
-0.0128678 -0.0131927 -0.0127852 -0.0133381 -0.0132883 -0.0136857 -0.0129938 -0.0125956 -0.013619 
-0.0119201 -0.0112142 -0.0126875 -0.0103486 -0.00950957 -0.011185 -0.0085019 -0.00753817 -0.00935794 
-0.0064375 -0.00538488 -0.00729446 -0.00426227 -0.00320889 -0.00511045 -0.00210633 -0.00108025 -0.00291551 
-5.19446e-05 0.000861726 -0.000805751 0.00170338 0.00240247 0.00106522 0.0029906 0.00343212 0.00252217 
0.00374719 0.00394426 0.00347262 0.0039624 0.00384164 0.00383087 0.00351365 0.00310953 0.00350565 
0.00246471 0.00182622 0.00251596 0.000933953 4.33713e-05 0.000932342 -0.00110784 -0.0021004 -0.00119525 
-0.00323268 -0.00417394 -0.00357188 -0.0051349 -0.00587062 -0.0057144 -0.00654467 -0.00711463 -0.00736605 
-0.00766937 -0.00805298 -0.00858517 -0.00839613 -0.00859721 -0.00945703 -0.00865352 -0.00864461 -0.00981098 
-0.00841651 -0.0081714 -0.00958628 -0.00777106 -0.0073488 -0.00889953 -0.00673748 -0.0061192 -0.00783591 
0.0368124 0.041021 0.0689526 0.00998732 0.0137188 -0.0549981 -0.0654275 -0.0714997 0.00815561 
0.0114838 0.00640743 0.00800978 0.00828226 0.00847679 0.00846536 0.00941687 0.00833802 0.00812646 
0.00951275 0.00771395 0.0072655 0.0089892 0.00714477 0.00658163 0.00847162 0.00567545 0.0047901 
0.00747317 0.00352044 0.00259236 0.00516793 0.00171334 0.00083965 0.00300815 -0.000209325 -0.00107683 
0.00104103 -0.00200193 -0.00266224 -0.00103247 -0.00332332 -0.00368951 -0.00272651 -0.00389541 -0.00389832 
-0.00361308 -0.00373757 -0.00342572 -0.00368356 -0.00293057 -0.00227881 -0.0029944 -0.00146633 -0.000670531 
-0.00164098 0.000292935 0.00124908 0.000149001 0.00227356 0.00327883 0.00214729 0.00432756 0.0053237 
0.00425749 0.00634475 0.00743789 0.00633726 0.0084906 0.00947187 0.00846159 0.010442 0.011261 
0.0105308 0.0119731 0.0125181 0.0122202 0.0129635 0.0132399 0.0133879 0.0132392 0.0131035 
0.0137715 0.0125832 0.0120576 0.0132532 0.0112252 0.0103115 0.0117429 0.00910992 0.00793687 
0.00951612 0.00644428 0.00517628 0.00666646 0.00350876 0.00202024 0.00341515 0.000107219 -0.00178678 
-0.0003671 -0.0040406 -0.00614335 -0.00479356 -0.008832 -0.0114478 -0.00993746 -0.014341 -0.0175553 
-0.0158371 -0.0211732 -0.0250017 -0.0227027 -0.029481 -0.0344964 -0.0310259 -0.0402687 -0.0473524 
-0.0552312 -0.0415898 0.0166917 0.0134981 -0.00916741 -0.0299738 -0.0604898 -0.056847 -0.0536917 
-0.0500313 -0.0519748 -0.0465583 -0.0424756 -0.0457461 -0.0388261 -0.0347654 -0.0389972 -0.0311154 
-0.0273163 -0.0319346 -0.0236408 -0.0195504 -0.0248306 -0.0155236 -0.0112644 -0.0172371 -0.00709767 
-0.0028099 -0.00910379 0.00125508 0.00536291 -0.000866371 0.00959774 0.0138943 0.00735909 0.0179386 
0.0220062 0.0156159 0.0258619 0.0299767 0.0234277 0.0337935 0.0379413 0.0309981 0.0416072 
0.0454666 0.0383518 0.048911 0.0527477 0.0450934 0.0562891 0.0602288 0.0516434 0.0635501 
0.0668138 0.0580741 0.029574 0.00986578 0.000238013 0.00684388 0.00737669 0.00855494 0.00445527 
-0.00495748 -0.00123459 0.00175277 0.0135653 0.0165015 0.0102031 -0.00988108 -0.00705329 -0.00249417 
-0.0129353 -0.011226 -0.00513067 -0.0127152 -0.0132358 -0.00598274 -0.00886567 -0.0118144 -0.00178876 
0.0212453 0.0264742 -0.0161218 -0.0167069 -0.0126843 -0.00859061 -0.022809 -0.0233984 -0.0183395 
-0.0214482 -0.0149928 -0.0113787 -0.0235582 -0.0181579 -0.0392029 -0.0393311 -0.0274661 -0.0197206 
-0.0157428 -0.0122354 -0.0210703 -0.0266381 -0.0150517 -0.0097481 -0.00287819 -0.0235658 -0.0217695 
-0.0165311 -0.0174476 0.0123963 0.0124634 0.00759577 0.00533824 -0.0690139 0.0196645 0.0291364 
0.0293557 -0.00702782 -0.00808502 0.0679627 -0.0194234 0.0255174 0.0337371 0.00604724 0.0157261 
0.0123459 0.00476211 0.0114642 0.00996857 -0.00526759 0.00679089 0.00542864 0.00259334 0.0207454 
0.0194476 0.0112263 -0.0234342 -0.0291562 0.0310267 0.00986267 0.0158388 0.0181427 -0.0634489 
-0.0576244 -0.0669053 -0.0276063 0.0257923 0.0663407 0.00710031 0.00920913 -0.0118791 -0.00444987 
0.0168863 0.0116495 0.012056 -0.0618581 -0.0203161 -0.017628 -0.00845672 -0.00631741 0.0321215 
0.0372368 0.0603862 -0.0352801 -0.0273396 -0.00655168 -0.00525299 -0.00087257 0.00819226 -0.0109978 
-0.00999252 0.0237702 -0.0329708 -0.0296891 -0.0279023 0.00793242 -0.0108392 -0.0110917 -0.0114785 
-0.0113781 -0.0122555 -0.011356 -0.0107802 -0.0126473 -0.00944953 -0.0085528 -0.0112514 -0.00759987 
-0.00657307 -0.00893104 -0.00520646 -0.00389713 -0.00653198 -0.00221413 -0.000699532 -0.0033509 0.00125508 
0.00275847 0.000449447 0.00456253 0.00581364 0.0043211 0.00677674 0.00775033 0.00713651 0.00887647 
0.00963906 0.0092921 0.0100511 0.0105811 0.0108856 0.0110365 0.0112715 0.0117797 0.0112545 
0.011125 0.0122341 0.0108132 0.0103899 0.0118281 0.00964131 0.00896891 0.0107162 0.018881 
0.0220886 0.0170392 0.0078107 0.0177627 0.0103147 0.0149305 0.0121814 0.0547014 0.0463545 
0.0558141 0.0409527 0.0350994 0.0446382 0.0305654 0.0258056 0.0344693 0.0219425 0.0181069 
0.0258912 0.0147019 0.0119668 0.0185928 0.0102711 0.0080875 0.0133775 0.00591022 0.00374723 
0.00935137 0.00142569 -0.000625351 0.00473713 -0.00276561 -0.0044915 9.44426e-05 -0.00622916 -0.00779325 
-0.00394261 -0.00934996 -0.0106166 -0.00744122 -0.0117982 -0.0126081 -0.0104007 -0.0132071 -0.0134492 
-0.0123597 -0.0134463 -0.0132313 -0.013046 -0.0127288 -0.0121302 -0.0126106 -0.011347 -0.0105725 
-0.0114031 -0.00968747 -0.00877305 -0.00986356 -0.00775822 -0.00674334 -0.00808814 -0.00571432 -0.0046804 
-0.00618556 -0.00368565 -0.00267459 -0.00432925 -0.0017051 -0.000757676 -0.00254325 0.00018379 0.000975227 
-0.000786164 0.00177148 0.00238894 0.000868665 0.00296467 0.00334925 0.00228929 0.00331219 0.00321406 
0.00286032 0.0027779 0.00226506 0.0015933 0.00201245 0.000672787 -0.000261516 0.000454012 -0.00147188 
-0.00270923 -0.00173405 -0.00418861 -0.00537531 -0.00452204 -0.00680245 -0.00775161 -0.00752194 -0.00865566 
-0.00928591 -0.00987394 -0.00954957 -0.0100892 -0.0109078 -0.010762 -0.0110486 -0.0117725 -0.0110639 
-0.0110565 -0.0124219 -0.0106821 -0.0104033 -0.0119536 -0.00985103 -0.00940813 -0.0170956 -0.0124191 
-0.0186346 -0.0225577 0.00500856 0.00675845 0.0266975 0.0276503 0.0105828 0.0104912 0.0105632 
0.0101741 0.0117483 0.0101005 -0.0572303 -0.0448662 0.0102492 0.00938444 0.0121952 0.00697586 
0.00554618 0.00988881 0.00468119 -0.0352453 -0.0286554 0.00292718 0.00183469 0.00548668 0.000675028 
-0.000327902 0.00257625 -0.00164006 -0.00230487 -7.3528e-05 -0.00274136 -0.00300106 -0.00182418 -0.00294856 
-0.00286802 -0.00235247 -0.00224525 -0.0229048 -0.0177181 -0.00131921 -0.000479922 -0.00130709 0.000637775 
0.00147233 0.000845224 0.00203998 0.00309521 0.00252953 0.00405658 0.00505744 0.00395563 0.00604018 
0.00704108 0.00576494 0.00793452 0.00900387 0.007629 0.00991428 0.0108165 0.00933324 0.0116574 
0.0123424 0.01098 0.0129322 0.0133303 0.0123895 0.0135551 0.0135176 0.0131975 0.0130967 
0.0125264 0.0130476 0.0115077 0.0105163 0.0114734 0.00898302 0.00761784 0.00876352 0.00579468 
0.00420637 0.00514654 0.00229139 0.000541769 0.001337 -0.00101786 -0.00315272 -0.00219066 -0.00585778 
-0.00839223 -0.00659276 -0.0112318 -0.0141472 -0.012294 -0.0168801 -0.0200356 -0.0179869 -0.0235063 
-0.0274628 -0.0242817 -0.0318231 -0.0365457 -0.0321729 0.00892629 0.00955278 -0.0492524 -0.0465641 
-0.0115991 -0.00933876 -0.0243666 -0.0216768 -0.0148023 0.010403 0.0106398 0.0116476 -0.0227726 
-0.0230033 0.00703274 -0.00788531 -0.0440672 -0.0411272 -0.0417577 -0.0389305 -0.0355327 -0.0375733 
-0.0324398 -0.029155 -0.032633 -0.0258564 -0.0223847 -0.0267184 -0.0185507 -0.0147151 -0.0198305 
-0.0110926 -0.00692546 -0.0125489 -0.00326762 0.000671456 -0.00537462 0.00497853 0.0090758 0.0024779 
0.0134684 0.0173711 0.0110731 0.0210871 0.0247574 0.0189845 0.0280961 0.0317132 0.0257216 
0.035011 0.0383714 0.0320306 0.0410468 0.0440422 0.0375403 0.0468216 0.0498346 0.0424836 
0.0528239 -0.00115663 -0.000512267 0.00740888 0.00846547 0.00564771 0.0130461 0.0183237 -0.00079408 
-0.00112895 0.00327466 0.00206695 0.00159402 0.0248131 0.0165973 0.0089741 0.000907215 -0.000406286 
0.00420054 0.00547511 0.0306036 0.0271399 -0.0542786 -0.00909407 -0.00711278 -0.0193895 -0.0275456 
-0.0242681 -0.0113148 -0.000106523 0.00113787 0.0031059 0.00439821 0.00702842 0.0015896 0.00386027 
0.00458474 0.0033894 0.00475432 0.00400034 -0.00989637 -0.0103594 -0.0113518 0.0139348 -7.81495e-05 
0.00179047 0.00578903 -0.0533341 -0.0511147 -0.0456019 -0.0475848 0.0117511 0.0154226 0.0206064 
0.00848175 0.00880618 0.00495408 0.00471422 0.0185138 0.0241032 0.00232743 0.000401617 0.00501308 
0.00530652 -0.0109615 -0.00699275 -0.0087479 -0.000405888 -0.0221744 -0.0244424 -0.0131286 -0.0111505 
0.0240082 0.0295068 0.0261706 0.021518 -0.0416648 -0.0414836 -0.0037502 -0.00738071 -0.00836302 
0.010824 0.0476584 0.00573452 0.00702614 0.000538895 -0.000375722 -0.00446684 -0.00737785 -0.00756343 
-0.00492522 -0.000408148 -0.00343774 -0.0214325 0.00129205 0.0209867 -0.0248798 -0.0202861 -0.0132365 
-0.0100142 -0.0143921 0.00541967 0.00828367 0.00887404 0.0227506 -0.0151326 0.00143991 0.00367848 
0.00151314 -0.0238696 -0.00970342 0.0106803 -0.00963119 -0.0113301 -0.00507793 0.00564709 0.00160612 
-0.0106235 -0.0113005 -0.012243 -0.00147821 -0.0120049 -0.0128555 -0.00717942 0.004977 -0.0179789 
-0.0167163 0.0141186 0.0165909 -0.0142008 -0.0142253 -0.0107437 -0.00974225 -0.00814617 -0.00666651 
-0.0101108 -0.00458904 -0.00278494 -0.00627175 -0.000457626 0.00161283 -0.00166925 0.00448537 0.00645344 
0.0037485 0.00881773 0.00975674 0.00941937 0.0109281 -0.00618151 -0.00330012 0.01236 0.0127086 
0.0130299 0.0131634 0.000533387 0.00419749 0.0131875 0.0131425 0.0142406 0.0128298 0.0124655 
0.013884 0.0115735 0.00597439 0.00475282 -0.00201483 0.00184667 0.00180396 0.00484875 0.000372671 
0.0022602 -0.00397795 0.0422513 0.0377163 0.0329969 0.0403264 0.0289264 0.0249697 0.0316782 
0.0210527 0.0177354 0.0239506 0.016008 0.00676423 0.0115771 0.00873581 0.00629074 0.00346704 
0.00118691 0.00744558 -0.000386014 -0.00221448 0.00302913 -0.00793542 -0.0093044 -0.0116689 -0.0117829 
-0.0116698 -0.0112233 -0.0104503 -0.0102159 -0.00954817 -0.00933596 -0.00928561 -0.00854313 -0.00797031 
-0.00790584 -0.00703041 -0.00728999 -0.00631265 -0.0054758 -0.00611733 -0.00487721 -0.00410431 -0.00504248 
-0.00358951 -0.00284903 -0.00422973 -0.00223677 -0.00151699 -0.00347153 0.000765123 0.00137448 0.00170446 
0.00152735 0.000216598 0.00136474 0.000750378 0.00037987 -0.000420858 -0.00133922 -0.000871453 -0.00228408 
-0.00354873 -0.0031577 -0.00503817 -0.00658015 -0.00552645 -0.0117727 -0.0125651 -0.0131416 -0.013788 
-0.0140444 -0.0138691 -0.0154849 -0.0131776 -0.0127405 -0.0147526 -0.00294007 -0.000216461 -0.00138893 
-0.0043257 0.00795401 0.0114559 -0.0405288 8.49534e-05 -0.000617891 0.00527269 0.00600903 0.00941381 
0.0101415 0.0107709 0.00964152 0.00719204 0.00552813 0.00643027 0.00369541 0.00176584 0.00208618 
-0.00127036 -0.00321766 -0.00275273 -0.0050709 -0.0065758 -0.00772054 -0.00945694 0.0131872 0.020116 
-0.0132398 -0.0161113 -0.0133287 -0.0192701 -0.0221033 -0.0200381 -0.0244498 -0.0279252 -0.025386 
-0.0316673 -0.0359675 -0.0313713 0.0106518 0.0173469 0.0191476 -0.0225249 -0.0205719 -0.0330201 
-0.0302902 -0.0270571 -0.0241127 -0.0277921 -0.0209487 -0.0173871 -0.0217196 -0.0126398 -0.00918795 
-0.014097 -0.0056224 0.0219443 0.0269872 -8.31124e-05 0.00398 -0.00421734 0.00875406 0.012991 
0.00608276 0.0169963 0.0203671 0.0146892 0.0236085 0.0267545 0.0218739 0.029214 0.0321449 
0.0271984 0.0339673 0.0361337 0.0311187 0.038034 0.0128203 0.0129849 0.020075 0.0210637 
-0.0119078 -0.0113177 -0.0115678 -0.013149 0.0114562 0.00302848 0.00781004 -0.00614133 -0.0032443 
-0.0123931 -0.00849754 0.0234224 0.0181483 -0.012076 0.00619984 0.00580104 -0.0127666 -0.0131528 
-0.014688 -0.0129788 0.0126458 -0.0393162 0.0328812 0.0414947 0.00370884 -0.0180012 -0.015052 
0.0146818 0.0185318 0.00248347 -0.000528414 0.00543203 0.00517545 -0.0372029 -0.0121837 -0.0142333 
-0.0138043 -0.0160011 0.00776019 -0.00077618 0.0112563 0.0128801 0.0134694 -0.00435117 -0.00604193 
-0.0106245 -0.0113347 -7.82665e-05 -0.000978128 -0.000775567 0.0128071 0.0519007 0.0707367 0.0138535 
-0.010228 -0.0131335 -0.0152342 -0.00875364 -0.00162906 -0.0056553 -0.0149672 0.0253488 0.0227541 
0.0245141 -0.0217891 -0.0246971 0.00228553 0.00118597 -0.017723 -0.00175681 -0.00173022 0.0937474 
0.128493 -0.0345406 -0.0891486 -0.107942 0.00598464 0.000315394 -0.000120163 -0.000613794 0.00320441 
0.00373543 0.00453575 0.00909077 0.0108319 0.0113667 0.00673771 0.00790164 0.00858721 0.0118305 
0.0119823 0.0102571 0.0119445 0.0114784 0.00980201 0.0106545 0.00451497 0.00727404 -0.0227112 
-0.0199373 -0.0201333 0.0343039 0.0176877 -0.00708894 -0.00595779 -0.0112323 -0.0073527 -0.00763367 
-0.00968787 0.0180504 0.00500493 0.00494555 -0.0024601 0.00742964 -0.00863955 -0.00776047 -0.00617408 
-0.00734521 -0.0327572 -0.00834078 -0.00489575 -0.0100215 0.004851 0.00518303 0.0196311 0.0160334 
0.00837788 0.00789371 0.00436472 -0.00213262 -0.0030857 0.00784552 0.00830117 0.0157719 0.012518 
0.0111834 0.00462918 -0.00393291 -0.00487299 -0.0209729 -0.0175228 0.00371769 -0.00407097 -0.0061747 
-0.00668587 -0.0142022 0.0173374 0.00323078 0.00390827 0.00623987 0.00452558 0.00716306 -0.00789766 
-0.00571172 -0.000111969 -0.00138355 -0.00715187 0.015242 0.0142032 0.0302874 0.0272257 0.0236377 
0.0291391 0.0242748 0.0250974 0.0232109 -0.000650265 -0.00512752 -0.0130451 -0.00562695 -0.00570339 
-0.00510058 -0.00481857 -0.00503381 -0.00480452 -0.00937805 -0.0138622 -0.00527502 -0.0175095 -0.0176494 
-0.0157256 -0.0019494 -0.0264257 0.00694236 -0.0267049 -0.0234454 0.0152622 0.0132731 -0.013837 
-0.0292724 -0.00755329 0.0212031 0.0188513 0.00597415 0.0105353 0.0280267 -0.0014188 -0.00491962 
-0.00263573 -0.00483259 -0.00534675 -0.00514308 -0.0123813 -0.0106616 -0.0102421 -0.0147847 -0.00699653 
0.0107377 0.00657986 -0.00388495 -0.00622083 -0.00578183 -0.00871861 0.0196008 0.0148216 -0.00252448 
8.37898e-05 0.0163954 0.0151929 0.0147651 0.0151867 -0.00636526 -0.00527262 0.0115339 0.00857722 
-0.00240016 -0.00400838 0.0146791 0.0160209 0.0216088 0.0168867 0.01745 0.0152992 -0.00544871 
-0.00497307 -0.0046023 -0.00438358 -0.00417797 0.0204325 0.00249015 0.00331393 -0.0150678 0.0215765 
-0.00341733 -0.00247892 -0.0185162 -0.0179963 0.0224056 0.0215183 -0.00122241 -0.0176559 -0.0149428 
0.0165321 0.025902 0.0242484 -0.0117011 -0.0161842 0.0237678 0.0229786 -0.00843699 -0.00472256 
7.36387e-05 -0.000155645 -6.31859e-05 -0.000579897 -0.000478061 -0.000664191 -0.000916788 -0.00087603 -0.00139876 
-0.00120303 -0.00116577 -0.00203991 -0.00141975 -0.00139929 -0.00255183 -0.00162132 -0.00160704 -0.00296216 
-0.00173594 -0.00173844 -0.00328796 -0.00176285 -0.00177561 -0.0034282 -0.00158478 -0.00161766 -0.00330181 
-0.00135214 -0.00137828 -0.00291115 -0.0010055 -0.00105861 -0.00235466 -0.000636827 -0.000678921 -0.0016548 
-0.000163352 -0.000239963 -0.000820811 0.000278573 0.000217778 6.42954e-05 0.000716405 0.000658738 0.000929458 
0.00111616 0.00102991 0.00174128 0.00141927 0.00138577 0.00242368 0.00166355 0.00161338 0.00295908 
0.00178633 0.00177202 0.00331258 0.0017486 0.00175628 0.00343155 0.00163884 0.00166461 0.0033302 
0.0015106 0.0015392 0.00311391 0.0012289 0.00127517 0.0027346 0.000887895 0.000924185 0.00213319 
0.000479693 0.000565423 0.00142057 0.000102485 0.000169056 0.000710255 -2.83239e-05 -8.06777e-05 0.00010615 
-8.57636e-05 0.0904069 0.0444708 0.0545614 0.021941 0.0197449 0.0709452 0.0130779 0.0130999 
0.0363254 0.00766753 0.00796848 0.021693 0.00469503 0.00487876 0.0133065 0.00268719 0.00285096 
0.00796804 0.00130796 0.00145244 0.00443359 0.000280925 0.000382263 0.00185365 -0.000443956 -0.000366035 
0.000171556 -0.00109365 -0.00100635 -0.0012667 -0.00166333 -0.00158562 -0.00249413 -0.00221273 -0.00215362 
-0.00360864 -0.00271293 -0.00258474 -0.00462007 -0.00296949 -0.00294526 -0.00537915 -0.00331845 -0.00329798 
-0.0060354 -0.00347951 -0.00347607 -0.00654773 -0.00344247 -0.00345871 -0.00669159 -0.00326658 -0.0033057 
-0.00650956 -0.0029349 -0.00299958 -0.00604803 -0.00241247 -0.00249462 -0.00526394 -0.00180672 -0.00189946 
-0.00419485 -0.00121413 -0.0013001 -0.00305084 -0.000576911 -0.000681068 -0.00188214 1.42678e-05 -7.29295e-05 
-0.000718513 0.0005502 0.000487233 0.000390734 0.000988137 0.00093835 0.00135806 0.00128946 0.00124542 
0.00208046 0.00143752 0.00143015 0.00253385 0.00139481 0.00141134 0.00267233 0.00117453 0.00121704 
0.0024673 0.000885133 0.000943738 0.00199303 0.00046704 0.000534537 0.00130866 -6.25678e-06 7.59013e-05 
0.000465243 -0.000473815 -0.000412874 -0.000432291 -0.000898966 -0.000835934 -0.00130542 -0.00121254 -0.0011863 
-0.00203849 -0.00143623 -0.00141243 -0.00258153 -0.00156146 -0.00155638 -0.00292883 -0.00163674 -0.00164435 
-0.003132 -0.00154139 -0.00156471 -0.00312108 -0.00133431 -0.00137952 -0.00285096 -0.000979252 -0.00102486 
-0.00232023 -0.000554051 -0.000620384 -0.0015718 0.159712 0.000243901 0.000167985 0.00016378 0.000546679 
0.000492811 0.000766429 0.000879006 0.000832253 0.0013731 0.00112163 0.00109467 0.00195293 0.00130766 
0.00128331 0.00237806 0.00136616 0.00135862 0.00262941 0.00139185 0.00139664 0.00272274 0.0012764 
0.00129804 0.00265009 0.00104991 0.00107694 0.00232456 0.000763577 0.000807196 0.0018251 0.000364816 
0.000442704 0.00116907 -7.57683e-05 -1.58999e-05 0.000365264 -0.000488702 -0.000423571 -0.000472347 -0.000841024 
-0.000776611 -0.00121575 -0.00113129 -0.00108951 -0.00185133 -0.00125964 -0.00123629 -0.00227259 -0.00128118 
-0.00127853 -0.00243029 -0.00111354 -0.0011325 -0.00229826 -0.00080155 -0.000860089 -0.00185302 -0.000376428 
-0.00043605 -0.00114853 0.000203676 7.36382e-05 -0.000211305 0.000739827 0.000664238 0.000871938 0.00129305 
0.00120051 0.00193873 0.00180299 0.00171282 0.00296551 0.00220491 0.00215032 0.00387456 0.00258846 
0.00253463 0.00465075 0.00285991 0.00281736 0.00529742 0.00293225 0.00292364 0.00565675 0.0029192 
0.00291839 0.00573663 0.0028103 0.00284229 0.00563154 0.0025438 0.00259385 0.0052706 0.00216366 
0.0022234 0.00462309 0.00171515 0.00177907 0.00381728 0.00122137 0.00129574 0.00291331 0.000739981 
0.000804815 0.00195884 0.000172439 0.000239951 0.000887457 -0.000517857 -0.000440872 -0.000379627 -0.00135218 
-0.0012441 -0.0019091 -0.00251761 -0.00239051 -0.0038778 -0.00409506 -0.00392582 -0.00662474 -0.00663486 
-0.00639036 -0.010675 -0.0105882 -0.0110899 -0.0179721 -0.0230803 -0.0214171 -0.0329012 -0.0621779 
-0.0427069 -0.0675483 -0.111814 -0.125966 -0.14663 -0.109546 -0.120188 -0.123217 -0.087413 
-0.102411 -0.108613 -0.0800882 -0.0882919 -0.0972189 -0.0711089 -0.0782031 -0.0866058 -0.0626292 
-0.0756154 -0.0727633 -0.0503455 -0.0640934 -0.0667683 -0.0417226 -0.0561543 -0.05694 -0.0325995 
-0.0475498 -0.0475674 -0.0227399 -0.0382344 -0.0375129 -0.0138463 -0.0290563 -0.0280357 -0.00496081 
-0.0201954 -0.0193979 0.00429864 -0.0112282 -0.0103508 0.0126701 -0.00267187 -0.00152861 0.0214001 
0.00621189 0.00708616 0.0299027 0.0149236 0.0160045 0.0389134 0.0239289 0.0254432 0.0476188 
0.0324166 0.0349502 0.0571295 0.0414437 0.0441182 0.0659935 0.0504627 0.0537203 0.0758161 
0.0602387 0.0634687 0.085788 0.0699428 0.0739115 0.0967269 0.0806825 0.085136 0.109988 
0.0928639 0.0979618 0.127543 0.10792 0.113633 0.148454 0.127936 0.134219 0.141531 
-0.0371601 0.0673177 0.149951 0.137193 0.139722 0.098565 0.0978395 0.0845574 0.0686716 
0.0881662 0.0563625 0.0476707 0.0641171 0.0375052 0.0303084 0.0440456 0.0225313 0.0175703 
0.0280065 0.0101457 0.00520358 0.0143042 -0.00188315 -0.00738064 0.00129844 -0.0148414 -0.0204526 
-0.0116969 -0.0290056 -0.0365294 -0.0259656 -0.0467637 -0.0562414 -0.042645 -0.0699872 -0.0863068 
-0.0633889 -0.103666 -0.136476 -0.0883706 -0.142773 -0.163168 -0.0995086 -0.0299741 0.0809565 
0.173427 0.137309 0.126087 0.0951461 0.0984123 0.0787112 0.0641008 0.0818651 0.0512312 
0.0418394 0.0579112 0.0316993 0.024658 0.0377927 0.0168537 0.011152 0.0217653 0.00393962 
-0.000865419 0.00824763 -0.00752572 -0.0122852 -0.0042861 -0.0192838 -0.0247588 -0.0165992 -0.0329544 
-0.0394214 -0.0301631 -0.0494028 -0.0586953 -0.0462144 -0.0707489 -0.0869214 -0.0660203 -0.100727 
-0.138887 -0.0887106 -0.13529 -0.151453 -0.0990287 -2.26645e-05 0.148126 0.0654585 0.106242 
0.165891 -0.000130545 -0.000191281 -0.140575 -0.11728 -0.19345 -0.10849 0.0688441 0.100617 
-0.0838201 -0.167123 -0.107152 -0.000345957 -0.0793257 -0.000776817 -0.00227883 -0.00187041 -0.00126246 
-0.000856619 -0.000887858 -0.0020915 -0.00368604 -0.00343209 -0.00427613 -0.00406576 -0.00498213 -0.00468485 
-0.00456427 -0.00567975 -0.00480295 -0.00477731 -0.00608299 -0.00456988 -0.00475052 -0.00610506 -0.0039763 
-0.00424022 -0.00568331 -0.00314081 -0.00351406 -0.00481313 -0.00211721 -0.00257776 -0.00367618 -0.000917446 
-0.00146447 -0.00230469 0.000319506 -0.000194305 -0.000738092 0.00156174 0.00103923 0.000885473 0.0026916 
0.00223581 0.00245579 0.00359355 0.00323435 0.00381901 0.00429563 0.00403081 0.00490693 0.00474081 
0.00458834 0.00570028 0.00482613 0.00482382 0.00612173 0.00469168 0.0047837 0.00618729 0.00430863 
0.00446923 0.00591518 0.00365469 0.00392867 0.00528112 0.00282512 0.00320662 0.00441093 0.00188613 
0.00228851 0.00334026 0.000944815 0.00134081 0.00217149 0.0309691 0.0376942 0.0014293 0.00112585 
0.0478831 0.0893439 0.0488859 0.0599059 0.0572485 0.0741 0.106393 0.114845 0.0870655 
0.0196605 0.023874 0.037263 0.0123494 0.0150571 0.0244938 0.00730784 0.00923165 0.015593 
0.00379063 0.00509291 0.00945261 0.00101341 0.00204248 0.00489314 -0.0011906 -0.000305828 0.00140124 
-0.00303599 -0.00230228 -0.00143252 -0.00466051 -0.00397108 -0.00383172 -0.00604329 -0.0054714 -0.00588004 
-0.00718895 -0.00675837 -0.00766179 -0.0081644 -0.0077569 -0.00916144 -0.00872549 -0.00851161 -0.0102356 
-0.00886514 -0.00886631 -0.0108295 -0.00860847 -0.00877671 -0.0109105 -0.00790323 -0.00823318 -0.0104294 
-0.00675023 -0.00730302 -0.00939966 -0.0053384 -0.00598119 -0.00793349 -0.00382844 -0.00448431 -0.00618031 
-0.00231265 -0.00298442 -0.00433236 -0.000810418 -0.00147493 -0.00249485 0.000610703 -1.16551e-05 -0.000694721 
0.00182801 0.00132269 0.000976092 0.00268629 0.00234819 0.0023558 0.00320629 0.00301612 0.00332014 
0.0032979 0.00330982 0.00381598 0.00295418 0.00316529 0.00378868 0.00222755 0.00255889 0.00321207 
0.00120403 0.00166874 0.00217511 2.74261e-05 0.000525101 0.000820853 -0.00120433 -0.0006698 -0.000695641 
-0.00235093 -0.00187805 -0.00221494 -0.00326264 -0.00288688 -0.0035503 -0.00391185 -0.0036554 -0.00457461 
-0.00431765 -0.00417396 -0.00529811 -0.00450001 -0.00442976 -0.00569802 -0.00430526 -0.0044033 -0.00570901 
-0.00384567 -0.00406315 -0.0053513 -0.00304328 -0.0034227 -0.00463585 -0.00201043 -0.00246333 -0.00354356 
0.0559082 0.0744332 -0.0975325 -0.0156435 0.0573942 0.0486942 0.00226256 0.00189421 0.00230547 
0.00299484 0.00271386 0.00330439 0.00351977 0.00331796 0.00415324 0.00384895 0.00376407 0.00476811 
0.00397984 0.00395534 0.00514547 0.00376981 0.00387557 0.00513962 0.00328329 0.00353813 0.00477509 
0.00253128 0.00286956 0.00405704 0.00157366 0.00200648 0.00300573 0.000432856 0.000925645 0.00172272 
-0.000694588 -0.000224516 0.000267952 -0.00169307 -0.0012932 -0.00113179 -0.00253619 -0.00219622 -0.00237167 
-0.00298299 -0.00281853 -0.00326702 -0.00308829 -0.00305757 -0.00369217 -0.00275665 -0.00292395 -0.00362045 
-0.00205337 -0.00237037 -0.00304091 -0.00100529 -0.00147016 -0.00199424 0.000325109 -0.000282542 -0.000570024 
0.001737 0.00113085 0.00110706 0.00311886 0.00250765 0.00284185 0.0044688 0.00390451 0.00456344 
0.00565745 0.00517824 0.00621628 0.00665976 0.00623911 0.00765373 0.00735108 0.00704175 0.00874811 
0.00769223 0.0075752 0.0094624 0.00769627 0.00770282 0.00975183 0.00750169 0.00763618 0.0096935 
0.00677058 0.0071012 0.00914119 0.00568544 0.00611443 0.00797109 0.00448537 0.00497925 0.00647816 
0.00310791 0.00366425 0.00480685 0.00157312 0.00218179 0.00290677 -0.000207379 0.000507632 0.000635738 
-0.00236921 -0.00151302 -0.00192214 -0.00484245 -0.00387749 -0.00500426 -0.00840677 -0.00693532 -0.00890846 
-0.0129247 -0.0110196 -0.013981 -0.020343 -0.0171629 -0.0214119 -0.0323784 -0.0267404 -0.0330405 
-0.0559033 -0.0429679 -0.0518308 -0.104991 -0.076118 -0.0848688 -0.117391 -0.0890026 -0.0947033 
-0.0991685 -0.107021 -0.0928914 -0.00132237 -0.112745 -0.0794503 -0.0784236 -0.0839243 -0.0667527 
-0.0718485 -0.0727034 -0.0612301 -0.0550017 -0.0626339 -0.0531471 -0.0471517 -0.0540016 -0.0452066 
-0.0386627 -0.0456296 -0.0371641 -0.02992 -0.0372765 -0.0277932 -0.0211357 -0.0286506 -0.019163 
-0.0122647 -0.0202296 -0.010502 -0.00387086 -0.0116434 -0.00182015 0.00549589 -0.0030651 0.00660895 
0.0136189 0.00549451 0.0149187 0.0222757 0.0138117 0.023054 0.0302017 0.0222537 0.0316772 
0.0384821 0.030429 0.0398582 0.0472179 0.038563 0.0492864 0.0559605 0.0473895 0.0583934 
0.0648008 0.0561212 0.0679048 0.0740745 0.0648842 0.0782471 0.0835328 0.0742172 0.0886727 
0.0935156 0.0835297 0.101869 0.103874 0.0928841 0.0759415 0.0562897 -0.0482073 -0.077389 
-0.097265 -0.0363436 0.0754056 0.0655937 0.0490945 0.0617729 0.0507136 0.0508491 0.0455202 
0.036139 0.0424511 0.0306015 0.0229338 0.0310452 0.01759 0.0105711 0.0192066 0.00527298 
-0.00173856 0.0076515 -0.00693141 -0.014144 -0.00384848 -0.0193452 -0.0274121 -0.0153397 -0.0331744 
-0.0420545 -0.0270302 -0.0477267 -0.0582007 -0.0378136 -0.0620596 -0.0715993 -0.046008 -0.0688092 
-0.0497836 -0.0359341 -0.0441434 0.0686034 0.058744 0.0542826 0.0443501 0.0446117 0.0382479 
0.0293853 0.0351935 0.023538 0.0163526 0.0236828 0.0109113 0.00401725 0.012201 -0.00110322 
-0.00743559 0.0012028 -0.0127864 -0.019435 -0.00973595 -0.0249615 -0.0323869 -0.0209714 -0.0382686 
-0.0469867 -0.0324896 -0.0526404 -0.0631346 -0.0436495 -0.0667374 -0.0747496 -0.0511104 -0.074167 
-0.0583119 -0.048936 0.044872 0.093206 0.010471 -0.00307493 -0.00272966 -0.0032637 -0.00417505 
0.0565627 0.0663469 0.0338002 -0.0610649 -0.0892825 -0.10156 0.00047399 0.00169323 0.00102533 
0.0642996 0.0764516 -0.0908253 -0.0686081 -0.00218501 0.0413724 0.0441521 -0.0610475 0.0538977 
0.0327247 0.0443373 -0.0852597 -0.0701356 0.118654 0.100935 0.0830206 0.0529681 -0.0503169 
-0.00060806 0.0717075 -0.0436355 0.0449957 0.0501122 -0.00728149 -0.00718267 -0.00613924 -0.00571809 
-0.007185 -0.00726397 -0.00840999 -0.00653054 -0.00690481 -0.00810844 -0.00547557 -0.00601735 -0.00726901 
-0.00402525 -0.00471019 -0.00591589 -0.00233064 -0.00313748 -0.00414934 -0.000460854 -0.00134552 -0.00214644 
0.00151676 0.000638902 8.91711e-05 0.00334951 0.00253384 0.00236266 0.00492402 0.00426826 0.00444193 
0.00615647 0.00563842 0.00617273 0.00695353 0.00661947 0.00742375 0.00734676 0.00722012 0.00819934 
0.00733743 0.00737256 0.00852295 0.00690863 0.00714472 0.00835917 0.00607463 0.00647658 0.0077324 
0.00499625 0.00549433 0.00670274 0.00372242 0.00430945 0.00539998 0.00237989 0.00298437 0.00393404 
0.00247668 -0.0577731 -0.050132 0.0283566 0.0342176 -0.0323015 -0.0366458 -0.0605667 -0.0423449 
0.0418827 0.0501906 0.0449764 0.0836319 -0.00283579 0.0119968 0.0149601 0.00659 0.0088637 
0.0137883 0.00242166 0.00416421 0.00776811 -0.000947437 0.000548649 0.00309042 -0.00380184 -0.00254234 
-0.000703028 -0.00629317 -0.00521576 -0.00400913 -0.00843941 -0.00750238 -0.00690646 -0.0102127 -0.0094596 
-0.00937796 -0.0114304 -0.0109517 -0.0113275 -0.0121074 -0.0118883 -0.0126425 -0.0120922 -0.012157 
-0.0132345 -0.0114195 -0.0117923 -0.0130477 -0.0102111 -0.0108459 -0.0121901 -0.00850847 -0.00934236 
-0.010749 -0.00657246 -0.00752181 -0.0088648 -0.004549 -0.0054914 -0.00675389 -0.00254772 -0.00349615 
-0.00458769 -0.000603566 -0.00150692 -0.00245517 0.0011853 0.000373227 -0.000395543 0.00260338 0.00198308 
0.00141883 0.00356708 0.00316347 0.00283454 0.00399176 0.00386146 0.00375555 0.00377698 0.00394102 
0.00402225 0.00296839 0.00340523 0.0035795 0.00165002 0.00228708 0.00248592 -3.46265e-05 0.000745559 
0.000814808 -0.00182288 -0.00101089 -0.00117824 -0.00350574 -0.0027331 -0.00315036 -0.0048739 -0.0042591 
-0.00487246 -0.00593837 -0.00549067 -0.00628738 -0.0066738 -0.0063792 -0.00737132 -0.00700097 -0.00688405 
-0.00802637 -0.00685363 -0.00695952 -0.0081833 -0.00628174 -0.0065564 -0.00782776 -0.00527228 -0.0057501 
-0.00697053 -0.00386338 -0.00452744 -0.00563956 0.0238869 0.0245787 0.00300547 0.00594863 0.00567434 
0.00630037 0.0061843 0.00715901 0.00624013 0.00634688 0.00743661 0.00578459 0.0060553 0.00730068 
0.00485005 0.00533767 0.00665146 0.00353902 0.00415106 0.00546916 0.00199614 0.00272532 0.00388606 
0.000306538 0.00107926 0.0020601 -0.0012941 -0.000584979 0.000136353 -0.00263436 -0.00203394 -0.00159335 
-0.00354873 -0.00318979 -0.00299021 -0.00392392 -0.00381405 -0.0038797 -0.003694 -0.00386007 -0.00410756 
-0.00287252 -0.00329462 -0.00361088 -0.00158031 -0.00223657 -0.00253899 9.45175e-05 -0.000723901 -0.000987264 
0.00204014 0.00111889 0.000968692 0.00395845 0.00307656 0.00311941 0.00588278 0.00496647 0.00524482 
0.00764649 0.00683011 0.00730361 0.00918568 0.00849879 0.00921513 0.0103463 0.00986894 0.0108377 
0.0109615 0.0106788 0.0119161 0.0109976 0.0109612 0.0123047 0.0107446 0.0109085 0.0122587 
0.00987436 0.0103754 0.0116824 0.00825479 0.00901822 0.0102663 0.00629247 0.00714547 0.00819422 
0.00411259 0.00508736 0.00577712 0.0015499 0.00268392 0.00292646 -0.00136018 3.04115e-05 -0.000322294 
-0.00473571 -0.00318164 -0.00385312 -0.00859674 -0.00680823 -0.00799906 -0.0137631 -0.0112442 -0.0130726 
-0.0206655 -0.0174947 -0.0197928 -0.0310062 -0.0258418 -0.0291405 -0.0462125 -0.0384302 -0.0424487 
-0.0672604 -0.0534507 -0.0589801 -0.0812793 -0.0684671 -0.073151 -0.0776431 -0.082525 -0.0717542 
0.0335449 0.0304301 -0.0352707 -0.0446933 -0.0467713 -0.0559955 -0.0587685 -0.0638604 -0.0635163 
-0.0506504 -0.0549733 -0.0549947 -0.0426413 -0.0467601 -0.047154 -0.0347413 -0.0391215 -0.039662 
-0.0262687 -0.0308243 -0.0319375 -0.0181249 -0.0225759 -0.0238959 -0.00977653 -0.0142745 -0.015972 
-0.00127069 -0.0057724 -0.00780282 0.00724053 0.00285946 0.000746754 0.0154859 0.0110174 0.00910567 
0.0237157 0.0193139 0.0171743 0.0317331 0.0274843 0.0251479 0.0397161 0.0352384 0.0327643 
0.0480924 0.0436112 0.0404469 0.0564353 0.0519807 0.0483214 0.064375 0.0599728 0.0556595 
0.0722849 0.0677888 0.0624276 0.079574 0.0755106 0.0683996 0.0854311 0.081598 0.0728775 
0.0263197 0.0319103 0.0149907 0.049022 0.0400693 0.0273297 0.0189011 0.0230112 0.0314009 
0.0214584 0.0600733 0.0726127 -0.0264065 0.0194737 0.0389935 0.0382251 0.0363204 0.0318096 
0.0269997 0.0290275 0.0236785 0.0239513 0.0196307 0.0141454 0.0182699 0.00988389 0.0043928 
0.0106246 -2.81766e-05 -0.00550684 0.00247718 -0.00973435 -0.0150996 -0.0055872 -0.0189758 -0.0243607 
-0.013075 -0.0268157 -0.0303269 -0.018328 -0.0315728 -0.0327633 -0.0205064 0.0328244 0.0312216 
0.0192532 0.0525976 0.0583999 0.0293992 0.0248086 0.0204508 0.0213328 0.0161411 0.0167092 
0.0122681 0.00701953 0.0104195 0.00291364 -0.002168 0.00325381 -0.00632199 -0.0115992 -0.00436593 
-0.0158885 -0.0211256 -0.0121314 -0.0248751 -0.0301373 -0.0193456 -0.0331216 -0.0373025 -0.0250321 
-0.0386917 -0.038966 -0.0276867 -0.0383714 -0.0323637 -0.0260556 -0.0129831 0.0310448 -0.018659 
-0.00692054 -0.00662183 -0.00739695 -0.00814229 0.00519977 0.00482362 0.00641355 0.0314799 0.0391242 
0.0260172 -0.0820096 0.00528333 0.00420745 0.00370721 -0.0062607 -0.00510091 -0.00468561 -0.0495353 
-0.0445487 -0.0341823 0.0632382 -0.0235177 -0.0310472 -0.0274906 0.0206247 -0.024518 -0.0283113 
0.00391669 0.0451944 0.0327923 -0.0817473 -0.0829188 -0.020503 -0.045168 -0.057987 -0.00378138 
0.0473734 0.0521439 -0.0709864 0.0390827 -0.048183 0.019709 -0.0349098 -0.0277903 -0.0164982 
-0.0201579 0.0303721 0.0386843 0.0489949 0.0375082 0.0225697 -0.0745152 -0.0094855 -0.00949594 
-0.00631478 -0.00716888 -0.00420801 -0.00519702 -0.00648124 -0.00186679 -0.00296142 -0.00401914 0.000734969 
-0.000507102 -0.00128773 0.00328321 0.00214455 0.00162452 0.00556126 0.00454064 0.00440641 0.00745666 
0.00667319 0.0068874 0.00876131 0.00823942 0.00884655 0.0094428 0.0091577 0.0100802 0.00959924 
0.00956419 0.0105949 0.00927533 0.00946678 0.0105654 0.00842472 0.00885688 0.00999482 0.00716475 
0.00775354 0.00890068 0.00561121 0.00631149 0.00737066 0.00466722 0.0168818 0.0192282 -0.0173819 
-0.0175443 0.00842718 0.0086169 0.00457381 0.00678047 0.00922921 0.0120551 0.0107782 0.0155155 
0.0191468 0.0168887 0.000375453 0.00225641 0.00579638 -0.00331905 -0.00163282 0.00127809 -0.00655796 
-0.00511144 -0.00274011 -0.00937929 -0.00814779 -0.00635224 -0.0115307 -0.0106404 -0.00944578 -0.0129525 
-0.0124407 -0.0118543 -0.0135083 -0.013396 -0.0132777 -0.0132279 -0.0134932 -0.0136876 -0.0122001 
-0.0127663 -0.0132086 -0.0106085 -0.0114579 -0.0119803 -0.00864579 -0.00963748 -0.0102668 -0.00653013 
-0.00759059 -0.00830583 -0.00447315 -0.00550377 -0.0063243 -0.00241659 -0.00344989 -0.00436865 -0.000405524 
-0.00137154 -0.00239045 0.00132647 0.000540453 -0.000473927 0.00266201 0.00206908 0.00117214 0.00350681 
0.00318982 0.0024515 0.00362025 0.00367639 0.00318297 0.00290039 0.00330435 0.00303855 0.00151616 
0.00223849 0.00199268 -0.00053892 0.000457044 0.000205481 -0.00280858 -0.001756 -0.00218606 -0.0049449 
-0.00400132 -0.00469964 -0.00667944 -0.00591995 -0.00689877 -0.00794158 -0.00731031 -0.00844893 -0.00890602 
-0.00846751 -0.00957497 -0.00943805 -0.00925967 -0.0104264 -0.00933245 -0.00940219 -0.0106696 -0.00872442 
-0.0090392 -0.0102836 -0.00758918 -0.00815641 -0.00938648 -0.00601598 -0.00683135 -0.00802644 0.0246288 
0.0192205 -0.04184 -0.0368537 -0.0430692 -0.0466932 0.0166544 0.0168425 0.0108725 0.0129975 
-0.0304145 -0.0117471 -0.00432402 0.0337969 0.0292704 0.00858618 0.00853907 0.00977941 0.0082882 
0.00802695 0.00948059 0.00769754 0.0081623 0.00953607 0.0063491 0.00706651 0.00867838 0.00454311 
0.0054084 0.00709739 0.0024395 0.00342989 0.00497712 0.000315424 0.00128267 0.00261428 -0.00148314 
-0.000680815 0.000381116 -0.00292633 -0.00229835 -0.00150836 -0.00378462 -0.00347659 -0.00296023 -0.00386729 
-0.003915 -0.0036788 -0.00314497 -0.003591 -0.00351094 -0.00187131 -0.00253767 -0.0025746 -0.000184451 
-0.00105632 -0.00113006 0.00194554 0.000885687 0.000772478 0.00409777 0.00303118 0.00293716 0.00624713 
0.00520337 0.00508691 0.00832329 0.00731134 0.00727839 0.0102849 0.00936752 0.00941152 0.0118943 
0.0111938 0.0114261 0.0128685 0.0124458 0.0129182 0.0129257 0.0128453 0.0134906 0.0126911 
0.0128506 0.0135177 0.0118023 0.0123942 0.0129572 0.00976935 0.0108062 0.0114327 0.00722108 
0.00840569 0.00889738 0.00427823 0.00561481 0.00585167 0.000715337 0.00242664 0.00217906 -0.00305343 
-0.00121761 -0.00188976 -0.00716091 -0.00515481 -0.00611599 -0.0119404 -0.00964542 -0.010841 -0.0177945 
-0.0146976 -0.0163062 -0.0260157 -0.0218562 -0.0233564 -0.0369718 -0.0312151 -0.032981 -0.0519383 
-0.0438416 -0.0453602 -0.0617129 0.0062079 0.00557036 0.0238319 0.0207816 -0.0658275 -0.0695573 
-0.0500079 -0.0538223 -0.0455929 -0.0100338 -0.0156969 -0.035475 -0.03983 0.0625714 0.0543269 
0.062539 0.0401256 0.0394762 -0.0584788 -0.062746 -0.0605028 -0.0529543 -0.0360762 -0.039581 
-0.0393861 -0.0290451 -0.0331318 -0.0331604 -0.0215602 -0.025451 -0.0267229 -0.01383 -0.0177168 
-0.0194022 -0.00558547 -0.00976528 -0.0116476 0.00285505 -0.00145537 -0.00350055 0.010964 0.00693933 
0.00474593 0.0186691 0.0146883 0.0125428 0.0263686 0.0224877 0.0200107 0.0333581 0.0297532 
0.0271423 0.0407256 0.0368362 0.0337768 0.0476796 0.0440316 0.040304 0.0534149 0.0502854 
0.0457891 0.0585415 0.0557517 0.050027 0.00793548 0.00894387 0.0462101 -0.00796889 -0.00854447 
-0.00849197 0.0165927 0.00931246 0.00291744 0.00892469 -0.0218136 -0.0291849 -0.0248291 0.00746381 
0.00697112 0.00864378 -0.00904342 -0.00934062 -0.0105028 -0.00986206 0.0153404 0.0329651 0.0287312 
0.0186235 0.0170066 0.016149 0.0131473 0.0118467 0.0110608 0.00741992 0.00962153 0.00499251 
0.00122682 0.00583954 -0.00152997 -0.00513319 0.00129704 -0.00708385 -0.0100376 -0.00283661 -0.0109285 
-0.0120427 -0.00501064 -0.0116049 -0.0109688 -0.00449044 0.0100862 0.012273 0.00263808 0.0120712 
0.00988515 0.00807543 0.00514399 0.00436973 0.00303593 -0.000297919 0.00127646 -0.0028149 -0.00627119 
-0.00259775 -0.00867148 -0.0120913 -0.00677469 -0.014186 -0.0169922 -0.0104712 -0.0183756 -0.0200056 
-0.0130744 -0.0204153 -0.0200721 -0.0138082 -0.0193804 -0.0173309 -0.0125018 -0.0253942 -0.00273171 
0.00437236 -0.0239503 0.00795082 0.0277855 0.0189714 0.0190821 0.0120634 0.0115916 0.0129988 
0.0128332 0.00597247 0.00502681 -0.0622147 -0.00707013 -0.00643751 -0.0220217 -0.0284176 -0.0678137 
-0.0581112 -0.0109955 -0.038332 -0.0266658 0.00729974 -0.0147186 -4.03136e-05 -0.00840455 -0.00791834 
-0.00809387 0.0248194 0.0233918 0.0278914 0.020224 0.0288394 -0.0108264 -0.00522956 0.0351699 
0.0272653 0.0263717 0.0168381 -0.00869534 -0.00243539 -0.0103575 -0.00922994 -0.00897423 0.0331761 
0.0393547 0.0471148 0.0345466 -0.0330445 -0.0400299 -0.0350074 0.0603214 0.0328853 0.0533868 
-0.00257319 -0.0103244 0.0340559 0.0324351 0.0256435 -0.0374316 -0.0225342 -0.0325779 -0.03129 
-0.0561088 -0.0512333 -0.0441095 -0.00664288 -0.00785731 0.00251014 0.00105499 0.00568736 0.00431982 
0.00385614 0.00819027 0.0070341 0.0070819 0.0103545 0.00952295 0.00976597 0.0115444 0.0111451 
0.0120135 0.0115968 0.0114511 0.0126359 0.0114661 0.0116065 0.0125863 0.0105643 0.0109836 
0.0120826 0.00912668 0.00978403 0.0107941 0.00813073 -0.00688758 -0.00690898 -0.0406404 -0.043212 
-0.0254019 -0.0288585 0.00753648 0.010018 -0.00150887 0.000516834 -0.00555711 -0.00382218 -0.000658077 
-0.00849175 -0.00700442 -0.00450402 -0.0111686 -0.0101252 -0.00778542 -0.0122762 -0.0118788 -0.0101728 
-0.0126253 -0.0126273 -0.0111767 -0.0120064 -0.0124305 -0.0113897 -0.0106548 -0.0113928 -0.0105409 
-0.00901908 -0.00988339 -0.00921367 -0.00731699 -0.0081972 -0.0077307 -0.00571649 -0.00660198 -0.00650494 
-0.00420707 -0.00508084 -0.00546264 -0.00262941 -0.00351478 -0.00438547 -0.00104731 -0.00187284 -0.0032012 
0.000429426 -0.000242908 -0.00180383 0.00161137 0.0011041 -0.000391189 0.00221792 0.00200324 0.000699243 
0.00193135 0.0022749 0.00123225 0.00022973 0.000955161 0.000263777 -0.00147693 -0.000377445 -0.00146343 
-0.00439824 -0.00308236 -0.00364664 -0.00724789 -0.00601965 -0.00707899 -0.00945699 -0.00856182 -0.0100853 
-0.0107359 -0.0101933 -0.0119841 -0.0112862 -0.0107871 -0.0126195 -0.0119363 -0.011671 -0.0129296 
-0.0117704 -0.0118947 -0.01316 -0.011096 -0.0114457 -0.0126446 -0.00978507 -0.0103806 -0.0115195 
-0.00887666 0.0463088 -0.00990253 0.0100988 0.0106479 0.0109108 0.0108653 0.0118298 0.00824004 
0.010856 0.0110706 0.012259 0.0105432 0.0102644 0.0117183 0.00823909 0.00916377 0.0113571 
0.00575585 0.00693377 0.00913381 0.00305529 0.00426993 0.00621611 0.00109962 0.00212345 0.00377593 
-0.000864028 1.26017e-06 0.00176084 -0.00247936 -0.00184916 -0.0004629 -0.00307934 -0.00294872 -0.00201636 
-0.00262775 -0.0029566 -0.00238679 -0.00145157 -0.00205568 -0.001675 4.82628e-05 -0.000718806 -0.000316774 
0.00194412 0.000916507 0.00124728 0.00386104 0.00287133 0.00295735 0.00582374 0.00483658 0.00466633 
0.00789349 0.00685625 0.00641167 0.00992658 0.008891 0.00835811 0.0117518 0.0108376 0.0103412 
0.0129468 0.0123433 0.0117259 0.0135014 0.0133564 0.0130148 0.0133338 0.0128303 0.0101457 
0.0114299 0.0119573 0.00692034 0.00834678 0.00829992 0.00376739 0.00542619 0.0048273 -0.000610909 
0.00151494 0.00110445 -0.00522755 -0.00307675 -0.00387768 -0.00984888 -0.00756698 -0.00884949 -0.0150854 
-0.012481 -0.0138462 -0.0207919 -0.0177252 -0.019193 -0.0279751 -0.0235507 -0.0248897 -0.0389021 
-0.0333859 -0.0332822 0.00283554 0.00130622 -0.00941559 -0.0130257 -0.00486919 -0.0175085 -0.0230209 
-0.0352265 -0.0381966 -0.0364547 0.029915 0.0280537 0.0209071 0.0308331 -0.0173126 -0.0209539 
-0.0232878 -0.00911471 -0.0129938 -0.0147944 -0.00132051 -0.00541125 -0.00684448 0.00649561 0.00245923 
0.000505735 0.0135426 0.00993249 0.00757986 0.021016 0.0173537 0.0147581 0.0277729 0.0245475 
0.0219823 0.0337746 0.0306515 0.0280735 0.0394941 0.036509 0.033203 0.0427135 0.0408005 
0.0368747 0.0454584 0.0438991 0.0388028 -0.0261022 -0.0178069 -0.00630938 0.00974694 -0.00846804 
-0.0315826 -0.0309599 0.00278738 0.00355388 0.0177522 0.0135049 -0.0090154 -0.00985484 -0.00934717 
0.0124256 0.0150614 0.0141033 0.000776956 -0.000135 0.00959385 0.00902442 0.0081713 0.00811037 
0.00882512 0.00726529 0.00589152 0.00609189 0.00451876 0.00570985 0.00355908 0.00137493 0.00440573 
0.000612575 -0.00065588 0.00302022 -0.000662151 -0.000750632 0.00290655 0.00037616 0.00155738 0.00451389 
-0.00223541 -0.00135278 0.00285168 0.00501051 0.00921033 0.00429044 -0.00210817 -0.00797133 0.00412241 
0.0228925 0.020153 0.0203221 0.0275237 -0.000556586 -0.00193531 -0.0033887 -0.0027558 -0.00446396 
-0.00397885 -0.00530167 -0.0069176 -0.00494732 -0.00756433 -0.00882583 -0.00585213 -0.0091561 -0.00968619 
-0.00626002 -0.00939688 -0.00898584 -0.00570562 -0.00843383 -0.00741219 -0.00311863 -0.000712621 -0.00221456 
0.000196951 -0.00377577 -0.00508113 -0.00332025 -0.0538418 -0.00648552 0.0241674 0.0249411 -0.0269757 
-0.0294864 -0.0235061 -0.0387541 -0.0439137 -0.0196423 -0.0269602 -0.0290204 0.0106886 0.00797869 
-0.00440884 0.0107708 0.00839826 0.00839379 -0.00951554 0.0254606 0.0299074 -0.0115199 -0.0116322 
-0.00556527 -0.0145661 -0.0193719 0.0173149 0.0210081 0.0255719 -0.00986161 0.0123576 0.015253 
0.00765271 0.0401264 -0.0114078 -0.011135 -0.0124853 -0.0438249 0.000843721 0.000971284 -0.00339271 
0.00724556 0.00728901 0.00471047 0.0140046 0.0188236 -0.0306345 -0.0296502 0.0273416 -0.0113392 
0.0239366 0.0137049 0.00784563 0.00436297 0.00763593 0.00720615 -0.0112897 -0.0106265 -0.0111372 
0.00312378 0.00632382 0.00700972 -0.000728263 0.000461545 -0.0042177 -0.00559261 0.0255372 0.0210051 
0.0168038 0.0108082 0.0123725 0.0192477 -0.00332779 -0.0247288 -0.0140885 -0.00690357 -0.0223609 
0.0226113 0.020909 -0.000667771 -0.00210752 0.0139888 0.013182 0.0139801 0.0141301 0.0155976 
0.0139036 -0.15416 0.0124574 0.0129403 0.0143946 0.0109438 0.00944328 0.0131475 -0.00988274 
-0.0110276 -0.0124412 -0.0104334 -0.0120469 -0.00151246 -0.00874263 -0.00841378 -0.00871082 -0.00893983 
-0.00753263 -0.00809188 -0.0062892 -0.00683013 -0.00537324 -0.00591239 -0.00500086 -0.00527843 -0.00483481 
-0.00519241 -0.00473611 -0.00508032 -0.00442665 -0.00487151 -0.00234088 -0.00287765 -0.0012489 -0.00163819 
-0.0104127 -0.00872215 -0.0138701 -0.0127093 -0.0146581 -0.015298 -0.0147616 -0.0176454 -0.0146068 
-0.0146823 -0.0174824 -0.0148549 -0.0141503 -0.0143208 -0.016058 -0.0133147 -0.0137599 -0.0148582 
0.0141003 0.0141681 0.00649896 0.0144115 0.0345405 0.0110614 0.0104353 0.0105314 0.0118376 
0.0132972 0.0140038 0.014828 0.000403655 0.0047335 0.0133698 0.0131537 0.0152004 0.0127286 
0.0123528 0.00341172 0.00447034 0.00204713 0.00139721 -0.00144369 0.00107839 -0.0076359 -0.00501386 
-0.00517565 -0.0130609 -0.0107141 -0.0120714 -0.0180125 -0.0154513 -0.0171693 -0.0233854 -0.0205621 
-0.0218376 -0.0295065 -0.0265256 -0.0274124 0.000810974 -0.00627132 -0.00356219 -0.00106215 -0.00439452 
0.0344609 -0.00461496 -0.029223 -0.0265498 -0.0246929 0.0239299 0.0269513 0.0234082 0.0190717 
0.0221499 0.0194124 0.0140025 -0.0324979 -0.0342786 -0.00704788 -0.00126285 -0.00502431 -0.00703765 
-0.0109387 -0.0203961 -0.0244516 -0.00552318 -0.0072361 -0.00913696 0.0157528 0.012261 0.0230799 
0.0197166 0.0171787 0.0280389 0.0255742 0.0233401 0.0328532 0.0305274 0.0280121 -0.0492023 
-0.00191641 -0.00391408 0.0205101 0.0228304 0.0164527 0.0187175 0.0223276 -0.0114979 0.0174759 
0.0148975 0.00858384 0.00563608 0.00790353 0.0177307 0.0065101 0.00287634 0.011242 0.0086024 
-0.0115774 -0.0156077 -0.0174871 -0.00596843 -0.00385051 0.00804533 0.0138749 0.00882236 -0.0125837 
-0.0119069 -0.0127027 -0.0307404 -0.0293606 -0.0276451 0.00424877 0.00218004 0.00674882 0.0130375 
0.0107629 0.0133316 0.0182403 0.0114727 -0.0348992 -0.0344021 -0.000615771 0.00258285 -0.0134219 
-0.0137823 -0.0141822 -0.00053174 -0.00645528 -0.00360594 0.0182728 0.0179339 0.0161426 -0.00644601 
0.00020728 -0.00413538 0.0340896 0.0301753 0.0336963 -0.000757203 -0.000938013 -0.00417804 -0.00604298 
-0.0122389 -0.0308947 0.000224089 -0.00201648 0.0103674 -0.0135661 -0.0132807 0.0017527 0.00461122 
0.00695803 0.000703479 0.0138973 0.00652801 0.00818069 0.00564388 -0.000954652 -0.000388052 -0.00116749 
-0.00130845 0.00241705 0.00366648 0.00322848 0.00267181 0.00403319 0.00318636 0.00519864 0.00457619 
0.00801262 0.007125 0.0101724 0.00915519 0.0190106 0.0268334 -0.0840435 -0.0548485 0.00234353 
-0.00934731 -0.0141017 0.00298354 -0.0248653 -0.0227135 -0.0255623 -0.0508261 -0.0344395 -0.0176659 
0.00582253 -0.0282517 -0.0228884 0.00712734 -0.0185832 -0.0141307 -0.0147093 -0.0123905 -0.00734405 
0.0272301 0.0016127 0.00554397 0.00520966 0.0043582 0.00637341 0.000123882 0.00427583 0.00350639 
0.00166155 0.00105225 0.00927459 -0.00976622 0.00460568 0.00505847 0.00604958 0.00747665 -0.0236707 
-0.0239683 0.0021755 0.0106038 -0.0195095 -0.0212818 -0.0160171 0.00323352 -0.0231541 -0.0234394 
-0.0238566 -0.0193916 -0.017104 -0.0144182 -0.000473473 0.00557085 0.0228595 0.020977 0.00439251 
-0.0137982 0.0174587 0.015815 -0.0161557 -0.0156991 -0.0163156 -0.0161547 -0.0103232 0.00606215 
-0.0166881 -0.00922502 -0.0217764 -0.0243774 -0.0225194 0.000649764 0.00782535 -2.08966e-05 0.00458686 
0.00480469 -0.00500771 -0.00121249 0.017696 0.0166021 -0.0276643 -0.0277019 -0.0249297 -0.0211975 
-0.0198495 0.0178252 0.0185641 0.0231983 0.020926 -0.0202287 -0.0213846 -0.0193115 0.015028 
0.00535576 -0.00246948 0.0062725 0.00994474 -0.015763 -0.0150349 0.0141963 -0.00523614 -0.0104702 
0.00187067 0.00600948 0.0109041 0.00868225 0.0139871 -0.0141927 -0.0172194 0.0268536 0.0252091 
0.0230129 0.0244983 -0.0170821 -0.0107816 0.00741682 0.0126277 -0.022525 -0.0191981 0.0229035 
0.0237757 0.0188632 0.0206154 -0.023808 -0.0224442 0.017303 0.01719 -0.0267369 -0.0136335 
-0.0166015 -0.0208241 -0.0192423 -0.0192529 0.0122178 0.0262166 0.0326388 -0.0237968 -0.0213276 
0.0224827 0.0412851 0.0520847 -0.115473 -0.140433 -0.0249301 0.0714214 0.0987879 -2.96534e-05 
-0.157739 -0.0142956 -8.79341e-05 -2.94714e-05 -2.0663e-05 -1.97115e-05 4.9917e-06 9.84967e-06 2.49751e-05 
2.56048e-05 3.52365e-05 4.12254e-05 5.37442e-05 4.76516e-05 5.79978e-05 5.21481e-05 6.22668e-05 5.12316e-05 
5.75893e-05 4.20241e-05 4.64163e-05 3.80017e-05 3.45363e-05 2.14731e-05 -4.76589e-06 -1.49665e-05 -3.1317e-05 
-3.57427e-05 -6.17745e-05 -5.61964e-05 -8.61713e-05 -7.64669e-05 -9.85195e-05 -8.83929e-05 -0.000116179 -0.000105231 
-0.000125641 -0.000107322 -0.000125075 -0.00010105 -8.88884e-05 -7.99766e-05 -7.9582e-05 -6.95761e-05 -2.24378e-05 
-2.6462e-06 7.93655e-06 1.59365e-05 3.83611e-05 3.54488e-05 5.51236e-05 7.58185e-05 8.44946e-05 9.4767e-05 
0.000117171 0.000125915 0.000149379 0.000141413 0.000162261 0.000156827 0.000179418 0.000163678 0.000182283 
0.000163178 0.000174969 0.000158103 0.000170987 0.000148226 0.000156911 0.000147313 0.000165787 0.000139349 
0.00017316 0.000167136 0.000217252 0.000207103 0.000262931 0.000265391 0.000319424 0.00032707 0.000425012 
0.000402702 0.000560024 0.000644954 0.00095583 0.00116912 0.00216341 0.00452161 0.00698417 -0.00154935 
0.149264 5.70103e-05 0.000111625 -0.0108584 -0.00775601 -0.00816213 -0.00268111 -0.00180817 -0.000938113 
-0.000802291 -0.00054336 -0.000613069 -0.00040811 -0.000446439 -0.000327949 -0.000341771 -0.000247716 -0.000225885 
-0.000195467 -0.000205298 -0.000171321 -0.000189723 -0.000165879 -0.000180717 -0.00016365 -0.000189546 -0.00015029 
-0.000130887 -0.00015282 -0.000205189 -0.00017319 -0.000212672 -0.000188584 -0.000224957 -0.000194649 -0.000212302 
-0.000190155 -0.000194019 -0.00017126 -0.000178117 -0.000153933 -0.000139211 -0.000110796 -0.000103771 -7.3507e-05 
-6.12768e-05 -4.34717e-05 -2.0664e-05 7.37008e-06 1.35174e-05 2.69835e-05 5.5953e-05 5.42417e-05 9.75539e-05 
8.95952e-05 0.000115679 0.00011847 0.000134223 0.000121235 0.00013297 0.000118262 0.000124646 0.000102135 
0.000109519 8.78482e-05 8.68645e-05 6.55043e-05 5.999e-05 3.04488e-05 1.55506e-05 3.58156e-06 -2.64999e-06 
-2.22911e-05 -4.20499e-05 -3.53061e-05 -5.15715e-05 -5.1296e-05 -6.6395e-05 -5.88377e-05 -7.20209e-05 -6.35905e-05 
-7.45371e-05 -6.27838e-05 -7.10068e-05 -5.03021e-05 -5.04193e-05 -3.55438e-05 -1.93923e-05 8.64157e-06 3.69936e-05 
6.80287e-05 3.8614e-05 -4.08842e-05 -8.17251e-05 6.56942e-05 2.97126e-05 5.90883e-06 -2.94436e-05 -3.16063e-05 
-2.56382e-05 -4.43401e-05 -4.3927e-05 -5.47477e-05 -5.17862e-05 -6.54804e-05 -6.35755e-05 -7.83818e-05 -6.93413e-05 
-8.29136e-05 -7.133e-05 -8.77804e-05 -7.22326e-05 -5.09796e-05 -6.64338e-05 -4.94352e-05 -3.98209e-05 -1.9148e-06 
-2.32063e-05 -1.55885e-05 4.96743e-06 1.43125e-05 2.48853e-05 2.75595e-05 3.41565e-05 2.33091e-05 6.08915e-05 
6.59665e-05 7.02603e-05 3.92578e-05 5.31238e-05 4.97554e-05 6.07134e-05 5.33755e-05 7.86865e-05 6.504e-05 
7.10387e-05 5.79089e-05 5.8813e-05 3.81179e-05 3.2142e-05 2.62475e-05 1.11985e-05 -1.17429e-05 -2.5241e-06 
-2.44216e-05 -7.44175e-05 -0.00879374 -0.00290602 0.00166998 -0.000348246 0.00121584 -5.77564e-05 0.000603742 
-0.000159755 0.000213029 -4.87493e-05 0.000271034 -5.96453e-06 0.000297563 3.30488e-05 -0.000243012 5.70631e-05 
-0.000151745 0.000662642 -0.000155702 0.00073194 -0.000506816 0.00153843 -0.00248046 0.0028612 0.00291136 
0.0131232 9.25928e-05 -0.0095302 -0.00107753 -0.00146597 0.00668715 -0.000498692 0.00098808 -0.000122562 
0.000665003 -3.58149e-05 0.000595714 -6.75039e-05 0.00026076 -0.00011079 0.000217521 -0.000142204 0.000170996 
-0.000172381 0.00013986 -0.000336552 4.09651e-05 -0.00038323 0.000441253 -0.000504808 0.000986949 0.00149622 
0.00511407 0.00607288 0.157572 -8.83192e-05 0.000179454 0.000369166 9.32341e-05 0.000167679 0.000160658 
0.000199211 -0.000104179 -9.07599e-05 0.000569074 0.0001911 0.000193683 -0.00515293 0.00226431 0.000185806 
0.00528481 -0.00454998 0.000178013 0.000134638 7.35678e-05 -6.57544e-05 -0.000127231 -0.000699214 0.000197968 
0.00365535 0.000463341 0.000237805 -0.00538105 -0.0093193 -0.00779691 -0.000689279 -0.000984577 -0.0012822 
-0.0016577 -0.00038051 0.000712908 -0.000305748 -0.00598733 -0.00468013 -0.00582577 -0.00455428 -0.00335697 
-0.0101298 -0.0106434 -0.00776385 -0.00895226 -0.0064051 0.0676892 0.0550995 -0.00766531 -0.00642297 
-0.0071599 0.00281326 0.00146518 0.00302414 0.010219 0.00881605 0.00817174 0.000865196 0.00157208 
-0.000945817 0.00159453 0.00151307 -0.0120114 -0.010198 -0.00962074 -0.00794169 0.0334537 0.0272583 
0.0380231 0.0308937 0.00546751 0.00575756 0.00433936 -0.00630509 0.00637313 0.00670118 0.0667428 
0.0766905 0.063655 0.0747446 0.00251223 0.00227427 0.00286367 -0.0562821 -0.0571128 -0.0618554 
-0.0627542 0.00164079 0.00328546 0.00162722 0.00400122 0.00273783 0.00521536 0.00393464 0.0142989 
0.0130083 0.0128068 0.0123806 0.0122448 -0.0054564 -0.00406749 -0.00531897 -0.00557884 -0.00763617 
-0.00710683 -0.00825148 -0.00362742 -0.00437427 0.0259318 0.0245947 0.0221903 0.0206904 0.00714124 
0.00617172 0.00737118 0.0146722 0.0152775 0.0158153 0.0138101 0.0147938 0.0134288 0.0137178 
-0.00829035 -0.00830665 -0.00935039 -0.00934364 2.91225e-05 -0.00625769 -0.00297037 0.0141796 0.0158618 
0.0183981 0.0180713 0.0203954 0.000214874 -9.91866e-06 0.000103949 -6.6879e-05 -0.0242066 -0.0212437 
-0.0244345 -0.0219658 -0.0183692 -0.0184501 -0.0164058 -0.0168304 -0.00415163 -0.00318722 -0.00519216 
-0.00419891 0.0129748 0.0124146 0.0124972 0.000606365 0.000910542 0.00140327 0.00160317 0.00183434 
0.00469459 0.00666091 0.00333728 0.00520194 0.00204252 0.001125 0.00237724 -0.00386834 -0.00298578 
-0.00394647 0.0135104 0.00356107 0.00364994 0.00384767 -0.0105416 -0.011831 -0.0117382 0.000437931 
0.000985063 0.000529901 0.00479617 0.00422698 0.00360919 0.00516855 0.00418625 0.00555063 -0.000600585 
-0.0010241 -0.00166973 -0.00215754 -0.00780487 -0.0122813 -0.0108162 -0.00116738 -0.00115493 -0.00229547 
-0.00202093 -0.00306566 -0.00253124 -0.00744514 -0.00656186 -0.00601995 -0.00787786 -0.0098158 -0.00723613 
-0.00925623 -0.00310375 -0.00202555 -0.00273691 -0.00170582 -0.00337148 -0.00283277 -0.00337878 -0.0123517 
-0.0137175 -0.0126471 0.062606 0.0520573 0.0504609 -0.0263027 -0.0256675 -0.0290951 -0.0275729 
0.0338974 0.0354624 0.0226698 0.0254698 0.0357641 0.033844 0.0493663 -0.00800065 -0.0100876 
-0.00828803 -0.0103952 0.0128354 0.0133333 0.00638226 0.00584499 0.00518904 -0.000789034 -0.000523059 
-0.00119866 0.00318927 0.00358154 0.00265374 -0.00456659 -0.00404529 -0.00510739 -0.00457121 0.046385 
0.0512711 0.048276 0.0534264 -0.00199281 -0.0012736 -0.00120769 0.0228278 0.0203505 0.0187313 
0.00366961 0.00410645 0.00253906 0.00126984 0.00235898 -0.00120066 0.00298953 -0.00049846 -0.00412754 
-0.00475507 -0.00364661 0.0982608 0.11112 0.105278 0.11695 -0.00197692 -0.00291618 -0.00294622 
-0.00294165 -0.0031904 -0.00401854 -0.00233084 -0.00117753 -0.0021997 0.0394553 0.0391839 0.0359146 
0.0280212 0.0321748 0.0295231 -0.0590201 -0.0649252 -0.0616577 -0.00115794 -0.00115144 -0.00166148 
-0.00164809 0.00894644 0.00803803 0.00739392 0.00587067 0.00730993 0.0066474 0.031198 0.0192229 
0.0283896 -0.0671464 -0.0254723 -0.0211936 -0.0233043 -0.0025083 0.0107329 0.0105491 0.0118541 
0.0116366 0.0117761 0.0113146 0.0118174 -0.00189417 -0.0195254 -0.0158371 -0.0175111 0.0157197 
0.0147988 0.0194669 0.00137659 0.00922211 0.0104329 0.00977735 0.0452953 0.0523553 0.051012 
0.00014949 -0.0150559 -0.0124262 -0.0138853 -0.0031276 -0.000508096 0.000703039 -0.000145601 -0.000578461 
-0.000946631 -0.000223295 -0.00234084 -0.00105041 -0.000690694 -0.00157782 0.0039616 0.00460346 0.00310008 
-0.00271281 -0.00105941 -0.00188134 -0.0687696 -0.0676202 -0.0730155 -0.073702 -0.0751705 -0.0803002 
-0.00191285 0.0741598 0.0717933 0.0649987 0.0240455 0.0213415 0.0194497 -0.00212274 -0.00279596 
0.00508813 0.00269651 0.00254381 -0.00573599 -0.00631537 -0.00678446 -0.0121231 -0.011804 -0.0104417 
-0.0100613 0.0120555 0.0114253 0.0131656 0.0125429 -0.0054326 -0.00420973 -0.0055134 -0.0103666 
-0.00965613 -0.00910463 -0.00844732 0.0146966 0.016959 0.0445785 -0.00603997 -0.00490717 -0.00512091 
-0.003973 -0.00516345 -0.00461621 0.0342025 0.0393801 0.0296963 0.0346258 0.0057883 0.00575886 
0.00474673 -0.0709188 -0.0747885 -0.0684108 -0.0175371 -0.0212653 -0.0150173 -0.0742352 -0.0666345 
-0.0563018 -0.0217945 -0.0271871 -0.0256371 -0.0430073 -0.0489494 -0.050276 0.0114778 0.0113173 
0.0106728 -0.00368099 -0.00684666 -0.00515753 -0.026103 -0.0291379 -0.0339007 0.0204907 0.0238961 
0.0215954 0.0935766 0.0708221 0.0993192 0.023368 0.025366 0.0240482 -0.0148327 -0.0186233 
-0.0159231 -0.180537 -0.0445743 -0.0015807 -0.00135287 0.000676843 -0.0389336 -0.0424758 -0.0410164 
-0.00212459 -0.00186118 -0.00106608 -0.0557923 -0.057732 -0.0613061 -0.0967711 -0.121982 -0.147341 
0.0120216 0.0548504 -0.028638 -0.0232074 -0.0343667 -0.0065254 -0.00751011 -0.00779017 -0.012888 
-0.0129761 -0.00478336 -0.00508769 -0.00599253 -0.00628718 -0.0288682 -0.0231065 -0.00144336 -0.00325325 
0.0136862 -0.0227762 -0.0274104 -0.000672984 -2.5868e-05 -8.1078e-05 -0.0398736 -0.0550159 -0.0470476 
-0.00764051 -0.00740055 -0.00650051 0.0060117 -2.40523e-05 0.00265175 -0.00294932 -0.00100341 -0.00135732 
-0.000685614 0.04406 -0.0126125 -0.0144386 -0.01654 0.0182859 0.0259755 0.0127748 0.0199574 
0.00328608 0.00565602 0.00781628 -0.00331854 -0.00368496 -0.00327562 0.00248845 0.00239221 0.00306891 
0.00306304 -0.0464304 -0.0380386 -0.0376853 0.000852568 0.000471437 0.000264611 0.000315676 0.000759332 
0.00052371 -0.00743802 -0.00730228 -0.0056186 0.00970152 0.0107958 0.00964751 0.0284906 0.0285387 
0.0213433 0.0252204 0.0211368 0.0177815 0.0181971 0.0142796 0.0132875 0.0119366 0.0254161 
0.00600245 0.00622177 0.00771512 -0.0068484 -0.00779217 -0.00653825 -0.00685579 -0.00622722 -0.00703472 
0.00239894 0.00175452 0.00175446 0.0188233 0.0209536 0.0245125 0.006212 0.008809 0.000975008 
0.00363673 -0.00228055 0.00631791 0.00548922 0.00325917 0.00443553 0.00335609 0.0124931 -0.00234343 
-0.00343653 0.00453994 0.00315849 0.00435381 -0.00421291 -0.00313575 -0.00396769 -0.00501856 -0.00298537 
-0.0279887 -0.0234715 0.00150395 0.000847095 0.00250469 0.00587519 0.00448724 0.00602317 0.004638 
0.00144496 0.00329484 0.00257084 -0.00242874 0.00386312 0.00263914 0.00288937 -0.0109191 -0.0066511 
-0.0107372 0.00489061 0.00383532 0.00432486 -0.00223459 -0.00111816 -0.00227079 0.0049875 0.007015 
0.00647526 0.00859134 0.000484275 -0.00121271 0.00492647 0.0061046 0.00731542 0.0085678 0.00128758 
0.00357019 0.00480153 0.0123208 0.0114649 -0.000116126 -0.0012908 -0.000498054 -0.00171649 0.0380961 
0.0436148 0.0410613 0.0471567 0.000680335 0.00138872 0.00272718 0.00230184 0.00385163 -0.0129837 
-0.0133988 -0.0132841 -0.010218 -0.00818624 -0.00798719 -0.0307315 -0.0210992 -0.0259634 -0.00266367 
-0.0020985 -0.00206312 -0.00609767 -0.00588585 0.000999812 -0.0141883 -0.0126487 -0.0143597 -0.0127717 
0.00995187 0.0125105 0.011124 0.00207671 0.00269974 0.00224118 0.00258594 0.00297413 0.00237182 
-0.0020807 -0.00661147 -0.0066323 0.0383945 -0.00688523 -0.00796674 -0.00726372 -0.00494961 -0.00575613 
-0.00432734 -0.00522496 -0.0503344 -0.0709114 -0.033912 -0.00785668 1.86616e-06 0.00172886 -0.000313358 
-0.00160016 -0.00316614 0.00126178 0.0011302 0.00234793 -0.0225218 -0.0169696 -0.0237941 0.0123663 
0.0106035 0.0160579 0.00348064 0.00256091 -0.00816239 -0.00778961 -0.00721954 0.0106317 0.00694121 
0.0131578 0.0090267 -0.0165955 -0.0106683 0.00510734 0.00499057 0.00625658 0.00614816 0.00547567 
0.00501119 0.00486296 0.00435735 -0.00119479 -0.000532561 -0.000592132 -0.101708 -0.0725108 -0.101218 
-0.00367911 -0.0046847 -0.00377463 0.00384966 0.00266176 0.00377891 -0.0026599 -0.00292377 -0.00325662 
-0.0052993 -0.00625534 -0.00574432 0.00639025 0.00722927 0.00618852 0.00702171 -0.00731652 -0.00850534 
-0.00504252 -0.0052365 -0.00565516 0.00757393 0.00716675 0.00675112 0.00637003 0.00246428 0.00243252 
0.00240247 -0.00451825 -0.00768396 -0.00838043 -0.00744124 -0.00630314 -0.00531919 -0.00599899 -0.00049033 
-0.000327632 8.3076e-06 0.000192886 0.00851671 0.00840016 0.00738021 -0.00236732 0.00724624 0.00534373 
0.0056234 0.00118269 -0.0337576 -0.0359413 -0.028084 0.0120122 0.0105145 0.0121441 -0.00175589 
-0.00203176 -0.00148826 -0.0279027 -0.0257861 0.0161305 -0.00608267 -0.00478795 -0.00431848 0.036397 
0.0497177 0.0352671 -0.0427477 -0.0433071 0.0176937 0.0152428 0.0150869 0.0127647 0.034697 
0.0366177 0.0428234 0.00428369 0.00599776 0.00343984 -0.00218189 -0.00135804 -0.00155808 -0.00285348 
-0.0115145 -0.0114283 -0.0070822 -0.00805067 -0.000399262 0.00686476 0.00680612 0.00184174 0.00102112 
0.00085353 -0.0780196 -0.0814147 -0.00564353 -0.00538459 0.00444703 0.0056642 0.00524188 -0.0421376 
-0.0584262 -0.0392288 -0.0429002 -0.0356465 -0.0392855 0.00848485 0.00872117 0.00956361 0.0123356 
0.0025637 0.00013485 0.00120989 0.0101267 0.00945962 0.0112833 -0.0230429 -0.0246389 -0.0205518 
-0.0221501 0.00428863 0.0048107 0.00543697 0.00498934 0.0042297 0.00517623 0.00545355 0.00714684 
0.00785536 0.00662568 0.0341821 0.0324347 0.0353332 0.00139541 -0.00113216 -0.000998888 -0.00357884 
-0.00747067 -0.00373809 -0.00517234 -0.00561088 -0.00952063 -0.0318588 -0.0434165 -0.0189554 -0.00109421 
0.0853116 0.0969018 0.0882424 0.000869222 -0.0273262 -0.0273289 -0.0338637 -0.00542774 -0.00921602 
-0.0399405 -0.0325883 -0.0457921 0.0145792 0.0202822 0.0140495 -0.0358334 -0.034842 -0.032758 
-0.0319349 0.00406779 0.00591587 0.0045514 -0.0164988 -0.0137619 -0.0190967 0.0476409 0.0626211 
-0.00116208 -0.000639037 -0.00150541 -0.00032671 -0.000789623 -0.000503247 -0.0285519 -0.000947607 -0.000325983 
-0.0153459 -0.00972034 -0.0138621 -0.00899836 -0.0102575 -0.00895442 -0.0102155 0.00173712 -0.000106251 
0.0167662 0.0198817 0.0245465 -0.00528587 -0.00591676 -0.000884393 -0.00362578 -0.00464822 -0.0321973 
-0.031115 -0.0462185 -0.0465914 0.0996785 0.0834913 0.0852635 -0.00976967 -0.00995958 -0.0107419 
-0.0108815 0.0284665 0.0301315 0.0236895 0.0128523 0.0153175 -0.0473213 -0.0522581 -0.0425889 
-0.0286069 -0.03225 -0.00884605 -0.00910744 0.0234473 0.0211475 -0.00802622 -0.00828282 -0.00895196 
-0.00925304 -0.02342 -0.020687 0.0320641 0.0314258 0.0401445 0.00589271 0.0100618 -0.00176171 
0.00244398 0.00280868 0.00179491 0.0328223 0.0360475 -0.0335736 -0.0376045 -0.0329783 -0.0366684 
0.0288666 0.0290703 0.0120059 0.0081294 0.01146 -0.0133031 -0.0186859 -0.0146919 0.0385781 
0.0466847 0.0299802 -0.0259501 0.00942088 0.0104921 0.00937938 0.00341966 0.00261743 0.00379308 
0.00587647 0.00536747 0.000562488 0.0186956 0.0260072 0.0216932 -0.0362844 -0.0485052 -0.0016281 
-0.00312071 0.0300059 0.0150812 0.0167545 0.0126506 -0.0121928 -0.0125998 -0.0112577 -0.0116324 
-0.0123684 -0.0117737 -0.011615 0.000953471 0.000835641 -0.000248636 0.00146155 -0.00189924 0.00139176 
0.0738887 0.081592 0.121798 0.00304043 0.0034921 0.00291248 0.00257028 0.00283838 0.00321694 
-0.00300847 -0.00236645 0.104319 0.163819 0.00982669 0.0104183 0.00554414 0.00192542 0.00145802 
0.00322545 -0.00536148 -0.00481014 -0.00280968 -0.000501178 0.00347454 0.00247777 0.00385486 -0.0031356 
-0.00160696 -0.00325879 -0.0122347 -0.0110329 -0.0128813 0.00826616 -0.00287382 -0.00874932 0.00246283 
0.00321609 0.00264242 -0.00968529 -0.00585704 -0.00655461 -0.00698617 0.0102399 0.0095679 0.00916901 
-0.00256778 -0.002154 0.00735821 0.0111107 0.0124505 0.0098565 0.0111529 0.00898173 0.0079618 
0.00861073 -0.0135067 0.0591874 0.0389857 0.00809494 -0.0254145 -0.00973574 -0.00510596 -0.0195613 
-0.0237827 -0.0189278 0.0281941 -0.0153154 0.00528617 -0.029312 -0.026117 -0.0337914 -0.0262849 
-0.0369759 -0.0375324 -0.0453836 -0.000696709 0.010978 0.00972894 0.0124149 0.00646006 0.0119008 
0.00974473 0.00464408 0.00444123 0.00573352 0.00547018 -0.0110186 -0.00840784 -0.00646765 0.00053226 
0.00102845 0.000808654 0.00136573 -0.023325 0.0100346 0.0104943 0.0134691 0.0135323 0.0131419 
0.00439579 0.0055944 0.0323002 -0.0102942 -0.00952987 -0.0231286 -0.0258314 -0.0271213 0.0775438 
0.00723111 -0.0102362 -0.0111924 -0.0104577 0.0194423 -0.00308905 -0.00437179 -0.00411324 -0.0535651 
0.00395646 0.00401578 -0.0456783 0.00881192 0.00925912 0.00818005 0.0538969 0.0698557 0.0516414 
0.0133212 -0.0282556 -0.032075 -0.0269895 -0.0308673 -0.0179828 -0.0129368 -0.0185458 -0.0125904 
0.0129955 0.0130084 0.0132137 0.014873 0.0160295 0.0178478 0.0116022 0.00999998 0.0107663 
-0.0113391 -0.00530253 -0.0162063 -0.00988677 0.0119642 0.0134433 0.049558 -0.00871094 -0.00519266 
0.00134595 0.00241002 -0.00158739 -0.00299015 -0.0396593 -0.0287662 -0.0385758 -0.0284397 -0.0222809 
-0.0219617 -0.00552818 -0.00390467 -0.0158848 -0.0152449 0.0270888 0.0296102 0.0262045 0.0288218 
0.00326008 0.00245624 -0.0288 0.00292735 -0.000830961 0.0395153 0.0474821 0.0429584 0.0547143 
-0.0203293 -0.0261481 -0.00030982 -0.000413327 -0.00012016 0.000799164 0.00159657 0.000954561 -0.00147056 
-0.0238148 -0.0266904 -0.0212135 -0.0224346 0.0147868 0.0128285 0.0146892 0.0103196 -0.0377757 
-0.0322897 -0.0206485 -0.020721 -0.0235684 -0.0050771 -0.00565883 -0.00431923 0.0166131 0.017343 
0.0122921 -0.0122158 -0.0114978 -0.012224 0.0128388 0.0108375 0.0103729 0.00837712 -0.0119943 
-0.0129058 -0.00216395 -0.000330523 -0.00130824 0.00686452 0.00744794 -0.00941071 -0.00894657 -0.00986514 
-0.00385305 -0.00517863 -0.00406797 -0.00408569 -0.00425337 -0.0327317 -0.0304439 -0.0293201 -0.00613754 
-0.00949557 -0.00872264 -0.0101621 -0.00936078 0.00406804 0.00287099 0.0076385 0.00717999 -0.00510043 
-0.00826082 0.00406249 -0.0375101 -0.0436004 0.016176 0.0131818 0.0217439 0.0183122 -0.0126488 
-0.0121483 -0.0134754 -0.0130466 -0.00330473 -0.00220172 -0.00253956 -0.00146535 -0.00151029 0.00179616 
0.00112497 0.00446989 0.00147207 0.00403258 0.00361841 -0.0349904 -0.0337892 -0.0378225 -0.0366351 
0.0398243 0.002292 -0.00838142 0.00700694 0.00722235 0.00628856 0.00341469 0.00318131 0.00413246 
-0.00137851 -0.00251653 -0.00119237 0.0119525 0.0115593 0.016232 -0.134776 -0.0971064 -0.100725 
-0.0086904 -0.00371254 -0.00279454 -0.00208629 -0.00128457 -0.000663404 0.000225452 -0.0132231 -0.0237998 
-0.0260458 -0.0268711 0.00503402 0.00511669 0.00387437 -0.0292274 -0.00275618 -0.00274666 -0.0633899 
-0.0634592 -0.00188302 -0.0016301 -0.000869459 -0.00554233 -0.000999543 0.00105686 0.00097048 0.00203822 
-0.00362769 -0.00283854 -0.00305828 0.00126875 0.00231645 -0.000516109 0.0036067 0.00252675 0.00350332 
0.00246506 -0.00561378 -0.0151256 0.00160015 0.00325289 0.0104793 0.00940671 -7.63602e-05 0.00996756 
0.0106549 -0.0132575 -0.0141709 -0.0174155 -0.0183276 0.0135031 0.0189799 0.00901939 0.0114943 
-0.00977161 -0.00840377 -0.00916435 0.0036545 0.00423671 0.00306767 0.011083 0.00784844 0.014688 
0.0109939 0.0146892 0.00906746 0.0172023 0.0112125 -0.0588521 -0.0587801 -0.00178724 -0.00149486 
-0.000505238 -0.0036864 -0.0039952 0.0606789 0.0656053 0.0624211 0.000427526 -0.00285839 -0.00255507 
0.0024816 -0.0016114 0.00128343 0.00167072 0.000749967 -0.00189919 -0.00299744 -0.00273505 0.00305629 
-0.002301 0.0136412 0.0136139 0.00821438 0.00932912 0.00956576 -0.00267897 -0.00525708 -0.00772954 
0.00102535 0.00120611 0.000379551 0.0075987 0.0078373 0.0111005 0.0123637 -0.0912839 -0.0936216 
-0.122516 0.0127528 0.0127958 0.0121498 -0.0322743 0.0216947 0.0203491 0.0192777 0.0203845 
0.0282837 0.0275282 0.0218353 0.0297907 0.000764362 0.00143922 0.00102971 -0.000674865 -0.00161077 
-0.00215935 -0.0084668 -0.0114273 -0.00693325 -0.00549417 0.00565177 0.00448145 1.73302e-05 -6.05354e-05 
-0.00813991 -0.00882116 0.0144038 0.0162706 0.0163826 0.000801479 0.000264004 0.00033187 -0.0131878 
-0.0122746 0.0468077 0.0506996 0.0430788 0.046745 0.00399381 0.00382004 0.00389293 -0.0177542 
-0.0180002 0.0656814 0.15124 0.101534 0.00490446 0.00702061 0.00867024 -0.0613631 -0.0675584 
0.00385255 -0.000983506 -0.00175375 -0.0165135 0.0673466 0.0632245 0.067681 -0.000215377 -0.00160865 
-0.00330787 -0.131175 -0.151076 -0.0153387 -0.0154164 0.0132471 0.0179373 0.0285636 2.2795e-05 
-0.00211897 -0.00307768 -0.00337066 -0.0455101 -0.0432771 -0.0211468 -0.00258091 -0.00511835 -0.00798122 
0.0413624 0.0374678 0.0508104 -0.00411694 -0.0031175 -0.00631802 0.00387287 -0.00782453 -0.00200718 
-0.00139434 -0.00268677 -0.00161321 -0.00364303 -0.00496581 -0.00467952 0.00907668 -4.43827e-05 0.0147408 
0.0224649 -0.0010027 -0.00119603 0.0102308 0.0113238 0.0183134 -0.0264693 0.000416182 0.0127326 
0.0187248 0.017092 -0.00269874 -0.00862377 -0.00836409 -0.0116575 0.0992514 0.00478201 0.00915813 
0.007752 0.00687308 0.0082433 0.00804036 -0.00625862 -0.00838947 -0.00636688 0.00810036 0.00470957 
0.00590324 0.00535923 0.0079434 0.0971202 0.128355 -0.0040187 -0.00337302 -0.032853 -0.0345984 
-0.0309191 -0.0323802 0.00848786 0.00747491 6.23734e-05 -0.00104883 -0.000852254 -0.00201148 -0.00258539 
-0.00539132 -0.0058035 -0.0747332 -0.0866973 -0.0759329 0.0129008 0.0100248 0.0112105 -0.0103679 
-0.0114433 -0.0115745 -0.00143515 -0.00389847 -0.0191563 -0.0108449 -0.0109081 -0.00997335 -0.00976438 
-0.0413305 0.0153353 0.013446 0.0127344 0.0111274 -0.0130691 -0.00488492 -0.0111974 -0.000115019 
0.0168583 -0.000746037 1.351e-05 -0.00413798 -0.00482616 -0.00506333 -0.00399475 -0.0485534 -0.0701674 
0.00354103 0.00454913 0.00452365 -0.00219084 -0.00141939 -0.00133455 0.00367435 -0.000683652 0.0059824 
0.00270836 0.000663022 -0.0425806 -0.0100378 -0.0106569 -0.00963168 0.000464925 -0.000205701 0.000312457 
-0.000506447 -0.00283473 -0.00154523 -0.00893771 -0.0101741 -0.0118155 -0.0124888 -0.0138776 -0.0115322 
-0.011224 -0.0128242 -0.0589164 -0.0445174 0.00424416 -0.00057897 0.0014254 0.00121849 0.00202751 
0.00223756 0.00628301 0.00121813 0.000731608 0.00155823 0.00313405 0.00974476 0.010297 -0.00301402 
-0.00293495 -0.00163336 -0.00303061 0.0078483 0.00839979 0.00675858 0.00733524 -0.0346273 -0.041154 
-0.0132985 0.0109156 0.00762227 0.00808254 0.00319436 -0.000787681 0.00274733 -0.000388751 -9.66747e-05 
3.47606e-06 0.00593909 0.00215042 0.00330927 -0.0016075 -0.00445606 0.091145 0.0999029 0.0934061 
0.0480964 -0.0102341 -0.0110532 0.00463742 0.00598635 -9.87569e-05 -0.0227981 -0.0199354 0.0119992 
0.0126258 0.0125532 -0.0571659 -0.0537934 -0.0479568 -0.0122323 -0.0159797 -0.011112 -0.00874855 
-0.00745827 -0.0103902 -0.0235241 -0.0202756 0.00629224 0.0594443 0.0637908 0.048224 8.10618e-05 
-0.0049846 -0.019966 0.00890267 -0.0628562 -0.0524166 -0.0489826 -0.0130988 -0.00801773 -0.00719049 
0.00230626 -0.00528028 -0.00232115 -0.00386944 -0.00407941 0.00562859 0.000806964 -0.0273219 0.0267972 
0.028079 0.0309278 0.00902067 0.00848604 0.0183033 -0.0277039 0.0166403 0.0498787 0.0574451 
0.0454224 0.00152425 0.0228595 0.0197702 -0.0215912 -0.0202176 0.0297426 0.0299291 0.0328031 
0.000578057 0.0053075 0.00651572 0.00220413 0.00170538 0.00335978 0.00286793 -0.0361391 -0.0314428 
-0.0384253 0.0057569 0.0033391 0.00517437 0.00268765 0.00138983 0.00417628 -0.00274986 -0.00416843 
-0.000436703 0.00222921 -0.00388251 -0.00372109 0.0219611 -0.0530446 -0.0695924 -0.0551712 0.0437831 
0.0416631 0.0457595 0.0120036 0.0123792 0.0114991 -0.00498383 -0.0484869 -0.0316511 -0.0298654 
-0.00769754 -0.0180714 -0.0210462 -0.00893475 -0.0099361 -0.00504572 -0.00561009 -0.00477766 -0.00652369 
-0.0293099 -0.0328634 0.00655779 0.00612056 0.00733907 0.0520128 0.0351819 0.074304 0.0578124 
-0.0218502 -0.00708905 -0.00712857 -0.0270432 -0.00363663 -0.0945843 -0.0203692 -0.013516 0.0133436 
0.0123468 0.0134759 0.0124349 0.0058912 0.00725827 0.0112971 -0.0466091 -0.0592394 -0.0405092 
0.0127393 0.00989444 0.000497931 -0.00283581 -0.00177547 -0.00219198 -0.0042877 0.00127457 0.00269343 
-0.0208574 0.00124335 0.00205948 0.00258462 0.00154432 0.000893161 -1.45633e-05 -0.000199675 0.0141144 
0.0159042 -0.0150162 -0.0139859 -0.0141749 0.00182661 0.00179821 -0.0631657 -0.150602 -0.00262226 
-0.00195536 0.00171729 0.000247913 0.0142388 0.0168857 0.018237 -0.00281008 -4.73583e-05 0.00190496 
0.00371832 -0.104183 -0.120951 -0.134711 0.00892801 0.00865026 0.00955603 0.000953994 -0.0124808 
-0.00459305 -0.0113326 -0.0034214 -0.0404259 -0.0170056 -0.00134713 -0.00223686 0.00195597 -0.0163893 
-0.0160977 -0.0182354 0.000124656 -0.000626351 -0.00983164 -0.0136826 -0.0122875 -0.00583925 -0.00671358 
-0.0114767 -0.0141702 -0.0129332 -0.015714 -0.00448234 -0.00326081 -0.0324185 -0.0323745 -0.00384338 
0.0170874 -0.00986157 -0.00887797 -0.0105508 -0.00955725 0.00352082 0.00383995 -0.00860189 -0.00740182 
-0.0101397 -0.0112854 -0.00717488 -0.00592766 -0.00603048 -0.0796727 -0.0536429 0.00170472 0.00158658 
-0.00908672 -0.0100471 -0.00957573 -0.0105601 -0.0104251 0.00112051 -0.0475323 -0.0520226 0.0216651 
0.0254475 0.0230575 -0.121141 -0.125866 -0.116864 -0.0724986 -0.0776695 0.0249966 0.0234215 
0.0273914 0.00579558 -0.00388712 -0.00371035 0.0149818 0.0138826 -0.0110217 -0.0125312 -0.0116353 
0.0692121 0.0633735 0.0976127 -0.00332588 -0.0025122 -0.003675 -0.00084755 -0.0154093 -0.0185512 
-0.0134662 0.0135423 0.0116765 -0.00580764 0.00828831 0.00822461 0.0167416 0.0203159 -0.0504843 
-0.0540326 -0.0548697 -0.0582862 -0.0262855 -0.0381505 -0.006487 -0.00631783 -0.00687921 -0.00329892 
-0.00280849 -0.00384821 -0.010891 -0.016894 -0.00359358 -0.0148697 -0.0125065 -0.00689016 0.0114115 
-0.00573239 -0.00204585 -0.00770185 -0.00375104 0.0129843 -0.0104544 -0.104661 -0.112047 0.00161691 
0.00252404 -0.00114587 -0.000842254 -0.00194744 0.0148124 0.00591446 0.00845232 0.00874029 0.00474157 
-0.000242438 0.000264115 0.000447252 0.00576928 0.00204073 0.0387162 0.00606679 0.00655852 0.0540185 
0.0395069 0.047903 -0.00293417 0.00463573 -0.0134253 -0.0132039 0.00306724 0.00607004 0.00408953 
-0.0119926 -0.0106904 -0.0122145 -0.0108169 0.00324941 -0.0129266 -0.102474 -0.00247485 -0.0168695 
0.0402058 0.0687277 0.0237946 0.0514552 0.0150666 0.0134718 0.0233342 0.152443 0.00503604 
0.00441428 0.00521686 0.00480518 -0.00440341 -0.0053671 0.00205003 0.00108994 -0.000467909 -0.00108684 
-0.00134662 0.0268128 0.0298708 0.0363599 -0.00591568 -0.00477282 0.0107724 0.0151844 0.00123223 
0.00070454 -0.0153068 -0.0106091 -0.00779739 -0.00455687 -0.0028923 -0.00521703 -0.0149296 -0.0132338 
-0.0171267 0.0922025 0.0994303 0.0931052 0.107871 0.0215603 0.0249415 0.00310266 0.0227298 
0.0199466 0.0118328 -0.0116569 -0.0114067 0.107877 0.0534958 0.0501953 0.0580996 0.0546081 
-0.0580601 -0.0820918 0.00487917 0.00105359 -0.00258502 -0.0700618 -0.067774 -0.0584697 -0.00344732 
-0.00441873 -0.0757609 -0.0414474 -0.0530054 -0.00209729 -0.0012788 0.00845679 -0.000921371 0.00731038 
0.00642313 -0.0153185 -0.00111298 -0.00204627 -0.0262496 -0.022731 -0.0260317 0.0112581 0.0119209 
0.0103451 0.00927117 -0.00100701 0.00296136 0.00260305 0.00190641 0.0537129 -0.000631728 -0.00766608 
-0.00593921 -0.00710753 -0.00785378 0.000845777 0.00043463 0.0010237 -0.00135631 -0.00176626 -0.000388649 
-0.00731266 -0.00788608 -0.00833556 0.00636081 0.0400165 0.033215 0.0399622 0.0632663 0.0563785 
0.0579846 0.00781219 -0.000922981 -0.00563594 0.000177171 0.010914 0.0275469 0.0339204 -0.00392166 
0.00932563 0.0102574 0.00913239 -0.0420652 -0.0462479 -0.0427037 -0.0922069 -0.103427 -0.0424713 
-0.00878219 -0.00885796 -0.076684 -0.0831279 -0.00246224 0.00561318 0.00750693 -0.0546114 -0.0565804 
-0.00679472 -0.041973 -0.0360424 4.38662e-06 0.00409185 0.00219621 0.00269275 0.00265953 0.00376276 
-0.0454205 -0.0496025 -0.0344119 -0.0166698 -0.0399646 -0.0159318 0.00648478 0.0093388 0.0042021 
0.00713811 -0.0409163 -0.0390979 -0.00229823 0.00306389 0.123889 0.136967 0.12288 -0.0603298 
0.00710251 0.00718461 0.00714855 0.00600368 0.0105164 0.00649837 -0.0117896 -0.0186662 -0.0202928 
-0.000507771 0.00121064 0.00542726 0.054402 0.0539375 0.0504057 0.00688979 -0.0177724 -0.0157861 
-0.00960923 -0.00870077 0.0138151 0.00970265 0.0238706 0.0259129 0.0268486 0.019173 0.00079158 
0.000446005 0.0243501 -0.0051881 -0.00566313 0.000629113 -0.00012445 0.0619127 0.0571961 0.0584505 
-0.000952488 -0.0015625 -0.00346319 -0.0110656 -0.0085066 -0.0139118 -0.000765081 -0.000437847 -0.0013417 
-0.000927139 -0.00344496 -0.00315806 0.00337869 -0.012272 -0.00832627 -0.0136456 -0.0132714 -0.013251 
-0.0153174 -0.0193018 -0.0213306 -0.00137813 -0.0372033 0.00303792 -0.0169407 0.0703011 0.074547 
0.093983 0.112652 0.00834632 0.00817595 0.00799326 0.00699362 -0.129717 -0.0243761 -0.0232106 
-0.00603334 -0.00718195 -0.0216564 -0.00842942 -0.00640344 -0.0084535 0.0659068 0.0688682 -0.00634223 
-0.00341817 -0.00245465 -0.00658905 -0.0082071 -0.00495205 -0.00655328 -0.00346258 -0.00246287 0.000860353 
0.000834193 0.0011398 0.00139432 -0.0211452 -0.0160375 -0.0157315 -0.000635189 0.0099542 0.0109519 
0.0104691 0.0113708 -0.00618512 -0.0126239 -0.0130313 -0.0168923 -0.0489557 0.00361979 0.00458855 
0.0038304 -0.000896704 -0.00131244 -0.0884377 -0.0874972 -0.0933578 0.00175381 0.000938808 -0.0225165 
-0.0202008 0.00780943 0.0137817 0.041205 0.0369128 0.0387904 0.0602586 -0.0105619 0.0364171 
0.0373539 0.0330758 -0.0508381 -0.0546933 -0.0104666 -0.00812997 -0.00920849 -0.00793335 -0.0076499 
-0.00532256 -0.00523306 0.0408247 0.0351696 0.00413038 0.00276352 -0.00253214 -0.0241076 -0.032981 
-0.0366999 -0.0410824 -0.136514 0.00351537 0.00597117 0.00478112 -0.0146549 -0.00625618 0.00944432 
0.00890881 -0.000257424 0.000388856 -0.00124356 0.00963262 0.00804023 -0.00228082 -0.00239018 -0.00115056 
-0.0107813 0.0028405 0.00190647 0.00202059 0.0113892 0.0123229 0.0112381 0.0123681 -0.0818892 
-0.101727 -0.0964942 0.0057247 0.00582912 0.00787507 0.00216497 0.00080255 -0.00139112 0.00190501 
0.00248077 0.0112913 -0.00675772 -0.004615 -0.00780856 0.00219169 0.00220026 0.0038909 -0.00281953 
-0.00269031 -0.00392404 0.00799789 -0.0240619 -0.0201759 -0.0182487 -0.0141777 0.00445682 0.00242586 
-0.00369615 -0.00265833 -0.00662767 0.0421282 -0.00513809 0.0812909 -0.0357645 0.0151692 0.00929688 
0.010937 -0.0469634 -0.0491611 -0.000511811 -0.00279922 0.00234206 0.0026475 0.00292594 0.00387045 
0.00371187 0.0489992 0.0534604 0.0510291 0.0418787 0.0446023 0.0466734 0.0554432 0.0523994 
0.00326741 0.00200738 0.00320974 -0.0036273 -0.00375419 -0.0034787 -0.00888458 0.0117891 0.0106014 
-0.00293518 0.00629923 -0.0107387 0.0103192 0.0195614 0.0251159 0.000150571 -6.47733e-05 0.00431869 
-0.000579427 0.0428434 -0.0027305 -0.00315998 0.00286061 0.00305346 0.000198996 0.0845058 0.0352484 
0.0263363 0.0369832 0.00272973 -0.0461522 0.00329867 -0.00283782 -0.00181155 -0.0409969 -0.0484244 
0.0496611 -0.00168346 -0.00336173 -0.0209709 -0.0243418 -0.00342168 -0.00589128 -0.00658132 -0.0850845 
-0.089229 0.00513265 0.00836501 -0.00356923 -0.00242313 -0.00400797 0.00822753 0.0840542 0.0740995 
0.0577943 0.0436449 -0.0024035 -0.0016474 -0.00828278 -0.00821072 -0.0519077 -0.0126601 0.00943957 
-0.011139 0.00100274 0.000510675 -0.0123284 -0.0113264 0.00295308 0.0178912 -0.013687 -0.0159265 
-0.0193178 0.00141415 -0.0101575 -0.00577156 -0.00740976 -0.00843496 -0.00986074 -0.00809479 -0.00720977 
-0.00701501 0.000161838 0.00219987 0.00127021 0.00150669 0.000808414 0.00292594 0.000301363 0.00112207 
-0.000325799 -8.52109e-05 -0.0195641 -0.00251348 -0.0141938 0.0233142 0.0327503 0.0252947 0.00138136 
-0.00400525 -0.00406494 -0.00372808 0.0770854 0.0810093 0.0756954 0.0867041 0.081716 0.00197028 
0.00367127 0.0040787 -0.00555309 0.00652592 0.00487672 0.00450434 0.087664 0.00235483 -0.0120415 
0.00135904 0.00142768 0.00546731 0.00562676 0.007641 0.0107547 0.000549574 0.00160435 0.00148933 
-0.0109376 -0.0401167 0.0203777 -0.00146172 -0.000774757 -0.00104913 -0.000419234 -0.0321037 0.0141722 
-0.0187324 -0.0124497 -0.0202682 -0.065112 -0.00161023 -0.00155573 -0.0242691 -0.00275245 -0.00219914 
0.0105197 0.0425475 0.0390408 0.00918507 -0.0080772 -0.00664497 -0.00722438 0.0394428 -0.0105663 
-0.00139341 0.00464236 0.00353637 0.00395259 -0.0324308 -0.0432047 -0.0515596 -0.0651097 -0.0577418 
-0.0498922 -0.0106024 -0.0127495 -0.0149142 -0.0189111 -0.0255177 -0.0238514 -0.021263 -0.0106409 
0.000363727 -0.0194141 -0.00203943 -0.00302584 -0.00260935 -0.00363552 0.0108457 0.00964918 0.00316592 
0.00325262 -0.0268199 -0.023556 -0.027232 -0.0381097 -0.0307099 0.0569749 -0.000845754 -0.00166948 
-0.00469081 0.0721118 0.0655395 -0.00737286 -0.104791 -0.00133457 0.00434565 0.00965516 0.00739251 
-0.00809511 0.00314694 0.0127647 0.0109444 0.00916623 0.004356 0.00472032 0.00123846 0.000841007 
-0.0115575 -0.00648058 -0.00743638 -0.00774586 -0.0259386 -0.0165463 -0.013859 0.000768002 0.00087707 
0.00163728 0.00221344 0.00131279 0.00595582 0.00658574 0.00599322 0.00542557 0.00484045 0.00753479 
0.0092764 0.00547878 0.00544018 0.0174151 0.0215025 -0.00441693 -0.04242 0.00311121 -0.0117815 
-0.0100487 -0.0114371 -0.0144361 -0.00798988 -0.00921281 -0.00655003 -0.00153967 0.00140035 0.0109401 
0.0184133 0.0166396 0.0233204 0.0192179 -0.00341425 -0.00455459 -0.00600167 0.00689385 -0.00478758 
0.00290976 0.00894947 0.00774792 -0.0499886 -0.00559055 -0.00598028 -0.0246504 -0.00571015 -0.00515826 
0.00185501 0.00136691 0.00223443 0.080684 -0.0522552 0.0586966 0.00821198 0.0101873 0.00598157 
-0.0110139 -0.0156092 0.00633015 -0.000756807 0.0465435 0.00882881 0.00786097 -0.00386436 0.00641193 
0.14684 0.1673 0.0019541 -0.0208267 -0.000324012 0.00333715 0.00623438 0.00410746 0.00911998 
0.00400967 0.00655305 0.00559531 0.00769087 0.00304049 -0.00541817 -0.0072607 0.0052915 0.0042126 
-0.00605023 -0.00146373 -0.00379835 -0.00346952 0.00576165 0.00886895 0.00891164 0.00996571 0.019904 
-0.0120049 -0.0127238 0.0375194 0.0407106 0.0362642 0.00192703 -0.0116212 0.00310616 0.00307121 
-0.0052716 0.00752328 -0.00376003 0.00768546 0.00917921 -0.0118105 -0.00298484 0.00460414 0.00625427 
0.0041923 0.000679266 0.00111763 -0.00395458 -0.004458 0.00320749 0.00697098 0.010085 0.0164442 
0.013578 -0.0174581 -0.0131848 -0.0089219 -0.0103416 0.0457138 0.000785206 0.034089 0.0275397 
0.0250248 0.0251965 0.0316043 0.0325289 0.0391197 0.0347503 -0.0100309 -0.0086655 -0.00918379 
-0.00628917 -0.0042205 0.0346402 0.0334904 0.0367757 0.0322822 0.0348909 0.0196915 0.0131304 
-0.0339723 -0.0265462 -0.0298628 -0.0240102 -0.00104567 -0.00189645 -0.00393907 -0.00185457 0.00320794 
0.00321975 -0.00823745 -0.00596446 0.0329058 0.0238083 0.0279516 -0.000906975 -0.00414031 -0.00478235 
0.0167552 0.00369298 0.00358052 -0.00264626 0.000140819 0.0253564 0.0329271 0.0295095 -0.00131722 
-0.00268327 0.065946 0.056451 0.0665553 0.010393 0.0104892 0.00462675 -0.0032719 -0.0115387 
-0.0123064 -0.0115559 -0.00422486 -0.00325953 -0.00200485 -0.00675521 -0.000433866 0.0280054 -0.00394448 
-0.00146565 -0.00891576 0.00124632 0.000709274 0.0260701 0.0284716 0.016781 0.000347674 0.0154758 
-0.0118596 -0.0634522 -0.00489914 -0.00867544 -0.00587257 -0.0240045 -0.034801 -0.0338406 -0.00346883 
-0.00578417 -0.00739849 0.0376687 0.0772994 0.0820723 0.102646 -0.000365923 0.00138143 0.0386099 
0.0465479 0.0540157 -0.0648432 0.00718039 0.00470674 0.0613645 0.0990833 -0.00725926 0.0414811 
0.00946085 0.0591298 0.00140751 -0.0004962 0.000213061 -0.0115414 -0.0101568 0.00504724 0.00326577 
0.00274978 -0.0109635 -0.0413776 0.00156128 0.00154767 0.00804752 0.0263434 -0.0046565 -0.00613937 
-0.00118931 -0.000976278 0.023451 0.00358335 -0.152387 0.0475822 0.00257135 0.00344814 -0.0136666 
-0.00493927 -0.0051144 -0.00597649 -0.00409494 -0.0034538 -0.00424306 0.00864123 -0.00295372 -0.00429041 
-0.00631779 -0.00463995 -0.00371986 -0.005522 0.00234156 -0.00681302 -0.00536105 0.00154482 -0.00350463 
-0.00141025 0.000142788 0.00101058 0.0182668 0.0212195 0.0280547 -0.0379796 -0.0317557 -0.00214304 
0.0162301 0.00143598 0.0354017 0.0119719 0.0108866 0.0131431 0.0331298 0.00637212 0.00146586 
0.000860441 -0.0795317 -0.089921 -0.00863777 -0.0284956 -0.0341241 0.0455935 0.0478231 -0.0130817 
0.00611428 0.0207907 0.0261043 -0.00293899 -0.0056192 0.004516 0.00443918 0.00295174 0.00486216 
0.00753549 0.00605408 -0.00488556 0.00118172 0.00506884 -0.00618448 0.00260272 0.0162496 0.0225866 
0.00307527 0.00247639 -0.0598144 0.00185684 0.044988 0.0048509 0.0052018 0.00545717 0.00212383 
0.00118931 0.0303118 -0.00119299 -0.00321735 -0.0927346 0.00409831 0.00447803 -0.00703969 -0.00842843 
-0.00798918 0.0081522 0.00692246 0.00711314 0.00936157 0.000320151 -0.0237704 -0.0109901 -0.0116334 
-0.0388274 -0.0367267 0.0209094 0.0223656 0.0214692 0.0196061 0.0252052 -0.0101445 -0.00887782 
-0.00165597 0.0298231 0.00284376 -0.0437005 0.00302404 0.00110851 0.00130395 -0.00219578 -0.00454139 
-0.00244864 -0.00490648 -0.0146537 -0.0134731 -0.00875719 -0.021475 -0.0249414 -0.0206194 -0.0294173 
-0.00852867 -0.00384233 -0.0091437 -0.000622256 0.00476317 0.00521618 0.00180105 0.0171816 0.0287926 
0.00181034 -0.00893146 -0.00668007 0.00313273 0.0433151 -0.080994 -0.0771296 0.0351036 0.0315031 
0.0328753 -0.0021494 -0.00453017 0.0319215 0.0221579 0.0476329 -0.0183753 0.00107011 -0.0121298 
-0.0109754 -0.000216257 -0.00593347 -0.00218252 -0.00155572 -0.00200658 -0.00245514 0.00228345 0.00199965 
0.00165342 0.00327972 0.00828515 -0.003065 0.00133576 0.00124559 0.0025223 0.00363403 -0.000909273 
0.00253987 -0.000755054 -0.00157885 0.00297681 0.0115994 0.00334543 0.00226382 0.00180945 0.00571347 
0.0029705 0.0297369 0.00280778 0.0719339 0.136245 -0.0628914 -0.0713184 -0.0873375 -0.0747803 
1.96131e-05 0.000565038 0.000509834 -0.00713426 -0.0133861 0.00702361 -0.000341115 0.00962245 0.0086196 
-0.00536951 -0.0030712 0.009253 0.00761088 -0.00320241 0.00256624 0.00687107 0.000473588 -0.00653473 
0.00780316 0.00988533 0.00975132 -0.00303683 0.00322555 0.00285914 0.00405531 0.00101834 0.00363329 
0.0208541 0.00636289 0.00477337 0.0622345 -0.0055939 0.0191045 0.0739966 -0.0787255 -0.147997 
0.0147504 -0.000125171 0.0326986 -0.00291373 0.0343081 0.00878767 0.010523 0.00898429 0.00845651 
0.00760241 0.00713137 0.00169432 0.00262886 -0.0297397 -0.0539085 -0.0110999 -0.0258772 0.119254 
0.0323895 -0.0522907 0.0250151 0.0332081 0.027149 -0.00214079 -0.00625921 0.0101804 -0.0107065 
-0.00033852 0.00582613 0.0102287 0.00906422 0.00486531 0.00546003 -0.00573038 -0.00860968 -0.01068 
-0.0260525 0.000462351 -0.00143754 -0.00147317 0.064292 -0.00608217 0.0183221 -0.0239897 -0.0222709 
0.00838519 0.00318376 -0.00197176 0.0094315 0.00974596 0.00797487 0.00885831 0.00914755 0.00503623 
0.00418366 0.00528677 0.00946536 0.00773086 0.0365294 0.000922556 0.00150464 -0.000397147 -0.000366149 
-0.00757844 -0.000629761 0.00264574 -0.00774431 -0.00691774 -0.00532296 -0.00912633 -0.00453814 -0.00186898 
0.00548316 -0.0029145 -0.00353911 -0.0111321 0.00755901 0.00350668 -0.133381 0.00252398 0.0186947 
0.0228662 0.0245499 0.0252931 0.0235439 -0.00411542 -0.00642794 0.0020307 -0.0277245 -0.025894 
0.00235794 -0.000837669 0.000196224 -0.00159308 0.00972521 -0.0610589 -0.0772326 0.00270913 -0.00193493 
0.0146598 0.000840868 0.000873148 0.00019089 0.080034 0.0713431 -0.107248 -0.0993084 0.000839734 
0.0338404 0.00221026 -0.00424177 0.00427104 0.00219286 0.00105361 -0.004771 -0.00156807 0.0118073 
0.00212315 0.0021488 0.00234303 0.00285367 0.00176499 0.00171715 0.00405793 -0.00129447 -0.0284067 
-0.0677729 -0.0834202 -0.110959 -0.000503265 1.49398e-05 0.0670094 0.0704022 0.0688653 0.00035037 
0.00165769 -0.00166827 0.0630219 -0.0258314 0.00290556 -0.00919966 0.00593449 0.00450993 0.0187749 
0.0127564 0.00500533 0.00789892 -0.000535611 0.00389886 0.0115966 0.00514952 -0.0100784 0.00436097 
0.00712571 0.0700269 0.0703324 0.0259204 -0.104414 0.0273926 0.0231752 0.0226824 -0.00510046 
-0.00432927 -0.00333368 -0.00254191 -0.0667893 -0.0153584 -0.0531678 0.00670012 0.00747089 -0.0858238 
0.0565949 0.000733054 -0.0046405 -0.00333388 -0.00465812 -0.00145188 -0.00405653 -0.00134274 0.002184 
-0.00614874 0.0286097 0.00369182 0.0161948 0.00985929 0.0319982 0.00197896 -0.0135748 -0.0139169 
0.00991548 -0.0203224 0.00601152 0.00549196 0.00317475 0.00175804 -0.020823 -0.0148409 -0.0268619 
-0.000554589 0.000126548 -0.00233529 0.000735411 0.000410712 0.00100817 0.00292519 0.0106608 0.043414 
0.0414308 0.028637 0.066822 0.00138674 0.00286179 0.000862745 -0.000281105 0.062219 -0.000117379 
1.87582e-05 -0.000500863 -0.000354529 -0.00611611 -0.0705542 0.000687225 0.0014129 -0.00682066 -0.0158615 
0.0424963 0.0343484 0.00357572 0.00475247 0.0185628 -0.023388 -0.00982821 0.0468021 -0.0367328 
-0.0635365 -0.0485732 0.0129112 -0.00141543 -0.0023226 0.0355374 -0.0227602 0.00851479 0.00692344 
0.0110836 -0.000650221 -0.00155698 -0.0023358 -0.00837833 -0.00871796 -0.00955495 -0.0316976 -0.0053286 
-0.0029553 -0.00291484 0.00224814 0.00135483 0.00146073 -0.0746735 0.00174166 -0.000160285 0.00141201 
0.00351016 0.00349545 -0.00267439 -0.00249348 0.00178185 0.000393912 0.000366292 -0.000373674 0.00719863 
-0.00686657 -0.00552587 -0.0060597 -0.00123193 0.00172094 -0.00112185 -5.6024e-05 0.000436927 0.0571645 
0.0720389 0.060143 0.00218715 0.00794608 -0.00201406 -0.0782457 -0.0016148 0.0262927 -0.0763719 
-0.0129809 0.00712072 -0.00287221 -0.0223111 -0.00668255 -0.0079662 0.103891 0.0363326 0.0435837 
0.00355524 0.0568758 -0.0699796 0.0194347 -0.0993912 0.038801 -0.000334301 -0.00079169 0.0047247 
-0.00207879 0.0758149 0.0123995 -0.000947436 -0.00274977 0.00829407 0.00873595 0.000739828 0.0105857 
0.000734979 -0.0204946 0.00217109 -0.00046132 0.00554121 -0.00285739 -0.0032867 0.00161594 -0.0708537 
0.000553917 0.0121051 0.000947949 0.00171951 0.00378541 0.0527703 0.0420408 -0.00768815 0.0450112 
-0.00110038 -0.00571592 -0.00668088 -0.00389498 -0.0895337 0.0150021 0.00892885 -0.00263263 -0.0229399 
-0.0179651 -0.0034337 0.0169794 0.00320977 -0.0650426 0.0431661 -0.0222031 -0.0655862 0.00588892 
0.000286891 -0.00339504 -0.00253774 -0.000862874 -0.00145528 -0.00207392 0.000528102 0.00161332 0.00121904 
-0.00302275 -0.000944392 -0.0078173 -0.00686727 -0.00818099 -0.00453546 -0.00138057 -0.00517567 0.00206123 
0.00159807 0.00186422 0.00216243 0.000413067 0.00773677 -0.00461111 -0.0039598 -0.0427679 0.0825586 
0.0866178 0.0191256 0.0139361 -0.0707288 -0.0088792 -0.00411605 0.013895 0.0123326 -0.0857187 
0.0259546 0.0030785 0.0183234 -9.60734e-05 -0.00558389 0.00437394 0.00472896 0.00583263 0.031207 
-0.0104101 -0.0823777 -0.0829282 -0.0171607 -0.00416798 0.0378186 0.0046528 0.00946302 -0.0311437 
0.0231893 -0.0368899 0.00120624 0.138814 0.115286 -0.00613629 -0.0324067 -0.0211835 -0.0330436 
-0.0149441 0.0276584 -0.0456483 -0.0332578 -0.000870835 -0.00218956 -0.0064667 0.00378689 -0.00361174 
0.00722138 -0.0109556 0.00083088 -0.0236233 -0.0142423 -0.0278531 -0.0192937 -0.00991503 -0.00406867 
0.0181417 0.00718798 -0.0161186 0.0668772 0.00387496 0.0048715 0.000419681 0.00876857 0.00148088 
-0.00883197 0.00429372 -0.103654 0.00540838 -0.00160156 0.00622021 0.0028751 -0.00718641 -0.00798099 
-0.0143301 0.00107084 0.0755298 0.0723523 -0.0110508 -0.0207075 -0.020342 -0.0145741 -0.017173 
-0.0174913 0.0112497 0.00784289 0.00854095 0.00283419 -0.0109242 -0.00994901 0.0114209 0.00454475 
-0.00632856 -0.00496554 0.0413352 -0.00649666 -0.00586042 -0.00394968 0.0173339 0.00188253 0.0014021 
0.011398 0.00299235 -0.0277172 -0.0305555 -0.0154185 -0.034742 0.0189806 0.00885504 0.00997873 
0.0157199 -0.0130433 0.00858783 0.0103193 -0.0315017 0.0119993 -0.0132997 -0.00320002 0.0103009 
0.010138 0.0142797 -0.003026 -0.0481154 -0.0128621 -0.0123569 0.00331991 0.000517439 -0.00184434 
-0.0570419 -0.0113553 -0.0116714 -0.020181 -0.0152816 0.00781968 0.000761804 0.00577675 -0.0126069 
0.0282997 -0.0312538 -0.0381158 0.0240765 0.0248025 0.00779505 0.0480741 -0.0116269 -0.00985537 
0.010725 0.00274845 -0.00134514 -0.0118247 0.000870927 0.00846568 0.0228904 0.00354453 0.0211341 
0.0131236 0.0121423 0.00519519 0.00696776 -0.0176699 0.00791008 0.00416434 0.00108178 -0.0145151 
0.0224046 0.0234655 -0.000992683 0.00604313 0.020975 0.00513099 -0.0103665 0.00644151 0.0238379 
0.0223957 0.00858321 0.0121011 0.0162957 0.0246151 0.0262543 0.0226459 0.0159959 0.00332844 
0.156471 0.00834805 -0.0128516 -0.00341334 0.00654824 -0.00590451 -0.0179655 -0.0192095 -0.0196007 
-0.0164564 0.00734207 -0.0220901 -0.00211855 0.00277527 -0.00993805 -0.00287335 0.0202727 -0.00497724 
-0.00444498 -0.0101202 0.00658359 0.0051188 -0.00283806 -0.00910268 -0.0159722 -0.00426186 -0.00304694 
-0.00359331 -4.53651e-05 -0.0156174 -0.0250683 0.0280494 -0.00396995 -0.00434634 -0.00850953 0.0254291 
0.0230049 0.0182683 0.0261117 -0.00885288 -0.00745778 -0.0127992 -0.0429385 -0.0585381 -0.0424701 
-0.0331717 -0.0511402 -0.181835 0.00931431 0.00392612 -0.000748595 -0.00600284 0.00302583 0.000245695 
0.000762402 0.00105069 -0.00639637 0.00218889 -0.00123764 0.00938605 -0.00426023 -0.00212082 0.0130295 
0.0713154 -0.000310431 -0.00118322 6.03037e-05 -5.29193e-05 -0.000393016 -0.0738847 0.0282759 0.0303731 
-0.0437451 -0.0341582 0.00153108 -0.0399254 -0.0104986 0.00212201 0.00257124 0.0108538 -0.00218665 
0.0015603 -0.0667993 0.00522489 -0.0111649 0.00304476 -0.0701066 0.0270377 -0.00155198 -0.0347714 
0.104736 0.125651 0.0293709 0.0360712 -0.0554974 7.37448e-05 -0.0029495 0.147001 0.00185084 
0.000940525 -0.011475 0.000384468 -0.0120041 0.00699168 -0.00167121 0.00225747 -0.00368825 0.00727124 
0.000471736 -0.0385 -0.0515144 0.000979041 -0.00255236 -0.0220814 0.000798946 0.0035462 0.000201445 
0.00247795 -0.0448838 0.0141581 0.00147472 0.0229492 -0.00972752 -0.0073233 -0.000812099 0.00467146 
-0.00257314 0.0185501 0.00644458 -0.00478058 -0.00216664 -0.00874144 -0.0313012 0.00694249 -0.0166919 
-0.00171887 -0.00474228 0.000468593 0.0928149 0.00474841 5.74052e-05 -0.0486454 0.125573 0.0176674 
-0.0240826 -0.0192001 0.000861155 -0.00295477 0.00284008 0.0029235 -0.0128962 -0.109907 0.0482109 
0.0490296 -0.00672628 0.00845746 -0.00480389 0.0081484 -0.00328213 0.00122411 -0.000863395 -0.00840898 
-0.0227769 -0.00177343 0.0798747 -0.00219919 -5.56817e-05 0.00615416 0.0037199 -0.00295107 -0.103102 
-9.93303e-05 -0.000713796 -0.0259843 -0.00572699 -0.00168978 0.000340586 -0.0945265 0.0458845 0.117523 
0.0241161 -0.00223168 -0.0571401 -0.0294119 0.00602231 -0.00121246 -0.0466535 -0.0206347 -0.0115055 
-0.010433 -0.0447048 0.0585113 -0.0231538 
Strain%20xz%20component 1 12442 double
1.00693e-07 -0.020689 -0.0349963 1.34423e-07 1.01341e-05 -1.28985e-06 -1.44954e-05 7.49449e-06 0.0186015 
0.0011038 -0.00880107 0.000457971 -0.00163123 0.0112762 0.00231193 -0.0138607 -0.000264365 0.00475441 
0.000371144 -0.0069649 -0.00436738 -0.000400199 -0.00156714 -0.00202141 -0.00246554 -0.00150891 -0.000888648 
-0.00192692 -0.00135596 -0.00177083 -0.00245283 -0.0019232 -0.000711282 -0.000132626 8.09699e-05 0.000735866 
0.000650775 0.00149532 0.0023613 0.00310056 0.00240972 0.00208827 0.0101491 0.000150653 -0.00385052 
-0.000757151 -0.00271575 -0.00457169 -0.00112907 -0.00286355 -0.0031824 -0.00261217 -0.00182334 -0.00195751 
-0.00140338 -0.00165127 -0.00227355 -0.00227175 -0.00141262 -0.000407673 -8.52579e-05 0.000867386 0.000662918 
0.00156304 0.00251443 0.00322055 0.00437116 0.00533425 -0.00265861 -2.08996e-05 -6.82432e-07 1.41308e-05 
1.68334e-05 2.48056e-05 2.5844e-05 2.5443e-05 2.08242e-05 1.84749e-05 2.39236e-05 1.6545e-05 3.71701e-06 
1.69114e-05 7.89559e-06 4.86922e-07 -5.11424e-06 -1.74891e-05 -2.03625e-05 -1.66443e-05 -2.06729e-05 -2.54607e-05 
-2.62454e-05 -1.7656e-05 -1.28965e-05 -9.53192e-06 1.78067e-05 1.41089e-05 -0.00531168 -0.000976556 -0.000323699 
-0.00021674 -0.000111067 -8.30694e-05 -5.14422e-05 -3.62206e-05 -2.69241e-05 -2.34494e-05 -2.03688e-05 -1.53667e-05 
-1.80547e-05 -1.62313e-05 -1.03237e-05 -3.37719e-06 1.24698e-07 9.86527e-06 1.55419e-05 1.94516e-05 2.35311e-05 
2.34082e-05 2.83963e-05 2.52876e-05 1.91116e-05 1.58947e-05 1.39718e-05 6.00743e-06 1.39085e-07 -6.93411e-06 
-1.17081e-05 -1.48437e-05 -1.85639e-05 -1.7561e-05 -1.73145e-05 -1.20087e-05 -9.6439e-06 -5.80655e-06 -2.13916e-06 
1.49504e-06 5.15207e-06 6.80371e-06 1.07149e-05 1.79064e-05 8.65638e-06 -3.05412e-06 -1.10441e-05 -9.42762e-06 
-7.65845e-06 -4.78017e-06 -1.12371e-06 2.15254e-06 5.81721e-06 8.86674e-06 1.0382e-05 1.30532e-05 1.50744e-05 
1.25527e-05 1.2773e-05 9.29264e-06 4.56258e-06 -1.53074e-06 -9.11732e-06 -1.3501e-05 -1.88053e-05 -1.96037e-05 
-2.4252e-05 -2.00414e-05 -2.38509e-05 -2.23705e-05 -1.5159e-05 -1.13257e-05 -6.59644e-06 -4.26272e-07 8.42301e-06 
1.18243e-05 1.58873e-05 1.87794e-05 2.0852e-05 2.36971e-05 2.31684e-05 3.11012e-05 3.86986e-05 5.25307e-05 
7.04268e-05 0.000102122 0.000164526 0.000350634 0.00117849 0.0103348 -0.00729145 -0.00262947 -0.00279154 
-0.00268486 -0.00227441 -0.00219799 -0.00223356 -0.00220167 -0.00227371 -0.00278188 -0.00289565 -0.00292628 
-0.0050553 0.00414369 0.00352557 0.003268 0.00289408 0.00360892 0.00332901 0.00307381 0.00335441 
0.00343712 0.00299247 0.00304673 0.00457174 0.00960441 2.04742e-05 9.61113e-06 2.51043e-06 -1.22287e-05 
-1.74541e-05 -1.58761e-05 -2.19882e-05 -2.38191e-05 -2.6266e-05 -1.83719e-05 -2.13329e-05 -1.34155e-05 -6.90075e-07 
6.93911e-06 1.47563e-05 2.00444e-05 8.46871e-06 2.24184e-05 -4.55492e-06 3.47955e-06 2.27586e-05 2.38003e-05 
2.1741e-05 1.55792e-05 3.29462e-06 -1.12627e-05 -2.54626e-05 0.0271896 0.00104559 0.000417268 0.000212076 
9.08856e-05 6.18696e-05 4.62926e-05 4.30316e-05 1.54187e-05 1.86909e-05 1.3973e-05 1.43657e-05 1.34149e-05 
8.7324e-06 5.07517e-06 3.7376e-06 -1.95667e-06 -6.42709e-06 -9.52897e-06 -1.43472e-05 -1.55706e-05 -1.59146e-05 
-1.60744e-05 -1.33463e-05 -1.51866e-05 -1.42231e-05 -8.66105e-06 -2.93017e-06 -2.21177e-07 4.70932e-06 8.03668e-06 
1.11225e-05 1.21465e-05 1.31334e-05 1.14886e-05 9.25201e-06 7.40707e-06 2.55638e-06 5.88865e-07 -2.23451e-06 
-5.47773e-06 -7.43027e-06 -9.97039e-06 -1.26452e-05 3.25465e-06 -1.18872e-05 8.64435e-06 1.01605e-05 7.3749e-06 
5.61088e-06 1.25377e-06 -2.26124e-06 -5.65809e-06 -7.8537e-06 -8.98061e-06 -9.74348e-06 -1.56423e-05 -1.67824e-05 
-1.36448e-05 -1.07284e-05 -4.33739e-06 1.55414e-06 8.93964e-06 1.09233e-05 1.64741e-05 1.68987e-05 1.97917e-05 
2.13066e-05 1.71715e-05 1.85141e-05 1.49485e-05 1.10506e-05 3.35872e-06 -8.47401e-07 -6.83284e-06 -1.31145e-05 
-1.75766e-05 -1.9854e-05 -2.06856e-05 -2.44482e-05 -2.75114e-05 -3.35926e-05 -3.34344e-05 -5.70358e-05 -8.27715e-05 
-0.000101732 -0.000143375 -0.000486293 -0.00104138 -0.0067925 0.00517086 0.00539177 0.00314648 0.00274295 
0.0030837 0.00308449 0.00309564 0.00316429 0.00324912 0.00287333 0.00314848 0.0043354 0.0094828 
-0.00656347 -0.00388577 -0.00308382 -0.00280081 -0.002422 -0.00236579 -0.00235761 -0.00236982 -0.00239863 
-0.00285863 -0.00299947 -0.00317231 -0.0041993 -1.66612e-06 -4.1096e-06 -4.37441e-06 8.83141e-07 -5.99688e-06 
-5.36757e-06 -6.14359e-06 -6.51897e-06 -4.09469e-06 -2.64465e-06 -6.32819e-06 -5.93507e-06 -1.24341e-05 -5.11577e-06 
-2.55784e-06 -4.41373e-06 6.4269e-06 3.84072e-07 4.76799e-06 -1.59773e-06 4.48344e-06 -3.33173e-06 8.95632e-07 
1.44414e-06 -3.40441e-06 -4.00533e-06 -6.70158e-06 -0.00179405 -5.4111e-05 -3.21081e-05 2.04748e-05 4.61002e-05 
2.51644e-05 3.04811e-06 5.38413e-06 1.11512e-05 7.14138e-06 4.08725e-06 -5.27305e-07 8.83505e-07 -3.32253e-06 
-4.72963e-06 -2.24288e-06 -6.90408e-06 -8.43006e-06 -9.19074e-06 -1.12518e-05 -1.17712e-05 -1.03819e-05 -8.81855e-06 
-8.61322e-06 -6.96237e-06 -4.93371e-06 -1.11584e-06 1.89539e-06 3.98941e-06 7.2518e-06 8.77189e-06 8.40778e-06 
7.74325e-06 7.2542e-06 5.00261e-06 3.51457e-06 7.89199e-07 -1.28802e-06 -3.21655e-06 -3.44381e-06 -3.35337e-06 
-3.64051e-06 1.70751e-06 3.88963e-06 -3.48721e-06 -2.40197e-06 -1.11819e-06 -1.53893e-06 4.36255e-07 1.73507e-06 
-3.58433e-07 -1.80763e-06 -4.28097e-06 -2.90108e-06 6.20868e-07 1.76185e-06 1.0206e-06 7.22115e-07 4.82991e-07 
-6.92076e-07 -2.11363e-06 -1.46075e-08 -9.42743e-07 -4.38456e-07 -6.06046e-07 5.05292e-08 -2.27628e-07 6.1411e-07 
1.30295e-06 1.65531e-07 4.80348e-07 2.71036e-06 1.74317e-06 2.51799e-06 2.94549e-06 3.67753e-06 5.45475e-06 
8.54893e-06 3.4616e-06 3.92281e-06 -5.16496e-06 9.59257e-06 2.4021e-06 -2.86018e-05 -0.000200272 -0.000114323 
0.00010981 -0.00282523 -0.000731182 0.00176975 0.00240673 0.000491456 -0.000887216 9.21401e-05 0.000484406 
3.19507e-05 -4.8625e-05 0.000362784 -0.000122258 0.000161926 0.000599468 0.000549891 7.53564e-05 -8.83062e-05 
-0.000370575 -0.000475415 -0.000442878 -0.000821444 -0.00128818 -0.00157759 -0.000706978 0.00407062 -0.0019271 
0.00482297 -0.00087079 0.000324724 0.000392114 0.000444645 0.000437827 0.000358014 0.000413969 0.000402288 
0.000450228 0.000295679 7.11268e-05 -0.000972064 0.00279703 -0.00138973 0.0033824 5.80404e-05 -0.000491282 
-0.000484074 -0.000421447 -0.000462615 -0.000516776 -0.000484981 -0.000488503 -0.000549034 -0.000389588 -0.0003705 
-7.71943e-05 -0.000398265 -0.00694052 0.00646822 0.00632507 -0.0137596 -0.00160351 3.57727e-06 6.06072e-07 
-2.49335e-06 5.73444e-06 -3.34118e-06 5.71537e-07 8.67035e-07 1.8327e-06 -1.25512e-06 -1.67499e-07 1.1173e-07 
-2.06332e-06 -1.9946e-06 -2.9917e-07 -1.75464e-06 -1.76767e-07 5.88686e-07 3.25086e-06 -3.62738e-07 2.50794e-08 
1.19535e-06 -3.76168e-06 -5.58049e-06 -2.85271e-06 -0.000199436 0.000358326 -0.000145139 -8.38901e-06 -2.30701e-05 
-1.01014e-05 -1.59368e-05 2.91956e-05 8.36913e-06 -1.07426e-06 5.46069e-07 3.24875e-07 -7.0251e-06 5.49917e-07 
4.25735e-07 1.47566e-06 -1.83064e-06 -2.58428e-06 -2.56535e-06 -3.42768e-06 -3.98968e-06 -3.16866e-06 -3.88531e-06 
-2.29257e-06 -5.37094e-07 -1.43915e-06 -1.37556e-06 1.75901e-08 4.96595e-07 2.01263e-06 2.51386e-06 3.42336e-06 
3.41592e-06 1.43643e-06 1.29635e-06 6.73923e-08 -8.05418e-07 -3.47758e-07 -5.1951e-07 -5.42744e-07 1.3611e-06 
-4.4331e-08 2.73938e-07 2.64564e-07 -0.000883573 -0.000268044 -1.36212e-06 -9.31565e-07 -9.02359e-07 -2.39804e-07 
-1.61784e-07 -1.70082e-07 1.63055e-06 1.3927e-06 8.64631e-07 -1.49359e-06 1.21351e-06 -5.05175e-07 5.42634e-07 
1.56099e-06 2.05978e-06 -8.21249e-07 2.16327e-06 1.86207e-06 2.01161e-06 2.70094e-06 1.64615e-06 2.16042e-06 
8.26158e-07 1.8466e-06 1.26004e-06 2.3126e-07 -5.35892e-06 2.1299e-06 -1.26834e-06 -4.61603e-06 -2.63747e-06 
1.81418e-06 -5.04382e-06 -2.48501e-06 -4.03628e-06 -2.4479e-05 1.16327e-06 -8.77677e-06 -2.90136e-05 7.6596e-06 
-0.000341752 -0.000918627 0.000214361 -0.000603111 0.000427136 -0.000171952 -0.000111362 -8.30162e-05 -5.61015e-05 
-4.91258e-05 -0.000157604 -5.3449e-05 -0.000128075 -4.93693e-05 -5.63732e-05 8.39342e-05 6.90109e-05 -7.87065e-06 
7.90228e-05 7.66619e-05 6.76566e-05 0.000231519 0.000229592 0.000178987 -0.000968834 0.000804581 -2.4166e-06 
1.65799e-05 -3.7772e-05 7.08834e-07 2.66482e-05 6.69393e-05 -0.000143017 -0.000214123 -6.67503e-05 0.00076878 
-0.00105166 -0.0008219 0.000788893 -0.000833534 -7.96433e-05 -4.40526e-05 -1.87605e-05 2.53416e-07 -7.59373e-06 
1.20696e-05 3.6063e-05 0.000135984 0.000145514 0.000264992 0.00125264 -5.73177e-05 0.000179263 -7.99102e-05 
6.52191e-07 0.000202151 0.000721095 0.000552888 -0.00176404 -0.000150378 -0.000202469 2.16242e-06 1.71023e-06 
2.49015e-06 -1.48639e-06 1.37262e-06 2.73513e-07 1.37793e-06 -1.81856e-07 -1.6686e-07 2.89257e-07 1.94259e-07 
4.62672e-07 5.94222e-07 2.42666e-07 9.17542e-08 -9.74127e-07 -5.73198e-07 -2.85342e-07 8.98998e-07 5.45226e-06 
-9.76409e-07 2.38023e-06 -1.54696e-05 -4.41097e-06 -2.76851e-06 1.31063e-05 -1.39193e-05 -6.65171e-06 -1.01382e-06 
8.62119e-07 2.36474e-07 -9.60908e-07 6.6605e-07 -3.77176e-07 1.63513e-07 9.85898e-07 3.32552e-06 2.82228e-06 
2.44239e-06 3.13492e-06 3.82086e-06 3.18362e-06 7.27532e-07 -1.66243e-06 2.44106e-06 1.58725e-06 -1.99486e-06 
-1.86078e-06 -1.50177e-06 -1.39849e-06 -1.31043e-06 -1.21724e-08 -1.20515e-06 -2.60367e-06 -3.15471e-07 -2.90938e-07 
-9.35618e-07 -5.73391e-07 2.74334e-06 -1.40601e-06 3.6612e-06 -3.91453e-06 -4.28229e-05 0.000165256 1.9214e-05 
3.71502e-05 -5.67966e-07 -1.43037e-06 8.75439e-07 3.95149e-07 7.24254e-07 3.24826e-06 -7.97813e-07 -4.40002e-07 
-4.45118e-06 1.20831e-06 -3.83727e-07 2.47388e-06 2.26071e-06 4.84072e-06 -7.09825e-07 3.179e-06 -1.50596e-07 
4.45418e-06 2.75789e-06 2.7407e-07 8.22874e-07 1.37765e-06 9.24185e-07 -7.2423e-06 -6.32289e-06 -2.39177e-06 
-7.44485e-06 1.21797e-06 -5.39878e-06 -5.5912e-06 -4.72657e-06 3.13539e-06 -7.47992e-06 -1.23621e-05 -1.25205e-05 
4.3038e-06 -1.49603e-05 2.41959e-05 -0.000198287 -5.69624e-05 -0.000277277 -4.56631e-05 4.4332e-06 0.000103573 
5.88912e-05 1.29036e-05 9.47571e-06 -5.60676e-06 3.99531e-06 -2.60469e-05 -7.38071e-06 7.23422e-06 1.03663e-05 
2.36472e-05 2.54601e-05 6.60745e-06 2.08273e-05 3.21918e-05 4.39503e-05 -2.44723e-06 3.84047e-05 -3.4226e-05 
-0.000136838 4.00843e-05 -8.71977e-05 3.20242e-05 1.3151e-05 -4.465e-05 -2.37934e-05 3.82887e-05 -4.48354e-05 
-6.58151e-05 -0.000147087 -0.000344436 0.000170349 0.000584435 -1.14287e-05 -9.78231e-06 -3.46053e-07 3.33677e-05 
4.38482e-05 4.86234e-05 0.000148538 -8.48561e-05 -0.000141449 -3.44324e-07 -3.35554e-05 -1.81808e-05 -1.60346e-05 
8.20193e-06 -5.98125e-08 0.00012491 4.9635e-05 -5.03161e-05 -0.000169261 -1.99254e-06 9.74511e-05 -1.53056e-05 
-0.000238322 5.73234e-05 -1.30476e-05 -3.07657e-05 3.01913e-06 2.23855e-06 -4.40649e-07 2.39659e-06 5.16008e-06 
-1.2193e-06 -4.23051e-07 -2.84282e-06 -2.81197e-06 9.25013e-06 7.00107e-06 -3.46542e-07 -3.59761e-07 -1.04114e-06 
1.05176e-07 -2.51443e-07 -7.50666e-07 -1.19207e-06 -1.63509e-06 -2.90482e-05 7.35963e-05 -7.11487e-05 1.4077e-05 
5.55562e-06 -2.4407e-06 4.07738e-05 -7.87197e-06 -4.16571e-06 -1.2164e-05 -7.0298e-06 -2.8364e-06 -1.89609e-06 
9.78474e-07 -1.15421e-06 -2.09229e-06 1.11199e-05 7.57134e-06 6.76026e-06 4.93177e-06 2.2543e-06 1.69671e-06 
3.48314e-06 3.58817e-06 1.02979e-06 5.90369e-06 2.20823e-06 -2.7043e-06 9.81491e-07 -9.11218e-07 -2.01945e-07 
-4.59265e-06 -1.69307e-06 -2.08586e-06 -5.88653e-07 2.54129e-07 -1.89526e-06 -1.64816e-06 -1.03611e-06 -1.84717e-06 
1.37638e-07 -5.10825e-07 -8.66682e-07 5.17784e-06 -8.27672e-07 2.59437e-05 -6.07881e-05 2.71464e-06 -1.52177e-06 
-4.28887e-07 -1.77505e-06 -7.1195e-07 -7.18887e-06 1.43938e-06 -6.74508e-06 1.81658e-06 9.28909e-07 2.95352e-06 
6.10175e-06 -6.31504e-07 9.11017e-06 7.50652e-06 -3.36867e-07 -2.66115e-06 -3.42981e-06 -7.83221e-06 -5.17308e-06 
3.04718e-06 -9.18042e-06 4.53591e-06 7.15858e-06 2.20497e-06 -7.16577e-06 -4.19441e-06 1.34922e-06 1.88106e-06 
-1.11651e-05 -8.79381e-06 -9.90803e-06 1.60111e-05 -7.09915e-06 6.46922e-07 2.3418e-05 2.6366e-05 -5.55773e-05 
-1.85973e-05 1.92471e-05 4.12404e-06 -3.79816e-05 -7.12058e-06 -3.95451e-06 -1.20447e-06 -8.53392e-06 1.98055e-06 
9.73791e-06 6.05676e-06 4.2911e-06 1.9558e-05 -7.09769e-06 9.70392e-06 2.12256e-05 7.91731e-06 4.05249e-05 
-6.70429e-07 -2.98274e-05 -1.82317e-05 -1.90063e-05 -5.83742e-05 -5.45317e-05 5.74395e-05 -6.13094e-05 -4.4355e-05 
7.07456e-06 2.74082e-05 -2.40872e-05 -2.72688e-05 -0.000122777 1.81417e-05 8.26831e-05 3.50391e-06 5.38353e-05 
1.80237e-05 -8.55849e-05 -2.04388e-05 2.32678e-05 -2.24184e-05 -7.64423e-07 -1.23682e-05 2.96158e-05 2.83007e-05 
4.36767e-08 6.31446e-05 3.71949e-05 8.05632e-05 -1.47713e-05 2.08927e-06 -7.66026e-05 -4.89809e-05 4.28112e-06 
7.5417e-06 1.9295e-07 -2.91983e-06 -5.29836e-06 4.04381e-06 1.11505e-05 -1.15466e-05 -1.51708e-06 -6.42956e-06 
4.60613e-06 4.83159e-06 2.69499e-06 -5.67273e-06 -9.36697e-08 -2.88232e-06 -2.6557e-05 3.15826e-05 3.35332e-05 
2.95305e-05 -3.28685e-05 -1.63367e-05 -2.14105e-07 -2.86002e-05 -6.0645e-06 -1.4343e-05 -6.72264e-06 -4.5466e-06 
3.46042e-06 3.35039e-07 1.09173e-05 -1.77678e-06 4.13972e-06 1.29521e-06 -1.16484e-06 2.29744e-06 -1.21269e-05 
-1.14703e-05 -1.17533e-05 3.35339e-06 4.32093e-06 3.09992e-06 -8.0075e-06 -7.10508e-06 -1.2665e-05 -1.14527e-06 
8.19735e-08 3.82482e-06 -3.62255e-06 -8.47998e-06 5.11314e-06 2.64383e-06 2.1657e-06 -1.86992e-06 1.27542e-06 
-8.50384e-06 -2.82916e-05 -7.47877e-06 1.99439e-06 -2.11136e-06 -1.86937e-06 6.40917e-06 -1.76021e-05 6.05978e-06 
-9.43423e-06 1.72267e-05 -5.74297e-06 6.11487e-06 1.12004e-05 2.19688e-05 -1.20908e-05 -1.29843e-05 -5.36067e-06 
-1.99693e-06 -2.49978e-06 1.0991e-06 2.38233e-05 -3.23588e-06 -1.83791e-05 1.03471e-05 -1.42221e-05 1.68268e-05 
-3.89728e-06 7.373e-06 9.50395e-07 -8.9837e-06 1.05121e-05 1.34591e-05 1.20591e-05 -2.94398e-05 1.49066e-05 
-7.44412e-06 -2.4951e-06 -4.9625e-05 2.62063e-05 5.54215e-06 1.02285e-05 2.01498e-05 -2.13418e-05 1.58721e-05 
3.58805e-06 -3.52636e-05 2.64015e-06 1.6285e-07 1.47978e-05 4.19816e-06 7.83008e-06 -1.37907e-05 -3.49777e-06 
-2.1197e-05 7.49337e-06 -2.90043e-05 -1.58785e-05 5.47268e-05 -7.58071e-06 -9.23414e-05 -1.61431e-06 -7.00282e-05 
1.52946e-05 1.17155e-05 2.77797e-05 4.44822e-06 3.85689e-06 -3.99573e-06 -2.28124e-05 -3.76295e-05 -2.27164e-05 
1.59788e-05 -1.13941e-05 1.5409e-05 3.86332e-05 1.50701e-06 -6.53689e-06 1.33917e-05 3.26134e-06 3.11452e-05 
7.4634e-06 8.14387e-06 -1.45145e-05 8.05839e-06 -1.24134e-05 1.48114e-05 0.000134236 -5.72979e-06 -3.87289e-06 
1.70001e-05 3.44546e-06 1.12359e-05 -3.81822e-06 2.26312e-05 5.68119e-06 -1.32008e-05 -2.37891e-05 -9.79814e-07 
4.44483e-06 1.20138e-05 3.1264e-05 -3.57858e-05 -1.87274e-06 1.84099e-05 -1.62578e-05 -1.56912e-05 9.75068e-06 
9.40588e-06 -1.46966e-05 -3.15386e-05 -6.54644e-07 4.69947e-06 -3.56337e-06 -1.56379e-05 -2.30534e-05 -3.79764e-05 
-5.56861e-06 -2.42993e-06 2.13854e-05 -2.21359e-05 6.41698e-06 -1.97271e-07 -2.1312e-06 1.26604e-05 -2.42953e-05 
9.51412e-06 4.05514e-05 -1.54938e-05 -2.5499e-05 1.16408e-05 -1.40663e-05 9.68794e-06 -5.76263e-06 -4.92495e-06 
7.32914e-05 3.73697e-05 -4.23258e-07 -2.03368e-05 -2.35511e-05 -9.61037e-06 6.70032e-05 -4.68881e-05 -1.00744e-05 
-1.72953e-05 -1.70394e-05 1.12237e-05 3.03942e-05 1.83561e-05 1.96085e-05 2.56299e-05 5.73258e-06 1.05041e-05 
2.31425e-05 -1.08421e-05 1.60495e-05 1.18086e-06 -2.24281e-06 -1.10945e-05 -2.49694e-05 1.31492e-05 -5.30219e-06 
-1.37905e-05 -8.77661e-06 -1.77958e-05 -0.000109105 -5.66895e-05 -2.75347e-06 -2.38639e-05 1.94824e-05 -3.34066e-06 
-2.73852e-05 3.5116e-05 1.20613e-05 1.56549e-05 4.88215e-05 -2.81e-05 3.32506e-05 1.03836e-05 -7.83882e-06 
-3.363e-05 2.64118e-05 -1.22195e-05 3.15734e-05 1.08458e-06 1.9414e-05 -2.45178e-05 2.77888e-06 -1.6081e-07 
1.65295e-06 -1.60726e-06 7.52669e-07 5.57984e-06 6.42355e-06 4.28439e-06 7.34432e-06 8.75752e-06 7.5613e-06 
9.61263e-06 1.20233e-06 2.50675e-06 -1.2189e-06 -5.41437e-06 -1.48584e-06 -6.44198e-06 -2.6321e-06 -3.39443e-06 
-3.29358e-06 -5.63962e-06 6.64311e-07 -1.88891e-06 8.43718e-07 3.086e-06 4.48198e-06 -1.90025e-07 -0.00727822 
0.000140276 -6.96445e-05 -3.36471e-05 -2.49958e-05 -4.28397e-06 2.2993e-07 -1.33791e-05 -4.80165e-06 -4.45036e-06 
-4.83024e-06 1.76871e-06 -4.88209e-06 1.34167e-06 3.6607e-06 4.13868e-06 7.68062e-06 7.43588e-06 8.52656e-06 
7.84796e-06 7.01484e-06 6.81695e-06 4.18641e-06 2.17244e-06 2.9431e-07 -1.53954e-07 -3.51984e-06 -4.69063e-06 
-6.91621e-06 -6.61669e-06 -7.8204e-06 -7.67729e-06 -6.13048e-06 -4.3091e-06 -2.47888e-06 -8.42581e-07 9.62001e-07 
1.52675e-06 2.86775e-06 3.88162e-06 2.38914e-06 1.02557e-06 -1.9316e-06 3.71949e-06 2.78012e-06 1.92597e-06 
1.40059e-06 1.16874e-06 1.27017e-07 2.4319e-07 2.89229e-07 5.46823e-07 2.43917e-06 3.85817e-06 5.71109e-07 
5.76176e-07 4.53078e-07 1.20305e-06 -2.49425e-07 2.07957e-06 1.45071e-06 2.39947e-06 1.44299e-07 2.3765e-06 
1.50411e-06 9.86512e-07 1.08269e-06 -7.75745e-08 8.96195e-07 -7.59671e-07 1.9416e-06 -2.1004e-07 2.18539e-07 
-2.60895e-06 -1.80895e-06 -2.15266e-06 -5.13953e-06 1.49793e-06 -3.89578e-06 -3.75287e-06 -7.76282e-06 -1.402e-05 
-1.64224e-05 2.40823e-05 -0.000200341 -0.000361947 -0.000489482 0.00861455 0.000214985 0.00162438 0.00292532 
0.00270043 -0.00397029 -0.000369995 0.000251055 -3.45879e-05 -0.000616482 -0.000147941 -0.000526437 -0.000235042 
0.000190858 0.000536935 0.000113308 -0.00016322 0.000219601 -0.00045414 4.87017e-05 -5.35096e-05 -0.000404138 
-0.000339182 -0.000983338 -0.000592256 0.00810786 -0.0016188 0.00270204 0.00140883 -0.000775475 -0.000375013 
-0.000336811 -0.000367076 -0.000495188 -0.000457327 -0.000392023 -0.000375301 -0.000391375 -0.000653834 -0.00147276 
-0.00302339 0.00315508 0.000861103 5.50973e-05 0.000222894 0.000432365 0.000435632 0.000427206 0.00041352 
0.000404477 0.000356296 0.000389906 0.000367954 0.000181682 0.000114895 -0.00385092 0.00134449 -0.00520778 
-1.16547e-05 0.0088646 -0.00220442 3.81202e-06 -1.63089e-06 -1.77079e-06 -4.93923e-06 7.8922e-06 2.166e-06 
1.20376e-06 7.59629e-07 -2.70759e-06 1.25393e-06 2.23914e-06 5.13128e-07 -1.03844e-06 -1.32039e-06 -1.64847e-06 
-9.17453e-07 -1.08182e-06 -4.77589e-07 -6.69056e-07 -1.90785e-06 -2.102e-06 9.3418e-07 -5.62792e-07 8.86971e-07 
-5.94834e-05 3.34195e-06 0.00280153 -0.000175557 -0.00196486 -3.39315e-05 -1.62288e-05 -1.92235e-05 -5.33383e-06 
-4.2816e-06 -6.39133e-06 -5.72992e-06 -4.83754e-06 -2.3858e-07 2.33434e-07 -6.24942e-07 -1.37922e-06 -1.34743e-08 
-1.14116e-06 -8.01341e-07 1.34517e-07 8.57347e-08 -9.54639e-07 -1.66825e-06 -4.67393e-07 1.80549e-07 -1.55024e-07 
-5.28703e-07 -8.0715e-07 -9.79009e-07 -1.46273e-06 -3.04127e-06 -2.9362e-06 -1.54227e-06 -2.50213e-06 -1.64131e-06 
-1.17649e-07 4.43125e-07 1.00602e-06 -3.89123e-07 1.25511e-06 -1.19113e-06 1.09909e-06 -5.40963e-07 -1.94028e-05 
0.00248497 0.00153512 -2.21135e-07 6.74111e-08 1.56396e-07 7.30054e-07 -1.0717e-07 -6.74373e-07 -6.85724e-07 
1.29784e-07 9.64804e-07 1.37723e-06 7.75199e-07 7.50562e-07 1.40912e-06 4.1693e-08 1.18813e-07 1.4648e-07 
-1.34328e-06 -2.42773e-08 -1.61714e-06 -1.66481e-06 -1.99791e-06 -2.20527e-06 -2.11673e-06 -2.24042e-06 -1.52118e-06 
2.69587e-06 2.1747e-07 3.49771e-06 5.43026e-06 5.0729e-07 -1.89972e-06 1.30898e-06 3.21554e-06 -8.39626e-07 
1.11811e-05 1.44408e-05 -2.54246e-06 -9.39165e-06 -2.86618e-05 -5.06442e-05 0.000348468 -0.000653627 0.000473791 
7.23103e-07 -0.000548391 2.34246e-05 -0.000145958 -1.96026e-05 -3.52715e-06 8.10766e-05 8.21802e-05 6.07648e-05 
9.90774e-05 -1.26445e-05 -1.80012e-05 -9.6272e-05 -1.66159e-05 1.73592e-05 9.4803e-05 2.00348e-05 5.48611e-05 
1.66033e-05 -9.94965e-05 -1.26745e-05 -0.000166127 -0.00139119 -0.000705319 -0.00161035 -0.000253368 -0.000101437 
1.43037e-05 -3.17546e-05 -3.38289e-05 1.21585e-05 -3.91337e-05 -1.46227e-05 -2.02259e-05 4.57482e-05 0.000134679 
0.000121358 6.19661e-05 -7.63637e-05 -9.81176e-05 -7.53543e-05 -6.36864e-05 -5.82993e-05 -5.93741e-05 -5.69208e-05 
-7.42481e-05 -8.76055e-05 -0.000202017 0.000108472 -0.00372298 -1.81777e-06 -6.35058e-05 0.000289241 0.000219267 
8.33625e-05 0.000182259 0.0018049 0.00114785 -0.000258793 -1.21253e-06 3.83569e-06 2.82767e-06 -2.72229e-06 
2.42239e-06 1.84132e-06 1.04955e-06 3.52758e-06 8.30928e-07 -5.4395e-06 -4.48998e-06 -1.99153e-06 6.78934e-07 
1.61134e-06 -2.08898e-06 -9.66077e-07 -1.11371e-06 -4.90758e-06 -9.34341e-08 1.35994e-06 4.566e-05 1.80171e-06 
-4.99096e-05 0.000346334 -8.97089e-06 -8.93966e-06 -5.85074e-06 1.11196e-06 5.01906e-07 -1.07214e-06 -3.13914e-06 
-5.38342e-07 -9.37664e-07 -8.10696e-07 2.87162e-06 3.09565e-06 1.43406e-06 -1.16967e-07 -1.11953e-06 -3.45433e-06 
-4.40844e-06 -4.61309e-06 -1.10493e-07 -2.48964e-06 -3.12951e-06 -3.0377e-06 -4.34428e-06 -3.33255e-06 -2.83542e-06 
-4.39336e-06 2.48356e-07 1.80586e-06 -2.15314e-07 1.25096e-06 3.82148e-06 5.90674e-07 7.62958e-07 2.31411e-06 
-3.66996e-07 -2.1645e-07 6.72741e-08 0.000105191 -1.86555e-06 1.69529e-06 -1.02354e-06 -3.09561e-06 2.85938e-06 
3.23031e-06 -2.82239e-06 4.70339e-06 2.29885e-06 2.21663e-08 1.36016e-06 -1.15726e-06 -3.21993e-09 1.76148e-06 
-1.61774e-06 -4.38225e-06 -5.72211e-07 -1.38365e-06 -3.1409e-06 -1.28896e-06 -3.30056e-06 -2.11692e-06 4.67174e-06 
5.68776e-06 -3.0835e-06 -2.26545e-06 5.2908e-06 3.55134e-06 -1.01964e-06 3.65506e-06 8.42188e-06 3.26441e-06 
3.18427e-05 -1.42713e-05 -8.73693e-06 -2.7365e-05 1.77634e-06 0.000207837 3.62042e-05 -3.16765e-05 -1.36854e-05 
-0.000102545 -0.00019631 7.15901e-05 -9.63593e-06 2.01335e-06 3.713e-05 5.52505e-06 4.59481e-05 3.76284e-05 
2.63077e-05 2.2709e-05 2.11063e-05 2.08874e-05 8.98746e-06 2.51158e-05 1.87424e-05 -2.74556e-05 -3.56829e-05 
-5.79376e-07 -2.67785e-05 8.10756e-05 3.57346e-05 0.000146714 -5.55082e-05 -0.000476736 9.82055e-05 1.55129e-06 
-2.58336e-06 -1.81547e-06 -5.91373e-06 1.13739e-06 1.82247e-05 1.79377e-05 5.16134e-05 8.59573e-05 -2.92248e-05 
-0.000287624 -4.86322e-05 -2.49613e-05 -1.48423e-05 1.27258e-06 -2.19035e-06 -1.24558e-05 -2.26067e-05 -3.1142e-05 
-6.8984e-05 -4.08415e-05 0.000237187 -4.28405e-06 1.40443e-07 -2.27816e-05 4.81392e-07 9.4211e-08 0.000232367 
-0.000128703 -2.44438e-05 8.87272e-06 0.000196407 0.000233406 0.000124117 0.000125222 -1.98022e-06 3.56394e-06 
1.33468e-06 -4.52653e-06 -8.84214e-06 2.80081e-06 -4.03373e-06 -4.07398e-06 -2.58688e-06 2.93014e-06 -3.97887e-06 
-2.10636e-06 -1.84662e-06 1.01475e-06 5.91174e-07 -2.78847e-05 -9.57407e-06 5.75093e-07 2.51496e-06 2.95024e-06 
-4.86883e-06 4.03227e-06 -1.42192e-06 -4.20895e-06 -3.79947e-08 6.81892e-06 -3.09643e-06 -4.15575e-06 -2.63729e-07 
7.00004e-08 -2.66854e-06 -6.06672e-06 -3.19252e-06 2.52623e-06 -9.3259e-08 -9.67124e-07 -5.22304e-06 -8.84518e-07 
1.61276e-06 1.37219e-06 4.38467e-06 -1.73286e-06 -3.86077e-08 -4.47092e-06 -1.88601e-06 1.46162e-06 3.6667e-07 
1.29465e-07 2.10917e-06 3.64868e-06 9.16026e-07 7.48646e-07 -7.54824e-07 2.10323e-05 7.46259e-05 -1.89473e-05 
3.24494e-05 7.20139e-05 2.82886e-05 -1.11761e-06 -3.6923e-06 9.1812e-06 2.73542e-06 3.19217e-06 -6.04829e-06 
1.61736e-06 1.66164e-06 1.66531e-06 -2.31888e-06 -7.52372e-07 -3.67699e-06 -4.49627e-06 4.20469e-06 -7.31094e-06 
6.02182e-06 8.09832e-06 2.12781e-06 -4.14008e-06 3.02275e-06 -7.27167e-06 6.58604e-06 8.81321e-06 -7.98506e-06 
3.55833e-06 -4.39926e-06 1.49088e-06 -2.12525e-06 -3.98699e-06 6.01692e-06 2.44069e-05 -1.30658e-05 -5.99417e-06 
1.38124e-05 1.17465e-05 -3.91955e-05 1.86917e-05 3.05269e-05 -8.97013e-07 -2.38243e-05 9.74359e-07 1.75097e-05 
1.6327e-05 -1.67492e-05 9.36765e-06 -1.98009e-06 -1.47634e-05 2.26146e-06 -1.73924e-06 4.48891e-06 1.91559e-05 
6.75786e-07 4.68371e-07 1.46801e-06 9.57974e-06 4.6561e-06 -5.5851e-05 1.85134e-05 2.03102e-06 1.08845e-06 
-9.63592e-05 -9.88664e-07 -2.61979e-06 -7.08404e-05 2.14723e-05 4.91991e-05 3.89711e-05 -2.66788e-05 6.39117e-06 
6.1035e-05 6.42841e-06 -1.45602e-05 -4.93959e-06 -3.39321e-05 -4.07718e-05 -1.60277e-05 -2.53771e-05 -2.26091e-05 
-3.48032e-05 -2.11361e-05 -4.2182e-06 5.06679e-05 -1.44357e-05 -9.94161e-05 -1.29084e-07 -1.63877e-05 4.51293e-06 
-0.00025603 -4.0873e-06 2.38309e-06 9.99667e-05 1.87322e-05 -8.19517e-05 -2.05946e-06 -1.22211e-05 0.000112196 
8.46056e-05 0.000139511 5.41792e-05 -2.38706e-06 -8.72674e-06 -3.92649e-06 -7.29383e-06 3.92072e-06 3.63516e-06 
6.93186e-06 3.56936e-07 -1.81623e-06 -3.65713e-06 -2.06927e-06 1.87157e-05 6.98727e-06 1.98635e-06 8.43134e-06 
3.70055e-06 3.90987e-09 1.02042e-05 1.72713e-05 6.28826e-06 1.16995e-05 -1.06109e-05 -1.54601e-06 2.17611e-05 
7.42559e-06 -4.16319e-06 -3.32117e-06 -2.86331e-07 -4.63191e-06 -4.98387e-07 -2.47868e-06 -7.14058e-07 -1.13254e-05 
-1.05201e-05 -2.48659e-06 4.20772e-06 -5.1565e-08 -2.35411e-05 3.18495e-06 4.8254e-06 -3.16558e-06 1.5511e-07 
-1.77254e-05 -7.0238e-07 1.96319e-05 1.20395e-05 3.22632e-06 8.61684e-06 5.71433e-06 1.58426e-05 -5.77546e-06 
6.01307e-06 8.76242e-06 1.07186e-05 2.94897e-06 -1.78402e-05 -1.42921e-06 -1.87657e-06 3.84658e-06 -1.88589e-06 
4.81894e-06 -7.69415e-06 1.18531e-06 1.0459e-05 -2.2394e-05 2.74342e-05 -1.50921e-07 -7.6133e-06 1.24117e-05 
4.26643e-06 1.89569e-06 1.3761e-05 -1.8024e-05 -3.13131e-05 -3.92513e-06 -2.46348e-05 -3.77977e-05 -7.50412e-05 
1.48442e-05 2.35054e-05 2.82738e-05 -3.06835e-06 -9.98442e-06 8.0599e-06 -7.50637e-08 -1.09535e-06 1.28803e-05 
-1.46323e-05 -1.38423e-05 -2.79343e-05 3.17317e-05 -1.17173e-06 5.4024e-05 -7.68776e-05 -4.6247e-05 2.473e-05 
3.16081e-05 7.28374e-06 -8.64796e-06 -1.57585e-05 -1.84951e-05 4.43853e-05 -6.56334e-06 -8.14845e-06 4.32735e-05 
-9.45056e-06 -3.65232e-06 6.19217e-06 -1.85179e-06 -3.15242e-05 -2.10076e-05 -5.78759e-05 -3.62956e-05 -3.23735e-05 
-2.2012e-05 1.6889e-05 2.23675e-05 2.37793e-05 -1.10328e-05 3.60916e-06 -8.81221e-06 4.77481e-05 -5.22754e-05 
7.22447e-05 2.40903e-05 -5.04808e-06 2.81088e-06 3.06981e-05 9.10745e-07 5.80031e-06 -2.92035e-06 3.62193e-06 
6.48691e-06 6.75248e-05 -1.28435e-05 -2.49187e-06 -1.83892e-05 2.85611e-05 3.12919e-05 -4.65629e-05 -1.07169e-05 
-6.7494e-06 -1.51586e-05 -3.63436e-05 1.98405e-05 -2.91503e-06 8.26338e-07 1.13869e-05 1.40585e-05 -8.39148e-06 
1.16975e-05 2.77511e-05 -1.91955e-05 -3.6842e-06 -3.14984e-06 -5.42255e-05 6.23769e-05 -3.35736e-05 8.82052e-06 
-1.93669e-05 1.79609e-05 1.57649e-05 -2.05662e-05 1.76795e-05 -3.62078e-05 1.01578e-05 1.92758e-05 2.49456e-05 
4.43423e-06 -2.23856e-05 -1.13605e-05 -2.66685e-05 6.07592e-05 3.6952e-05 -1.48131e-05 -3.40077e-05 3.19597e-05 
1.97016e-05 -4.48739e-05 1.50492e-05 -3.07999e-05 4.52772e-06 -2.03544e-05 8.7703e-06 -6.86167e-06 6.56166e-06 
-1.85844e-05 2.6417e-06 -1.0283e-05 7.60435e-08 -1.93881e-06 -9.4123e-06 -7.21434e-06 -2.74375e-05 -1.81045e-05 
1.65469e-05 5.87991e-06 -6.92832e-05 -4.32379e-06 2.33908e-05 4.33648e-05 2.5814e-05 -8.0614e-05 1.63933e-05 
-1.20548e-05 2.87513e-05 2.06902e-05 1.10234e-05 5.86036e-06 -3.74333e-05 1.00693e-07 1.34423e-07 -0.0174574 
0.00283129 -0.000422515 -0.000187403 1.73654e-08 4.0574e-08 -2.48048e-08 2.31574e-08 2.06959e-08 1.63108e-08 
1.57398e-08 1.83525e-08 1.62801e-08 1.24245e-08 1.05191e-08 1.1429e-08 9.54754e-09 6.03267e-09 5.57954e-10 
6.44495e-10 -2.17409e-09 -5.51763e-09 -1.05557e-08 -1.72458e-08 -1.94486e-08 -1.00224e-08 4.2143e-08 1.34423e-07 
1.00693e-07 5.01069e-09 6.58199e-09 3.60699e-08 1.03247e-08 -0.000251485 2.35606e-08 1.74321e-08 1.28508e-08 
7.8061e-09 7.56845e-09 4.09018e-09 7.16556e-09 8.6836e-09 1.13614e-08 8.23927e-09 5.12006e-09 3.93389e-09 
1.33827e-09 -2.32215e-10 2.17912e-09 -3.19422e-10 -2.17569e-09 -7.14998e-09 -2.43742e-08 -4.24975e-08 -4.47531e-09 
-3.18437e-05 -1.6821e-05 2.92762e-06 2.61204e-05 3.10194e-05 3.7984e-05 3.90128e-05 3.8085e-05 3.36595e-05 
2.91885e-05 3.3482e-05 2.63244e-05 1.30728e-05 2.8934e-05 8.29166e-06 -1.90562e-06 -2.07112e-05 -2.51381e-05 
-3.48554e-05 -2.53607e-05 -3.91276e-05 -3.95931e-05 -3.18509e-05 -2.03584e-05 -1.3383e-05 2.32548e-06 1.97448e-05 
2.49766e-05 -0.0109756 -0.000566045 -0.00165013 -0.000868192 -0.000480774 -0.000328236 -0.000226557 -0.00018002 
-0.000119599 -0.000103591 -9.27239e-05 -8.58041e-05 -9.32204e-05 -2.24862e-05 -6.67292e-05 -4.7544e-05 -2.50396e-05 
8.58491e-06 2.26475e-05 3.76553e-05 5.07479e-05 5.61842e-05 6.17886e-05 6.47778e-05 6.33885e-05 5.68291e-05 
4.43717e-05 3.81054e-05 1.90968e-05 -1.12067e-06 -1.42483e-05 -2.71396e-05 -3.78753e-05 -4.17624e-05 -4.51215e-05 
-4.05624e-05 -3.55554e-05 -2.75633e-05 -1.84048e-05 -7.30547e-06 2.99574e-06 9.23567e-06 2.20561e-05 3.61067e-05 
3.05087e-05 -2.04189e-05 -5.94871e-06 6.93114e-06 -2.66279e-05 -1.90119e-05 -1.25384e-05 3.4774e-08 9.20482e-06 
1.77823e-05 2.6228e-05 3.13933e-05 3.45957e-05 3.23333e-05 3.55232e-05 2.48537e-05 1.22334e-05 4.14166e-06 
-1.31105e-05 -2.85256e-05 -4.33523e-05 -5.24048e-05 -5.759e-05 -5.93627e-05 -6.06275e-05 -5.75856e-05 -5.56427e-05 
-5.0064e-05 -3.25513e-05 -1.41933e-05 -3.54599e-06 2.38748e-05 4.93331e-05 5.39226e-05 6.16149e-05 6.48826e-05 
7.20572e-05 7.44647e-05 9.72845e-05 0.000120058 0.000151396 0.000208772 0.000284104 0.000454512 0.000721582 
0.00163163 0.0182175 -0.0184681 -0.00498635 -0.0161823 -0.00400523 -0.00400424 -0.00361587 -0.00244355 
-0.00235915 -0.00223943 -0.00227469 -0.0024254 -0.0035309 -0.00372822 -0.00432406 -0.00390117 -0.0208651 
-0.00415137 0.0162826 0.00581942 0.00471658 0.00406331 0.00390808 0.00376038 0.0037116 0.00370779 
0.00375663 0.00382077 0.00399162 0.00464228 0.00716529 0.018883 1.66629e-05 4.27386e-05 1.71535e-06 
-7.57918e-07 -1.7115e-05 -2.45091e-05 -3.00502e-05 -3.62238e-05 -4.01838e-05 -4.14681e-05 -3.10344e-05 -1.73695e-05 
-1.56448e-05 1.09062e-05 2.11598e-05 3.53232e-05 1.74038e-05 3.60918e-05 1.84414e-05 1.01279e-05 2.66578e-05 
3.83425e-05 3.7386e-05 3.29885e-05 1.63091e-05 -8.09059e-06 -1.49587e-05 -2.93599e-05 -0.0246545 0.0223979 
0.00132519 0.000783737 0.00033125 0.000189186 0.000126082 0.000118559 6.00085e-05 3.45176e-05 3.05214e-05 
1.6751e-05 1.33325e-06 -2.78577e-06 -9.30747e-06 -2.39068e-05 -2.33132e-05 -3.07349e-05 -3.56768e-05 -5.51508e-05 
-5.71402e-05 -5.99925e-05 -6.01595e-05 -5.57352e-05 -4.47646e-05 -3.1919e-05 -2.85681e-05 -1.22074e-05 6.75614e-06 
2.17081e-05 3.0898e-05 4.36626e-05 4.68965e-05 4.66297e-05 4.23945e-05 2.92124e-05 1.75676e-05 7.2655e-06 
-3.4306e-06 -1.30508e-05 -2.07838e-05 -2.61037e-05 -3.12888e-05 -3.11623e-05 -8.81543e-06 5.20481e-06 -5.93659e-07 
1.31218e-06 2.19568e-05 2.72205e-05 2.49455e-05 2.10101e-05 1.10136e-05 1.10428e-06 -8.04116e-06 -1.23665e-05 
-2.39006e-05 -3.6924e-05 -4.72016e-05 -5.02394e-05 -4.64289e-05 -4.005e-05 -2.59653e-05 -1.43943e-05 2.39441e-06 
1.75704e-05 3.88392e-05 5.10647e-05 6.03001e-05 6.09565e-05 5.66393e-05 5.63306e-05 4.67471e-05 3.88167e-05 
2.40749e-05 2.25728e-05 -6.25976e-06 -1.3692e-05 -2.65953e-05 -2.77345e-05 -4.24156e-05 -3.32556e-05 -3.95462e-05 
-3.69921e-05 -6.12377e-05 -9.68063e-05 -0.000124429 -0.000227042 -0.000340556 -0.00104619 -0.00570054 -0.00340776 
0.00417026 0.0135287 0.0063105 0.00435582 0.00385772 0.00361728 0.00341543 0.00346682 0.00347003 
0.00348141 0.00362081 0.00399824 0.00487011 0.00675457 0.0209314 0.00239087 -0.0135028 -0.00714743 
-0.0045345 -0.0037904 -0.00247974 -0.00251122 -0.0025201 -0.0024614 -0.0025336 -0.00363393 -0.00382065 
-0.00299224 -0.00384323 -0.017381 6.19012e-07 -3.98556e-06 0.0189281 -0.00833046 -0.0208122 0.00513884 
2.5555e-08 -0.0231678 0.000516046 3.17413e-09 -0.00148573 8.21053e-10 3.18456e-08 -0.000523155 -0.0158388 
0.0115807 -0.0154192 2.94289e-08 -0.00119148 0.0134602 -0.0156698 0.0150946 -0.0175334 0.0144745 
-0.0176107 0.0150764 -0.0166851 0.0165117 -0.0172407 0.0156056 -0.0173626 0.0166542 -0.0174369 
0.0165163 -0.0183077 0.0159128 -0.0191398 0.0159926 -0.0185005 0.0167006 -0.0175457 0.0176343 
-0.0177654 0.0171156 -0.0163665 0.0182058 -0.0168035 0.0174013 -0.0164111 0.0183362 -0.0157685 
0.0193343 -0.0151781 0.0187031 -0.0135119 0.018589 -0.0136874 0.0196949 -0.016494 0.0248981 
-1.15504e-05 -2.04117e-05 -1.69154e-05 5.89218e-06 -5.09275e-06 -2.44163e-06 2.57601e-06 -3.18927e-06 -6.56501e-06 
8.35842e-06 1.94683e-07 2.08909e-06 7.20445e-06 -8.95582e-07 1.28089e-07 1.36445e-05 6.39132e-06 6.43764e-07 
1.65217e-05 7.19753e-06 -5.60585e-06 1.69561e-05 1.04769e-05 -1.05854e-05 1.61557e-05 1.20495e-05 -1.33944e-05 
-7.22518e-06 2.2905e-06 -2.93101e-07 -9.4369e-06 -3.54858e-06 1.1868e-06 8.77508e-07 -1.25762e-05 -1.15613e-06 
-1.84547e-05 -1.5303e-05 -4.85736e-06 -2.11836e-05 -1.71548e-05 1.71917e-06 -2.05348e-05 -1.90299e-05 5.84054e-06 
-1.76237e-05 -2.86161e-06 4.20021e-06 -1.66077e-05 -1.74422e-05 6.55593e-06 -1.36495e-05 1.691e-06 9.26019e-06 
5.2366e-06 7.54656e-06 1.28006e-05 -9.56418e-06 -1.05729e-05 9.49692e-06 -2.07448e-05 -1.57985e-05 7.41597e-06 
-2.78016e-05 -1.69513e-05 2.4952e-06 -1.95026e-05 -1.77116e-05 3.85331e-06 -1.4755e-05 -2.19333e-05 5.71272e-06 
-1.81705e-06 -1.31792e-05 -6.68592e-07 5.25885e-06 1.98518e-05 -3.35352e-06 1.18703e-05 1.50572e-06 -1.44125e-05 
-1.28792e-07 0.00995195 -0.0021252 -0.00329091 -0.000180897 -0.000100595 -0.000530128 -2.16854e-05 -5.43231e-05 
-0.000246445 -9.91823e-05 -2.92904e-05 -0.000132947 -5.80026e-05 -7.29247e-06 8.86544e-06 -5.41458e-05 -9.37822e-06 
2.66863e-05 -2.17398e-06 8.07714e-06 1.36704e-05 -3.56007e-05 -5.73311e-06 -5.66554e-05 -3.21462e-05 -9.27267e-07 
-3.6466e-06 -3.34399e-05 -3.74741e-06 -2.51345e-06 -3.28098e-05 -6.39983e-06 -5.48043e-06 -3.02438e-05 -1.45976e-05 
-1.01659e-05 7.37373e-06 -2.15292e-05 -1.64931e-05 -3.23228e-05 -1.09782e-05 -1.71952e-05 -3.03762e-05 -7.3241e-06 
-1.89491e-05 -2.27179e-05 -4.59855e-06 -1.76562e-05 -2.17858e-05 -1.68546e-07 -1.86861e-05 -1.49703e-05 -2.19767e-06 
-2.27248e-05 -1.272e-05 -2.23957e-06 -1.97502e-05 -8.82862e-06 -2.53172e-06 -2.49773e-05 -4.37019e-06 -1.93524e-06 
-2.63083e-05 -7.22731e-07 1.52412e-07 -2.13504e-05 8.07032e-06 1.50665e-06 -1.94889e-05 1.00243e-05 1.65753e-06 
-1.48454e-05 1.02277e-05 1.52919e-06 -9.97373e-06 1.17645e-05 9.31337e-07 -5.97636e-06 1.70767e-05 4.10826e-06 
-1.61779e-07 1.34977e-05 4.59425e-06 7.94594e-06 1.17552e-05 4.06294e-06 1.07563e-05 9.93534e-06 5.3488e-06 
2.08229e-05 7.47202e-06 4.92558e-06 2.23789e-05 3.73587e-06 2.91676e-06 2.23071e-05 -2.45159e-07 2.79456e-06 
2.13509e-05 -3.83234e-06 4.02151e-07 1.66056e-05 -6.78845e-06 -6.78459e-07 1.12116e-05 -6.63008e-06 -2.13295e-06 
3.38397e-06 -8.74529e-06 -3.74227e-06 -1.90861e-06 -7.90017e-06 -5.06486e-06 -7.09988e-06 -7.18019e-06 -4.77218e-06 
-1.08468e-05 -5.70372e-06 -3.90902e-06 -1.27215e-05 -2.52511e-06 -4.08288e-06 -1.5145e-05 -2.56205e-07 3.2567e-07 
-1.5658e-05 3.89589e-06 1.03783e-05 -1.52263e-05 2.13948e-05 8.90463e-06 4.12694e-06 -0.00903242 -4.38446e-06 
-1.59108e-05 -1.70733e-06 -1.87504e-06 6.47463e-07 1.74958e-06 7.98946e-08 2.36607e-06 7.66218e-06 1.47073e-06 
5.41573e-06 8.73741e-06 4.42952e-06 6.10792e-06 1.28846e-05 4.92878e-06 7.54515e-06 1.34555e-05 3.44608e-06 
7.26154e-06 1.14201e-05 3.39085e-06 8.99899e-06 2.80591e-06 3.36367e-07 8.26293e-06 -4.11799e-06 -8.86546e-07 
6.4794e-06 -9.57069e-06 -2.40744e-06 -2.43144e-06 -5.08717e-06 -4.68661e-06 -1.25118e-06 -1.04258e-05 -6.30336e-06 
-4.55886e-06 -1.68269e-05 -8.23587e-06 -7.54844e-06 -2.33619e-05 -8.43053e-06 -1.11333e-05 -2.15062e-05 -7.82444e-06 
-1.61286e-05 -2.4422e-05 -1.04545e-05 -1.45841e-05 -2.65304e-05 -8.40909e-06 -1.37027e-05 -1.93185e-05 -8.87793e-06 
-9.19982e-06 -1.27788e-05 -4.00933e-06 -6.30509e-06 -5.22617e-06 -2.17032e-06 5.8087e-07 4.32203e-06 5.25078e-07 
-8.37723e-07 6.76439e-06 -1.07003e-06 -1.02969e-06 7.27784e-06 -3.09067e-06 5.41178e-06 9.81891e-06 6.24406e-07 
7.36302e-06 1.43901e-05 1.91788e-06 1.14527e-05 1.98905e-05 1.98372e-06 9.33169e-06 2.155e-05 6.21207e-06 
1.89704e-05 2.55556e-05 1.15065e-05 1.63131e-05 3.16383e-05 7.88248e-06 1.59181e-05 3.03404e-05 6.76182e-06 
1.55097e-05 2.07966e-05 6.67442e-06 1.68363e-05 2.04785e-05 1.07186e-05 1.87391e-05 2.61371e-05 5.9897e-06 
1.88207e-05 3.49091e-05 7.18591e-06 2.09476e-05 3.95328e-05 8.70083e-06 2.60352e-05 4.95166e-05 1.15113e-05 
3.47509e-05 5.08826e-05 1.8315e-05 4.93819e-05 7.32175e-05 4.98662e-06 5.87136e-05 9.05918e-05 5.80496e-06 
7.64004e-05 0.000112558 -1.74994e-05 0.000126031 1.32018e-05 0.000256722 0.00108314 -3.4658e-05 0.00153024 
0.0092982 -0.000155344 -0.00930044 0.00883404 -0.00525497 -0.00209239 -0.00207805 -0.00297896 -0.00343713 
-0.00450448 -0.00101076 -0.00205088 0.00124888 0.00376123 0.00218578 -0.00771064 4.97991e-05 -0.00633116 
-0.00563425 0.00288709 -0.00337384 -0.00406735 0.0014729 -0.00249488 -0.00312297 0.00117415 -0.00205932 
-0.00268187 0.00092803 -0.00189709 -0.0025454 0.00125331 -0.00132303 -0.00190905 0.000985525 -0.00151318 
-0.00224796 0.000618867 -0.00199818 -0.00220694 0.00117543 -0.00218221 -0.00191166 0.00103633 -0.00177868 
-0.00142584 0.000973224 -0.00111095 -0.00101153 0.000431546 -0.000419507 -0.000687018 0.000271405 0.000182697 
-0.000258698 -6.87629e-05 0.000424827 -0.000188265 -0.000151598 0.000610946 -0.00013384 -0.000215642 0.00123793 
0.000141249 -0.000282152 0.00175633 0.00078671 -0.000494572 0.00268778 0.00187998 -0.000875001 0.00474749 
0.00401335 -0.00140036 0.00661006 -4.16357e-05 -0.00084574 0.0128577 -0.0226191 -0.00684774 -0.00663331 
-0.00212877 -0.00695296 0.00117814 -0.00273422 -0.00229683 8.57267e-05 -0.00245647 -0.00199215 0.00041308 
-0.00244977 -0.00198836 0.000513592 -0.00231464 -0.00204504 0.000601488 -0.00246683 -0.00199145 0.000604952 
-0.00249258 -0.0020111 0.000623969 -0.00262202 -0.00202411 0.000608936 -0.00245835 -0.00182448 0.000674785 
-0.00260242 -0.00205405 0.000611245 -0.00281587 -0.0023094 0.0006809 -0.00550032 -0.00286688 0.000220216 
-0.00996174 -0.00269034 0.00305175 -0.00522414 0.00996434 0.00260717 0.018805 0.00280348 0.00247774 
-0.0011156 0.00249679 0.00285063 -0.00058022 0.00237855 0.00289451 -0.000832724 0.00227307 0.0026747 
-0.00067651 0.00235999 0.00238597 -0.000586173 0.00233769 0.00240685 -0.000637355 0.00230028 0.00252914 
-0.00068757 0.00231542 0.0025036 -0.000709713 0.00236469 0.00253857 -0.000740212 0.00255192 0.00283502 
-0.000725155 0.00312638 0.00299644 -0.000581514 0.00541798 0.00427824 -0.000285692 0.0113457 0.00797131 
-0.000387478 1.30384e-05 -0.00640719 -0.00342877 -0.00729196 0.0194284 0.00873878 0.00160717 0.00419329 
0.00734369 0.0175787 0.00511457 -0.000750849 -0.0116215 -0.00130899 -0.0111649 0.00332668 0.00135016 
-0.000874854 -0.00025682 -2.50286e-07 -1.35219e-05 -5.79445e-06 -1.03124e-05 -4.86229e-06 3.06564e-06 7.58942e-06 
1.62245e-07 1.22379e-05 1.57483e-05 4.05716e-06 1.64069e-06 -1.74964e-05 3.84976e-06 -1.8675e-05 -1.74746e-05 
-9.0778e-06 -2.18802e-05 -1.37406e-05 -6.9696e-06 -1.76138e-05 -2.66116e-06 -5.06618e-06 -1.98345e-05 -8.35378e-06 
-4.7869e-06 -2.57116e-05 -2.43545e-06 -9.05229e-06 -2.16452e-05 4.23025e-06 -8.41476e-06 -1.79448e-05 1.03186e-05 
-9.16561e-06 -1.22333e-05 1.28758e-05 -6.00951e-06 -4.87417e-06 1.25526e-05 -3.3002e-06 -6.60807e-06 1.80366e-05 
2.4676e-06 8.18653e-06 1.58219e-05 1.67151e-06 3.8698e-06 1.4815e-05 6.26174e-06 1.34811e-05 1.59217e-05 
1.37914e-05 1.53078e-05 1.60855e-05 9.40342e-06 1.35644e-05 4.88258e-06 6.87386e-06 -8.98928e-06 4.16366e-06 
2.94242e-06 1.08162e-05 4.737e-07 2.1751e-06 5.66994e-06 -6.42606e-06 -4.01647e-06 7.93321e-06 3.00433e-06 
-5.9387e-06 -0.000434045 -0.000508851 5.59167e-05 -0.00296597 0.00125215 5.19925e-06 -0.000355497 -0.000142918 
-2.17487e-05 0.000206721 -3.40606e-05 8.16499e-05 3.94565e-05 4.26391e-05 7.83784e-05 1.05284e-05 -1.04427e-05 
4.8202e-05 -6.85633e-05 -1.14125e-05 -1.81435e-05 3.78415e-05 6.29222e-06 3.41704e-05 -9.0682e-06 1.55364e-05 
3.0019e-05 -1.90628e-05 -1.17878e-05 2.72185e-05 -1.78485e-05 -1.62955e-05 2.17465e-05 -1.68754e-05 -1.46859e-05 
5.8882e-06 -1.18986e-05 -1.74265e-05 2.6715e-05 -1.92544e-05 -1.73844e-05 8.70448e-06 -1.35023e-05 -1.56596e-05 
3.28474e-06 -6.24028e-06 -1.00394e-05 -2.76265e-06 -7.89255e-06 -1.21516e-05 -6.67032e-06 -5.74468e-06 -1.05496e-05 
-6.36354e-06 -8.53966e-07 -7.95914e-06 -1.04291e-05 -5.1155e-06 -1.12327e-05 -1.2659e-05 -6.30808e-06 -1.29512e-05 
-1.33158e-05 -2.9648e-06 -1.09718e-05 -1.24925e-05 -2.7649e-06 -9.15751e-06 -1.07842e-05 -3.91718e-06 -6.62194e-06 
-7.91113e-06 4.25646e-07 -4.4491e-06 -5.27654e-06 -1.2705e-06 -2.67828e-06 -1.99942e-06 1.4045e-06 -2.49859e-06 
2.44449e-06 3.92987e-06 1.16625e-06 5.23504e-06 3.06229e-07 3.50639e-06 8.62991e-06 5.84606e-06 5.90202e-06 
1.19261e-05 5.05145e-06 1.01035e-05 1.3669e-05 3.90602e-06 1.06934e-05 1.31575e-05 3.05467e-06 9.53466e-06 
1.13339e-05 3.55562e-06 5.09444e-06 1.02115e-05 2.05527e-06 2.4304e-06 7.00971e-06 -1.21621e-07 -1.03934e-06 
3.63246e-06 -2.91798e-06 -4.25164e-06 9.28379e-07 -3.35664e-06 -6.90672e-06 -2.26178e-06 -3.47202e-06 -6.68966e-06 
-4.88175e-06 -2.20822e-06 -6.99229e-06 -5.5105e-06 9.95123e-07 -8.95587e-06 -6.50116e-06 2.24698e-06 5.04521e-06 
-6.82949e-06 6.59384e-06 3.62247e-06 8.93886e-06 4.21683e-06 -3.0582e-06 0.00104117 0.00167171 -0.00111546 
-0.000247431 0.000299116 -7.16367e-06 -1.39463e-06 -1.92173e-08 1.89555e-06 6.12773e-06 2.40459e-06 2.45821e-06 
9.10075e-06 4.04358e-06 5.78231e-06 1.04094e-05 5.54827e-06 7.49225e-06 1.18154e-05 4.77208e-06 5.49912e-06 
1.02092e-05 8.90697e-06 -3.55772e-06 5.87362e-06 2.16906e-06 -9.09729e-06 7.06701e-06 -1.78479e-06 -1.11336e-05 
2.48256e-06 -1.26398e-05 -5.68549e-06 -7.52152e-07 -1.5383e-06 -2.99274e-06 -1.16529e-05 -5.60961e-06 -7.19635e-06 
-1.35923e-05 -7.9041e-06 -7.66707e-06 -1.85924e-05 -6.45035e-06 -9.27908e-06 -1.86404e-05 -8.08225e-06 -1.09923e-05 
-1.99756e-05 -1.02793e-05 -1.40114e-05 -2.21326e-05 -7.71981e-06 -8.41174e-06 -1.83007e-05 -6.79656e-06 -8.44471e-06 
-8.93816e-06 -4.29465e-06 -4.65212e-06 -1.60128e-06 -1.15636e-06 -2.33146e-06 6.12482e-06 -1.07444e-06 -2.71851e-07 
9.50147e-06 1.66612e-06 -1.13101e-07 1.22453e-05 4.6722e-07 2.07616e-06 1.24583e-05 2.62928e-06 4.93076e-06 
1.61503e-05 3.62684e-06 4.94109e-06 1.87259e-05 4.99928e-06 7.66889e-06 2.31349e-05 4.00544e-06 9.16582e-06 
2.00607e-05 1.23332e-05 1.09803e-05 2.65526e-05 1.04337e-05 1.18564e-05 2.75953e-05 8.03251e-06 8.53731e-06 
2.07851e-05 5.16191e-06 8.92596e-06 1.46466e-05 8.63909e-06 1.19113e-05 2.2678e-05 6.665e-06 1.04366e-05 
2.63593e-05 1.32335e-05 2.74716e-05 -4.81625e-06 -5.59846e-08 1.16544e-05 3.36018e-05 6.62406e-06 1.84387e-05 
1.31283e-05 -4.83589e-08 3.14328e-05 2.51761e-05 2.35644e-06 3.12074e-05 4.46754e-05 -2.84174e-05 1.2357e-05 
8.39791e-06 -4.25716e-05 -0.000172299 -5.14405e-05 0.000307857 -0.000340386 3.03659e-05 0.000174025 -6.45359e-06 
0.00106288 0.00151261 0.000936995 -0.000121872 0.00117068 -0.000193203 0.000267685 -0.000299242 0.00161999 
-0.000562771 0.00153464 0.00101348 8.39241e-05 0.00171148 0.00111551 -9.27256e-05 -0.0004366 0.00119331 
-0.000334327 0.000307396 0.000784179 -0.000332594 0.000466995 0.000481318 -0.000226959 0.000287474 0.000684155 
-0.000165858 0.000206774 0.000543526 -0.000293007 -3.45203e-06 0.000691662 -0.000184507 3.441e-05 0.000855188 
-0.000163889 -3.11907e-05 0.00116422 -0.000231826 5.05681e-05 0.000952488 -0.000130517 6.26107e-05 0.000733322 
-0.000115171 -2.70485e-06 0.000363349 8.11371e-06 -7.90416e-05 5.06013e-05 1.40386e-05 -0.00012371 3.0098e-05 
4.22829e-05 -0.000238716 8.38883e-05 5.8839e-05 -0.000186718 -0.000131863 6.92912e-05 -0.000236679 -9.80903e-05 
0.000101859 -0.000560839 -0.000135195 0.000158028 -0.000961184 3.87407e-05 0.000307621 -0.00170661 -0.00242922 
-0.000522024 -0.00147071 0.00246903 -0.000465042 0.000247661 0.00051511 0.000130705 0.000387088 0.000153152 
-2.1238e-05 0.000192694 8.1674e-05 -3.25403e-05 0.00053899 0.000161733 -5.3744e-05 0.000559738 0.00018806 
9.85963e-08 0.00054597 0.000260942 -7.45848e-06 -0.00014584 5.51778e-05 2.36524e-05 -0.00043563 3.38178e-05 
-4.60063e-05 -0.00134294 -5.29498e-05 -6.81452e-05 0.000980138 -0.000519226 0.000195829 -1.85716e-05 0.000297135 
-0.00333015 -0.00116153 0.00370524 -0.00484028 -0.000810723 0.00154107 -0.000561422 -0.000531527 -0.000552699 
-0.000411922 -8.0591e-05 -0.000508173 -0.000443342 -3.48037e-05 -0.000515063 -0.000437211 -8.56773e-06 -0.000532921 
-0.0004619 1.47871e-05 -0.000558604 -0.000404285 3.82756e-05 -0.00053336 -0.000385781 7.82295e-05 -0.000547286 
-0.000216969 0.000208409 -0.000564669 -0.00023047 0.000367538 0.00086349 -0.000801421 -8.85532e-05 -0.00256836 
-0.000568921 0.000971738 -8.89962e-06 0.000306615 0.000250424 -0.000125518 -0.000318013 0.000143495 -0.000667882 
-0.000649529 -0.000428858 -0.000275861 -0.000139162 0.000303458 -0.000364795 -4.4555e-06 6.42111e-06 -2.51025e-05 
-4.30414e-06 -0.000392378 0.00267795 0.000167618 -3.64204e-06 -0.00121165 9.57984e-05 0.00248123 0.00145685 
-0.000432647 1.63532e-06 3.31462e-06 -0.000466436 -0.000402284 -0.00145697 0.000654446 -0.00408931 0.000844979 
-0.00181833 -0.000343387 2.70113e-05 -0.000400872 -0.00052442 -3.57577e-05 6.28598e-06 6.05473e-06 2.96941e-06 
1.09234e-05 5.50925e-06 -4.56358e-06 -1.21186e-05 6.56327e-06 -1.46714e-05 -8.6826e-06 -1.14721e-05 -9.64503e-06 
-3.09943e-06 -9.10649e-06 -9.7288e-06 -1.54047e-06 -7.86866e-06 -6.10779e-06 -1.65618e-06 -5.1739e-06 -8.30382e-06 
-2.27198e-06 -4.22766e-06 -1.52974e-05 -3.48033e-07 -7.91096e-06 -1.43292e-05 1.72516e-06 -6.19761e-06 -1.2353e-05 
6.49426e-06 -3.13778e-06 -1.1345e-05 6.60443e-06 -1.07931e-06 -6.76899e-06 8.11857e-06 3.39557e-06 -3.29629e-06 
9.11059e-06 4.9782e-06 -4.78103e-07 1.11633e-05 4.83721e-06 4.74187e-06 1.10735e-05 9.92603e-06 1.01165e-05 
8.43143e-06 7.44183e-06 9.29679e-06 8.39743e-06 6.58875e-06 7.9793e-06 7.61887e-06 6.87892e-06 -3.72704e-06 
2.72549e-07 5.7734e-06 2.10795e-06 2.07234e-06 3.4632e-06 -0.000596719 -0.000102135 -7.48204e-05 -7.67579e-05 
0.000203091 -4.0513e-05 4.01281e-05 0.00011454 0.00012651 6.29608e-05 8.36045e-05 1.1839e-05 5.97369e-05 
2.6426e-05 2.77671e-05 5.69379e-06 3.10662e-05 1.19798e-05 3.60964e-05 1.03791e-05 -1.10831e-05 3.18145e-05 
5.41886e-06 -7.74809e-06 3.13607e-05 8.76091e-06 -5.74081e-06 2.99231e-05 4.87382e-07 -5.8226e-06 2.49291e-05 
2.58816e-06 -1.03489e-05 2.11876e-05 3.73689e-06 -9.64609e-06 1.70459e-05 1.3639e-05 -8.41347e-06 1.47112e-05 
7.8903e-06 -5.55346e-06 1.05121e-05 9.02294e-06 -2.94314e-06 9.65575e-06 1.16252e-05 1.98872e-06 8.32745e-06 
7.40162e-06 3.58143e-06 5.46939e-06 -3.4092e-07 -1.96025e-06 2.82874e-06 -3.63715e-06 -1.40204e-06 1.86103e-06 
-4.55125e-06 -4.15221e-07 3.85462e-07 -5.96199e-06 -8.82768e-07 -1.88479e-06 -9.23659e-06 -1.96692e-06 -4.37221e-06 
-1.14466e-05 -6.38315e-06 -2.74089e-06 -7.85714e-06 -5.97451e-06 -1.86768e-06 -5.18602e-06 -2.96865e-06 -2.87514e-06 
-6.84814e-06 -2.08819e-06 -2.0304e-06 -4.56358e-06 1.07357e-06 -4.72538e-07 7.91947e-07 2.73513e-06 3.07767e-06 
2.2738e-06 5.08419e-06 5.1172e-06 3.77838e-06 4.21172e-06 5.91555e-06 4.71219e-06 1.65796e-06 3.70735e-06 
5.34066e-06 1.02597e-06 3.34378e-06 5.02442e-06 -3.23878e-06 3.22822e-06 4.94619e-06 -5.49715e-06 -2.73858e-07 
4.18693e-06 -7.67319e-06 -2.06824e-07 1.83413e-06 5.29547e-06 -1.05063e-06 3.87915e-07 6.27464e-06 -1.91535e-06 
8.77929e-07 -7.75434e-06 2.99541e-06 -4.92331e-06 9.24285e-06 2.3478e-06 -3.49227e-06 7.70703e-06 -3.52873e-06 
-4.76191e-06 -3.43086e-06 3.46846e-06 3.55436e-05 -0.00010799 0.00029539 -0.000870818 0.000225828 -0.000314701 
-0.00026532 -0.000150726 -0.000337464 -0.000436695 1.6465e-06 2.10364e-06 2.61676e-06 4.41956e-06 9.17759e-06 
5.96925e-06 7.04742e-06 1.12763e-05 4.51086e-06 2.95873e-06 1.30063e-05 6.1814e-07 -1.63559e-06 7.74585e-06 
-2.50729e-06 -2.75527e-06 7.48538e-06 -5.89932e-06 -6.86321e-06 2.26258e-06 -1.15395e-05 -3.03222e-07 1.21148e-06 
-7.70416e-07 -3.86252e-06 -1.16256e-05 -1.232e-06 -4.31262e-06 -1.54451e-05 -3.80874e-06 -6.01566e-06 -1.58116e-05 
-4.1961e-06 -6.31745e-06 -1.67201e-05 -5.32518e-06 -8.10648e-06 -2.08477e-05 -7.28277e-06 -1.16954e-05 -1.93194e-05 
-9.73761e-06 -9.40382e-06 -1.65633e-05 -6.38634e-06 -6.24941e-06 -6.58143e-06 -6.60896e-06 -6.77656e-06 -2.16684e-06 
-2.08479e-06 -2.89922e-06 7.41359e-06 -1.10279e-06 -2.07833e-06 1.196e-05 -1.0871e-06 -1.61751e-06 1.16157e-05 
-4.57168e-07 -4.61856e-07 1.35206e-05 -7.37649e-07 1.67935e-06 1.4691e-05 2.72347e-06 1.70757e-06 1.63777e-05 
-1.25758e-06 -5.50863e-06 1.20588e-05 2.01053e-06 4.29462e-08 -8.11099e-07 1.82632e-06 9.68379e-06 8.05372e-06 
6.66224e-06 1.83096e-05 4.43718e-06 8.23819e-06 1.95487e-05 1.18252e-05 1.80683e-06 5.31698e-06 2.78919e-05 
1.10151e-06 8.87982e-06 1.62515e-05 8.2704e-06 2.16858e-05 -1.01576e-05 2.01892e-05 -1.81976e-05 9.9498e-07 
-3.39758e-05 7.08435e-06 1.0128e-05 9.94614e-06 -1.41395e-05 3.7639e-07 7.63441e-05 5.65411e-05 2.3894e-05 
1.23407e-06 2.96075e-05 -6.79893e-07 -2.91567e-05 3.67596e-05 3.32116e-06 -4.11876e-05 -6.42883e-06 -4.37998e-07 
-0.00044484 -4.50239e-06 -0.000127943 -2.24334e-05 -0.00166173 0.000896567 -0.000402598 -0.000105297 -6.07319e-05 
0.000164134 -0.000123568 0.000130641 0.000110065 5.25604e-06 -0.000166286 0.000136176 -1.84369e-05 -0.000199064 
2.83833e-05 4.99278e-05 -0.00018408 1.71416e-05 5.67674e-05 -0.000150762 2.73582e-05 -2.66454e-05 -0.000147889 
-1.66868e-05 3.91982e-07 -0.000190313 1.25102e-05 -8.55804e-06 -0.000171062 3.36621e-05 -1.78468e-05 -0.000189416 
5.34758e-05 -6.42584e-06 -0.000174252 8.14524e-05 -1.31449e-06 -0.000150484 0.000123687 1.4149e-05 -9.86212e-05 
0.000138469 1.73864e-05 -9.45819e-05 0.00010841 1.35953e-05 -0.000102857 0.000124202 2.49307e-05 -0.000118357 
0.000142283 1.53916e-05 -0.000103555 0.000159492 9.67043e-06 -0.000176396 0.0002558 -8.58573e-05 -0.000169734 
0.000260339 -0.000134739 -0.000269809 4.91866e-05 6.07335e-05 -5.83375e-05 -0.000403905 3.01512e-05 0.000166937 
-0.00014709 9.09463e-05 2.72766e-05 -3.14945e-05 -8.0701e-05 6.04835e-05 -8.86622e-05 -6.03278e-05 5.16545e-05 
-7.49053e-05 -6.83799e-05 -9.52055e-05 -8.79318e-05 -1.89397e-05 9.88747e-06 6.17143e-05 -3.70248e-05 3.55448e-05 
0.000211638 3.61722e-05 -0.000348146 -0.000282688 3.05968e-05 0.000289885 -0.000371509 1.3758e-05 0.000475104 
0.000150101 0.000379604 -0.000662643 -0.000234784 0.000795927 -0.00067749 0.000263793 0.000184245 0.000903106 
-6.2333e-05 -2.06899e-05 -4.18849e-05 2.07495e-05 -5.28517e-05 1.24056e-05 1.31191e-05 -7.8021e-05 3.13556e-05 
2.95902e-05 -0.000133533 -6.19794e-05 7.67654e-05 -0.000178875 -0.0002972 2.61537e-05 0.000429342 -0.00050816 
-0.000131063 -0.000581293 3.91161e-05 -0.000338324 0.000154482 0.000107685 0.000328461 -3.58674e-06 7.56015e-07 
-1.99862e-07 7.2679e-06 -0.000101181 -6.26341e-05 -3.9735e-05 6.02145e-06 -4.62402e-05 -1.01869e-05 -1.13043e-05 
-3.44013e-05 5.16007e-06 -9.02516e-06 -1.68462e-06 -0.000354143 -0.000167356 -0.00027865 -6.12988e-05 0.000365668 
1.29768e-06 3.06226e-06 0.000167065 0.000178621 5.47832e-05 0.000304124 -0.000397323 -0.000236007 -0.000136178 
0.000668704 2.01449e-06 -4.17275e-06 0.000129732 0.000251803 -0.000259074 0.000230412 1.54547e-05 2.75661e-05 
8.12476e-06 -0.000214799 0.000975312 -1.887e-06 -0.000409989 0.000660429 0.000187318 -0.000183802 -0.000231867 
-0.000272263 0.000190387 -0.000139491 -0.00178049 -1.03023e-06 -0.000329098 4.45618e-06 0.000764641 -8.4521e-05 
5.47632e-05 -2.66958e-05 6.0307e-07 -0.000171131 0.000134118 -0.000255237 -0.000124484 -0.000196076 1.05638e-05 
1.32184e-05 -1.73031e-06 -4.44474e-06 -6.44625e-06 -1.12848e-05 -6.71667e-06 -8.97588e-06 -9.55627e-06 -7.40642e-06 
-9.15246e-06 -5.35336e-06 -1.4354e-07 3.75463e-06 -1.25537e-05 -6.58482e-06 -6.47585e-06 -1.06614e-05 -1.42511e-06 
-4.84068e-06 -1.23301e-05 -1.07969e-06 -8.27138e-06 -1.06558e-05 -1.11599e-07 -6.00108e-06 -1.26267e-05 -1.71384e-06 
-8.66516e-09 -8.60491e-07 8.10126e-06 8.74791e-06 -3.51494e-06 6.74973e-06 9.31528e-06 -1.08329e-06 7.18058e-06 
5.1807e-06 -9.85308e-07 3.77914e-06 9.01019e-06 9.25479e-06 8.26383e-06 1.25754e-05 9.33669e-06 1.0044e-05 
8.02448e-06 8.84521e-06 1.17674e-05 6.5321e-06 9.63819e-06 1.53037e-05 4.39193e-06 9.45619e-06 7.34754e-06 
1.13615e-06 5.41111e-06 -0.000101477 -6.47226e-05 8.67476e-05 5.64946e-05 0.00017442 5.04866e-05 -4.75176e-05 
2.92064e-05 -0.000127015 -4.63341e-05 -6.75325e-05 8.20864e-05 5.96009e-05 1.74617e-05 7.21705e-05 -1.38681e-05 
-1.40849e-05 5.55276e-05 4.50165e-05 5.52599e-06 4.33076e-05 1.1257e-05 8.31414e-06 2.66287e-05 7.352e-06 
1.93941e-05 1.53035e-05 -5.59435e-06 1.90476e-05 7.14364e-06 -2.81098e-06 2.00245e-05 1.07611e-05 -6.668e-07 
2.25076e-05 4.15975e-06 2.07273e-06 1.98784e-05 1.12244e-05 -2.1022e-06 1.76551e-05 1.38366e-05 9.47841e-07 
2.01202e-05 2.07833e-05 9.66974e-06 1.5195e-05 1.5776e-05 1.40313e-05 1.2886e-05 1.7003e-05 1.26461e-05 
1.46226e-05 1.96222e-05 8.44929e-06 1.11423e-05 1.1204e-05 4.72578e-06 9.68487e-06 5.0086e-06 1.41629e-06 
8.41824e-06 3.17195e-06 2.27464e-06 7.60414e-06 1.04318e-06 2.87392e-06 5.23221e-06 -1.99314e-06 -5.44046e-07 
6.12449e-06 -5.18189e-06 3.8642e-06 4.97741e-06 -1.31927e-05 4.77502e-06 -1.10461e-06 -7.75825e-06 -1.74436e-05 
4.59291e-06 -1.46828e-06 -1.81825e-05 -3.03935e-06 7.12468e-07 4.3039e-06 -2.18857e-06 -1.33462e-06 1.20464e-05 
-2.36787e-06 8.01179e-07 2.52924e-06 -3.70116e-06 -1.08441e-06 3.41672e-06 -7.98239e-06 7.56399e-08 -1.04158e-05 
-2.42089e-06 1.1443e-06 -3.15191e-06 -1.20685e-07 5.07019e-06 -6.29171e-06 -5.07637e-06 4.68877e-06 -6.3262e-06 
-7.94215e-07 3.28232e-06 8.74086e-07 -1.88335e-06 -4.30244e-06 4.14207e-06 -9.53448e-07 -2.43933e-06 4.97666e-06 
-2.25731e-06 1.73625e-06 5.76058e-06 5.5728e-06 -4.58659e-06 7.90894e-06 1.69688e-06 -2.63653e-06 9.58009e-06 
0.000328292 -0.000190305 -0.0001945 -9.36728e-06 -2.02765e-05 -5.53106e-05 -1.94863e-05 6.23352e-05 -8.28091e-05 
-8.74862e-05 0.000101959 4.27947e-06 7.26871e-06 7.18838e-06 5.07716e-06 1.06795e-05 -5.57898e-06 4.82646e-06 
-7.1593e-06 -7.74736e-06 5.13355e-06 -3.29162e-06 -5.91926e-06 -5.3779e-06 -2.54863e-06 4.90074e-06 -1.64074e-07 
-2.19495e-05 3.97595e-07 -4.61675e-07 -6.13273e-06 -3.48194e-06 -5.3448e-06 -1.3381e-05 2.0121e-06 -2.099e-07 
-1.57885e-05 -8.49298e-06 -4.4018e-06 -8.40201e-06 -3.25569e-06 -2.50938e-06 -2.42488e-05 -9.81415e-06 -6.71436e-06 
-1.1451e-05 -4.157e-06 -9.16436e-06 -2.03578e-05 1.0217e-06 -2.6219e-06 4.35e-06 -5.19067e-06 1.38065e-07 
2.39681e-07 -1.50632e-05 -6.43379e-06 1.19924e-05 -2.01762e-06 1.11822e-06 2.81865e-07 -4.18712e-06 8.78424e-07 
1.32251e-06 -9.51156e-06 -4.38514e-06 1.27069e-05 -1.69236e-06 5.73488e-06 -5.79065e-06 -3.26381e-06 -5.0016e-06 
1.40677e-05 -8.661e-06 -1.08643e-06 -9.28443e-07 -1.64094e-06 -1.4398e-05 -5.54532e-06 5.89257e-06 1.12171e-05 
3.58305e-06 2.26178e-05 -7.07167e-06 5.36694e-06 5.86679e-06 -1.14685e-05 2.15955e-05 -4.68314e-06 1.33824e-05 
5.9509e-06 1.53766e-06 9.45054e-06 1.88162e-05 2.24905e-05 -1.10942e-05 1.10898e-06 -2.40651e-06 -3.7547e-05 
-3.26126e-06 -4.27599e-05 2.35933e-05 -8.8519e-06 2.93453e-07 -8.64523e-06 -8.08328e-06 7.34054e-05 -1.39881e-05 
1.3161e-05 7.01512e-05 3.44863e-05 3.99019e-05 -6.35983e-06 1.91276e-05 -2.18019e-05 -2.51834e-05 6.53453e-05 
5.99326e-06 1.80145e-05 -0.000102876 -2.30122e-05 0.000111367 0.000121924 3.09285e-05 7.90115e-05 6.15192e-05 
6.19519e-05 1.1391e-05 4.86066e-06 3.41782e-05 2.85702e-05 -5.45736e-06 2.30725e-06 6.5153e-06 2.59891e-05 
-3.04069e-05 -3.13326e-05 -8.43756e-06 5.26019e-06 -1.20435e-05 -1.8812e-05 -2.67629e-06 6.88704e-06 1.96422e-06 
7.53573e-07 -6.07203e-06 1.46855e-05 7.23468e-06 -6.81842e-06 2.38473e-05 1.22283e-05 2.29819e-05 1.79473e-05 
6.46417e-06 1.59654e-05 2.37603e-05 -9.93581e-06 9.85681e-06 6.84556e-06 6.24171e-06 -3.42071e-07 2.79727e-05 
2.29082e-05 3.96758e-08 8.4284e-06 2.62132e-05 -5.96225e-05 5.10736e-05 -2.26663e-05 -7.79068e-06 1.57643e-05 
0.000147301 4.26836e-05 0.000345724 -0.000135589 0.000355573 2.991e-06 2.8123e-06 9.36698e-06 1.23691e-06 
1.03713e-05 -8.3128e-05 -6.91025e-05 -3.32692e-05 -9.42067e-05 -7.12645e-05 -2.32287e-05 -0.00013035 -6.33402e-05 
6.62811e-05 -4.38787e-05 8.58852e-06 3.75739e-05 0.000167167 -1.13557e-05 5.89008e-06 0.000209281 -8.22187e-06 
-6.96705e-05 -5.3607e-05 -0.000156233 -2.43045e-05 -1.50295e-05 -5.58689e-06 2.04069e-05 -0.000212051 0.000127952 
-0.000177071 -6.11379e-05 -8.961e-05 -0.00011853 -0.000201977 -0.0006762 0.000333522 0.000336903 -9.71486e-06 
-2.62032e-05 1.42737e-05 0.000696839 -0.000273855 -1.93819e-05 0.000149114 -0.000240046 -2.21253e-05 -5.28745e-05 
1.74011e-05 -2.69695e-05 8.69481e-05 7.29362e-05 5.50052e-05 3.94977e-07 0.000139169 -4.86182e-05 -0.000233352 
7.16068e-06 2.4101e-06 -1.05174e-06 -8.66349e-05 -2.61362e-05 -1.10994e-05 3.38442e-05 2.17015e-06 -5.098e-05 
-4.77443e-05 4.53775e-05 -0.000241075 -8.11155e-05 -9.89458e-07 -3.98658e-06 1.09116e-05 -1.58201e-05 -1.09167e-05 
-6.49555e-05 -5.54579e-05 0.000300239 -0.00022027 9.7782e-05 1.76127e-06 6.26244e-07 1.58465e-05 2.23789e-05 
-3.31138e-05 2.63716e-05 0.000210529 -0.000113623 -1.03449e-05 9.13956e-06 -0.000109503 -8.08495e-05 4.55438e-05 
0.000165128 6.10264e-05 -2.1168e-05 9.13229e-08 -1.62224e-05 3.20511e-06 1.33303e-05 3.1988e-06 0.000279963 
2.50642e-05 -8.67711e-05 -0.000179213 0.000177189 1.46671e-05 -1.96856e-05 -4.44453e-06 -0.000220133 -0.000253742 
-0.000131705 0.000352256 5.7141e-05 -0.000259099 0.000179003 3.73386e-06 -5.10353e-06 -7.46935e-06 -9.19349e-06 
-1.10682e-05 -1.39148e-06 7.83176e-06 1.22337e-06 1.2992e-05 -2.58658e-06 -8.07293e-06 -6.81544e-06 -3.73866e-06 
-7.25746e-06 -1.53469e-05 -7.71717e-06 -2.49121e-06 -3.52829e-06 -8.32737e-06 3.27628e-06 2.89638e-06 6.43437e-06 
-7.3029e-06 -7.12861e-06 4.91405e-06 7.3205e-06 -2.57439e-05 2.71812e-07 -7.64567e-06 1.45273e-05 5.83078e-06 
-1.76267e-06 5.23935e-06 5.20225e-06 5.11765e-06 1.30616e-05 8.97547e-07 9.89197e-06 7.62501e-08 2.62537e-06 
1.08342e-05 1.42448e-05 6.44844e-06 1.35376e-05 1.36775e-06 7.19907e-06 1.2461e-05 -2.8299e-06 -6.00203e-06 
6.87774e-05 4.49293e-06 5.61299e-05 -4.02107e-05 3.15105e-05 -5.54558e-05 -9.79352e-06 3.84951e-05 6.6332e-05 
1.13586e-05 -3.04472e-05 -1.76647e-05 -1.9617e-05 8.85451e-06 -1.28673e-05 1.64603e-05 9.74884e-07 2.1894e-06 
-1.73273e-05 -5.19434e-05 5.11181e-06 -1.18886e-05 -7.85343e-06 1.49325e-05 -3.93037e-05 -7.64685e-06 7.92253e-06 
-2.65388e-06 -2.3559e-06 2.43562e-06 -2.16079e-06 3.03927e-06 6.46424e-06 9.42172e-06 1.52819e-05 1.43428e-05 
7.20227e-07 1.16471e-05 1.79017e-05 1.65434e-05 2.084e-05 2.50992e-05 1.88595e-05 4.91809e-06 2.14698e-05 
2.07394e-06 8.78722e-06 1.58079e-05 -2.82382e-06 7.93967e-06 9.87767e-06 -1.20777e-05 -4.19569e-07 2.67301e-06 
-1.9998e-05 -5.73211e-06 5.61666e-07 -1.31558e-05 -8.52588e-06 -1.83916e-06 -8.13872e-06 -9.89162e-06 -3.28555e-06 
-1.95631e-05 -6.66802e-06 -1.92446e-06 -1.21582e-05 -1.617e-06 3.01241e-06 -2.37646e-06 -2.7367e-06 -3.74307e-06 
3.49846e-06 -6.83656e-06 -1.06375e-05 1.99009e-06 -1.79654e-05 -1.62195e-05 -2.94734e-06 5.82085e-07 -2.43515e-05 
-1.83939e-06 -2.20342e-05 -1.6262e-05 5.05478e-06 -2.11572e-05 -1.22797e-05 2.21036e-06 -2.57107e-06 -1.69129e-05 
-5.70397e-06 -1.33307e-05 -1.61053e-05 -7.41415e-06 1.43086e-06 -4.68236e-06 2.4985e-06 2.26933e-06 -7.88168e-06 
-2.43003e-06 -4.73847e-07 -8.22781e-08 7.1627e-07 1.16724e-05 -7.40679e-06 -3.36549e-06 -4.5341e-06 -2.45453e-06 
-5.16333e-06 4.25363e-06 7.5654e-07 -3.26677e-06 5.22132e-06 6.56945e-06 8.29438e-07 -1.05725e-05 -1.27462e-05 
-0.000282908 0.000156715 8.02475e-05 -6.75784e-05 -4.89023e-05 9.6702e-05 -8.71434e-07 1.48403e-06 4.99474e-06 
1.04423e-05 -2.39123e-06 5.37326e-06 0.000545208 0.000474105 1.20721e-05 6.47589e-06 6.83133e-06 -1.07238e-05 
9.80548e-06 -1.94324e-06 -2.14117e-06 4.75446e-05 0.000146645 2.22779e-06 -8.82163e-06 -1.42526e-05 -1.17872e-05 
9.25582e-06 -8.41503e-06 -2.32897e-06 -6.74351e-06 -6.05629e-05 -2.76816e-05 3.3093e-05 -6.73675e-06 -1.81634e-05 
-7.76627e-06 3.28356e-05 2.09167e-05 5.1151e-07 9.01732e-05 -1.17272e-05 -3.97348e-06 1.61435e-05 2.34002e-05 
2.1934e-05 1.68755e-05 1.3701e-06 -1.83536e-05 -2.2807e-05 -1.0213e-05 -2.44245e-05 -2.36005e-05 -1.37658e-05 
-4.94237e-06 2.34887e-06 -8.96954e-06 -1.51042e-05 1.10369e-06 -2.52028e-05 8.55917e-06 1.21986e-05 -9.69959e-06 
-1.3248e-05 -7.14341e-06 -8.44992e-06 3.18196e-06 7.64412e-06 9.07396e-06 1.42071e-05 -1.95522e-05 4.06081e-05 
-2.16847e-05 2.74432e-05 5.62363e-06 -1.97081e-05 -2.85286e-05 -4.81933e-06 -3.8048e-06 -3.46123e-05 1.10625e-05 
3.72977e-05 1.25376e-05 2.71471e-05 -2.52774e-05 6.21707e-06 -1.54477e-05 -1.69172e-05 5.71221e-06 -3.04484e-05 
-6.97099e-06 -2.76502e-06 -3.65106e-05 -3.68955e-06 -2.5583e-05 5.72218e-05 1.03487e-05 -2.01361e-05 4.82084e-05 
-2.81695e-05 2.86107e-05 -3.41943e-05 9.0194e-06 1.27629e-05 4.16717e-06 -8.2091e-07 -1.6812e-05 -1.47534e-05 
3.54369e-05 -5.29214e-07 -1.11908e-05 -3.93384e-05 -4.84643e-06 1.00196e-05 -1.31393e-05 -1.38572e-06 5.79797e-05 
2.94313e-05 0.000172382 1.53733e-06 2.07493e-05 1.97716e-05 5.92832e-06 6.49309e-06 3.51762e-05 2.28132e-05 
3.04855e-05 -2.40058e-05 4.0276e-05 -1.17422e-05 2.91854e-05 6.90072e-06 -1.67696e-05 1.1707e-05 -1.12958e-05 
-1.29363e-05 6.45345e-06 4.29664e-05 1.90392e-05 -3.06842e-06 -1.95908e-05 -1.28142e-05 -1.09324e-05 -2.04942e-05 
-1.50104e-05 -1.57328e-05 -3.74304e-06 2.0064e-05 3.60684e-06 5.09009e-06 2.13219e-05 2.56214e-05 1.01509e-05 
2.92859e-06 5.64457e-06 -5.41178e-05 -8.98384e-07 1.22978e-05 -4.77753e-05 3.43859e-05 1.04935e-05 -2.7813e-05 
2.8781e-05 -3.01702e-05 4.8118e-06 -8.40147e-05 -4.12316e-05 5.99844e-05 -6.85776e-05 -3.61542e-05 3.71217e-06 
5.7878e-05 2.65903e-05 1.13573e-05 -0.000103066 0.000162359 -5.88714e-05 9.85328e-05 8.69298e-05 0.00012714 
4.37712e-05 -0.000127221 6.77341e-05 -0.000121529 -1.18169e-05 8.67682e-06 -6.65778e-05 -0.000170356 8.45154e-05 
0.000128078 0.000177433 -3.72521e-05 -0.000108512 2.37668e-05 -3.07214e-05 4.58127e-06 4.25713e-05 2.58433e-05 
-5.44265e-06 3.25147e-05 2.77571e-05 1.97914e-05 5.38774e-06 -8.94689e-06 -4.39051e-06 -6.46047e-05 -0.000103189 
-0.000122501 -0.000114724 1.02186e-05 -5.14289e-05 -3.25904e-05 3.13642e-08 -1.68912e-05 2.41607e-05 -0.000306581 
0.000109115 0.00018188 6.95739e-05 9.818e-05 4.57576e-05 1.78157e-05 -3.98413e-05 -1.04555e-05 -4.61174e-05 
9.41844e-05 6.31792e-06 -8.2404e-06 7.48466e-06 4.86644e-06 7.58412e-05 1.98037e-05 0.000167095 0.000201277 
2.20904e-05 7.15155e-06 8.6364e-05 -0.000136533 -2.67987e-05 -0.000105404 7.87036e-07 -5.55478e-05 2.5357e-05 
-9.46391e-06 5.43674e-05 5.34358e-05 4.96342e-06 -4.91497e-05 -3.46016e-05 1.59656e-05 3.13387e-05 3.62137e-05 
4.92284e-06 -0.000100725 6.10758e-05 7.99169e-05 3.72928e-05 6.77783e-05 -4.58841e-05 -2.11494e-05 -1.63361e-05 
3.03961e-05 5.85254e-05 4.15164e-06 -4.69717e-05 2.77897e-05 6.43728e-06 -2.10929e-05 1.32313e-05 -3.24106e-06 
1.16783e-05 -1.5757e-06 5.75496e-06 -9.56679e-07 -1.0102e-05 -5.17288e-05 1.74312e-05 9.98695e-06 -1.05708e-05 
-7.18274e-06 -0.000107527 6.57316e-05 0.000263599 4.09629e-05 -6.86089e-05 -4.58436e-05 -9.5267e-05 -2.15931e-05 
-3.32129e-05 -1.05703e-05 1.83502e-05 -1.38927e-05 -3.41252e-07 -4.85408e-06 -7.86488e-06 1.32108e-06 5.2185e-06 
-5.14876e-06 -1.39322e-05 7.50724e-06 -1.74342e-05 2.20685e-05 3.52831e-05 -1.47272e-05 -1.54911e-06 -1.14496e-05 
4.66106e-05 1.47448e-05 -1.20326e-06 -2.6315e-05 -1.8857e-05 0.000223894 0.00020287 1.1786e-05 2.74881e-05 
-2.3491e-05 -8.59566e-06 0.000220738 0.000175798 2.31292e-05 2.24526e-06 -2.47851e-05 7.66906e-06 -6.65151e-06 
2.11414e-05 -1.43466e-05 2.13682e-05 2.55668e-05 2.32867e-05 -1.82325e-05 -7.97006e-05 2.75825e-05 1.10461e-06 
-1.47054e-05 5.63579e-06 4.97916e-05 -8.41067e-06 -4.44948e-05 -3.30167e-05 4.16002e-05 -4.24227e-06 -4.91989e-05 
1.91183e-06 8.31571e-06 -1.02683e-05 -7.2156e-06 0.00021371 0.000118243 -9.96696e-06 1.07918e-05 -1.08657e-05 
-3.89587e-06 -6.69393e-06 1.38296e-05 3.37268e-06 -4.72882e-06 1.38224e-05 -1.79012e-05 -1.68824e-06 -3.66046e-05 
-2.28055e-06 -1.53251e-05 -5.13252e-05 4.9496e-06 -2.02187e-05 -4.46232e-05 -3.00524e-05 -3.10858e-05 -1.17646e-05 
-2.95109e-05 -4.10705e-05 -3.61182e-06 -6.85965e-06 -1.46663e-05 1.73935e-05 -2.72167e-07 -1.72163e-05 -3.36519e-05 
-1.07989e-05 -6.51415e-06 -4.00039e-05 -1.74839e-05 -2.78184e-06 -1.94288e-05 -1.32869e-05 -1.40344e-05 -2.79249e-05 
5.9635e-06 -4.99389e-06 -8.88644e-06 -1.21192e-05 -1.64251e-05 -1.41947e-05 1.85254e-05 1.05799e-05 8.2548e-06 
1.41808e-05 2.03911e-05 -1.95678e-06 1.622e-06 -2.04373e-05 1.06782e-05 -9.78398e-06 -1.17248e-05 1.50482e-05 
-3.04559e-06 -1.42144e-05 3.08229e-05 6.50412e-06 -1.06028e-06 -2.4031e-05 2.9897e-05 -1.4049e-06 1.12884e-05 
3.05646e-05 2.11996e-05 -2.96805e-05 -0.000108077 1.7347e-05 3.63129e-05 7.79789e-06 -3.54106e-05 -1.14224e-06 
3.6651e-05 -4.09451e-05 2.57427e-05 1.57049e-05 -2.98379e-05 2.65872e-05 -1.50207e-05 1.02556e-05 -3.55032e-05 
3.37109e-06 5.13682e-06 2.43638e-05 -7.60227e-06 -1.76923e-05 -2.39541e-05 -1.05266e-05 0.000205351 6.41394e-05 
-3.98579e-06 4.89766e-05 3.97152e-05 3.46762e-05 9.66414e-06 -7.76074e-06 -5.58968e-05 1.3252e-06 6.02924e-05 
3.52338e-05 -4.26527e-05 2.46233e-05 -5.66151e-05 -4.23043e-05 -3.85078e-05 -1.76134e-05 -1.62551e-06 -9.47626e-06 
-6.37731e-05 6.79358e-05 2.56559e-05 9.13809e-05 -1.18734e-05 2.92652e-05 4.35384e-05 5.16386e-05 2.5523e-05 
-0.00011357 1.90519e-05 2.26428e-05 8.76247e-06 4.00332e-05 2.41311e-05 5.87169e-05 -1.21468e-05 8.383e-06 
-3.73098e-05 5.11293e-05 -1.3532e-05 -3.35615e-05 -2.65641e-05 -2.41011e-05 5.88953e-05 -3.17481e-05 4.0944e-05 
-3.05932e-05 -7.23898e-06 1.48267e-06 -1.78406e-05 1.87506e-05 -8.61848e-06 -2.38752e-05 6.91915e-05 3.92336e-05 
4.97054e-06 5.30211e-06 -2.68186e-06 2.8473e-06 0.000168761 -2.19511e-05 -2.05533e-05 -6.90923e-05 1.81868e-05 
-5.99982e-05 3.42437e-05 -6.09258e-05 0.000246558 -3.75892e-06 -1.90477e-05 1.94481e-05 -4.75474e-06 5.01633e-07 
-6.87481e-06 -2.74715e-06 -1.45872e-05 -2.37991e-05 0.000264029 0.0002813 4.96236e-05 2.82354e-05 5.02389e-06 
-1.56224e-05 6.12767e-05 1.89705e-05 -5.0522e-06 -2.98748e-05 -2.11607e-05 -4.34564e-05 -4.01905e-06 -1.17993e-05 
2.25989e-05 -2.52901e-05 3.72674e-05 5.76511e-05 1.04749e-05 2.00047e-05 -2.30269e-05 -3.71795e-05 1.62852e-05 
4.05203e-06 -4.52199e-05 -1.5359e-05 1.0174e-05 -1.47874e-05 1.37014e-06 0.0014122 0.00112662 1.82581e-05 
-2.00445e-05 -5.59565e-06 -2.68286e-05 -1.87629e-05 -5.39455e-06 2.12608e-05 -3.21176e-05 -0.000126537 0.000111185 
2.4536e-06 -6.01599e-05 -0.000121286 -1.30328e-05 -1.49088e-06 -6.54386e-05 -8.70703e-05 4.28126e-05 -0.00147299 
-0.00309742 7.07878e-05 0.00202975 0.00269553 3.70059e-05 3.41745e-05 7.80368e-05 -2.27886e-05 -2.95013e-05 
-2.01299e-05 -3.32411e-05 2.78423e-05 -1.8514e-05 -5.09942e-05 1.82225e-05 -2.59905e-05 -2.06634e-06 2.34268e-05 
-1.48603e-05 -5.08287e-05 -1.48143e-05 1.13364e-05 -3.6428e-05 2.19472e-05 1.0765e-05 -1.61584e-05 7.3318e-05 
-9.14841e-06 -9.9875e-05 5.81547e-06 -1.27396e-05 4.35593e-05 -1.60206e-06 8.17126e-05 -5.30007e-05 -6.74679e-05 
-3.79868e-05 -0.000110935 -2.21132e-05 -3.58107e-05 5.86718e-06 -4.63619e-05 6.24598e-05 2.29312e-05 6.11798e-05 
3.43298e-05 -8.41174e-05 -3.7525e-05 2.77909e-05 -1.34675e-05 9.95565e-06 -1.49235e-05 4.64698e-05 -2.48914e-05 
5.09715e-05 -0.00013324 1.81707e-05 -6.6793e-05 3.03661e-05 -3.40051e-05 9.636e-06 -0.000103232 1.4842e-05 
1.30716e-05 -4.45685e-05 -1.28949e-05 -2.65731e-05 -0.000151997 9.85232e-05 5.6562e-05 -5.24706e-05 3.89021e-06 
-3.77259e-07 0.000101015 -1.63163e-05 2.73651e-05 2.00329e-05 -1.68567e-05 -2.1929e-05 -1.70468e-05 -1.45035e-05 
3.12779e-05 1.45825e-05 0.000113249 -9.88116e-06 3.92843e-05 4.70888e-05 -8.85465e-06 3.96455e-05 4.94883e-06 
-8.50974e-06 4.94938e-05 -1.36047e-06 5.17133e-05 4.92572e-06 5.08351e-05 2.82031e-05 5.75324e-05 4.64721e-05 
-2.52054e-06 1.01055e-05 -4.63744e-05 -5.54535e-05 5.58816e-05 -1.99994e-06 -2.98293e-05 2.38421e-06 -2.34991e-05 
-2.45998e-06 -4.24001e-05 5.35244e-05 -1.4793e-06 7.68703e-05 -5.03017e-05 1.2068e-05 7.48334e-06 2.5924e-05 
-9.11831e-05 -6.48889e-05 -7.68066e-06 -3.00606e-05 -4.11324e-05 -3.16503e-05 1.27696e-05 -3.3821e-05 1.28056e-05 
-1.12641e-05 1.669e-05 5.15727e-05 -1.18415e-05 8.74451e-06 -6.82322e-06 1.21691e-05 -4.83229e-06 -9.41815e-05 
2.69881e-05 -9.91674e-05 1.2988e-05 6.63933e-05 1.82717e-05 4.15303e-07 4.77766e-05 -7.02327e-06 -2.92428e-05 
-0.000103662 7.42347e-05 9.34828e-06 -6.71011e-06 -2.46563e-05 -4.35206e-05 5.90015e-05 -3.95889e-05 9.17746e-07 
6.39191e-05 -1.41674e-05 -6.57966e-05 1.86247e-05 4.3439e-05 -2.14083e-05 2.96022e-05 6.35025e-05 5.83901e-05 
-1.53756e-05 2.40336e-05 7.34255e-06 4.31799e-06 -1.6302e-05 6.2717e-05 1.0498e-05 3.89671e-05 5.45936e-06 
7.73223e-05 -1.58303e-05 0.000177856 -3.0472e-05 0.000136759 -9.28227e-05 -0.000109301 1.93422e-05 1.24293e-05 
-0.000138726 -1.77542e-05 -9.57511e-05 4.8785e-05 -2.27727e-05 -7.65632e-05 -0.000116154 -0.000114522 -2.38322e-05 
8.93844e-06 3.42469e-06 6.82405e-06 -1.84005e-05 4.55492e-06 2.77813e-06 -1.63705e-05 -1.20966e-05 -3.64886e-06 
-2.01763e-05 -1.33216e-05 2.90942e-06 -1.74914e-05 -1.48826e-05 1.09538e-05 -1.81063e-05 -9.94273e-06 1.19033e-05 
-1.55293e-05 -1.00428e-05 8.33245e-06 -8.63356e-06 -6.15428e-07 -1.59852e-07 -5.17376e-06 4.1288e-06 3.70449e-06 
-1.62548e-05 -1.39384e-05 2.6413e-06 -1.88778e-05 -1.96764e-05 5.75564e-06 -1.5565e-05 -2.04692e-06 -1.04047e-06 
-2.1454e-05 -1.72726e-05 -3.27717e-06 -1.97349e-05 -1.51299e-05 -5.4925e-07 -1.46061e-05 -1.16145e-05 -2.43588e-06 
1.55638e-06 -8.39545e-06 -2.23686e-06 -7.81728e-06 -2.4299e-06 -4.46761e-06 3.87681e-06 3.14432e-06 -1.78229e-06 
9.91511e-06 2.45651e-06 -3.05411e-07 1.46154e-05 8.76623e-06 1.15428e-06 7.72904e-06 1.1654e-07 1.19455e-06 
1.21523e-05 -1.44493e-06 1.85944e-06 -7.12955e-07 -4.07847e-06 1.67525e-06 -5.83005e-06 -8.35487e-06 2.5739e-06 
-9.80789e-06 1.85918e-06 2.7191e-06 -6.66077e-07 -8.21132e-06 -5.20628e-06 -3.83431e-06 -1.47647e-05 1.01011e-05 
-7.4338e-06 0.0045328 0.000327112 0.00789689 9.32623e-05 0.000530128 -0.00158296 -5.63638e-05 -0.000120501 
-0.000357603 2.74814e-05 -1.49025e-06 -0.000240484 8.50011e-06 -2.80454e-05 -5.15532e-05 1.42465e-05 -1.96626e-05 
-4.67907e-05 -2.06295e-05 -3.37731e-05 4.75806e-06 -6.98396e-06 -3.38166e-06 -3.99676e-05 -2.3636e-07 -1.61948e-05 
-2.4737e-05 -1.43812e-06 -1.17127e-05 -3.01271e-05 8.62235e-07 -1.5329e-05 -3.23763e-05 -1.35911e-05 -1.21617e-05 
-2.72079e-05 1.62054e-05 3.44411e-05 -1.35796e-05 -2.00746e-06 -1.37883e-05 -3.74927e-05 -6.65584e-07 -1.25524e-05 
-2.53061e-05 -9.96297e-07 -7.94921e-06 -1.9121e-05 -3.83639e-08 -3.39754e-06 -7.53975e-06 1.22617e-06 -5.77998e-08 
-2.03442e-06 -2.64961e-06 -6.68122e-07 3.10138e-06 -3.96712e-06 -1.07393e-06 1.2044e-05 -5.69725e-06 -2.20235e-06 
1.17036e-05 -7.57892e-06 -3.52163e-06 1.19264e-05 -7.11285e-06 -9.29215e-07 1.44155e-05 -9.43874e-06 3.28542e-07 
1.17706e-05 -7.79057e-06 -5.59314e-07 1.18908e-05 -3.8429e-06 -1.77004e-06 1.12943e-05 -1.80463e-06 -2.08312e-06 
9.0651e-06 -3.09054e-06 1.87082e-06 5.4196e-06 -8.10117e-08 7.21006e-07 -2.44601e-07 4.13093e-06 2.92576e-07 
-4.358e-06 6.36345e-06 3.74579e-06 -2.12323e-06 6.53416e-06 2.76709e-06 -6.8967e-06 6.7603e-06 7.30398e-07 
-8.43717e-06 5.63232e-06 9.05724e-07 -7.91726e-06 4.2673e-06 -9.61189e-07 -8.60472e-06 3.56564e-06 -2.07824e-06 
-9.36944e-06 -1.24098e-06 -1.59415e-06 -8.63686e-06 -1.48036e-06 -3.43772e-06 -8.78767e-06 -2.70544e-06 -3.96227e-06 
-7.52277e-06 -3.5687e-06 -2.595e-06 -3.94947e-06 -5.3295e-06 -4.02473e-06 -2.84703e-06 -6.52069e-06 -3.49007e-06 
-1.62016e-06 -4.69252e-06 -8.36857e-07 2.00825e-06 0.00994609 5.25636e-06 -9.92455e-06 -5.90148e-06 8.62255e-06 
4.69575e-06 -2.96113e-06 5.00641e-06 5.3315e-06 4.55289e-06 5.47768e-06 5.55132e-06 8.31262e-06 5.78515e-06 
7.81933e-06 1.17932e-05 4.76088e-06 5.49469e-06 1.30323e-05 3.60288e-06 4.24529e-06 1.1699e-05 4.41146e-06 
3.63712e-06 1.24434e-05 3.29467e-06 -1.79414e-06 6.7773e-06 1.30782e-06 -5.15099e-06 7.81826e-06 -5.12545e-06 
-5.59625e-06 6.48183e-06 -5.1379e-06 -7.72412e-06 -2.31068e-07 -6.31426e-06 -1.02204e-05 -8.76669e-06 -7.88874e-06 
-1.00417e-05 -1.39116e-05 -7.73478e-06 -1.01919e-05 -1.40911e-05 -7.57505e-06 -1.12782e-05 -1.90855e-05 -6.61352e-06 
-1.20508e-05 -2.2124e-05 -6.89679e-06 -6.19753e-06 -1.91509e-05 -2.65925e-06 -6.88904e-06 -1.72866e-05 -1.06917e-06 
-9.02192e-07 -1.19718e-05 1.71373e-06 -1.02127e-06 -7.98318e-06 3.29044e-06 3.57407e-06 -8.28517e-06 1.76202e-06 
4.37138e-06 -5.74172e-06 1.35153e-06 1.97853e-06 -4.82719e-06 4.22289e-06 6.37073e-06 -2.48362e-07 5.6499e-06 
6.8677e-06 4.88715e-06 3.69723e-06 9.9101e-06 8.86489e-06 1.03424e-05 9.25526e-06 1.45185e-05 1.16141e-05 
1.62811e-05 2.58997e-05 6.80575e-06 1.14119e-05 1.90532e-05 5.40407e-06 7.28381e-06 1.809e-05 5.2205e-06 
6.11473e-06 1.50673e-05 7.90988e-06 8.48252e-06 1.6422e-05 3.75695e-06 7.18982e-06 1.49287e-05 1.34611e-05 
1.15256e-05 1.72613e-05 1.45882e-05 9.72281e-06 2.67226e-05 2.54161e-05 1.26218e-05 2.02754e-05 2.15195e-05 
1.98323e-05 3.21216e-05 2.52521e-05 1.12061e-05 2.26893e-05 5.80395e-05 1.93163e-05 2.95708e-05 0.00017265 
3.68393e-05 3.77046e-05 -0.000117262 -0.000322285 -0.000102821 -0.000285539 -0.000677594 0.000219088 -0.00777691 
-0.00112193 -0.00166142 0.0162646 0.00523361 -0.00933061 -6.5441e-05 0.00553522 0.000782947 0.00285772 
0.00247405 -3.75798e-05 -0.00402254 0.00128649 4.72542e-05 -0.00342513 -0.00558557 0.00419256 -0.000103195 
0.00109177 -4.15701e-05 -0.0037161 -0.00264508 0.000861778 -0.00341639 -0.00271224 0.00122569 -0.00308774 
-0.00232839 0.00150195 -0.0030863 -0.00171711 0.00111372 -0.00351777 -0.00194951 0.000775923 -0.00288915 
-0.00244525 0.00143132 -0.00258676 -0.00198523 0.000789965 -0.00192667 -0.00209066 0.000983635 -0.00204416 
-0.00201463 0.000824101 -0.00148129 -0.00161857 0.00113495 -0.00100574 -0.000611539 0.000468691 -0.000809462 
0.000207374 0.000212189 -0.000658735 0.000461726 0.000130485 -1.3899e-05 0.000670886 0.000132853 0.000205503 
0.00140839 -0.000235647 0.000929604 0.00199664 -0.000372907 0.00185602 0.00260778 -0.000682642 0.00157304 
0.00324419 -0.00169258 0.000924059 0.00226941 -0.00100048 0.0144335 -0.00245239 0.00223809 0.00469474 
0.000672375 -0.00956933 0.0121434 0.00242256 0.00638583 0.00586386 0.00094666 0.0035296 0.00206704 
-0.0007043 0.00275111 0.00210229 -0.00054992 0.00263057 0.0019519 -0.000465633 0.00238432 0.00197627 
-0.000537151 0.00231113 0.00193145 -0.00066288 0.00231419 0.00189547 -0.000593084 0.00240709 0.00194704 
-0.000607324 0.00255742 0.00210054 -0.000521327 0.00280978 0.00245411 -0.000685454 0.00297755 0.0030642 
-0.00070597 0.003999 0.00405851 -0.000927754 0.00806092 0.00443572 -0.000892473 -0.00189356 0.0213255 
-0.00720556 -0.00905803 -0.00545701 -0.00400109 0.00137087 -0.0028713 -0.00276181 -7.78486e-05 -0.00227116 
-0.00231761 0.000391328 -0.00220162 -0.00231131 0.000590217 -0.00227669 -0.0022274 0.000626938 -0.0021823 
-0.00229309 0.000609275 -0.00215325 -0.00237497 0.000613183 -0.00227948 -0.00255783 0.000600167 -0.00211756 
-0.00249915 0.000632833 -0.0021845 -0.00257374 0.000633161 -0.00256069 -0.00319673 0.00061344 -0.00350463 
-0.00288137 0.000769667 -0.00336547 -0.0186711 0.00120515 1.00615e-05 0.00890692 0.010404 -0.00303465 
-0.000289768 -6.32465e-06 -1.05607e-05 0.00465082 0.0129766 0.00111036 0.00762716 -0.00219442 0.00194697 
-0.0106934 -0.00474106 -0.00183741 -1.35304e-06 0.000979265 7.35518e-06 -9.15652e-06 6.96493e-06 -1.81192e-06 
-1.08819e-05 2.83532e-06 3.53314e-07 1.35318e-05 -8.36742e-07 1.86736e-05 1.18545e-05 2.08736e-06 -4.6753e-07 
1.92646e-05 7.50895e-06 -1.25269e-05 -3.77432e-07 2.4206e-06 -8.38905e-06 -8.1102e-06 -3.78369e-06 -3.15315e-06 
-8.06853e-06 -2.73834e-06 -3.11612e-06 -1.36664e-05 -4.986e-06 -1.73963e-06 -2.06513e-05 -5.92496e-06 8.88464e-06 
-1.53771e-05 -2.71906e-06 4.90877e-06 -8.39809e-06 -2.09726e-06 5.91532e-06 -8.76795e-06 -3.32781e-06 7.55184e-06 
-4.65201e-06 -1.74496e-06 7.71007e-06 6.87827e-07 -2.08455e-06 5.98419e-06 5.05756e-06 -1.15296e-06 8.85058e-06 
5.98564e-06 8.35605e-07 1.38142e-05 5.65301e-06 2.4999e-06 1.33929e-05 8.3669e-06 3.78075e-06 2.95192e-06 
9.06239e-06 3.48698e-06 3.13425e-06 -1.31948e-05 4.32438e-06 2.91077e-06 6.62557e-06 1.15081e-06 2.64365e-06 
9.79198e-06 2.41916e-06 8.60341e-06 5.82624e-06 -6.78183e-07 -0.000196197 2.70923e-05 2.49939e-06 -4.35898e-07 
0.00434552 -0.00219709 -0.000101231 8.06128e-05 -0.000521375 0.000107294 -0.00406391 0.00145202 -0.0010441 
9.27053e-05 0.000149006 -0.000130602 4.81047e-05 0.000102951 3.47033e-05 7.08419e-05 7.94498e-05 8.96005e-06 
-3.68873e-05 3.06469e-06 -2.31843e-05 1.05968e-05 4.53529e-05 7.21515e-06 6.62618e-07 4.59485e-05 -9.6772e-06 
2.26398e-06 4.15334e-05 -1.90244e-05 4.89863e-06 3.55267e-05 -2.04718e-05 -3.44987e-06 3.4942e-05 -1.59789e-05 
7.40667e-06 2.39479e-05 -1.6593e-05 8.18903e-06 2.65691e-05 -1.58341e-05 8.84081e-06 1.96208e-05 -1.16159e-05 
6.48658e-06 1.402e-05 -6.43505e-06 5.86404e-06 9.27988e-06 -5.85537e-06 7.81387e-06 4.32256e-06 -4.28751e-06 
3.66882e-06 3.72244e-06 -1.66936e-07 -3.48008e-08 -3.59376e-06 -1.60048e-07 -1.42473e-06 -9.10992e-06 -1.45782e-06 
-3.77618e-06 -1.19844e-05 -2.07367e-06 -4.82797e-06 -1.43455e-05 -2.30827e-07 -5.16364e-06 -1.34857e-05 1.27963e-06 
-7.06664e-06 -1.1831e-05 2.83456e-07 -7.08512e-06 -1.11177e-05 -1.34927e-06 -3.62432e-06 -8.96003e-06 5.072e-07 
-4.78948e-06 -3.79808e-06 3.51272e-06 -3.21388e-06 -2.06858e-06 7.40795e-07 8.5882e-08 2.45626e-06 9.99482e-08 
2.53415e-06 5.61098e-06 2.81316e-06 4.70256e-06 8.78802e-06 1.75443e-06 4.80808e-06 8.585e-06 1.95377e-07 
5.14584e-06 9.56333e-06 -3.00671e-06 4.41105e-06 9.17523e-06 -4.06159e-06 3.23393e-06 7.01196e-06 -5.00481e-06 
2.04339e-06 4.83355e-06 -6.59374e-06 -1.96531e-07 3.59863e-07 -6.75069e-06 -1.33326e-07 -1.79512e-07 -5.6184e-06 
-4.12518e-06 -6.59041e-06 -7.24476e-06 -7.895e-06 -4.00535e-07 7.11762e-06 -1.33059e-05 -1.22325e-06 1.20307e-06 
-0.000562373 -0.0011125 0.00737311 0.00532269 0.000641595 0.0018973 3.34616e-06 5.02396e-07 1.00686e-06 
5.25265e-06 4.43218e-06 4.64488e-06 5.60673e-06 5.00033e-06 9.82914e-06 5.31643e-06 6.67032e-06 1.39786e-05 
4.07477e-06 4.89924e-06 1.44256e-05 2.77016e-06 2.70104e-06 7.07732e-06 -8.59392e-06 -7.15473e-06 7.51023e-06 
-1.06793e-05 -4.84781e-06 2.80861e-06 -1.31036e-05 -5.2565e-06 -1.17347e-07 -4.15443e-06 6.1319e-06 -6.60771e-06 
-5.78136e-06 -5.87845e-06 -3.75125e-06 -8.44156e-06 -7.77073e-06 -8.6865e-06 -7.85366e-06 -7.60387e-06 -1.06816e-05 
-1.09618e-05 -9.5611e-06 -1.74558e-05 -1.02885e-05 -1.13949e-05 -2.14189e-05 -7.54097e-06 -9.68603e-06 -2.3454e-05 
-6.53637e-06 -7.82343e-06 -1.93404e-05 -3.05283e-06 -3.09352e-06 -1.73531e-05 1.34558e-06 -2.54945e-06 -1.33932e-05 
2.17816e-06 2.03511e-06 -1.23778e-05 2.80333e-06 2.77236e-06 -1.08473e-05 3.12021e-06 2.73979e-06 -9.30438e-06 
5.46459e-06 4.35638e-06 -6.21872e-06 6.75487e-06 5.60429e-06 1.37353e-06 6.25279e-06 7.7198e-06 3.39293e-06 
1.22824e-05 1.10107e-05 1.37848e-05 1.38866e-05 1.87923e-05 2.52543e-05 1.39492e-05 1.56196e-05 2.09923e-05 
1.08004e-05 1.74611e-05 2.47098e-05 8.26049e-06 9.61253e-06 2.5109e-05 1.09019e-05 8.80003e-06 1.72786e-05 
9.7116e-06 1.24245e-05 2.13675e-05 2.25342e-05 1.23953e-05 2.77315e-05 8.9788e-06 2.10224e-06 1.28234e-05 
3.68136e-05 1.90541e-05 3.36965e-05 1.72194e-05 -5.56507e-06 4.04623e-05 3.03527e-05 1.87187e-05 0.000108955 
3.95757e-05 1.76824e-05 4.25578e-05 4.39132e-05 1.10827e-05 5.16768e-05 -8.01305e-05 -0.000101711 -5.03177e-05 
-7.76838e-05 0.000452741 0.000230217 -0.00111344 1.30993e-05 -0.000431425 0.0033937 0.00192749 0.000520319 
0.00111275 -0.00021434 0.000181719 -6.86867e-06 0.00217455 5.9072e-05 0.00226516 2.04652e-05 -0.00102938 
0.00114827 -0.000493532 0.0006068 0.00106111 -0.000180846 0.000298459 0.00145092 -0.000268363 -1.2907e-05 
0.00181238 -0.000295309 -5.50551e-05 0.00150729 -0.000229975 0.000111347 0.00121645 -3.82937e-05 0.00012978 
0.00137827 -0.000225857 -2.52749e-06 0.00114516 -0.000139885 9.04686e-05 0.000980903 -0.000134142 0.000121359 
0.000812661 -9.72042e-05 -4.31762e-05 0.0010006 -0.000172221 -0.000281577 0.000851973 -0.000119116 -0.00050408 
0.000865686 -2.02666e-05 -0.000640112 0.00090708 -8.61281e-05 -0.000685447 0.000794894 2.66769e-05 -0.000855553 
0.000774815 3.41618e-05 -0.00120584 0.000850463 5.89486e-06 -0.00137174 0.000502903 -8.94021e-05 -0.0014337 
6.42081e-05 -0.000237627 -0.000402314 -0.000234499 3.69127e-05 -0.00648857 0.000256792 -0.00267675 -0.00518765 
0.000879452 -0.00143626 -0.000622259 -0.00097979 -1.99282e-05 -0.000652122 -0.000306673 -0.000268103 -0.000488139 
-0.000218384 -3.02198e-05 -0.000506157 -0.000191174 -0.000100204 -0.000440112 -0.000507809 -2.11488e-05 -0.000624177 
-0.000138431 -3.35444e-05 -0.000527964 -0.000128676 9.9975e-06 -0.000474484 -0.000105103 1.21871e-05 -0.000291275 
-0.000571395 0.000122684 -0.000299325 -0.00083127 0.000197748 -0.000411293 -0.000942017 0.000258276 -0.00210104 
-0.00143178 -0.000770229 -6.59686e-05 -0.000366896 5.09595e-05 -0.000224093 -6.19983e-05 8.39295e-05 0.000100507 
8.13074e-05 -0.000135749 0.000122938 0.000101313 -0.00011143 0.000116917 0.000130094 -9.11195e-05 0.000135154 
0.000138767 -7.58102e-05 0.000151937 0.000108403 -6.77528e-05 0.000145773 7.97367e-05 -5.66923e-05 0.000213917 
-8.65498e-06 -5.31592e-05 0.000190874 -0.000345179 -5.03928e-05 -0.000134603 -0.0010421 -1.32533e-05 0.000852589 
-0.00122321 -0.000208443 -0.00317881 -0.0029741 0.00158626 -1.39587e-05 -6.10838e-06 1.14517e-06 1.10709e-05 
-0.000407702 -0.000190521 0.000894809 -0.00252343 0.00587945 -0.000298125 3.58645e-06 1.56224e-06 9.5292e-06 
0.00182436 0.000783479 0.00381827 0.000850529 2.748e-06 -0.00101483 0.0003067 -0.000118011 -0.00245713 
0.00134221 0.000544741 -0.000449764 0.00099416 -0.000643107 -0.000598676 -0.00229181 -0.000417402 0.000527654 
-0.000149075 0.000234999 -0.000939136 0.000368123 -0.000889291 -9.19677e-06 -6.6596e-06 5.12431e-06 4.89806e-06 
-1.03485e-05 -7.21682e-06 -3.81422e-06 -8.09661e-06 -8.26609e-06 -5.57423e-06 -4.27582e-06 -1.3121e-05 -6.95068e-06 
2.95487e-07 -2.03727e-05 -5.07717e-06 1.43964e-06 -1.68719e-05 -2.30286e-06 3.60059e-06 -1.64501e-05 -1.94927e-06 
3.7098e-06 -1.22883e-05 6.17477e-06 5.07529e-06 -8.506e-06 -2.61459e-06 4.14732e-06 -4.16285e-06 -2.10685e-06 
5.3541e-06 3.7671e-07 -1.7801e-06 3.62976e-06 5.89203e-06 2.10642e-06 1.01255e-05 4.53018e-06 4.286e-06 
1.102e-05 6.70524e-06 2.86399e-06 8.12202e-06 7.2077e-06 5.24236e-06 3.70341e-06 6.84502e-06 5.53038e-06 
-2.88343e-06 -1.23356e-05 4.96748e-06 -4.07172e-07 2.58295e-06 1.14436e-06 -2.61828e-06 5.55223e-06 3.37154e-06 
3.62684e-06 0.000331575 0.000308436 2.68392e-06 1.33509e-05 1.07394e-05 0.000757789 0.00136059 0.000567229 
-0.000122659 7.83201e-05 -9.69056e-05 0.000339435 3.30709e-06 1.56742e-05 8.84096e-06 -6.95424e-06 3.3909e-05 
2.80008e-06 -1.89081e-06 2.83561e-05 4.88834e-07 -3.02626e-06 2.55486e-05 -2.996e-06 3.38757e-06 2.69782e-05 
-8.75119e-06 4.86041e-06 2.58416e-05 -9.32505e-06 6.62924e-06 2.73065e-05 -1.05253e-05 8.28113e-06 2.30226e-05 
-1.04796e-05 1.17117e-05 1.44208e-05 -6.62959e-06 1.00252e-05 9.09331e-06 3.89629e-06 9.70918e-06 7.033e-06 
5.86158e-06 8.71472e-06 2.2006e-06 5.78142e-06 7.91345e-06 -6.50038e-07 3.56831e-06 2.7178e-06 -2.03199e-07 
5.15496e-06 1.14665e-06 -2.2493e-06 2.40455e-06 8.23151e-07 -4.32346e-06 1.11698e-08 -2.74081e-07 -5.93598e-06 
-1.71973e-06 -2.28501e-06 -7.23792e-06 -2.21007e-06 -4.26858e-07 -1.37572e-06 3.88093e-06 -5.1779e-06 -9.95808e-08 
5.89921e-06 -4.02491e-06 -1.66035e-06 -9.19286e-06 -1.83786e-06 -6.17491e-07 -5.19143e-06 -3.56145e-06 -8.73826e-07 
6.11726e-07 -1.90916e-06 -1.90411e-07 -8.00323e-07 1.2336e-06 1.0417e-06 1.71591e-06 6.58434e-06 5.48623e-06 
2.79452e-06 7.8235e-06 5.82537e-06 3.61055e-07 4.10091e-06 2.06823e-06 -2.69236e-06 4.58172e-06 2.78842e-06 
-3.67145e-06 6.24831e-06 4.7155e-06 -1.94841e-06 2.12111e-06 1.38886e-06 -7.4534e-06 -2.26531e-06 -2.56022e-06 
4.46334e-06 -1.2553e-06 2.27492e-07 8.00723e-06 -1.45448e-06 -4.25151e-06 -7.76006e-06 -1.68263e-06 -1.90333e-06 
7.55731e-06 -5.78949e-06 -6.9029e-06 3.25141e-06 0.000450325 0.000237801 4.04721e-06 5.4255e-06 3.3496e-06 
2.69956e-06 5.08239e-06 1.6956e-05 -2.66663e-07 -2.70851e-06 4.74944e-06 -3.26743e-06 -6.52717e-06 6.38267e-06 
-3.60449e-07 -3.90347e-06 7.1197e-06 -2.50746e-06 -3.30749e-06 3.98638e-06 -3.68228e-06 4.29298e-06 4.58677e-06 
-9.27214e-06 -4.28909e-06 -3.21843e-06 -7.32728e-06 -4.06333e-06 -5.48938e-06 -9.15892e-06 -7.16505e-06 -1.27872e-05 
-1.0693e-05 -7.1781e-06 -2.04095e-05 -9.50157e-06 -9.57022e-06 -2.36482e-05 -6.28106e-06 -8.5325e-06 -2.76529e-05 
-3.87711e-06 5.46654e-08 -5.6263e-06 -1.42892e-06 -4.69326e-06 -2.03154e-05 -8.08683e-08 -5.7975e-07 -1.58181e-05 
3.63813e-06 2.20701e-06 -1.70219e-05 4.15686e-06 3.96635e-06 -1.09702e-05 4.11719e-06 3.29321e-06 -1.15681e-05 
6.54329e-06 4.76736e-06 -8.19337e-06 6.38493e-06 6.06857e-06 -1.54099e-06 2.4165e-06 3.13228e-06 -2.6333e-06 
1.05231e-05 1.75958e-05 1.26574e-05 1.22702e-05 1.93686e-05 1.36295e-05 1.58646e-05 1.2834e-05 3.64429e-05 
1.22711e-05 4.98872e-06 1.39245e-05 7.74922e-06 4.95528e-06 2.09883e-05 7.88938e-06 1.11584e-05 3.25751e-05 
1.55012e-05 9.01275e-06 2.28535e-05 7.51047e-06 -1.30649e-06 1.03814e-05 -4.4729e-05 -3.53301e-05 2.78978e-05 
1.84097e-05 3.209e-05 9.67755e-06 3.86503e-05 8.91869e-06 3.00456e-05 -2.75529e-05 5.73316e-05 4.53203e-05 
1.35612e-05 -1.54918e-05 9.82258e-05 -3.27761e-05 -4.06468e-05 6.97147e-05 -3.25375e-05 -6.1504e-05 0.000111395 
6.52526e-05 0.000248836 1.07497e-05 -0.000198917 -9.5791e-05 -0.000161844 -0.000213526 0.000286542 -1.68486e-06 
-0.000467116 -0.000198735 0.000218589 0.000764167 -0.000182343 -0.000708697 -0.000194445 0.000170236 1.91904e-05 
-0.000123733 -6.13426e-05 3.88348e-05 -9.36253e-05 -1.80889e-05 -5.17137e-06 -0.000157773 6.11592e-05 4.7003e-06 
-0.000179799 0.000113881 -7.2292e-06 -0.000148869 0.00010248 1.94341e-05 -0.000133327 0.000141038 3.17492e-05 
-0.000157306 0.000145681 5.93945e-06 -0.000139257 0.000108541 1.23621e-05 -0.000172162 7.92848e-05 6.41095e-06 
-0.000168965 6.80958e-05 1.2434e-05 -0.000149724 9.78629e-05 5.87216e-06 -0.000134143 0.000160148 7.04764e-06 
-0.000138811 0.000203498 2.3871e-05 -0.000132903 0.00015257 -3.00686e-05 -6.06346e-05 9.97921e-05 -9.40323e-05 
-6.48182e-05 9.83485e-05 3.43762e-06 -2.37013e-05 9.54598e-05 -4.94338e-05 -0.000139065 0.000374483 -4.26776e-05 
-0.000192421 -0.000408756 0.000358878 0.000627543 0.00011967 0.00026599 2.25674e-05 2.40474e-06 -4.21474e-05 
9.21562e-06 -9.64241e-05 0.000147561 -0.00103294 5.87014e-05 -2.02098e-05 -9.32018e-05 -7.59279e-05 -4.97504e-05 
0.000108302 0.000140652 -0.000106238 -0.000299819 5.82573e-05 -7.69918e-05 -1.40464e-05 2.88746e-05 -7.03968e-05 
-1.62339e-05 6.46656e-05 -6.03574e-05 3.11491e-05 5.61088e-05 -5.57779e-05 -1.11461e-05 8.20618e-07 3.80065e-05 
-1.87675e-05 7.62858e-05 7.1491e-05 5.08183e-05 -0.000272803 -0.000315919 -3.86429e-07 -0.000110046 -0.000241329 
4.63097e-06 -0.00132419 0.000631679 -1.17954e-05 -0.00015317 -3.98064e-05 -2.19308e-05 -6.85539e-05 -4.89498e-05 
-1.64338e-05 -3.51526e-05 -2.3736e-05 -1.81096e-05 -2.30443e-05 -7.66421e-06 1.58806e-07 -2.24013e-05 -2.65049e-06 
-3.1907e-06 -3.11274e-05 -2.67673e-06 4.47535e-05 -0.000100734 -1.11546e-06 1.00715e-05 -0.000201273 -1.91676e-07 
-0.000187901 -0.000283929 -4.00719e-05 -0.000373041 -0.000149356 -0.000180184 0.000915141 -0.000972882 0.00112474 
-9.13091e-06 -1.41816e-05 -1.4387e-06 -5.79068e-06 4.99623e-06 4.39708e-06 1.2633e-05 0.000322555 -0.000387009 
6.59197e-05 -0.000336876 9.66809e-06 5.02615e-06 3.53545e-06 1.16339e-05 8.17217e-06 -4.62641e-06 1.51789e-05 
0.000125998 -0.00016107 -0.000241401 -0.000262673 -0.000232264 -0.000796677 -0.000295692 0.00017122 -0.00053898 
3.65181e-06 9.59477e-05 -0.000130127 0.000119199 -0.000106148 4.22966e-05 -0.000215723 0.000224569 6.41289e-06 
-4.11597e-05 3.04168e-05 0.000203558 0.000193176 -0.000355761 -0.00026755 -0.000857991 6.38477e-05 -0.000266043 
0.000137818 0.0010375 6.86076e-05 0.000174804 0.000238293 -0.000442226 -7.97407e-05 -9.13074e-06 -8.22354e-06 
2.73697e-06 -4.72159e-06 6.45056e-08 -1.55327e-05 -5.55594e-06 1.42516e-06 -1.28502e-05 1.23813e-06 -4.2659e-07 
-1.53466e-05 -1.03425e-05 1.00495e-05 -3e-06 8.90551e-06 9.46595e-06 -8.41648e-06 5.26291e-06 3.00474e-06 
-4.22259e-06 6.39483e-06 4.38738e-06 2.33441e-07 2.87043e-06 9.25444e-06 5.92959e-06 1.40525e-06 9.91638e-06 
5.5106e-06 3.62642e-07 1.07742e-05 5.19286e-06 6.87606e-06 8.80975e-06 8.01078e-06 4.85509e-06 9.14096e-06 
9.01872e-06 7.26589e-06 6.86462e-06 7.29197e-06 6.68245e-06 5.76886e-06 3.76835e-05 -6.98679e-05 -0.00010993 
0.00016412 8.74598e-06 5.41021e-06 -4.12839e-06 9.87368e-06 -1.11241e-05 2.09484e-06 -4.6714e-07 -1.53155e-05 
-2.87144e-05 -5.32673e-06 -4.85189e-06 1.65481e-05 -5.68298e-06 9.45197e-07 1.42598e-05 -7.37502e-06 4.10196e-06 
1.58294e-05 -3.92542e-06 1.25852e-05 2.20388e-05 -1.19418e-05 1.88745e-05 1.74511e-05 9.48385e-06 -8.57237e-06 
-3.49752e-06 2.05142e-05 -6.92683e-06 -1.49613e-05 -2.46473e-05 -1.60107e-06 -1.53472e-05 -2.24604e-05 -2.70278e-06 
-1.27718e-05 -1.55292e-05 -6.17946e-06 -9.12194e-06 -6.41991e-06 -5.27373e-06 -6.61743e-06 -1.04154e-05 -4.83937e-06 
-8.69175e-06 -9.03033e-06 -3.57189e-06 -8.0672e-06 1.53197e-06 -3.15758e-06 -5.4463e-06 5.55124e-06 -5.9073e-06 
4.94637e-06 4.22691e-06 -2.41338e-06 4.5886e-06 3.42744e-06 -1.13685e-07 4.3359e-06 5.38622e-06 2.41578e-06 
2.46013e-06 9.11855e-06 -4.07458e-07 -2.65042e-06 1.88339e-05 2.43839e-06 1.8228e-06 1.31044e-05 3.14151e-07 
-5.03615e-06 5.29749e-06 6.03237e-07 5.93998e-06 1.06927e-05 -1.88436e-06 1.48574e-06 -8.15088e-06 1.18502e-05 
-3.7283e-06 -1.17492e-05 1.05866e-05 5.9572e-06 -1.15984e-05 -3.88823e-07 3.92549e-06 -6.44801e-06 -1.7221e-06 
-1.7331e-06 4.51898e-08 -7.28486e-07 -4.72867e-06 -1.41385e-06 -1.15596e-06 -4.03779e-06 3.65819e-06 -3.11726e-06 
-2.97547e-06 6.19897e-06 -6.01446e-07 -1.12682e-07 4.76604e-06 -1.61681e-07 2.07875e-06 9.33115e-06 0.000188412 
9.01139e-05 0.000410104 -0.000145535 5.6064e-05 1.84586e-06 -6.25304e-05 -8.82643e-05 -2.94258e-05 -3.57892e-05 
0.000372005 0.000154413 -1.00373e-05 0.000228887 -8.17106e-05 -3.21768e-06 2.89332e-06 -6.65752e-06 2.40472e-06 
1.06093e-06 6.23133e-06 1.01811e-06 -8.04459e-06 1.2756e-05 -5.04545e-06 1.51453e-06 2.57186e-05 -1.11446e-05 
7.59397e-06 -8.592e-07 3.54326e-09 -1.0603e-05 5.21503e-06 -6.33357e-06 2.71781e-06 -4.1096e-06 -7.47587e-06 
-4.65703e-06 -6.88972e-06 -9.77113e-06 -4.16432e-06 -1.21658e-05 -1.0178e-05 -6.64387e-06 -2.7472e-05 -5.93318e-06 
-1.15871e-05 -2.81315e-05 -7.43056e-06 1.62068e-06 -1.4371e-05 -1.25061e-06 -3.47092e-06 -1.76561e-05 1.10299e-06 
-4.95174e-06 -2.62247e-05 9.11257e-06 8.78847e-07 1.19918e-06 8.84936e-06 1.44918e-06 -1.76626e-05 4.29639e-06 
1.44032e-06 1.0357e-06 8.5082e-06 8.70222e-06 -8.4621e-07 3.20534e-07 -9.46215e-07 -7.05424e-06 1.65654e-05 
9.07263e-06 -3.17627e-06 -4.6236e-06 -1.72373e-08 -7.15466e-06 -1.25323e-06 1.15878e-05 -3.13326e-07 5.0622e-06 
1.81253e-05 1.29918e-05 -8.30494e-06 -1.17311e-05 4.98649e-05 -6.7203e-06 -6.01158e-06 3.13747e-05 3.42278e-06 
1.92123e-05 7.24228e-06 8.60636e-06 9.40279e-06 2.67151e-05 -3.46243e-05 -2.96233e-05 2.52208e-05 -2.52081e-05 
-1.00549e-05 2.76525e-07 6.17246e-06 1.42414e-05 -8.6454e-07 2.96826e-05 -8.23208e-06 2.60351e-05 -1.3967e-05 
4.67112e-05 2.51558e-05 -4.3213e-05 0.000103796 5.0873e-05 -1.31021e-05 -6.1222e-05 2.25079e-06 3.56499e-05 
-7.25758e-05 0.000115141 -0.000126619 5.84081e-06 4.46001e-06 0.000113835 0.000137891 -4.46762e-05 -0.000124033 
1.28745e-05 -5.4729e-06 3.50766e-05 -1.63811e-05 0.000124237 -0.000167694 -0.000112841 -6.671e-05 2.91224e-05 
-6.01174e-05 -4.49281e-05 5.89019e-05 4.61691e-05 2.11685e-05 2.59211e-07 -8.2943e-06 5.32489e-05 5.35015e-06 
-6.41245e-06 -2.66961e-05 1.50264e-05 -2.78745e-05 1.88903e-05 1.18916e-06 8.28461e-06 3.0253e-05 -1.60716e-05 
2.17601e-05 1.83968e-05 1.18407e-05 -5.98046e-08 2.00201e-05 1.71247e-05 -1.46318e-05 1.84156e-05 1.77918e-05 
3.17315e-06 1.91898e-05 1.61486e-05 -1.61513e-07 6.50626e-06 1.19025e-05 -3.88302e-06 2.79986e-05 1.27345e-05 
8.76902e-06 -1.14975e-05 1.48818e-05 -1.28332e-05 -1.60653e-06 3.72808e-06 -1.14554e-05 -3.58548e-05 1.81915e-05 
-2.9904e-05 -1.65621e-05 -1.76437e-05 -2.84037e-05 6.0776e-05 5.56246e-05 -7.40866e-05 -4.68437e-06 -1.16682e-05 
-5.99953e-06 0.000231707 0.000113618 0.000108835 2.28417e-05 -0.000137054 5.47634e-05 -0.000175151 3.84727e-06 
3.86959e-06 1.25257e-05 -1.8212e-05 -1.06806e-05 -9.32998e-06 2.18828e-06 -0.000214593 -0.000127851 0.000343841 
6.39284e-05 -0.000213724 -8.3612e-05 -1.70086e-05 -2.19124e-05 -6.34482e-05 3.0286e-05 4.23329e-05 -2.15689e-05 
-6.22319e-05 -1.13753e-06 -7.99982e-05 3.02676e-06 1.00897e-05 -2.3102e-05 1.78287e-05 3.03843e-05 8.21748e-05 
0.000126472 -5.55268e-05 0.000126065 0.000131876 -9.09506e-06 -7.40172e-05 -0.000137922 4.93473e-05 -1.51226e-05 
-4.36596e-05 -1.00682e-05 -1.05359e-05 -3.94621e-05 -1.66914e-05 -4.52917e-06 -1.30472e-05 9.61401e-07 -7.08762e-08 
-2.00866e-05 1.50052e-05 -1.06105e-06 -9.88036e-06 2.62304e-05 -5.8534e-05 -1.57766e-06 5.75061e-05 -3.949e-05 
1.47603e-05 -8.00772e-05 -4.87736e-05 -3.33414e-05 -0.000128412 -3.85282e-05 -1.58655e-05 0.000438948 3.66869e-05 
0.000498802 0.000226242 -0.000459589 -0.000117362 -3.05817e-05 0.000100527 -0.000132676 8.28996e-05 -2.69326e-05 
-0.00010561 -4.79417e-05 2.0296e-05 0.000155765 1.13436e-05 8.41856e-06 -0.000176918 -5.98729e-05 0.000130521 
-4.55949e-05 -0.000115044 -1.50781e-05 -0.000213706 1.10456e-05 -4.568e-05 -0.000315843 6.79622e-06 7.59565e-06 
-4.79696e-07 -1.57182e-05 6.92488e-06 -4.8524e-05 0.000109184 -7.95301e-05 4.89085e-05 1.31567e-05 1.15738e-05 
4.00073e-05 -9.9291e-05 2.05698e-05 -0.000109598 -0.000115489 -6.37072e-06 -8.39272e-06 -6.27233e-06 5.12626e-05 
3.0702e-05 -7.08513e-05 2.48002e-05 5.30486e-05 0.00012901 -0.000154645 8.12551e-05 1.23288e-05 -4.0181e-05 
-0.000111498 0.000101615 -0.000132716 0.000120195 0.000152525 -8.55599e-05 -8.06164e-05 0.000191667 0.000229574 
6.44123e-05 -1.34862e-05 -3.6972e-05 8.93285e-06 -2.22631e-05 -1.07583e-05 1.94174e-06 2.39893e-05 -1.2323e-05 
-2.59569e-05 -7.94828e-07 -1.05133e-05 2.43713e-05 2.10022e-05 -1.12918e-05 -9.29376e-06 -8.80283e-07 -1.00058e-05 
1.79568e-05 3.59075e-06 1.1468e-05 1.76572e-06 3.6601e-06 1.40259e-05 1.49351e-05 1.1833e-05 1.23825e-05 
-5.40806e-06 1.49471e-05 1.01332e-05 3.07464e-07 7.61205e-06 -5.02688e-05 1.30656e-05 3.58749e-05 7.92325e-05 
-1.41489e-05 -3.5113e-06 -7.6215e-06 1.32935e-05 -2.14135e-06 -3.19024e-06 -2.95652e-06 1.21981e-05 -4.40154e-06 
3.11648e-05 1.24024e-06 1.53039e-06 1.89686e-06 -3.05788e-06 3.22923e-05 7.81906e-06 -2.0338e-05 -1.83133e-05 
2.29461e-06 -4.47787e-06 1.71953e-05 7.96649e-06 5.57744e-06 -2.9047e-06 -1.45539e-05 -9.66813e-06 -2.55861e-05 
-2.94004e-05 -4.61325e-06 1.39092e-05 -3.15067e-05 -1.60459e-05 -1.98452e-06 -2.77009e-05 -2.35005e-05 7.16586e-06 
-1.99298e-05 -5.27485e-06 2.87622e-05 -2.47243e-05 -3.32796e-06 2.21491e-05 -1.49908e-05 2.4707e-06 -1.49944e-05 
-9.79674e-06 -3.06463e-06 2.38186e-06 -1.43727e-06 -7.02263e-06 3.80637e-06 1.30345e-05 -8.99207e-06 2.27061e-06 
1.69653e-05 -2.43708e-06 -1.08807e-05 6.23288e-08 -5.18665e-06 -1.85823e-05 -4.5464e-06 -4.91788e-06 -1.84601e-05 
-8.84014e-06 4.37704e-06 -5.24632e-06 -3.7299e-06 8.69632e-06 1.13209e-05 1.42519e-05 5.16623e-06 -1.19535e-05 
-1.67248e-06 -1.5365e-05 -3.18013e-05 -1.27575e-05 4.77146e-06 -2.44304e-06 3.18908e-06 -9.16738e-06 -2.55305e-05 
-4.63204e-08 -1.5069e-05 2.35898e-06 -1.34551e-06 -3.26765e-06 -4.92936e-06 -2.99905e-07 1.31965e-06 -6.95358e-07 
2.21478e-06 1.23087e-05 -0.000138008 -1.32234e-05 -6.65833e-06 -8.36429e-06 -3.64425e-06 4.57825e-05 3.47514e-05 
2.64495e-05 2.06211e-06 2.71033e-06 3.67875e-06 -3.59739e-06 -2.36949e-06 -2.82986e-05 -8.16165e-06 5.1896e-05 
-1.31268e-05 1.03796e-05 4.1022e-06 2.08003e-06 -9.94563e-06 7.64361e-06 -8.87585e-06 -1.32947e-06 2.6193e-05 
-1.70021e-05 7.38429e-07 -5.36069e-06 2.55222e-06 -3.10166e-06 -2.58061e-05 1.17604e-05 -4.1769e-06 -1.26741e-05 
6.1632e-06 -1.0129e-06 3.15737e-05 -1.34461e-05 -2.17754e-08 3.05067e-05 2.29954e-05 -1.68765e-06 -2.24182e-05 
-1.81622e-05 1.42913e-05 -3.50485e-05 1.90411e-05 1.04466e-05 3.47709e-05 -1.09512e-05 -1.27249e-05 -5.37001e-05 
-6.43376e-07 -3.36465e-06 1.23879e-05 -2.7065e-05 -8.17342e-06 5.47929e-06 -1.20864e-05 1.02041e-05 -2.4609e-05 
5.96957e-05 -4.89554e-06 1.35891e-06 -2.23173e-05 -4.5044e-05 -3.76017e-05 5.15687e-05 3.97615e-05 3.08654e-05 
-5.73136e-05 -5.61432e-05 -9.44315e-06 -1.32258e-05 -1.01518e-05 -5.00708e-06 5.02486e-06 -3.97749e-06 -1.56031e-05 
-3.06634e-06 3.95528e-05 -1.14092e-05 9.63989e-06 3.1032e-06 -2.18988e-05 -2.21982e-05 3.55036e-05 1.17547e-05 
-8.9859e-06 1.26112e-05 4.46863e-06 4.37335e-05 2.09018e-05 -5.68297e-05 5.94711e-05 -3.54466e-05 -2.6664e-05 
6.15029e-06 -1.27381e-05 5.2754e-05 -9.92158e-05 -6.31461e-05 3.46353e-05 2.18989e-05 -0.0001179 4.70127e-05 
6.71654e-05 1.21743e-05 -8.31158e-05 9.43064e-05 -9.48341e-06 0.000246924 0.000110065 6.98503e-06 -2.14859e-05 
2.02395e-05 1.29861e-05 -1.63183e-05 -1.54297e-05 -1.78217e-06 2.19327e-05 -4.85742e-05 -1.45725e-05 2.94306e-06 
1.16096e-05 7.43215e-06 1.42253e-05 3.08883e-05 -2.16782e-06 2.28653e-05 -9.04038e-06 -5.32976e-06 -5.85247e-06 
-2.51009e-06 3.28216e-05 -2.49512e-05 -3.55036e-06 -5.7488e-05 2.0785e-06 -8.51985e-05 4.18197e-06 -3.25554e-05 
4.59772e-05 -9.26204e-06 -3.1215e-07 2.07288e-05 -0.000195255 0.000156149 -4.18691e-05 -3.69585e-05 -4.54576e-06 
-2.31264e-05 6.67967e-06 3.97523e-05 -5.07821e-05 4.3182e-05 -6.66389e-05 1.2042e-05 -8.48431e-06 -1.6062e-06 
-2.16599e-05 -2.26703e-05 -1.3927e-05 -2.46187e-05 1.85148e-05 -2.46788e-06 5.06509e-06 4.1624e-05 -0.0001731 
-1.29202e-05 1.11559e-05 -9.00457e-05 6.4429e-05 7.34537e-05 -0.000108493 -2.87194e-05 -4.01496e-05 -1.12722e-05 
-6.06791e-05 9.73947e-05 2.73677e-05 -5.84074e-06 2.11644e-06 -4.04345e-05 5.43006e-05 -3.29613e-06 -6.23524e-06 
-2.86263e-05 3.83439e-06 -6.22499e-06 9.74255e-06 -1.25705e-05 -5.23673e-07 1.95667e-05 8.3855e-05 -4.65544e-05 
0.000159156 -5.9271e-05 -0.000186317 -2.61005e-05 -3.42323e-05 1.14826e-05 -4.23871e-06 2.29438e-05 3.96455e-05 
-6.32584e-05 2.42016e-05 3.66583e-05 -1.78527e-05 2.8376e-05 3.05964e-05 7.26297e-06 6.3897e-05 -1.94457e-05 
2.21384e-05 -7.31487e-05 5.99797e-08 5.23642e-05 -6.85688e-05 2.17988e-05 -2.3283e-05 1.71288e-05 -9.13946e-06 
-1.55679e-05 -1.74079e-05 -1.34447e-05 4.73879e-06 4.05141e-05 -6.49007e-06 4.24237e-05 1.1156e-05 1.63358e-05 
2.05015e-05 -7.67126e-05 -3.26726e-05 -3.2026e-05 -0.0001156 4.72456e-05 8.58367e-05 -9.62595e-06 1.1575e-05 
2.79103e-07 3.44501e-05 1.08979e-05 6.17412e-05 -5.54097e-06 1.49987e-05 1.55576e-05 -9.15008e-06 -1.30292e-05 
-1.36986e-05 -4.9572e-05 -0.000104165 -1.5766e-06 -1.49674e-05 4.08686e-05 3.93644e-06 -2.96461e-05 -3.79868e-05 
7.74577e-07 6.7715e-06 -3.75468e-06 -4.46298e-06 -3.73634e-06 -8.17291e-05 3.90029e-05 4.38995e-05 3.69078e-06 
6.9869e-05 -5.88716e-05 3.88183e-05 -5.85487e-05 6.53388e-05 0.000168518 -5.89047e-06 -0.000140763 -6.28435e-05 
8.85317e-05 8.02639e-05 -4.32112e-05 -6.39882e-05 5.80108e-06 -3.07138e-05 7.70661e-07 1.37708e-05 1.06133e-05 
9.74427e-07 -1.84244e-05 5.99741e-05 -5.32401e-05 -6.54545e-05 5.12807e-06 3.49352e-05 4.02563e-06 4.50144e-05 
7.8546e-05 -2.45999e-05 0.000174872 -2.5917e-05 9.57937e-06 0.000212941 -0.000134493 0.00026029 -6.00929e-06 
4.58523e-05 -1.54337e-05 4.50756e-05 3.98226e-05 -1.30432e-05 1.22231e-05 -1.00915e-05 1.69444e-05 -4.04458e-05 
-9.20522e-06 0.00105582 -1.36719e-05 -3.91505e-06 1.46366e-05 -3.19231e-05 -3.39476e-05 -4.52773e-05 -1.8429e-05 
-1.70682e-05 5.67365e-06 -7.72012e-07 -5.80597e-05 0.00014826 2.06022e-05 1.7892e-07 -1.42939e-05 3.76916e-05 
2.99042e-05 7.73304e-06 -5.79033e-05 -3.61982e-05 -1.77436e-05 7.72168e-05 6.19323e-05 6.89162e-05 2.01572e-06 
-1.09861e-05 6.47324e-06 -2.62326e-05 -4.71494e-05 1.21618e-05 -1.73893e-05 -1.26013e-05 -1.20385e-05 -3.81518e-05 
2.80416e-05 2.75467e-05 -1.10199e-05 -1.13709e-05 1.26928e-05 3.50273e-05 -6.47248e-06 4.07507e-05 3.29619e-05 
3.06292e-05 -1.81424e-05 3.43694e-05 -1.00498e-05 -2.3274e-05 2.38077e-05 1.07932e-05 -1.90557e-06 5.19969e-07 
1.6589e-05 3.39839e-05 -6.77957e-05 -1.72012e-05 -9.90637e-06 -5.13502e-06 -3.15518e-05 -2.35722e-05 9.33232e-06 
-8.28692e-05 -7.2534e-05 2.58765e-05 8.09327e-06 1.97145e-05 -1.03294e-05 -1.07492e-05 -6.64518e-05 3.88042e-06 
-3.58762e-06 -2.09306e-05 -1.12926e-05 6.07095e-06 1.74047e-05 2.97558e-05 -9.21554e-06 -5.1532e-05 -1.32914e-05 
3.18079e-05 1.25841e-05 -5.39869e-06 6.42847e-06 2.34289e-06 -3.47722e-05 6.06976e-05 2.00198e-05 3.00752e-05 
-7.26272e-05 3.7584e-05 -4.62398e-05 5.56572e-05 -2.24042e-06 1.23345e-06 -5.3348e-05 4.24779e-06 -1.07736e-05 
8.02166e-05 2.77528e-05 6.70022e-05 -4.09477e-06 -1.0808e-05 8.60397e-05 5.16008e-05 -7.53649e-05 -7.90202e-05 
-5.71303e-06 -3.95767e-05 4.75434e-05 4.98893e-05 9.69784e-05 3.79967e-05 1.97499e-05 1.8904e-05 -4.89053e-05 
4.76243e-05 1.46406e-05 -2.14238e-06 3.56892e-05 1.92748e-05 1.53754e-05 1.31482e-05 -8.84729e-06 -1.92726e-05 
4.52179e-05 -7.84419e-05 5.8486e-07 -6.9913e-05 4.09684e-05 3.11308e-05 2.68032e-07 7.30254e-05 9.19052e-05 
-5.53624e-05 0.000124457 -6.41279e-05 -7.27817e-05 -3.51678e-05 6.34317e-05 1.63032e-05 7.93777e-08 4.23375e-05 
-6.38442e-05 -3.14537e-06 -2.14101e-05 -9.68392e-05 -0.000100324 2.11909e-05 3.16243e-05 -5.9536e-05 3.33517e-05 
4.93262e-05 1.67996e-05 3.46119e-05 3.57334e-05 1.19983e-05 -1.0269e-05 0.00733612 -1.38919e-05 1.82011e-05 
-5.17838e-06 1.31898e-05 1.50018e-05 -3.77363e-05 -3.9041e-05 1.49061e-05 6.85859e-06 1.18384e-05 7.74023e-06 
-3.86462e-06 2.13874e-05 1.13877e-05 -7.02051e-06 7.38269e-06 -3.05037e-06 -8.66233e-05 2.98778e-05 4.19475e-07 
7.80069e-06 1.69985e-05 -4.26051e-05 2.94067e-05 7.48976e-05 0.000121883 -7.62146e-05 1.77454e-05 7.26591e-05 
-2.49252e-05 -3.52356e-05 -1.8868e-05 -3.20595e-05 1.79585e-05 -2.72692e-05 -1.43838e-05 5.89102e-05 -1.88301e-05 
4.27334e-07 -7.75134e-05 -3.36302e-06 9.29067e-06 -2.9888e-06 3.06054e-06 7.81582e-07 7.07138e-06 -5.40149e-06 
3.4417e-05 -8.56348e-06 1.2361e-05 5.68098e-07 -3.70543e-05 -1.62666e-05 -4.00692e-06 -3.04037e-06 -1.73603e-06 
8.92642e-06 1.37054e-05 5.70828e-06 5.1915e-05 1.00576e-05 -2.61956e-05 -2.18071e-06 -2.60796e-05 -2.03689e-05 
-3.51437e-05 1.12395e-05 3.38636e-05 1.47084e-05 5.04844e-06 1.31812e-05 0.00150263 0.000271031 4.17051e-05 
-3.4947e-05 -3.01736e-05 6.17954e-06 0.000100337 -8.78085e-05 -5.91973e-05 0.000392094 -0.000108144 5.30743e-05 
4.04269e-05 6.49621e-05 -3.72574e-05 -3.90372e-05 0.000146778 0.000173293 -1.1933e-05 0.000187441 0.000205977 
1.01743e-05 1.579e-05 1.22964e-05 2.22179e-05 -1.32902e-05 -2.9951e-05 -4.27878e-05 2.16485e-05 0.00014288 
-3.92351e-05 2.27881e-05 -1.40873e-05 9.83335e-05 -6.23702e-05 3.66871e-05 6.12217e-05 1.76327e-05 1.32924e-05 
-1.7627e-06 -2.42251e-05 1.9785e-05 -7.44441e-05 9.53479e-05 -4.39643e-05 5.35581e-05 1.40246e-06 8.54246e-05 
-8.74458e-05 -2.10127e-06 -3.16399e-05 5.52803e-05 1.52781e-05 -4.86894e-05 -6.75718e-05 3.18615e-05 -7.43124e-05 
-9.75693e-05 1.06918e-05 -5.78705e-05 -2.47356e-05 1.84249e-05 8.43755e-06 3.92991e-05 6.15496e-05 -1.27084e-05 
0.00013274 1.51383e-05 6.94324e-06 -0.000100212 0.000179334 -1.39513e-05 3.58063e-07 2.18283e-05 -2.01885e-05 
3.92707e-05 0.000178648 0.00016757 5.64158e-05 4.1173e-05 8.50787e-05 -2.4561e-05 3.17233e-06 2.31423e-05 
6.78424e-05 2.46661e-05 -5.36638e-05 -8.66222e-06 6.10162e-05 -1.09982e-05 -6.46837e-06 -1.91543e-06 4.7195e-05 
1.47367e-06 -0.000133715 -6.79794e-05 -3.42746e-05 -3.83655e-05 2.86164e-05 5.28402e-05 -1.77386e-05 1.91861e-05 
0.000149301 0.000191694 2.81941e-06 0.000130298 0.000208146 5.8804e-05 -3.24367e-05 -4.9175e-05 -0.000144734 
-2.35465e-05 -4.15839e-05 -1.36191e-05 -2.88313e-05 5.82911e-05 0.000116529 -5.52477e-05 6.04234e-05 -0.00016834 
0.000106195 9.06446e-05 8.79245e-05 0.00018899 8.87249e-07 0.000124012 -1.89872e-05 -0.000111497 9.35238e-06 
-4.68584e-05 -0.000196051 -1.24428e-05 3.83096e-05 -3.58103e-05 -7.96763e-05 0.000120672 -8.36729e-05 8.70409e-06 
-6.81605e-06 -0.000116009 -0.000119844 0.00232889 0.00354578 1.76825e-05 -0.00107704 -0.00143651 8.8776e-06 
-0.00868271 0.00948043 -4.19668e-06 5.28552e-06 -7.93746e-08 -1.05378e-06 -2.1927e-06 9.77221e-07 -4.54812e-06 
1.55118e-07 -5.64836e-06 -6.26866e-07 -7.37842e-06 -1.4018e-06 -6.70625e-06 -1.11683e-06 -6.03531e-06 -8.54154e-07 
-4.60642e-06 1.50946e-09 -1.1278e-06 9.21387e-07 1.14171e-06 7.78255e-07 4.82108e-06 2.03065e-06 4.62325e-06 
3.09887e-06 6.8928e-06 1.91077e-06 1.08181e-05 8.35471e-07 1.38794e-05 8.64326e-07 1.60063e-05 1.14166e-06 
1.57882e-05 1.66983e-06 1.40417e-05 1.06273e-06 1.01881e-05 -8.06216e-07 9.33714e-06 -3.23099e-06 -9.40744e-07 
-7.75212e-08 -3.95143e-06 1.7122e-06 -1.13264e-05 6.2582e-06 -1.39211e-05 1.22417e-05 -1.71979e-05 1.24313e-05 
-2.23345e-05 1.47319e-05 -2.65173e-05 1.50486e-05 -2.82261e-05 8.18915e-06 -2.94718e-05 1.03768e-05 -3.14681e-05 
1.41206e-05 -3.04909e-05 1.27074e-05 -2.92641e-05 9.29669e-06 -2.80149e-05 1.12644e-05 -2.60668e-05 6.45583e-06 
-2.70091e-05 2.99878e-06 -2.86054e-05 -3.10942e-06 -3.07184e-05 -8.10011e-06 -3.7436e-05 -9.73256e-06 -4.43512e-05 
-2.29569e-05 -4.45734e-05 -3.59454e-05 -6.25226e-05 -8.67671e-05 5.37517e-05 -0.00029241 -0.00198785 -0.0071866 
-0.0134869 -1.41082e-06 4.94052e-06 0.0312213 -0.00299387 -0.00125179 0.000441057 1.26937e-05 7.58497e-05 
-4.35828e-05 8.29268e-07 4.68063e-06 -2.03122e-05 8.08693e-06 -2.87531e-05 2.9405e-05 -1.48482e-05 2.25775e-05 
-7.27468e-06 2.00396e-05 -6.53484e-06 2.06738e-05 -5.16971e-06 2.20007e-05 -3.4912e-06 2.35493e-05 -7.95397e-07 
-3.50269e-06 1.09807e-06 2.41637e-05 -3.4258e-06 2.53525e-05 -7.85727e-06 3.08641e-05 -1.46198e-05 2.86992e-05 
-1.86596e-05 2.88302e-05 -1.79068e-05 3.00224e-05 -1.35308e-05 2.71765e-05 -9.1751e-06 2.32322e-05 -2.61413e-06 
1.83605e-05 -2.50655e-08 1.37851e-05 4.60968e-06 7.831e-06 5.27431e-06 2.79569e-07 7.83596e-06 -6.8813e-06 
1.1501e-05 -9.86296e-06 1.24467e-05 -1.56623e-05 9.80887e-06 -1.74946e-05 9.78453e-06 -1.79734e-05 5.39481e-06 
-1.77656e-05 2.29221e-06 -1.63452e-05 1.29295e-06 -1.38558e-05 -5.93055e-07 -7.94665e-06 -7.49731e-07 -6.47307e-06 
-1.02627e-06 -1.30083e-06 -1.11977e-06 1.08179e-06 -9.16437e-07 3.98863e-06 -3.97552e-07 6.09744e-06 -6.85704e-07 
7.49469e-06 -1.25627e-06 7.45257e-06 -3.64597e-07 5.25318e-06 4.19627e-07 1.90864e-06 -2.33819e-06 2.70227e-06 
-7.6755e-06 4.79133e-06 -3.30661e-06 -1.64272e-05 7.11273e-06 1.7824e-06 -1.15297e-06 1.71163e-05 1.76465e-05 
1.30609e-05 8.20993e-06 8.7062e-06 8.39779e-06 1.17627e-05 8.1947e-06 4.89276e-06 2.94801e-06 2.34699e-06 
-1.6857e-06 -6.30845e-06 -6.73341e-06 -1.05114e-05 5.64105e-06 8.72781e-06 3.46899e-06 -1.05797e-05 1.90165e-05 
2.19185e-05 2.54421e-05 1.75747e-05 2.42039e-05 1.67991e-05 2.46435e-05 1.93214e-05 1.6339e-05 -1.27499e-05 
4.5684e-06 9.29368e-06 4.39467e-06 -2.28089e-05 -1.69254e-05 -1.87748e-05 -2.55938e-06 -1.15276e-06 4.19451e-06 
2.15631e-06 6.89051e-06 5.19912e-06 1.0303e-05 7.82498e-06 5.93545e-06 -5.70539e-06 8.6063e-06 4.22407e-06 
-3.74284e-06 8.85957e-06 0.00541173 -0.00129876 -0.000856719 -0.000607172 6.9949e-05 -5.89923e-05 7.51053e-05 
3.84519e-05 -2.69319e-05 -0.000123717 -4.96425e-05 -0.000134065 -0.000125836 -8.65422e-05 -9.79194e-05 -0.000130432 
-0.000134969 -1.85599e-05 -6.45252e-05 1.79226e-05 9.06157e-05 9.94848e-05 0.000301357 -0.000533995 -0.00271659 
0.00551416 -0.000242432 -0.0025133 0.00206285 -0.000154099 -0.000421429 0.000106708 -0.000343968 -4.35151e-05 
6.26243e-05 -0.000200477 1.05277e-05 -0.000114302 -5.34786e-05 -0.000125406 -5.92729e-05 -0.000135062 -9.48207e-06 
-0.000101629 2.69893e-05 5.36705e-05 1.41708e-05 4.6678e-06 8.76099e-05 0.000119251 0.000136227 0.000132581 
0.00102617 -0.00668404 -0.00201648 -0.000179872 -0.000167771 1.71923e-05 0.000225161 -0.000302951 0.000236025 
-0.000216299 -0.000329759 -0.000250602 -0.000127005 -0.000244508 -0.000207739 -0.00132007 -0.000970677 -0.000230978 
-0.00599204 0.00642026 -0.00022618 -0.000200266 0.000219283 -0.000253378 -0.000250385 -0.000374586 0.000211776 
0.000399298 0.000379507 -9.76366e-05 -1.78746e-05 -3.50301e-05 -1.63176e-05 8.80671e-07 -2.78558e-07 -1.44141e-07 
1.45606e-05 9.30087e-06 2.9971e-07 1.12511e-05 7.75196e-06 8.6427e-06 1.12744e-05 3.21119e-06 6.13016e-06 
-1.58859e-05 2.05069e-05 2.35242e-05 5.03464e-05 2.9728e-05 0.0024227 -0.00211797 1.0179e-05 5.03388e-06 
5.94334e-06 -3.72081e-06 2.13567e-06 -1.18359e-05 7.46552e-06 9.37508e-06 7.98025e-06 -4.86675e-05 7.44576e-06 
-2.77332e-05 -5.40425e-06 -4.63664e-06 3.0561e-05 -3.49672e-05 1.63328e-05 1.77141e-05 -0.000243366 -1.89775e-05 
2.75542e-05 -2.08896e-05 -6.65029e-06 -1.17894e-05 -3.11716e-06 -3.17849e-05 -7.43708e-07 2.49275e-06 -0.000147382 
0.000221698 -0.000257074 0.000112515 -5.32907e-06 4.13744e-06 1.10792e-05 -2.39008e-05 5.14591e-06 5.60371e-05 
7.4578e-05 -5.72806e-06 -1.24161e-05 1.13206e-06 -3.55595e-06 -2.25275e-06 -5.2787e-06 -6.09378e-06 3.19487e-05 
-1.10567e-05 3.45999e-06 -1.13754e-05 -2.2569e-05 -1.0292e-06 2.37248e-06 5.27566e-06 1.43976e-05 3.44129e-06 
-7.3211e-06 -5.25131e-05 -7.29334e-05 -1.11089e-05 -3.06173e-06 -1.20847e-05 -6.0342e-05 3.76982e-05 -3.97778e-06 
-4.55139e-06 -3.39375e-06 -8.34393e-06 -6.06676e-06 7.74894e-05 -6.66214e-06 -2.92811e-05 -8.48303e-06 -3.00945e-06 
9.18282e-06 6.07056e-06 3.32729e-06 7.15541e-06 0.00029308 0.000213018 -7.19715e-05 -2.9444e-05 -4.61395e-05 
2.64553e-05 5.40911e-06 9.58371e-05 -8.57075e-06 -6.39546e-06 2.41406e-06 1.38682e-06 8.17985e-05 -9.16784e-05 
0.000104546 -8.21409e-05 -1.82226e-05 -1.46337e-05 3.55495e-05 -8.87779e-06 1.65123e-06 5.00372e-06 4.29376e-06 
1.40845e-05 -1.12561e-05 -4.43424e-05 -1.63067e-06 -4.33357e-06 -8.57486e-06 1.44979e-06 7.10198e-06 -1.34191e-06 
1.98269e-05 -6.78843e-06 -1.09709e-05 6.18327e-06 5.43451e-06 -1.53428e-06 5.45817e-07 2.50725e-06 5.47519e-06 
-5.40076e-07 -1.94581e-05 -9.98572e-06 9.36561e-06 1.9908e-06 1.48532e-05 -1.71451e-05 -8.22509e-06 -8.96929e-06 
-6.36498e-06 -6.48471e-07 4.66013e-07 -6.55895e-07 -4.15242e-06 1.38649e-07 -6.75374e-06 -9.61958e-06 -2.4601e-05 
-5.56116e-06 -1.28911e-06 1.08201e-05 -1.6463e-05 0.000110168 -3.48714e-05 4.50034e-06 3.54403e-06 1.89788e-06 
1.5904e-05 1.9252e-05 7.74109e-06 2.71018e-06 6.95979e-06 -3.77324e-06 -5.03464e-06 -8.82129e-06 1.15099e-05 
-8.67864e-06 -6.37724e-07 -3.03723e-07 1.68344e-06 -1.39404e-06 1.43473e-05 1.00648e-05 1.75959e-05 -7.8533e-07 
4.16924e-06 1.76177e-05 -9.47806e-06 0.000136826 -0.00029529 9.14335e-05 2.99424e-05 -3.8115e-05 -2.03279e-05 
-0.000190277 -0.000348689 9.38027e-05 3.86254e-06 -3.95131e-05 -0.000133319 0.000469574 -9.57773e-06 -4.76613e-07 
9.61754e-07 1.3997e-05 2.40673e-05 7.36573e-06 -3.50496e-06 -5.63464e-06 -6.88257e-06 9.45743e-06 1.04464e-05 
1.86594e-06 -1.41757e-06 -8.62344e-07 -1.72411e-06 -5.8664e-06 -2.17785e-07 -5.30529e-06 -7.02251e-06 -2.9788e-05 
9.45082e-06 -3.16795e-05 1.54664e-05 8.11327e-06 7.72107e-06 6.70717e-07 2.40168e-05 8.23132e-06 8.8882e-06 
-4.61991e-06 -5.22347e-06 -7.27527e-06 -5.43147e-06 -2.25599e-06 5.80782e-05 -6.04014e-05 8.13741e-05 1.23685e-05 
-7.60782e-06 4.52613e-06 0.000829335 -5.36923e-05 -0.00131587 0.00572862 3.27526e-06 -8.30508e-09 -1.66777e-06 
-6.42951e-06 -1.13173e-05 -3.40523e-06 1.52549e-05 1.09487e-05 5.73663e-06 -3.59464e-05 5.50648e-06 3.11347e-05 
0.000784739 -0.000766921 1.30264e-05 2.57015e-05 4.75192e-05 9.25415e-05 1.27943e-06 6.80578e-06 7.54325e-06 
1.32892e-05 -9.46397e-06 -1.33851e-05 2.98737e-06 3.39529e-06 -8.43815e-06 -1.12695e-05 0.000404276 -0.000378536 
0.000231767 0.000103368 -4.85278e-05 5.60714e-06 -1.1662e-05 8.75092e-06 -8.41237e-06 4.29914e-06 -3.71435e-06 
7.4856e-06 -1.72899e-06 -1.60193e-05 -5.96741e-06 5.61255e-06 -2.49302e-05 -6.43422e-06 -1.96424e-05 -1.40907e-05 
-4.25278e-05 2.09325e-06 -1.0115e-05 -1.42647e-05 -3.96785e-06 -6.71027e-06 1.64563e-06 2.88512e-05 -5.99979e-05 
-3.8156e-06 2.08955e-05 -4.28268e-05 3.64886e-05 7.47657e-06 2.46735e-06 -5.17356e-06 1.16653e-05 -7.22708e-06 
-2.74147e-05 -3.2493e-05 1.55483e-05 3.6977e-06 -8.63661e-07 -1.72535e-06 7.84697e-06 5.37322e-06 -2.77702e-07 
-3.56502e-05 -4.16885e-05 -1.71123e-05 0.000240238 -6.8097e-05 -0.000237341 -0.00352032 0.000266996 -0.00138819 
1.34652e-06 9.6939e-05 0.000101289 -0.000107583 -0.00734782 0.000469766 0.00835744 1.02218e-05 1.74407e-05 
-2.68514e-05 -1.38289e-05 -5.88175e-06 4.27554e-06 -5.09644e-06 1.05013e-06 -3.61519e-06 7.00032e-06 1.74676e-05 
4.15747e-05 -3.31479e-05 2.11939e-05 -1.31271e-05 6.23104e-05 1.1581e-06 3.28655e-06 6.21445e-06 -1.95026e-05 
-3.86132e-06 1.23742e-07 7.49774e-06 2.13225e-05 -5.60451e-05 -2.98222e-05 1.22942e-06 3.19026e-06 4.36365e-07 
-1.79251e-06 6.17608e-07 -1.16541e-06 -1.65103e-05 -6.36639e-05 2.83306e-05 1.11129e-05 -7.91534e-06 -3.81898e-06 
1.82911e-06 -2.986e-05 6.71854e-05 3.24243e-05 -0.00211609 -0.00017144 -5.96024e-05 -0.00475239 -0.00631439 
-0.00374385 2.81923e-05 -4.56893e-05 2.20857e-05 6.26537e-06 2.84998e-05 6.13642e-05 -9.74485e-06 8.70538e-06 
-1.92602e-05 2.22208e-05 -2.14103e-06 4.05993e-05 8.33201e-06 -0.00208384 -5.13952e-05 9.78251e-06 2.71979e-05 
-7.94219e-06 0.000865261 -0.00078069 0.000796448 1.28697e-05 9.55081e-06 0.000145705 6.96815e-06 1.11914e-05 
-6.77026e-06 -0.00303867 -0.00816015 1.66062e-05 3.97204e-05 -8.8314e-06 -5.14057e-05 -3.69356e-05 -2.85585e-05 
1.41694e-05 3.40729e-06 6.3576e-06 -0.00598888 0.000897429 0.00654698 -0.000418767 0.00973273 -0.000377348 
-0.000941856 0.00406957 -6.71139e-05 0.000130135 -0.000443838 1.83465e-06 -2.11391e-06 1.85658e-06 1.28841e-05 
2.77265e-07 1.09887e-06 -1.61323e-06 -2.31483e-06 1.78704e-06 -0.000101408 0.00213412 -2.573e-06 1.39761e-05 
0.00219132 1.34065e-05 -1.86134e-05 3.83884e-06 -2.36776e-06 -9.18577e-06 -0.0024736 -0.00356153 -0.00575669 
3.59749e-06 3.25504e-06 -8.85392e-07 1.35876e-05 3.12195e-05 5.93889e-05 -6.39574e-05 -6.44552e-06 2.233e-06 
5.88091e-06 0.00233147 1.50546e-05 -1.21653e-05 4.12932e-07 -5.30879e-05 7.64671e-05 -0.000102946 0.000121869 
-2.0116e-05 -6.2168e-06 -2.24404e-06 9.4079e-06 4.06154e-06 -1.75391e-06 -1.71973e-05 2.96444e-06 6.41178e-06 
-1.418e-05 0.000199208 -3.09039e-05 0.000385171 6.35145e-06 7.35015e-07 -1.45372e-06 1.58251e-07 -1.42086e-05 
-6.43916e-06 -1.93423e-05 -6.16619e-06 4.40661e-06 3.9812e-06 1.85432e-06 -1.18464e-06 -0.000992392 0.00791079 
4.30297e-05 -2.22649e-05 -3.16085e-05 -7.87526e-06 -2.22759e-06 8.7799e-06 -1.33874e-05 -2.27455e-06 -1.83988e-05 
1.24359e-05 0.000123531 -2.87554e-05 8.63304e-06 2.55608e-06 3.51645e-06 -3.97269e-06 -3.46414e-06 -2.44415e-06 
-7.37668e-06 -3.45555e-06 -1.01602e-05 4.34055e-06 -5.1109e-05 0.000116451 -1.06368e-05 3.34144e-05 3.53012e-05 
2.61733e-05 6.48151e-05 3.61559e-07 1.30347e-05 5.08395e-06 -5.54192e-06 -3.23966e-06 4.61491e-07 1.34854e-05 
6.63306e-06 -7.11877e-06 -5.04816e-06 -5.12629e-06 5.73752e-06 2.52127e-06 1.50735e-05 6.52033e-06 7.31211e-06 
-4.00916e-05 7.46198e-06 -1.15013e-05 4.91362e-05 3.01686e-05 -8.54165e-06 -1.72436e-06 -1.07853e-05 -5.79399e-06 
2.26744e-06 5.10408e-06 8.41591e-06 1.3324e-05 3.40076e-06 2.83257e-06 4.15911e-06 -8.37061e-05 5.6211e-05 
5.98984e-05 -2.2152e-06 -4.97536e-06 2.88653e-06 1.02339e-05 -4.9919e-06 3.63832e-06 -1.20614e-05 -7.60783e-06 
-1.28114e-05 -7.50171e-06 1.48544e-05 -1.54302e-06 1.13214e-05 1.61954e-05 4.53062e-05 6.19083e-05 -9.64307e-06 
-5.00284e-06 3.92962e-06 6.25604e-06 -1.95759e-05 -1.1153e-06 -3.33331e-06 5.89434e-06 -1.88025e-06 -8.89046e-05 
0.000136082 0.000262076 0.000149094 -1.09311e-05 1.15853e-06 5.6107e-06 -1.36718e-05 -1.11501e-05 -8.76407e-06 
8.58782e-06 -9.39565e-07 1.48045e-05 -7.06521e-07 -1.1036e-05 2.02965e-05 -2.21307e-05 -4.18546e-05 1.10427e-05 
3.03895e-06 3.43483e-06 -9.06767e-06 2.34096e-05 -2.56274e-06 -1.36548e-05 3.15477e-06 3.10129e-06 1.39908e-05 
1.75668e-05 1.3898e-06 -1.46273e-05 -1.71249e-05 2.58355e-06 1.96129e-06 -1.33773e-05 -5.35793e-06 2.87771e-06 
2.42874e-06 2.85467e-07 -1.22123e-07 -0.000129924 3.06678e-06 2.38272e-07 2.33487e-06 -3.01909e-05 3.5926e-05 
-4.46163e-05 9.66854e-06 0.00157021 8.21447e-05 0.00119687 3.75119e-06 2.10615e-06 1.28746e-05 -5.50351e-06 
1.39143e-05 -5.60443e-05 -1.84887e-06 -4.01082e-06 -2.61809e-07 -0.000117497 2.39929e-05 0.000208435 -2.37585e-05 
-6.60019e-05 -3.09494e-05 -2.83623e-06 -6.84722e-06 5.25341e-06 3.23304e-06 1.59124e-05 -4.16947e-05 -2.0094e-05 
-6.11393e-06 -2.05274e-07 -9.55617e-05 -4.43821e-05 -1.60867e-06 -4.48798e-06 -4.7121e-06 1.31035e-06 -2.62145e-05 
4.34119e-07 -2.34387e-05 4.09125e-06 -1.30337e-06 -2.26575e-06 4.64336e-06 0.00122737 0.000396317 -0.000409881 
-8.97851e-07 -1.13771e-06 2.05192e-06 -5.84206e-06 -2.29436e-06 -3.43621e-06 5.00797e-06 8.93768e-06 1.08318e-05 
1.54397e-05 3.82877e-06 3.34708e-06 -6.717e-06 -6.41101e-06 -5.28206e-06 -5.41958e-06 -5.25556e-06 4.0101e-06 
-3.39279e-06 -4.02534e-06 -4.96351e-06 -7.80369e-06 -8.77925e-06 -5.77557e-06 -2.826e-06 3.34137e-06 -1.86468e-05 
-6.62032e-05 2.64556e-05 3.11107e-05 -1.49474e-06 -1.44162e-05 -4.99889e-06 1.14046e-05 1.04565e-05 9.32551e-06 
-2.04636e-06 4.9915e-06 -4.67503e-06 1.03556e-06 -2.94978e-06 -7.23982e-06 1.07043e-05 -1.71609e-05 7.4847e-06 
-2.64156e-05 -9.15938e-06 3.17882e-06 3.05562e-06 -1.84498e-05 -3.42421e-05 5.23525e-06 4.68635e-06 5.73147e-06 
4.01394e-06 1.08393e-05 -2.49471e-05 1.21153e-05 -6.01576e-05 -8.19194e-06 -8.38181e-06 1.90031e-05 -6.89491e-06 
0.000195887 -0.000130828 0.00786071 0.000729236 0.000518612 -0.00664249 -0.000973148 0.000564139 9.56256e-05 
-0.00194627 4.43629e-05 8.31397e-06 1.00597e-05 -4.33597e-06 -2.32827e-05 3.3195e-06 6.46279e-06 1.03056e-05 
2.49327e-06 1.66872e-06 7.99395e-06 1.76109e-06 -2.16173e-06 3.21981e-06 -7.61792e-06 4.15168e-07 -2.4276e-06 
-3.03023e-06 -0.000100373 8.73335e-05 -5.03339e-06 -5.42551e-06 4.87207e-07 7.97281e-07 1.83894e-07 0.000436921 
0.000332363 -1.55372e-05 3.70355e-06 -6.35596e-05 -5.27052e-05 2.05399e-06 -6.19673e-06 -6.36112e-06 3.05487e-05 
-3.67776e-05 3.5372e-05 -2.39066e-05 5.9035e-05 5.82505e-05 -1.72866e-05 2.34218e-05 -3.35537e-06 8.50427e-06 
-1.20728e-05 -6.07533e-05 3.61274e-05 -1.84376e-05 -5.71188e-05 -5.89189e-06 -8.42455e-06 9.57551e-06 5.38036e-06 
-7.42014e-08 -1.02198e-05 7.7253e-06 1.50659e-05 1.98529e-05 -1.65257e-05 -4.8694e-06 4.74265e-06 3.88343e-06 
-4.90764e-05 3.75995e-05 1.71858e-05 6.58274e-06 3.07111e-05 8.79595e-08 -0.000351374 -8.8188e-05 -1.42004e-05 
2.79879e-05 -0.000856391 -0.000188857 9.75625e-07 5.44598e-05 -0.00030253 0.000281035 -4.9229e-06 -3.87497e-05 
-0.000178092 -3.66622e-05 5.36471e-05 -2.10229e-06 -6.53631e-05 -5.69548e-05 -4.15238e-06 -2.86524e-06 2.87463e-05 
-2.53977e-05 -2.06731e-05 6.67684e-06 -2.14598e-05 -5.1269e-05 -1.8524e-05 -0.000104174 -9.82682e-05 -0.00039155 
-1.64919e-06 1.85244e-06 -1.11886e-06 2.39263e-06 8.34944e-06 1.0978e-05 8.55162e-06 6.53833e-06 3.7647e-06 
-3.44812e-06 1.32996e-05 -0.00033178 -6.66351e-07 5.28414e-06 -7.16052e-08 7.75901e-07 3.97139e-06 1.13185e-06 
1.18178e-05 -5.0299e-05 -3.83921e-06 2.27776e-06 -0.00206294 3.57065e-06 4.1077e-06 4.35632e-07 1.14292e-05 
7.55748e-05 0.000111664 0.000238892 -0.00179524 -0.00222057 0.00034138 9.23022e-07 1.18294e-06 -1.45513e-06 
2.50022e-05 2.39525e-06 7.65589e-06 -6.93364e-05 1.45062e-05 -8.88131e-06 -0.00213461 -0.000142415 -5.12428e-05 
-1.72973e-05 1.00013e-06 5.32773e-06 5.22815e-06 5.54031e-05 0.000206414 8.37595e-06 1.24862e-05 2.67474e-06 
4.77883e-06 1.30195e-05 1.98583e-05 0.000156751 -2.34766e-05 -6.20527e-05 -0.0021222 -6.73613e-05 1.03642e-05 
7.47551e-06 1.45633e-06 6.36639e-06 1.16847e-05 1.46787e-05 1.39064e-05 6.83287e-05 -3.55503e-06 2.05247e-05 
-4.22264e-07 -4.27586e-05 6.86245e-06 -4.89555e-05 0.000112183 3.68286e-05 -1.61637e-05 -1.06225e-05 0.000999732 
-5.82158e-06 0.000644725 2.22627e-05 -3.63671e-06 -1.45311e-05 -1.2719e-06 3.19475e-06 6.35218e-07 -3.56502e-06 
5.33949e-06 -1.92684e-06 -5.6344e-06 -3.69873e-05 -8.15872e-06 -4.00122e-05 -0.000124627 0.000120863 -2.03164e-05 
-6.27328e-06 -4.77491e-05 3.07721e-05 -5.80514e-05 -6.99008e-06 1.01959e-05 -1.52876e-06 -7.32749e-06 -1.60896e-05 
-2.1057e-06 -5.60048e-06 -3.98833e-06 5.16539e-06 -1.39339e-05 7.37192e-07 2.70935e-06 -2.3446e-05 -4.57401e-05 
-0.000589032 0.00220688 -9.89892e-05 2.14085e-06 -1.56667e-05 -1.11277e-05 -5.52283e-06 -8.68937e-06 -1.2476e-06 
1.04551e-05 5.24166e-06 0.003052 0.00153373 -5.95425e-06 6.47311e-05 3.91275e-06 6.35232e-06 -5.99933e-07 
-5.55052e-06 7.1292e-06 6.97081e-05 -3.21232e-05 -8.50854e-05 -8.87389e-07 -4.50455e-06 4.69577e-06 -4.94684e-07 
-6.70824e-06 2.9769e-07 6.70781e-06 4.60025e-06 1.26673e-05 7.5654e-05 -5.65137e-05 -0.000141099 -9.36619e-07 
7.63537e-06 -8.95873e-07 1.12501e-05 3.0614e-06 1.16365e-05 6.12082e-07 3.67975e-06 -8.4992e-06 -3.54883e-06 
-3.75724e-06 1.08315e-05 -1.0132e-06 -1.05657e-05 -2.07885e-05 1.31918e-06 -1.09752e-05 -8.26136e-06 -7.78612e-06 
-4.97889e-06 -1.00778e-05 -0.00355238 -0.00263352 0.000110056 0.000611766 1.27371e-05 6.90952e-05 7.58859e-05 
0.000145934 0.000173477 -0.000502994 -0.000261553 -9.361e-05 -9.98155e-05 -0.000115636 -0.00031117 -0.000131298 
-0.000142913 1.28064e-05 0.000295121 -3.1639e-05 -3.99716e-06 -1.86866e-05 1.04302e-06 6.14906e-05 4.54939e-05 
1.84282e-06 7.20001e-06 -2.60767e-06 4.57266e-06 -7.12058e-06 2.22758e-08 -1.42373e-05 -6.29697e-05 2.48015e-06 
1.59537e-06 -1.04263e-06 9.04679e-06 -1.60408e-05 -9.99063e-06 3.36875e-06 -1.01792e-05 1.24558e-05 5.00688e-06 
6.04322e-06 -5.03167e-06 -4.89377e-05 3.26909e-06 1.68762e-06 7.85479e-05 2.73584e-05 -9.62023e-05 -0.00160192 
-3.39454e-06 4.71639e-06 3.77427e-06 9.79181e-06 0.000733406 4.36368e-06 9.04804e-06 1.67667e-06 0.000185524 
6.78925e-06 -1.26258e-05 -1.07385e-05 -2.16912e-05 -8.18878e-06 3.8171e-06 0.00328228 0.00642597 0.00303837 
-6.31162e-07 -1.72656e-05 5.72213e-06 1.28794e-05 -1.62848e-05 -0.00013125 0.000125628 -0.000175461 6.17276e-05 
2.03305e-06 -4.54664e-06 -6.35961e-06 -2.44351e-05 3.32123e-05 -3.05406e-05 -1.92867e-06 1.16661e-05 -1.54775e-05 
-9.63191e-06 -1.04309e-05 -2.99722e-05 -7.43499e-07 -1.24214e-05 1.05812e-05 2.9383e-05 0.000141856 -0.000128645 
-0.000110506 -1.89541e-06 5.11541e-06 -1.52942e-06 8.58393e-05 0.000167144 1.21765e-05 9.92261e-05 1.91546e-05 
-4.21518e-05 1.95138e-05 -6.04013e-05 0.000104835 4.08741e-05 1.66045e-05 3.13814e-06 -2.68566e-07 1.15508e-05 
1.1394e-05 -2.20546e-06 0.000146425 -7.72231e-06 1.14661e-05 0.000247581 -6.27818e-05 -0.000139103 0.000624634 
3.29579e-06 8.75218e-05 -1.43738e-05 6.73129e-06 -6.17645e-06 -1.21468e-06 -2.44743e-06 5.12684e-07 -8.36354e-06 
6.84046e-05 -4.39553e-05 0.000138652 -2.22498e-05 -0.000107426 4.71211e-05 5.58172e-05 -3.5773e-06 6.66989e-05 
6.41441e-06 8.87799e-05 4.04911e-05 -0.000120042 -3.37963e-06 -4.57933e-06 -1.93851e-05 -6.44895e-06 -0.000120567 
1.07689e-05 -5.58399e-06 4.0274e-07 9.11474e-06 -4.58936e-05 0.000701984 4.00582e-06 -4.79598e-05 1.02137e-05 
-1.03885e-05 -1.01355e-05 -2.77355e-05 4.66984e-07 -7.51249e-06 -8.16686e-06 2.03348e-06 -8.48413e-06 4.62648e-06 
1.02593e-05 1.03256e-05 3.29739e-06 -1.14181e-05 -1.01868e-05 -4.69624e-05 -0.000118307 -2.37308e-05 1.17644e-05 
-1.26837e-05 -2.57914e-06 -6.57494e-06 1.48391e-05 9.51026e-07 -1.06695e-05 -1.18926e-05 -7.98512e-06 1.59418e-05 
2.71159e-05 -2.91893e-06 0.000344501 -0.000287501 -3.64234e-05 2.68821e-05 0.000142662 1.51154e-05 8.39872e-06 
2.67908e-06 -4.31433e-06 1.19401e-05 -1.30654e-06 -7.7902e-06 7.41586e-07 -8.61379e-06 -0.00035771 2.21188e-05 
-2.6293e-05 0.000314547 -2.18001e-05 -7.17009e-05 -3.88797e-07 -1.11012e-05 -4.79807e-05 -6.22521e-05 -0.000871653 
-4.10893e-05 -3.78829e-06 -1.00929e-06 8.18679e-06 6.41523e-06 -1.94927e-05 3.73687e-06 -1.29327e-05 -1.84799e-05 
4.88925e-06 6.8651e-06 -4.91857e-06 -3.85946e-05 0.000143411 0.000115184 0.00356881 0.000426254 -0.00182337 
-1.79538e-05 -6.56226e-06 -4.22434e-07 2.01746e-06 7.84755e-06 -1.72311e-06 1.61027e-06 2.27293e-05 -3.02296e-05 
1.79773e-05 8.40533e-05 -5.67332e-06 -4.0913e-06 -6.17011e-06 4.615e-05 -8.22615e-07 6.54069e-06 -0.000960598 
-1.26955e-05 -2.99639e-07 5.35576e-06 -4.41845e-06 -0.000109224 -4.2166e-05 1.19774e-07 1.91691e-07 -9.46414e-06 
5.80373e-06 -5.6559e-06 1.45701e-05 -3.71342e-07 2.34291e-06 -1.43666e-07 5.6681e-06 1.61732e-07 -2.16396e-06 
-1.58303e-05 1.03826e-06 0.000122233 -1.92671e-06 -1.03971e-05 -8.63018e-06 -4.74462e-06 -8.67866e-06 -5.99728e-06 
4.81978e-06 -1.49649e-05 1.75893e-05 1.28368e-05 5.30809e-05 -9.37114e-05 0.000163401 -0.000263703 1.15899e-05 
8.22214e-06 -7.68317e-07 1.04474e-05 -5.5227e-06 -8.21173e-06 -4.10438e-06 -3.66538e-05 -4.28619e-05 4.45902e-05 
-1.55219e-05 6.58243e-05 4.15682e-05 7.66066e-05 -7.31098e-06 1.6869e-05 -8.98026e-05 -4.04917e-06 -1.31129e-05 
-1.22501e-05 2.68703e-06 1.20775e-05 -0.0076736 0.00723046 -1.79425e-05 -4.20451e-06 4.2571e-06 -5.12878e-06 
-1.98071e-05 7.66915e-06 2.61942e-06 -2.9471e-06 -1.27094e-05 1.34564e-05 -7.9993e-07 2.92082e-06 1.49728e-05 
3.43838e-06 8.51981e-06 -1.1301e-05 6.69722e-07 -3.19944e-06 6.73412e-07 -0.00196299 -2.22833e-05 0.00198783 
-6.19459e-06 -3.23193e-07 1.47497e-06 -6.91043e-05 -6.77363e-05 -2.04849e-05 1.37825e-06 0.000768967 0.00129397 
0.00201269 -5.72696e-06 5.8716e-06 -1.83778e-05 -4.0179e-06 6.56792e-06 -2.27558e-05 -3.00854e-05 -4.43193e-05 
0.000716051 2.92158e-05 -0.00194613 0.00202188 2.12149e-06 -4.48827e-06 -8.55143e-07 1.30241e-05 1.76901e-05 
1.07215e-06 -0.000102693 1.04272e-05 -2.77896e-05 7.61702e-06 -4.88372e-06 -5.39133e-06 4.45673e-06 -9.09269e-06 
-1.89086e-05 -3.81645e-06 1.71412e-05 7.44964e-05 3.14344e-05 8.48336e-06 1.78546e-06 -1.27689e-06 -5.59075e-06 
4.98897e-06 -2.09984e-05 1.50378e-05 1.65905e-06 6.16328e-05 -3.5748e-06 4.9531e-06 -3.32282e-06 -7.29066e-05 
-2.67909e-05 -0.0196066 0.00357437 -0.00269777 -2.9729e-05 -1.40657e-05 -3.30206e-05 0.000149747 0.000306526 
-1.30578e-05 1.85164e-05 8.62896e-06 5.17199e-05 8.12505e-05 -0.000118559 -0.000649627 -4.8523e-06 3.84636e-05 
3.35167e-05 0.000477729 -0.00810215 5.40506e-07 -2.44363e-05 -0.00044586 -7.67138e-05 4.06429e-05 6.94384e-06 
2.05029e-05 5.50465e-06 9.73239e-06 -0.0013607 -0.000138092 0.000252768 -3.81201e-06 1.55033e-05 -2.11936e-05 
-0.000128096 0.000112911 0.000231217 3.51889e-06 5.73622e-06 -2.43878e-06 7.14324e-06 -3.18035e-06 5.88215e-06 
1.34286e-06 -2.57132e-05 -3.85006e-06 7.30866e-07 2.64556e-05 -2.94913e-05 -3.98073e-06 -4.00535e-06 -1.74513e-05 
7.69888e-05 5.57875e-06 1.30096e-05 0.000170653 7.96638e-05 -1.4428e-06 -0.000118075 1.86819e-05 0.000273637 
0.000170505 -5.92478e-05 -2.68669e-06 1.41331e-05 2.53208e-05 -5.04169e-05 0.00241845 -9.73264e-06 -3.48409e-06 
-3.93684e-06 -1.36448e-05 -1.66162e-05 -7.24759e-06 2.53173e-05 -1.04402e-05 -5.15591e-06 5.40875e-05 7.67417e-06 
-7.85158e-06 -4.22984e-05 -3.71826e-05 0.00110212 -0.00514034 -3.56822e-06 7.26534e-07 0.00774928 0.000481812 
0.000519726 0.000708109 -1.2009e-05 -2.34416e-05 -2.4547e-06 -4.62002e-06 2.53285e-06 4.88276e-07 -1.62834e-05 
-2.02706e-05 9.06053e-05 0.000289093 0.000132179 -0.000116255 -0.00211027 -0.00198439 0.00862155 1.20867e-06 
1.52293e-06 5.5494e-06 -1.00022e-05 -1.72276e-05 -4.82307e-05 -1.46406e-05 7.71361e-06 2.15749e-05 -1.2293e-05 
-4.24676e-05 -3.21814e-05 -4.78752e-05 6.77524e-05 6.66826e-06 1.44155e-05 8.10797e-05 1.14495e-05 1.16971e-06 
-6.08558e-05 -7.52089e-06 -8.99655e-06 -2.13464e-07 -4.67611e-06 1.29762e-06 -7.34708e-07 0.000333983 -0.00132768 
2.32729e-05 1.52834e-05 -2.2132e-05 9.19722e-06 4.50163e-06 8.93992e-06 2.32151e-06 7.76689e-06 -4.74589e-05 
1.6471e-05 1.33741e-05 4.20498e-05 -2.30694e-05 1.05184e-05 -5.31458e-06 4.6483e-06 -1.10775e-05 -7.35554e-06 
3.61441e-06 -3.227e-06 1.16045e-05 5.32748e-07 -2.63302e-06 -6.90189e-06 -1.20815e-05 -8.9409e-06 5.46378e-06 
1.32683e-06 8.81867e-06 -0.00113735 -0.00295784 1.52665e-05 8.83016e-06 -1.46536e-05 -9.95712e-06 3.2387e-06 
-1.54182e-05 -5.65967e-06 4.1294e-06 1.15116e-07 1.31684e-06 -7.88955e-06 8.75904e-06 1.92814e-07 2.0921e-06 
6.7782e-06 6.79516e-06 8.54089e-06 -1.03187e-05 -2.36266e-06 1.02883e-05 1.13975e-05 -5.01265e-05 0.000328074 
-0.0013795 -6.04994e-05 -2.81473e-06 -8.10671e-06 -3.53332e-05 2.45542e-05 1.06642e-05 5.62699e-06 -1.25375e-07 
6.12064e-06 -3.41245e-06 -5.5046e-06 -2.79105e-06 -2.99287e-05 2.6191e-05 0.00158911 0.00490261 -0.00844201 
5.99614e-05 4.18215e-06 6.62495e-06 -5.39298e-06 -1.13495e-05 7.93284e-06 3.20961e-06 -7.3039e-06 -1.70277e-05 
1.04182e-07 1.92765e-05 0.00220904 -0.000141333 -0.00218845 -9.18907e-06 4.78616e-05 7.08399e-06 -4.01613e-05 
-9.62456e-06 -3.70153e-05 -3.77993e-05 3.91426e-06 6.55933e-05 0.000368789 2.50524e-05 -0.000292894 -1.28443e-06 
-4.56657e-06 -0.000208455 -9.48188e-06 0.000129743 0.000474689 7.69323e-05 0.000122118 1.08653e-05 -4.56205e-06 
-4.87228e-05 1.86415e-05 -2.63775e-05 1.39245e-05 9.24432e-06 8.34869e-06 -1.68477e-05 7.56174e-05 4.27869e-06 
6.80297e-06 1.54164e-05 -2.34936e-05 1.00992e-05 0.000237511 -0.0013571 0.0018854 -0.00014293 -0.000178722 
-0.000922232 -8.39266e-07 -3.95327e-05 -5.3542e-05 -0.000200349 3.6053e-05 2.67341e-05 -2.85489e-05 -1.218e-05 
0.000115869 5.61302e-06 -7.92755e-05 9.60625e-06 1.5321e-06 -3.80548e-06 -9.87164e-06 -0.000189829 -0.00223088 
0.00219386 -2.25638e-06 -1.30697e-05 6.05211e-07 2.31221e-05 2.05348e-05 1.99617e-06 -2.26437e-06 8.39064e-05 
2.83536e-05 -4.17164e-06 1.12856e-05 1.22626e-05 -4.98944e-06 7.47771e-05 0.000820607 0.000527368 3.62296e-06 
-1.56252e-05 2.71374e-06 -5.07377e-07 3.67818e-06 -6.60007e-07 1.12734e-05 -0.000174759 3.94672e-06 -6.75971e-05 
-0.000378618 7.33461e-05 0.000755797 9.95327e-05 -8.09246e-05 4.61281e-05 3.47862e-06 -3.47236e-06 1.22377e-05 
2.56625e-05 5.87508e-06 -4.66379e-07 8.00337e-07 -1.8024e-05 0.00117403 0.000124448 0.00209205 0.000211255 
0.00012057 -3.46535e-05 3.41672e-05 -0.000351447 5.05087e-06 0.0028542 -9.45734e-05 -3.00584e-05 5.83555e-06 
-1.85805e-06 6.39851e-06 -1.51836e-05 4.49509e-07 1.10331e-05 5.10242e-06 -4.24343e-05 -0.0140409 -0.00205744 
2.19221e-06 -7.40041e-07 3.37236e-06 -5.10532e-06 3.99664e-06 7.31523e-06 -3.46389e-05 -5.08136e-06 4.46183e-06 
-0.000183433 -2.10723e-06 3.41463e-06 -2.14775e-05 8.52911e-06 7.63614e-06 -4.15805e-06 1.60159e-06 -2.92056e-05 
-3.39886e-05 -5.05033e-06 -2.52418e-06 2.4927e-06 1.34812e-05 5.45768e-06 -0.000910455 -0.00496522 2.0237e-05 
-4.721e-06 -3.08654e-06 9.10024e-06 3.32994e-05 -5.86511e-06 1.11346e-05 2.24776e-05 -6.08983e-06 -1.32447e-05 
-3.30086e-06 -0.000565234 -0.000974722 0.00305047 -6.19418e-07 -5.0325e-05 -4.3612e-06 -1.65099e-05 -2.6703e-05 
-0.00015843 0.000164281 2.09358e-05 -1.47453e-05 0.00015605 -7.71559e-07 -8.60911e-07 -9.2492e-06 -3.46887e-05 
2.97457e-05 -4.17678e-06 -9.51334e-07 -2.22063e-06 -1.18109e-06 1.88017e-05 -1.47545e-05 -7.25972e-05 -8.60527e-05 
-8.56795e-07 -2.8704e-05 -6.65046e-06 -3.49154e-06 -6.69321e-06 -6.56287e-06 0.000314305 -0.000342288 1.32042e-05 
5.4305e-05 2.2933e-06 3.81089e-06 -8.63798e-06 -2.56085e-06 -7.5422e-06 -4.12476e-06 -6.73764e-06 -2.03985e-06 
5.16356e-06 1.33567e-06 5.37806e-06 8.40588e-06 4.09987e-06 0.000169062 0.0022225 6.87299e-06 -1.91436e-05 
2.2677e-07 9.67924e-06 -3.62103e-07 7.98879e-06 -1.36829e-06 -4.28284e-06 -0.00303712 0.00754967 3.24662e-07 
3.36752e-06 4.93957e-06 0.00290922 -0.0028081 -0.000199452 0.000189724 0.00043167 -8.06214e-05 -0.000110525 
-8.40392e-05 6.76124e-06 1.29243e-05 1.34048e-05 -2.07396e-06 5.28487e-05 -5.84505e-06 -7.53213e-06 1.34418e-05 
-0.00127526 0.000140225 -3.39783e-05 -2.49274e-06 9.42486e-06 3.67394e-06 -4.81111e-06 1.81993e-05 -7.55237e-06 
-1.22844e-05 3.48268e-06 2.10337e-05 -4.3447e-05 -8.52998e-06 -1.24121e-05 0.00197854 4.34236e-05 -0.000192446 
-0.00105044 -5.68189e-05 0.000413199 5.30519e-05 5.75746e-05 -8.74298e-06 1.00877e-05 -1.35123e-05 -1.22915e-05 
-6.43213e-06 -1.60444e-05 0.000111807 -7.92587e-05 -1.30479e-05 1.50685e-05 -2.96168e-05 1.63943e-05 3.115e-06 
-2.20931e-06 8.77068e-06 -1.37627e-05 -1.2105e-05 2.17261e-06 8.86492e-07 -7.24699e-05 0.000752538 -2.9308e-06 
3.19779e-06 4.62816e-07 -8.42955e-06 7.57265e-06 -4.58683e-05 1.57974e-05 7.0537e-05 -1.09803e-05 5.42776e-05 
3.51404e-06 1.63425e-05 6.44821e-06 -7.44697e-06 -1.76966e-06 9.9274e-05 4.25854e-07 4.19301e-06 -0.000508316 
-0.000149731 0.000116385 2.64525e-06 -4.19896e-06 2.31818e-07 -8.85388e-06 -1.85421e-05 -1.38192e-05 -1.4479e-05 
1.30591e-05 -1.13598e-05 1.09413e-05 4.08902e-05 -9.15113e-06 -1.9844e-06 0.000417715 6.80333e-06 -0.0027682 
-0.00325002 -0.00180899 0.00054749 -5.16647e-05 2.43756e-06 4.0651e-05 0.000118862 -0.010587 -5.35224e-06 
-7.59772e-06 -7.10095e-05 2.24961e-05 -2.63558e-06 1.45857e-06 7.88407e-06 1.08828e-06 1.55323e-05 3.76887e-06 
1.00416e-06 -0.000110977 -0.000105526 1.2753e-05 -4.10489e-06 9.36646e-06 -1.00039e-05 -1.18076e-05 -9.58852e-08 
-1.64488e-06 0.00769683 -0.00732431 -1.92299e-06 -0.00177785 2.05898e-05 5.856e-06 0.000674961 0.0005398 
0.000357244 0.000983833 -0.000577495 -0.000847667 -0.00838173 7.09996e-05 -0.000260766 8.24444e-07 5.48945e-05 
7.82772e-05 -3.86349e-07 -9.33367e-06 -2.10533e-05 0.00351418 -4.55873e-05 -1.66592e-05 4.48351e-05 1.60031e-05 
0.00049299 0.00258989 -0.000112912 6.84175e-05 -0.000107923 -5.18126e-06 0.000122824 -6.21404e-06 8.58044e-07 
-4.60769e-06 -0.00309238 -0.000393184 0.000215342 5.92378e-06 5.13055e-07 -8.98303e-07 1.95295e-05 1.95362e-06 
2.32527e-06 -0.00192962 1.07646e-05 1.39492e-05 -7.95635e-05 0.000216151 0.000668402 -1.38842e-05 2.9746e-06 
2.92854e-05 -1.01155e-05 7.33426e-06 -6.52043e-06 -3.93397e-07 -8.25219e-07 -0.00238789 2.04449e-06 -0.00238676 
0.00774916 6.46597e-06 7.4617e-06 8.64949e-06 6.12125e-06 -1.39016e-06 3.20549e-05 2.38131e-05 8.48446e-06 
1.48862e-06 -4.05852e-06 -1.69797e-06 -1.84003e-05 2.04748e-05 -6.50976e-05 2.8526e-05 -2.95234e-06 -9.87295e-06 
-1.78962e-05 -4.98954e-06 2.70953e-05 -0.000100712 -7.29932e-05 -3.25411e-06 -6.92285e-05 -1.10784e-05 -1.67626e-05 
-2.77711e-06 -1.18853e-05 -4.68654e-06 -0.000172136 -3.83418e-05 -3.22092e-05 -0.00127053 -0.00240602 -6.56726e-05 
9.67143e-06 -2.16643e-06 0.00026603 -0.000722517 1.34129e-05 -5.00688e-05 -1.87012e-05 2.07188e-05 -7.52575e-05 
-7.80215e-07 0.000305938 -0.000417357 8.29088e-06 1.25936e-05 2.5422e-06 1.87432e-06 5.45595e-06 -2.03747e-06 
-0.00101789 0.000448468 -0.000336248 8.30154e-05 0.000314868 0.000160923 -0.000918408 0.000611643 0.000402823 
-0.00663134 0.000571589 -1.30805e-05 9.08569e-06 -2.59685e-06 0.00813297 0.0143487 0.00532539 0.00119034 
-2.42904e-06 -4.14951e-06 -4.16323e-06 -6.71084e-06 -3.88752e-05 -0.000131327 6.72006e-06 -5.62688e-06 0.00038414 
7.25408e-06 -9.97156e-06 -1.52845e-05 2.71563e-05 0.0008157 -4.48122e-07 3.55626e-05 -5.49838e-05 3.56662e-06 
-5.50902e-06 1.18265e-07 2.80825e-07 -1.82076e-05 -6.22062e-05 0.000274206 0.00211736 -0.0021974 -4.54261e-06 
-1.21774e-05 -4.84588e-05 -2.0182e-07 -1.04256e-06 -1.41317e-07 -7.06852e-07 -5.82534e-05 0.000100586 -0.000688525 
-4.44118e-06 2.44162e-05 7.43185e-06 -6.12803e-06 6.50187e-06 -1.26724e-05 -4.76473e-06 -1.01229e-05 3.02639e-06 
3.15274e-06 1.55504e-05 4.26666e-06 -1.24717e-05 -2.04643e-05 2.68296e-06 -5.64217e-07 2.2679e-06 3.03092e-05 
-4.06179e-05 -1.96678e-05 5.80486e-05 -7.98512e-06 4.22216e-05 6.08154e-06 -5.79964e-05 0.000386559 -0.00158108 
-0.00370417 -0.00717243 -1.27823e-05 -8.51831e-06 -1.09836e-05 -2.80213e-06 0.00396497 -0.000139312 0.000178667 
1.17592e-05 3.55456e-06 1.77271e-06 -4.82684e-07 2.44931e-05 -1.15537e-05 -5.56001e-05 -4.53442e-05 -5.40222e-06 
1.07281e-05 1.35206e-06 6.97711e-06 -5.45619e-07 -3.63706e-06 8.32117e-06 1.93783e-05 -2.26997e-06 -5.07611e-06 
-3.24727e-06 -4.10511e-06 -1.18199e-05 1.51434e-05 -1.46083e-05 3.5666e-05 1.21975e-05 -1.02453e-05 -7.70208e-06 
-8.95894e-06 -1.24236e-05 1.99686e-05 -4.32291e-06 1.11121e-05 -2.85236e-05 0.000344487 -2.53025e-06 -4.94861e-06 
-1.85485e-06 -3.28324e-06 1.77318e-06 -0.0024608 0.00184215 0.010388 -1.00541e-05 -3.16187e-06 1.50029e-05 
-1.27631e-05 -7.04367e-06 -6.05976e-05 -2.16808e-05 -9.53861e-06 5.01112e-05 -2.90277e-05 8.30473e-07 -0.000525242 
0.00785275 -0.00769181 -5.45282e-05 -2.0208e-05 -2.36521e-06 -9.80422e-06 -1.18343e-05 3.89666e-05 4.45949e-05 
-2.30038e-05 -1.15979e-06 -6.54645e-05 -0.000102764 -2.33424e-06 -5.76434e-06 4.737e-06 -4.52037e-05 -0.000164344 
2.35107e-05 1.06061e-05 0.00179838 -7.32214e-06 -8.0051e-06 -3.33929e-06 -3.74287e-06 9.75975e-06 -9.98161e-07 
3.81246e-06 -5.33038e-06 4.45256e-06 9.46697e-06 5.58845e-06 -3.54794e-05 5.10439e-06 1.71007e-05 1.39831e-05 
8.86176e-06 -1.08644e-05 8.27516e-06 2.39294e-06 -4.14485e-06 -1.6435e-05 -5.04423e-06 -7.08363e-06 0.000612801 
-3.96982e-05 0.000150538 -2.3293e-05 4.56366e-06 -1.26635e-05 -2.37121e-06 -1.55667e-05 -4.29563e-06 -2.56147e-06 
1.59934e-06 9.94075e-07 6.00294e-06 6.27928e-06 2.46934e-06 1.84703e-06 -7.07678e-06 3.73782e-06 1.95188e-06 
5.08776e-06 1.2924e-06 -6.67672e-06 0.000317649 -5.17356e-05 0.000186331 -7.99603e-05 -6.54397e-05 0.000700606 
1.12952e-06 -1.0129e-05 -2.10645e-05 1.65876e-06 -3.98276e-05 -0.00300886 -6.10889e-07 0.000152281 0.000153972 
0.000159979 -3.30944e-05 0.00086874 -2.83426e-06 -1.46061e-06 -9.02028e-07 5.79369e-06 -6.44536e-06 2.58635e-06 
-1.15851e-05 -0.000170083 0.000179843 -0.00816147 -0.00772399 -0.000289826 0.00736402 0.00735165 -9.10529e-05 
2.35667e-05 -7.93828e-06 5.66956e-06 8.31884e-06 1.01394e-05 1.20269e-05 2.94399e-05 3.1877e-06 -1.09097e-05 
1.28162e-05 -0.00020882 -6.58797e-05 0.000119463 -2.63766e-05 -3.2693e-05 -6.96205e-06 4.50746e-06 0.000105223 
0.000142471 1.16432e-05 7.02192e-06 6.68419e-06 5.19291e-07 -3.0904e-06 1.58679e-05 -0.000654638 -8.78571e-05 
0.000123075 -0.000120041 -4.51303e-06 3.65542e-05 -8.97226e-07 6.96796e-06 -1.00379e-05 -0.00108638 0.000672379 
-0.000763945 -6.26053e-06 4.98801e-06 -1.37951e-05 -8.49369e-05 1.11184e-05 -0.000108466 -4.84344e-05 6.35498e-06 
0.000240059 -1.06324e-05 5.65768e-06 -3.80909e-05 -6.26333e-06 8.04991e-06 -1.58531e-05 -5.33578e-05 -0.000275132 
-0.000350211 0.000205346 -0.000136206 0.000119674 3.48098e-05 0.00042004 0.000328902 -7.4656e-05 -6.99459e-06 
1.65181e-06 -3.35817e-06 -2.6704e-07 -1.19098e-05 1.21717e-05 2.11373e-05 4.96524e-06 -2.99582e-05 -8.24575e-05 
-9.12925e-06 -2.3475e-05 -8.18332e-06 -4.85401e-06 1.2754e-05 -5.34647e-07 -2.76275e-05 -3.45407e-06 3.55157e-06 
-5.26571e-06 -4.65101e-06 -1.22451e-05 -4.3261e-07 -1.19297e-05 1.58924e-07 1.67209e-06 -2.06859e-06 -1.78484e-06 
4.14942e-06 5.64294e-06 -0.006524 1.57518e-06 1.58914e-05 -0.000164778 -0.000210124 5.23666e-05 -3.29779e-06 
-8.18908e-08 1.16474e-05 1.50314e-05 -0.000104132 -0.0085057 0.00673511 0.00612994 -0.000537475 1.41874e-06 
6.73338e-06 -1.2894e-05 4.6624e-05 -1.25875e-05 -1.55015e-05 5.71079e-06 -0.000397211 -1.38173e-05 -0.000437682 
-4.65942e-06 -6.39302e-06 -2.12959e-05 7.62878e-06 -4.52594e-06 -5.11692e-06 -8.76782e-06 8.48144e-06 3.43916e-06 
-4.35653e-06 0.00016968 4.96954e-05 9.43696e-06 9.52223e-07 -8.23977e-07 9.21241e-07 -4.88984e-05 -2.77087e-05 
-2.86041e-05 -4.4294e-05 -0.000113675 -0.00463058 1.08922e-05 -2.17788e-06 8.30226e-05 1.02583e-05 6.4339e-06 
-1.29488e-05 4.9338e-05 4.74346e-05 -1.3927e-06 1.4284e-05 1.85641e-07 -1.0846e-05 2.72594e-05 -1.24487e-05 
5.25089e-06 -9.66814e-08 -2.18804e-05 6.48974e-06 -0.000253598 7.95221e-05 6.28971e-05 -0.00026491 -4.33748e-05 
7.57213e-05 -0.000859212 -6.8355e-05 -1.60455e-05 1.21998e-05 -7.96501e-05 0.000572635 -9.34562e-05 7.4284e-06 
-2.84535e-05 -0.000930213 2.854e-06 4.62186e-06 5.33986e-06 7.55274e-06 -2.34335e-06 -1.99693e-05 -4.15441e-08 
8.53024e-07 7.03079e-05 0.000135676 6.09417e-05 4.916e-05 3.41717e-05 -7.79938e-06 -2.03254e-07 6.16431e-06 
4.43977e-06 -0.000126357 5.52301e-05 -2.51946e-06 -0.00259114 -3.88812e-06 -5.46083e-05 -2.44718e-05 -4.206e-05 
-2.05204e-06 -2.06377e-06 -2.4762e-05 -1.78007e-05 -1.84962e-05 7.89617e-06 -1.57297e-05 4.22284e-06 -9.68379e-06 
1.02564e-05 2.2215e-06 1.07082e-05 -3.892e-06 0.000143432 -0.000290791 -0.00022026 -1.12503e-06 -2.82709e-06 
-3.81903e-06 -6.00019e-06 -3.62838e-07 -6.36369e-06 -4.60402e-06 -2.09611e-06 4.4672e-07 0.00192069 -0.000100301 
-0.00190365 -2.62673e-06 -4.34822e-06 -7.87128e-05 -9.6086e-05 1.17516e-05 0.000158209 1.36554e-06 1.64241e-06 
-3.30926e-05 6.00891e-05 7.48248e-05 1.55185e-06 6.07307e-06 8.12368e-06 6.36906e-06 -2.6719e-07 9.42722e-06 
0.000107556 -0.000110947 -0.000139089 5.99626e-05 1.17092e-05 -5.16114e-06 1.47744e-07 -1.80424e-06 -2.03505e-05 
-9.9069e-06 -3.04777e-06 5.58648e-05 1.7407e-05 -2.55799e-05 1.83396e-05 -7.77726e-05 -7.39898e-06 -1.48601e-05 
-2.17494e-06 1.8419e-06 1.71952e-05 0.0008568 0.000923992 0.000108292 1.03286e-05 -8.72377e-07 1.00828e-05 
-0.000142148 -6.31859e-05 1.02805e-05 3.76488e-06 0.00223344 5.86063e-06 -1.11056e-05 -1.355e-06 4.05048e-06 
-0.00341241 0.00544639 -1.443e-05 0.00199917 1.64522e-05 4.25632e-06 2.5215e-05 -2.74135e-05 1.20647e-05 
-1.68116e-05 7.27578e-06 6.04222e-05 -1.03976e-05 7.73066e-06 -3.17757e-06 2.03877e-06 6.85722e-07 -6.57664e-07 
-3.20528e-06 3.80232e-06 9.27243e-06 1.43326e-05 -3.70779e-07 1.79631e-06 6.69032e-06 -1.15268e-05 -4.40562e-05 
-2.6048e-05 1.14656e-06 9.11978e-06 -0.00076944 0.000757129 1.34089e-05 -5.03958e-07 4.04817e-07 4.76284e-06 
2.23871e-05 -2.86253e-05 -4.44218e-06 -1.15967e-05 2.42218e-06 -1.54629e-05 9.85358e-06 -1.60212e-05 -7.87839e-06 
1.50482e-06 -7.59263e-07 -9.1939e-07 -6.1138e-06 -1.9779e-05 -5.76689e-06 -6.85844e-06 0.000272884 0.000282728 
9.40312e-06 1.61976e-05 -1.8397e-05 2.10001e-05 9.61692e-06 -0.000350148 5.91532e-06 0.000128006 1.39952e-05 
-1.45313e-05 0.000105694 8.00318e-06 1.71944e-05 0.000180695 0.000181192 -2.33651e-06 -5.3202e-06 5.58476e-06 
0.00070657 0.000432786 3.28663e-06 1.23144e-06 -0.000133538 -7.60061e-05 4.79117e-05 -0.00157239 -2.47614e-05 
-0.000115739 0.000141347 -0.000212888 9.57245e-05 3.43763e-06 6.4292e-06 6.54249e-06 6.01421e-06 -8.9584e-06 
9.25287e-07 -1.52377e-05 -2.5766e-06 4.39356e-05 -1.57944e-05 -2.17485e-05 3.87652e-06 -1.5847e-06 -1.17793e-05 
-0.000192633 5.61028e-06 -1.11862e-06 1.48826e-05 -8.44304e-06 7.82144e-05 0.00027118 -9.02037e-05 1.37677e-06 
-3.25199e-06 -7.84531e-05 0.000134949 -0.000118526 -1.02645e-05 -4.93656e-06 -1.95626e-05 2.437e-05 -3.27417e-06 
2.7297e-06 1.91781e-05 1.41586e-05 6.3689e-06 -1.1224e-05 5.21749e-07 3.67307e-06 8.28068e-06 -6.90408e-05 
8.69224e-06 -5.63014e-05 2.21591e-06 -2.28867e-05 0.000570466 -4.74907e-05 5.69494e-05 -1.32412e-06 4.14964e-05 
-1.06918e-05 5.79389e-05 -3.14531e-05 -7.77016e-06 -2.02929e-06 1.16767e-05 -4.61926e-05 -8.43307e-05 2.44984e-06 
-8.10052e-06 2.57606e-05 -3.34237e-06 -0.000646923 0.000976985 -0.00209462 1.49942e-05 5.02339e-05 -0.000661791 
4.80954e-05 0.00918491 0.00562305 -2.83855e-05 -8.65917e-05 -0.0013364 -0.000413317 -1.96505e-05 -0.000105172 
0.000773807 0.00346337 2.51065e-05 1.68878e-05 9.30801e-06 5.68722e-07 1.54515e-05 -2.79645e-05 -3.3541e-06 
-2.38276e-06 2.10249e-06 -8.95928e-05 4.04803e-06 -7.58721e-06 -3.67238e-06 3.00299e-05 -7.2687e-06 1.18658e-06 
3.60693e-06 6.53136e-07 6.54058e-05 1.60091e-06 -0.00193971 5.8354e-05 -6.82519e-06 3.92328e-05 7.0908e-06 
-2.15535e-06 -4.12519e-08 -3.67109e-06 -6.27603e-06 -4.23013e-06 3.53661e-06 -7.92421e-06 5.38446e-05 -4.15226e-05 
-1.8461e-06 -1.51115e-06 -5.0251e-06 -2.33836e-06 -3.6945e-06 -2.47403e-06 3.37557e-07 -7.33463e-06 -6.10994e-05 
-2.29879e-05 -1.61448e-05 9.94504e-06 -3.11376e-05 -0.000103828 -7.68839e-05 -0.00669804 -0.00179246 8.2742e-07 
1.59836e-05 1.27949e-05 1.93049e-05 3.10655e-05 -1.95559e-05 -4.40188e-05 -5.6015e-05 -4.39314e-06 1.21896e-05 
5.93128e-06 -0.000535698 0.000123233 -0.000109324 -0.000933041 -0.000166308 -0.000116849 -8.80051e-05 -2.27443e-06 
2.76173e-05 -4.55027e-05 -7.80933e-05 4.53939e-06 9.36913e-06 5.78607e-06 1.11803e-05 8.2268e-05 -9.88935e-06 
-1.00367e-05 -2.03271e-05 -1.13344e-06 -1.58053e-06 4.38814e-06 -0.000255935 0.000108694 -0.000100135 7.60747e-05 
-1.17779e-05 -7.33146e-08 0.000821966 3.05991e-05 -0.00118457 -2.62296e-05 1.03989e-05 2.12216e-06 -2.64772e-06 
-1.5722e-06 0.000321739 -2.539e-06 7.07627e-06 -2.9483e-05 -1.09879e-05 4.78777e-06 -4.77696e-06 -7.25253e-08 
1.40137e-06 -6.12531e-06 2.92406e-05 7.86893e-05 6.32614e-05 -9.46558e-06 2.29394e-05 3.2421e-06 -3.59529e-06 
-5.04342e-05 8.27581e-06 -8.75572e-05 0.000113305 -2.02017e-06 5.67223e-06 -9.89683e-05 2.74808e-05 -1.79795e-05 
-1.40408e-06 4.43315e-05 3.99646e-05 3.30673e-07 -5.2878e-06 -1.96241e-05 -5.31351e-06 1.35565e-05 3.2006e-06 
1.20657e-05 8.41349e-07 3.07836e-06 1.67607e-05 6.6513e-07 1.11895e-05 -3.06562e-05 -2.65875e-06 5.62103e-05 
-3.1471e-05 1.5616e-05 1.99063e-05 1.04785e-05 -3.14586e-06 -1.84659e-06 3.98423e-05 8.27729e-05 0.000448003 
-6.74657e-07 -5.55655e-05 -3.01407e-05 -4.16129e-07 -0.000784087 0.0101055 -0.00319547 4.07915e-05 -1.14473e-05 
-1.85664e-05 1.28478e-05 -1.64831e-05 0.00016992 -0.000189333 0.0013799 -1.19735e-05 -2.50822e-06 1.09274e-05 
-7.87948e-06 -6.15914e-06 -6.21226e-07 4.53412e-06 -1.72884e-06 1.54097e-06 -1.93172e-06 2.02078e-06 -7.04186e-06 
-2.49361e-06 4.51468e-06 -8.67419e-06 6.53555e-06 -7.66183e-06 3.91325e-06 -3.4117e-07 -5.03399e-06 1.27107e-05 
-2.8288e-05 4.08389e-06 1.39946e-05 3.66732e-06 -4.62702e-06 -5.17306e-06 -4.26355e-08 -9.68436e-06 2.2672e-06 
-1.62334e-05 -0.0010884 -7.42706e-06 -0.000638943 -0.00344288 0.000432208 -0.000493901 -0.000305525 -0.00039543 
1.18541e-06 -8.19105e-07 7.59215e-07 -1.27054e-05 -0.000101971 -7.724e-06 6.75391e-06 -1.34879e-06 3.14179e-06 
3.2362e-06 -4.93561e-06 2.73332e-06 -4.7518e-06 -6.90839e-07 -7.06011e-06 -6.11417e-06 4.57185e-06 -3.47428e-05 
-8.90032e-06 -2.40081e-05 -6.77296e-07 -1.84185e-05 -1.7454e-06 1.0534e-06 4.94601e-06 0.00220762 -0.000110937 
-0.00156713 2.04442e-05 5.53026e-05 -7.07115e-06 -1.14909e-05 -1.88361e-05 0.000141896 -0.00134572 0.00769583 
0.000123075 2.66192e-06 5.21143e-05 1.35908e-05 -0.002182 -8.4244e-06 6.58272e-05 1.00329e-07 -1.00983e-05 
4.0097e-06 1.94039e-05 2.31126e-06 1.52524e-06 0.000113651 4.86215e-06 -0.000127668 -7.50486e-05 -0.00462287 
-0.000471245 4.47249e-05 1.71451e-06 9.22895e-05 -0.000105406 -1.04427e-05 -2.86542e-05 1.06043e-05 -3.80746e-06 
1.73474e-08 -2.54436e-05 -1.04407e-05 -1.50159e-05 7.7617e-06 -1.22838e-05 2.02795e-05 -6.07454e-05 0.00213252 
-0.00290087 -1.9009e-06 -3.67332e-05 6.46385e-05 -0.00129885 1.41451e-05 -0.000238917 0.00768887 -0.0015538 
-3.17178e-05 6.58232e-05 -3.14491e-06 -1.10796e-05 -3.51807e-06 -6.82143e-06 -4.04726e-07 8.6053e-07 -7.01104e-06 
-1.02425e-05 -5.16264e-06 -5.74221e-06 -1.50934e-05 0.000903998 -8.52998e-06 -1.61677e-05 8.43443e-05 3.51621e-05 
-7.65639e-07 -9.10672e-07 -2.43095e-06 0.000355107 -5.13127e-06 -2.87701e-05 -2.03055e-05 -6.35639e-06 3.96974e-06 
-1.49056e-05 1.58187e-06 6.01501e-07 -2.24324e-06 5.56305e-06 -2.44786e-05 0.00208897 -3.66729e-06 2.47643e-05 
-0.000324644 7.4762e-05 -4.41226e-05 -0.000809539 -6.71276e-05 -5.42109e-06 2.65284e-06 -0.000856306 0.000627119 
-4.89425e-05 -8.94301e-06 7.35519e-06 1.22969e-05 -1.22788e-05 -0.00239883 -0.012844 -7.0837e-06 -0.000338907 
-0.000177846 -1.84389e-07 1.09782e-05 -8.01672e-07 0.00183711 0.00045987 -0.000443636 0.00155372 -3.10173e-05 
-8.36845e-05 4.18601e-05 -9.03103e-06 -0.0018203 0.00802036 -0.00211558 9.52669e-06 -0.00701711 4.53292e-07 
-2.12885e-06 1.20269e-06 -5.54338e-07 -1.61317e-06 -2.35416e-06 1.13634e-06 3.70508e-06 -1.01393e-05 -0.00721532 
0.000123825 0.00174807 -0.000572396 -4.54676e-07 6.05818e-07 6.45819e-05 -0.00808231 0.00105962 2.47265e-06 
-1.13894e-05 7.72875e-06 0.000950697 7.22643e-05 -1.35425e-06 1.26672e-06 -2.0588e-05 -4.41322e-06 -2.53263e-05 
9.08453e-05 7.01361e-06 -4.0078e-05 3.0631e-06 -2.15143e-05 -6.02302e-05 1.39643e-05 -4.22611e-06 -1.70153e-05 
-3.83112e-05 -2.50418e-05 4.36633e-05 0.000684202 -0.0024979 3.95515e-05 -3.30912e-05 -3.66084e-05 -2.16317e-06 
1.64937e-05 -2.44107e-05 -3.11549e-06 0.000539228 -1.66019e-05 0.000180547 1.19998e-06 -2.22448e-05 0.00263623 
7.64221e-05 2.56078e-05 9.15239e-06 4.57714e-06 6.93611e-06 4.81822e-06 -2.82486e-06 4.6731e-06 -6.49309e-06 
-1.37178e-06 5.25939e-05 -1.34403e-06 -7.50182e-06 -9.08451e-06 -0.000134005 -3.15391e-07 -1.01266e-05 3.83026e-06 
-6.59066e-06 1.24357e-05 2.87582e-06 -7.05096e-06 -7.50678e-06 -4.32169e-06 -0.000158625 -0.000139202 -0.000271088 
-1.4354e-06 1.12058e-05 6.59862e-06 -3.62374e-06 -2.58498e-05 2.95643e-07 -7.20109e-06 -5.73812e-06 0.000308994 
-6.30902e-06 -0.000110589 0.0079803 -6.33345e-06 8.6541e-06 7.74971e-06 7.86564e-07 0.000477776 -4.48771e-06 
-1.26017e-06 -6.88908e-07 -3.66507e-06 5.36338e-07 -0.00227829 -7.11683e-06 -1.16603e-05 -1.69911e-05 0.000107642 
0.0001225 -0.000179976 2.9167e-06 4.87106e-07 0.000139965 -3.04103e-05 1.55322e-06 0.000125629 0.00211915 
-0.000157032 0.000317375 7.27885e-05 -3.12266e-06 1.91682e-07 1.2128e-05 0.000119115 -4.45236e-06 9.19124e-07 
-3.21224e-06 1.40195e-05 6.16407e-06 1.53059e-05 6.95564e-06 5.08794e-06 -4.52755e-06 7.63479e-05 7.89541e-06 
1.10846e-05 1.44997e-06 4.05758e-07 -1.05002e-06 2.37119e-06 -2.94031e-05 -1.30011e-06 6.77728e-07 -8.13269e-05 
-1.22909e-06 -5.84478e-06 -2.85284e-07 1.27684e-05 5.38051e-06 1.04283e-05 6.60651e-06 9.09575e-07 -2.99042e-06 
1.43751e-07 3.10776e-06 -1.7696e-05 9.79711e-06 -4.22544e-06 -3.70927e-05 -1.11267e-05 -2.07869e-05 0.000142652 
5.35952e-05 -0.000205595 -9.23271e-06 9.24253e-06 8.11264e-06 -0.000499162 -5.17265e-06 0.000326785 -0.000246646 
4.42068e-06 5.20141e-05 3.32518e-06 0.00065779 4.28096e-06 1.01804e-05 -0.0020643 1.78413e-05 -5.4229e-05 
2.85639e-05 3.25016e-05 -0.000477137 -3.70691e-05 -0.00236005 3.64874e-05 4.65634e-06 6.85013e-07 3.33342e-07 
2.87742e-06 7.65495e-05 -9.76095e-06 -5.61738e-06 6.68024e-06 -5.8735e-06 -2.66586e-06 -3.1152e-06 -6.3861e-05 
1.21042e-05 -2.36666e-05 -3.10823e-06 3.81907e-06 -6.5332e-07 4.3575e-08 -1.13372e-07 -5.45995e-06 0.00145527 
1.43355e-06 -3.60378e-05 -8.45724e-06 5.60297e-06 2.81352e-07 0.000194301 3.39451e-05 8.49389e-07 0.00089037 
-3.71504e-06 -9.14268e-06 -1.73464e-05 -2.08582e-06 0.000333497 6.69119e-05 -3.81244e-05 -6.40376e-06 -0.000540734 
-0.000114116 -5.79313e-06 -2.77958e-05 2.52368e-05 3.18688e-05 -8.84564e-05 -0.000420788 -0.00227491 0.000197105 
-9.30291e-07 -7.4995e-06 4.03721e-06 2.56419e-06 3.29488e-06 1.49465e-05 8.63428e-06 3.42027e-06 6.84455e-06 
-1.94752e-06 -1.71954e-05 -8.23434e-06 -2.92502e-06 5.05154e-07 3.18231e-07 4.09228e-06 6.67703e-06 -5.49046e-06 
-4.09795e-06 -2.76833e-06 -2.3441e-05 -3.68131e-06 -1.69544e-05 4.07297e-06 2.82275e-07 -4.45294e-05 -6.25449e-05 
-0.000693225 -1.96814e-06 -5.45795e-07 -0.0023389 7.78779e-06 -2.39644e-05 1.80527e-05 1.15266e-05 0.00259428 
6.11035e-05 -5.64847e-06 3.84615e-05 -9.52503e-06 5.84103e-07 -2.24859e-05 8.43647e-06 -2.73353e-07 1.47087e-05 
-0.000118638 0.000755539 0.000144656 -4.7403e-05 -1.38152e-06 -5.87508e-05 3.09486e-06 3.97885e-06 -5.96066e-05 
-1.36667e-05 0.000333523 -1.72388e-06 -0.00620523 -0.00930424 -8.64373e-05 0.000108463 4.0155e-05 -1.94893e-05 
-6.54768e-05 4.90133e-05 0.000400865 -0.000165634 -1.83754e-06 2.19395e-06 3.08529e-06 -4.89636e-06 -6.81368e-06 
-1.81231e-06 -3.81503e-06 2.0967e-06 -1.97122e-05 -3.35764e-05 0.00033436 -2.75011e-05 4.62336e-06 1.32121e-06 
4.27129e-05 3.20747e-06 1.35847e-05 0.00258366 -1.29441e-05 -1.72308e-06 -6.03646e-07 -7.26082e-06 -9.98206e-06 
9.55717e-08 -2.41752e-06 0.0179419 9.21079e-07 -8.08779e-06 -1.45438e-05 1.1057e-06 -7.37962e-06 2.80186e-06 
-1.13726e-05 1.86689e-05 1.81801e-05 0.00101245 0.000148031 0.00031433 2.94408e-05 -8.79505e-05 0.000195369 
0.000244697 6.80198e-06 -1.21269e-05 0.000285584 1.24675e-05 4.63694e-06 1.02204e-05 -3.74929e-06 -2.60942e-06 
6.93125e-07 -9.98839e-06 -7.75512e-05 2.35916e-05 -3.83448e-06 -2.70254e-05 -2.08506e-05 -2.12475e-06 -4.20989e-06 
3.80719e-05 -1.06376e-06 0.000245321 1.76788e-05 -4.8339e-05 8.45565e-05 6.26096e-06 5.41351e-05 5.93916e-05 
-9.40615e-06 1.49859e-05 -3.54206e-05 2.63468e-06 0.000215806 -4.61404e-06 7.39114e-06 3.86105e-06 -8.35349e-06 
-1.22924e-05 -7.86883e-05 2.12246e-08 4.89877e-05 -1.63986e-06 3.05518e-05 3.75449e-06 0.00046546 -0.00100065 
0.00221551 9.06625e-05 7.64675e-05 -0.00013607 8.17312e-06 5.4202e-05 3.48791e-05 8.40693e-06 -5.04811e-06 
7.86746e-05 -5.59251e-05 -0.000544719 -0.000134492 -5.10374e-05 -2.0884e-05 0.000127358 0.000304091 -5.21188e-06 
-2.28716e-06 -5.42254e-06 8.95131e-07 1.137e-05 -9.80212e-06 -6.7664e-05 -7.21499e-05 -1.88307e-06 -4.48387e-06 
-2.8214e-05 -5.94594e-06 7.0005e-06 1.22323e-07 -5.15412e-05 9.47731e-07 2.40707e-05 6.50273e-05 4.26623e-06 
-0.000104728 7.83137e-05 5.31784e-05 2.69071e-05 2.15296e-05 1.29116e-05 2.92731e-05 -1.42295e-06 -3.00759e-05 
-4.21898e-06 -3.41591e-05 -2.09779e-05 1.07983e-05 -6.93663e-05 -1.15529e-05 -1.19955e-05 -6.60182e-05 6.34043e-05 
-0.00341595 1.17862e-05 3.19677e-06 6.60233e-05 -7.94492e-06 7.79876e-07 -5.35181e-05 3.86784e-06 -1.88743e-05 
3.2939e-05 5.83929e-06 -7.71797e-05 -4.44467e-05 5.91392e-05 1.86072e-06 8.42126e-06 2.1406e-05 -2.7443e-05 
7.61695e-05 -4.66688e-06 -7.78419e-07 2.82861e-05 -6.66443e-06 -4.38774e-06 2.13623e-05 -7.65059e-06 1.1348e-05 
7.04367e-06 6.95287e-06 1.30186e-05 -3.95871e-05 -2.51334e-05 -2.64769e-05 8.15348e-07 2.2208e-06 3.32406e-05 
-2.12209e-05 -2.71923e-05 4.29598e-05 3.31614e-05 -7.34987e-05 4.97179e-05 0.000105892 3.51646e-05 0.000739907 
0.000110369 -0.000193027 0.00259295 3.22959e-08 3.15881e-06 -1.97036e-06 -6.79693e-07 2.78767e-05 -1.72972e-05 
1.50201e-06 -3.22947e-06 1.06437e-05 -7.38675e-06 1.32103e-05 4.54556e-05 7.11007e-06 1.24405e-05 4.90374e-06 
-0.000255429 3.41436e-06 3.9486e-06 -3.51347e-06 8.12881e-06 -2.27436e-06 -0.0011553 3.14742e-05 1.76936e-05 
8.1969e-05 8.34759e-05 3.53445e-06 0.000658413 3.42227e-06 -1.58254e-06 1.10235e-05 2.45227e-06 -3.182e-07 
-9.38031e-06 -8.61478e-05 -1.85131e-05 -6.71248e-06 2.37434e-06 6.41715e-06 0.000101846 1.90611e-05 -0.00309886 
0.00313357 0.00346783 0.000377637 -0.000258278 -8.19124e-05 -4.28256e-06 1.90655e-06 0.00206122 2.98444e-06 
-4.72661e-06 -6.34776e-06 4.59357e-06 1.95784e-06 -2.79305e-06 -5.39182e-06 3.17802e-06 8.91857e-06 -1.3748e-05 
1.07802e-05 -0.000169134 -2.88942e-06 3.80259e-06 2.0453e-06 -6.12551e-05 -3.02707e-05 9.38962e-06 -1.04951e-05 
-2.85887e-05 -5.41957e-05 2.89236e-05 -1.562e-05 -5.19774e-05 -1.88005e-05 2.00512e-05 4.12033e-07 -7.22037e-06 
-6.93068e-06 -5.71327e-05 3.10125e-06 4.51404e-07 -4.26713e-05 -1.48876e-06 1.44118e-05 6.64206e-06 3.77461e-05 
6.75949e-06 -3.60453e-06 -3.33634e-06 0.00314935 9.80264e-07 -3.47886e-05 -3.55419e-05 -0.00764024 5.83225e-05 
-8.58004e-05 -2.67326e-05 8.58307e-06 -8.10043e-06 -7.98639e-06 -7.05162e-06 5.82945e-06 0.000555867 -2.61145e-05 
-0.000109212 -4.26129e-06 -9.28627e-06 1.7623e-05 8.48664e-07 1.13466e-05 -3.2321e-06 -1.64433e-06 3.10415e-07 
0.00017769 -1.43362e-05 -0.000166599 -5.23699e-05 7.1813e-06 -4.85101e-06 -1.82899e-05 1.27027e-06 0.000423259 
-2.61124e-07 5.86426e-06 -0.000124763 -4.36587e-06 3.35326e-06 1.87988e-05 -0.000690362 9.05408e-06 -0.00046107 
1.14365e-05 9.11134e-06 -0.000101483 -8.26072e-05 3.90568e-08 1.03415e-05 3.5039e-05 -2.42542e-05 3.5214e-06 
2.29697e-07 -0.00295434 0.000537684 3.38907e-05 
Strain%20yy%20component 1 12442 double
0.409087 0.470266 0.407221 0.42121 0.333393 0.333351 0.333363 0.333346 0.37998 
0.280834 0.483126 0.308754 0.375624 0.38226 0.333591 0.293944 0.278579 0.213296 
0.193844 0.188624 0.16701 0.143951 0.166533 0.165949 0.166882 0.167919 0.168772 
0.16932 0.170153 0.170333 0.171067 0.170291 0.169739 0.168606 0.167657 0.1668 
0.166437 0.165674 0.16649 0.168139 0.172619 0.182177 0.204655 0.16512 0.151071 
0.151423 0.162213 0.177723 0.187307 0.170816 0.171462 0.171973 0.17236 0.173366 
0.172801 0.172132 0.171923 0.171286 0.171803 0.172096 0.17211 0.170954 0.171247 
0.170926 0.17132 0.172449 0.175527 0.180193 0.233278 0.333267 0.333315 0.333737 
0.33437 0.335161 0.33608 0.337149 0.338256 0.339319 0.340293 0.341108 0.341824 
0.342235 0.342402 0.342254 0.341839 0.341195 0.340334 0.339327 0.338078 0.337038 
0.335947 0.335011 0.334216 0.333617 0.333315 0.333267 0.510094 0.340856 0.310712 
0.295188 0.2857 0.280745 0.278216 0.27749 0.277836 0.279198 0.281315 0.284302 
0.287567 0.292041 0.296716 0.302412 0.307769 0.313157 0.317517 0.321827 0.325017 
0.327368 0.328907 0.329471 0.329231 0.328073 0.326345 0.324196 0.321983 0.319775 
0.31806 0.316758 0.316078 0.316105 0.316747 0.318077 0.319917 0.322119 0.324405 
0.326818 0.329093 0.330985 0.332557 0.333421 0.333475 0.333561 0.333335 0.332565 
0.331112 0.329223 0.326726 0.324376 0.32205 0.319794 0.317817 0.316508 0.315769 
0.315785 0.316523 0.317819 0.319671 0.321832 0.324353 0.326475 0.328183 0.329087 
0.329297 0.32852 0.326897 0.324526 0.320895 0.316809 0.311713 0.306647 0.300803 
0.295994 0.290919 0.286814 0.283216 0.280565 0.278347 0.277191 0.277073 0.278104 
0.280666 0.285883 0.294756 0.310768 0.346278 0.581828 0.141992 0.161084 0.172273 
0.179386 0.184411 0.187151 0.188299 0.187091 0.184139 0.178612 0.171321 0.160718 
0.11663 0.152391 0.158595 0.170986 0.179082 0.184639 0.187214 0.188085 0.187254 
0.184308 0.178607 0.170863 0.159436 0.154836 0.333203 0.333337 0.333678 0.334238 
0.33502 0.335919 0.337002 0.338083 0.339152 0.34031 0.341227 0.341925 0.342252 
0.342412 0.342245 0.341818 0.341146 0.340278 0.339275 0.338158 0.337072 0.336002 
0.335086 0.334275 0.333699 0.333353 0.333221 0.548207 0.339482 0.31204 0.296108 
0.286065 0.281092 0.278268 0.277207 0.277406 0.278616 0.280779 0.283686 0.287298 
0.291264 0.295922 0.300919 0.306063 0.310899 0.315856 0.32026 0.323917 0.326695 
0.328479 0.329424 0.329392 0.328574 0.327128 0.324958 0.322777 0.320611 0.318628 
0.317179 0.316325 0.316165 0.316714 0.317995 0.319601 0.321825 0.324079 0.326385 
0.328692 0.330803 0.332322 0.333349 0.333565 0.333628 0.33333 0.33233 0.33071 
0.328838 0.326406 0.324062 0.321764 0.319568 0.31782 0.316551 0.315844 0.315952 
0.316744 0.318221 0.320129 0.322409 0.324808 0.326785 0.328437 0.32924 0.329106 
0.328039 0.325987 0.322845 0.319321 0.314992 0.309721 0.30482 0.299674 0.2943 
0.289605 0.285698 0.282459 0.279838 0.278084 0.277125 0.277093 0.278373 0.281219 
0.286512 0.296505 0.313861 0.34651 0.436037 0.110033 0.158884 0.170577 0.178256 
0.184023 0.186907 0.188203 0.187463 0.184794 0.179493 0.172121 0.160104 0.148349 
0.151284 0.163878 0.173748 0.18109 0.185565 0.187756 0.187968 0.186487 0.183075 
0.177703 0.16966 0.156975 0.14749 0.333285 0.333578 0.334084 0.334682 0.335422 
0.336253 0.337195 0.338097 0.338988 0.339739 0.340388 0.340877 0.341122 0.341138 
0.340904 0.340411 0.339807 0.338998 0.338079 0.337144 0.33619 0.335352 0.334614 
0.334023 0.333626 0.333304 0.333241 0.396044 0.353195 0.327312 0.311611 0.302737 
0.296573 0.293361 0.291673 0.29059 0.290984 0.292173 0.293877 0.296198 0.299303 
0.302861 0.306678 0.310235 0.313812 0.317036 0.319725 0.321851 0.323459 0.324406 
0.324712 0.324362 0.323683 0.322684 0.321328 0.319948 0.318846 0.318 0.317568 
0.317631 0.318185 0.319169 0.32054 0.322164 0.32405 0.326046 0.327965 0.329635 
0.331148 0.33224 0.332933 0.332132 0.331107 0.329586 0.327786 0.325759 0.323768 
0.321894 0.320113 0.318703 0.317762 0.317288 0.317333 0.317834 0.318735 0.320033 
0.321418 0.322651 0.323643 0.324221 0.324406 0.323999 0.32309 0.321473 0.318934 
0.315974 0.312626 0.30889 0.304884 0.301355 0.297855 0.294901 0.292567 0.290738 
0.289608 0.289323 0.290609 0.293229 0.297255 0.302775 0.312286 0.329489 0.35677 
0.433554 0.362752 0.339828 0.319204 0.294108 0.266342 0.289894 0.288946 0.289572 
0.290466 0.291288 0.292503 0.292745 0.29373 0.294472 0.293542 0.292078 0.289931 
0.289163 0.287817 0.287548 0.287958 0.290788 0.2987 0.314307 0.342842 0.574143 
0.322622 0.262714 0.228418 0.216211 0.2122 0.211264 0.211213 0.211073 0.211865 
0.214172 0.22154 0.234854 0.274569 0.345665 0.570417 0.348883 0.262275 0.226887 
0.215254 0.211006 0.209061 0.20847 0.208118 0.208136 0.208859 0.21213 0.222352 
0.255082 0.328991 0.361107 0.361908 0.389633 0.352822 0.451445 0.333475 0.33389 
0.334471 0.335216 0.336111 0.337074 0.338033 0.338923 0.339644 0.340239 0.340614 
0.340759 0.34063 0.340233 0.339657 0.338942 0.338003 0.337053 0.33611 0.33522 
0.334449 0.333833 0.333381 0.333076 0.284265 0.34812 0.339695 0.328336 0.319628 
0.313177 0.307905 0.304169 0.302071 0.300818 0.300369 0.300488 0.301377 0.30275 
0.304771 0.307098 0.309377 0.31184 0.314255 0.316252 0.317855 0.319161 0.320105 
0.320717 0.321002 0.320831 0.32037 0.319735 0.31902 0.318286 0.317849 0.317689 
0.317908 0.318546 0.319502 0.320804 0.322285 0.323935 0.32567 0.327481 0.329034 
0.330518 0.331795 0.33287 0.30811 0.340461 0.331603 0.330338 0.328841 0.327098 
0.325249 0.323552 0.321805 0.32029 0.319078 0.318139 0.317607 0.317485 0.317709 
0.318211 0.318948 0.319702 0.320212 0.320495 0.32066 0.320436 0.319842 0.318828 
0.317229 0.31519 0.312999 0.310478 0.307854 0.305324 0.303146 0.301291 0.29987 
0.298968 0.298856 0.299839 0.30183 0.304789 0.308521 0.313706 0.32093 0.331551 
0.342881 0.440242 0.319311 0.297661 0.291096 0.287436 0.286258 0.285844 0.286545 
0.286892 0.287859 0.288404 0.288403 0.288878 0.288122 0.287913 0.286912 0.285924 
0.28509 0.285224 0.285974 0.289256 0.296231 0.308922 0.449432 0.303671 0.245697 
0.239967 0.236923 0.235529 0.23734 0.24241 0.251182 0.267348 0.29195 0.314232 
0.319089 0.309145 0.315344 0.313345 0.243979 0.236278 0.232665 0.230266 0.230476 
0.233498 0.240508 0.254771 0.280867 0.304759 0.436055 0.259831 0.284723 0.259222 
0.332635 0.359782 0.344758 0.343229 0.341498 0.305808 0.303544 0.333193 0.333838 
0.334787 0.335926 0.337078 0.338273 0.3393 0.340152 0.340762 0.341122 0.341145 
0.340771 0.340146 0.339269 0.338241 0.337069 0.335933 0.33486 0.333917 0.333175 
0.332653 0.328252 0.326043 0.322192 0.318726 0.314874 0.311816 0.309863 0.308408 
0.307343 0.306716 0.306847 0.307381 0.308311 0.30958 0.311078 0.312618 0.313996 
0.315123 0.316075 0.316806 0.3173 0.317573 0.317672 0.317766 0.317702 0.317375 
0.316896 0.316696 0.316722 0.317135 0.317925 0.319111 0.32049 0.322073 0.323771 
0.325523 0.32731 0.328973 0.330415 0.331715 0.332744 0.263218 0.395415 0.327807 
0.311679 0.330102 0.328609 0.326851 0.325084 0.323346 0.321587 0.320047 0.318602 
0.317557 0.316822 0.316464 0.316383 0.316637 0.317117 0.317407 0.317391 0.317432 
0.317237 0.316992 0.316455 0.315563 0.314382 0.312976 0.31147 0.309864 0.308282 
0.307017 0.306102 0.305599 0.305602 0.306178 0.308059 0.310235 0.31322 0.316201 
0.319362 0.32325 0.327379 0.379838 0.314902 0.382902 0.289072 0.306823 0.302265 
0.299435 0.298413 0.298437 0.298762 0.299525 0.300064 0.300282 0.300518 0.30036 
0.299969 0.299295 0.298373 0.29703 0.296678 0.297155 0.299163 0.305051 0.31487 
0.31154 0.413896 0.259685 0.269353 0.259496 0.263691 0.271482 0.282547 0.294999 
0.307607 0.321632 0.316929 0.312055 0.377682 0.263469 0.251431 0.253302 0.259638 
0.271798 0.287146 0.299805 0.413485 0.312186 0.331416 0.273608 0.2562 0.252706 
0.329812 0.33238 0.334534 0.333881 0.303216 0.362623 0.291605 0.300409 0.336661 
0.334193 0.275154 0.355155 0.309654 0.332837 0.334452 0.335848 0.337458 0.339059 
0.340376 0.341441 0.342198 0.342501 0.342247 0.34138 0.340306 0.338987 0.337429 
0.33588 0.334429 0.333183 0.332256 0.331639 0.320238 0.314677 0.31524 0.278752 
0.306908 0.323626 0.323277 0.321786 0.319454 0.31734 0.315667 0.313646 0.311868 
0.310768 0.310158 0.310062 0.310443 0.311048 0.311763 0.31242 0.312938 0.31338 
0.313716 0.313955 0.314143 0.314433 0.314694 0.315016 0.315519 0.314903 0.314763 
0.31493 0.315404 0.316426 0.317894 0.319665 0.321523 0.323496 0.325502 0.327424 
0.32916 0.330701 0.332094 0.35194 0.277073 0.321564 0.281055 0.328796 0.32694 
0.324933 0.323088 0.32133 0.319056 0.31759 0.316185 0.315127 0.314508 0.314284 
0.314366 0.31496 0.314312 0.313985 0.314076 0.313976 0.3137 0.313532 0.313078 
0.312438 0.311769 0.310962 0.310146 0.309576 0.309435 0.309705 0.310515 0.311656 
0.31368 0.316473 0.319144 0.320941 0.322296 0.323545 0.323641 0.301592 0.38223 
0.311731 0.310435 0.309989 0.31067 0.311912 0.312328 0.3122 0.312624 0.313133 
0.313311 0.312643 0.311373 0.309636 0.308715 0.308599 0.309589 0.311129 0.380417 
0.33034 0.280236 0.286409 0.285212 0.292172 0.299346 0.306078 0.317352 0.303427 
0.270423 0.291759 0.299792 0.305983 0.35364 0.273815 0.369047 0.31302 0.28228 
0.304476 0.32781 0.329699 0.304958 0.309358 0.27282 0.292125 0.34847 0.285087 
0.315197 0.312033 0.319409 0.377781 0.329596 0.269972 0.384984 0.340343 0.334203 
0.336071 0.338735 0.34052 0.342308 0.343709 0.344557 0.344724 0.343933 0.342029 
0.340478 0.338404 0.336373 0.334187 0.332367 0.331049 0.31838 0.296714 0.312045 
0.318537 0.322757 0.324613 0.324677 0.322584 0.322019 0.319924 0.317103 0.314651 
0.313032 0.311882 0.311278 0.311116 0.311124 0.311009 0.310752 0.310705 0.310519 
0.310197 0.310042 0.310368 0.31089 0.311629 0.312523 0.312291 0.312545 0.313182 
0.314306 0.316002 0.318366 0.320942 0.323111 0.325597 0.327795 0.329567 0.331083 
0.310446 0.348868 0.29467 0.343418 0.326854 0.324536 0.321203 0.316645 0.314381 
0.312348 0.312085 0.311192 0.311396 0.309929 0.308693 0.310596 0.309989 0.310094 
0.311028 0.310598 0.310788 0.31082 0.310852 0.310788 0.311113 0.312169 0.313738 
0.315856 0.317114 0.320833 0.323634 0.324466 0.324522 0.323315 0.318981 0.286123 
0.318603 0.32946 0.329968 0.369442 0.319362 0.319183 0.322902 0.324468 0.325005 
0.323363 0.327091 0.327272 0.326507 0.324975 0.321517 0.319126 0.318206 0.317882 
0.299919 0.297752 0.303478 0.309483 0.360562 0.30682 0.355754 0.306872 0.358664 
0.29641 0.308714 0.292074 0.307318 0.332864 0.310953 0.320769 0.317667 0.366803 
0.313274 0.328511 0.306765 0.336687 0.33799 0.305235 0.291623 0.309244 0.285134 
0.327047 0.288526 0.30184 0.290103 0.302038 0.305391 0.36127 0.297724 0.320813 
0.334793 0.342245 0.345204 0.347109 0.347583 0.348165 0.343627 0.338566 0.334831 
0.331813 0.299954 0.310959 0.323539 0.327246 0.327497 0.323106 0.318888 0.316381 
0.312 0.310434 0.309672 0.307477 0.307009 0.30632 0.305155 0.304431 0.304449 
0.305198 0.308268 0.309062 0.31 0.310142 0.311971 0.313684 0.324926 0.329161 
0.330794 0.28611 0.303446 0.307367 0.311275 0.312865 0.315264 0.31943 0.322278 
0.327718 0.3293 0.32686 0.324052 0.323684 0.333683 0.3341 0.335633 0.339306 
0.342747 0.339109 0.340118 0.333094 0.32762 0.325696 0.338289 0.331857 0.35767 
0.351066 0.333478 0.328098 0.3063 0.340091 0.32637 0.313755 0.311077 0.306547 
0.328702 0.316306 0.356727 0.341741 0.328285 0.304875 0.308748 0.309982 0.31071 
0.345928 0.296473 0.297155 0.348611 0.35298 0.349674 0.300684 0.332001 0.339893 
0.33338 0.296575 0.346426 0.301148 0.352376 0.332987 0.330845 0.298095 0.333254 
0.333489 0.333968 0.334602 0.335366 0.33619 0.337092 0.337962 0.338934 0.339768 
0.340405 0.340876 0.341126 0.341099 0.340835 0.34036 0.339703 0.338928 0.338027 
0.337128 0.336265 0.33538 0.334687 0.334058 0.333581 0.333319 0.333293 0.427222 
0.358288 0.332721 0.315977 0.305856 0.299264 0.294903 0.292338 0.291484 0.291325 
0.292286 0.294096 0.296282 0.298944 0.302241 0.305738 0.309124 0.312497 0.315491 
0.31839 0.320718 0.322367 0.323517 0.324013 0.323944 0.323404 0.322585 0.321442 
0.320285 0.319147 0.318285 0.317814 0.317796 0.31828 0.319211 0.320538 0.322191 
0.323983 0.325916 0.327767 0.329513 0.331026 0.332205 0.33293 0.332124 0.330857 
0.329282 0.327542 0.325527 0.323573 0.321791 0.320125 0.318782 0.317871 0.317391 
0.317489 0.318051 0.319102 0.320353 0.321641 0.322925 0.323841 0.324399 0.324286 
0.323643 0.322292 0.32032 0.317785 0.314801 0.311278 0.307628 0.303839 0.30027 
0.296793 0.294083 0.291913 0.290241 0.28969 0.289936 0.291261 0.293465 0.297579 
0.303652 0.313924 0.330535 0.360564 0.389101 0.304172 0.293786 0.281631 0.297202 
0.307378 0.294004 0.292493 0.293256 0.294016 0.295015 0.295825 0.294592 0.294708 
0.293704 0.294185 0.293626 0.293544 0.293497 0.292812 0.291953 0.29362 0.295787 
0.299572 0.307676 0.321927 0.344327 0.665652 0.349046 0.258356 0.225124 0.215126 
0.211127 0.210613 0.21031 0.211105 0.212582 0.213916 0.217685 0.230403 0.262916 
0.345779 0.673979 0.332238 0.255895 0.227943 0.218824 0.214011 0.211926 0.210985 
0.21059 0.210172 0.211856 0.216125 0.226195 0.260937 0.337674 0.341848 0.337308 
0.332974 0.385924 0.362546 0.333083 0.33285 0.334496 0.335271 0.336074 0.337002 
0.337917 0.33886 0.339659 0.340269 0.340649 0.340772 0.340626 0.340208 0.339591 
0.338813 0.337953 0.337033 0.336114 0.335239 0.334519 0.333831 0.33331 0.332991 
0.331965 0.332278 0.454847 0.340849 0.344727 0.322934 0.316016 0.310768 0.307033 
0.304293 0.302727 0.301632 0.301288 0.301743 0.302893 0.30461 0.306573 0.308772 
0.310957 0.31303 0.314944 0.316641 0.318013 0.31895 0.319528 0.31983 0.319869 
0.319727 0.31928 0.318685 0.318094 0.317757 0.317668 0.317931 0.318556 0.31957 
0.32087 0.322373 0.324079 0.325814 0.327457 0.329118 0.330648 0.331916 0.30699 
0.455169 0.311886 0.331327 0.330083 0.328541 0.326923 0.325147 0.323487 0.321834 
0.320297 0.319099 0.318205 0.317701 0.317614 0.31789 0.318441 0.319117 0.319805 
0.320338 0.32062 0.320582 0.320136 0.319354 0.31808 0.316386 0.314344 0.312078 
0.309543 0.306965 0.304646 0.302555 0.300717 0.299652 0.299122 0.299587 0.30082 
0.302474 0.304947 0.309019 0.314114 0.322155 0.332096 0.345919 0.3457 0.299557 
0.31927 0.289477 0.286902 0.287065 0.287054 0.287186 0.287758 0.288866 0.288922 
0.28897 0.288537 0.288628 0.288145 0.28809 0.288033 0.287002 0.287074 0.288211 
0.290623 0.295849 0.304034 0.31916 0.308582 0.316185 0.453564 0.281102 0.25914 
0.246714 0.238714 0.235799 0.235321 0.237271 0.241278 0.251212 0.266965 0.287338 
0.313181 0.282015 0.261032 0.248954 0.241197 0.237671 0.236103 0.236525 0.240272 
0.246944 0.259842 0.2822 0.305684 0.434901 0.333727 0.308331 0.313156 0.363012 
0.356716 0.318475 0.35169 0.342129 0.399497 0.335855 0.333983 0.337007 0.338206 
0.339318 0.340245 0.340895 0.34124 0.341229 0.340865 0.340148 0.339237 0.338173 
0.33704 0.335909 0.3349 0.333972 0.333201 0.332593 0.332264 0.389367 0.323951 
0.305206 0.392027 0.326137 0.318194 0.315217 0.312418 0.310377 0.3088 0.30773 
0.307305 0.30748 0.308231 0.309361 0.310566 0.31179 0.312866 0.313867 0.314589 
0.315228 0.315767 0.316182 0.316429 0.316553 0.316577 0.316397 0.316174 0.316115 
0.316302 0.316783 0.317704 0.319001 0.320516 0.322231 0.324097 0.325938 0.327558 
0.329148 0.330667 0.332251 0.309374 0.328413 0.326707 0.325112 0.323378 0.321599 
0.319922 0.31864 0.317581 0.3169 0.316556 0.316595 0.316832 0.317134 0.317307 
0.317348 0.317367 0.317021 0.316553 0.315848 0.314971 0.313735 0.312279 0.310851 
0.309184 0.307682 0.306873 0.306108 0.305513 0.305801 0.30724 0.308873 0.310838 
0.312926 0.316122 0.319914 0.324184 0.328358 0.332139 0.300512 0.304955 0.304432 
0.317533 0.316227 0.299832 0.300442 0.299619 0.298952 0.299405 0.300668 0.300946 
0.300531 0.300463 0.300644 0.300485 0.300003 0.299195 0.299143 0.300422 0.303012 
0.30756 0.314462 0.325546 0.303689 0.311561 0.321247 0.426816 0.289435 0.277912 
0.268738 0.26195 0.25893 0.259449 0.263373 0.271199 0.283456 0.296584 0.290805 
0.376121 0.278554 0.269586 0.264189 0.260771 0.260381 0.26313 0.268798 0.278375 
0.2901 0.300404 0.413541 0.334857 0.329906 0.300508 0.331205 0.333357 0.341739 
0.310049 0.335521 0.319875 0.344071 0.333571 0.305505 0.368524 0.335695 0.34053 
0.341632 0.342352 0.342688 0.342417 0.341654 0.340417 0.338985 0.337364 0.335807 
0.334401 0.333225 0.332217 0.331523 0.301202 0.304063 0.325276 0.318757 0.32072 
0.322624 0.316272 0.314131 0.312225 0.310977 0.310335 0.310326 0.310666 0.311068 
0.311401 0.311464 0.311426 0.311489 0.311615 0.311968 0.312419 0.312769 0.31306 
0.313281 0.313586 0.313617 0.313894 0.314709 0.315963 0.317682 0.31974 0.32183 
0.324074 0.326279 0.328034 0.329651 0.33108 0.332356 0.306075 0.361448 0.312319 
0.303986 0.391638 0.314036 0.327016 0.32872 0.32326 0.321079 0.319154 0.317532 
0.316206 0.315195 0.314709 0.314554 0.314503 0.31444 0.314287 0.314053 0.313751 
0.313544 0.313255 0.312963 0.312631 0.311879 0.311198 0.310419 0.309579 0.30965 
0.309658 0.309873 0.310764 0.312818 0.315002 0.317048 0.31884 0.3206 0.322774 
0.323525 0.323195 0.317063 0.313882 0.313821 0.311063 0.31807 0.320419 0.352213 
0.310132 0.311386 0.309399 0.312797 0.314189 0.313482 0.31264 0.313293 0.313894 
0.313202 0.312186 0.311225 0.311408 0.313536 0.316157 0.308303 0.339036 0.310898 
0.307133 0.330237 0.3374 0.379336 0.29148 0.284614 0.280165 0.278845 0.279838 
0.285631 0.293669 0.302058 0.303784 0.289732 0.284454 0.281007 0.279934 0.281518 
0.284575 0.289856 0.296106 0.301542 0.383856 0.391692 0.296473 0.296869 0.319952 
0.363885 0.333152 0.323625 0.32753 0.326859 0.307914 0.334314 0.322913 0.335668 
0.346939 0.335786 0.319225 0.343016 0.344627 0.344407 0.342516 0.340957 0.338206 
0.336053 0.333913 0.332326 0.33101 0.30678 0.3214 0.323345 0.316979 0.314085 
0.312656 0.311427 0.310897 0.310448 0.309805 0.308829 0.307806 0.306504 0.305869 
0.305747 0.305974 0.306921 0.308242 0.30917 0.309836 0.310749 0.310361 0.312352 
0.313492 0.31595 0.319062 0.322003 0.324232 0.326776 0.329059 0.330795 0.332075 
0.323387 0.327822 0.316556 0.325912 0.329561 0.320342 0.317758 0.316047 0.314152 
0.31282 0.312092 0.311879 0.311403 0.310544 0.309878 0.309508 0.308993 0.308767 
0.30949 0.310124 0.310725 0.310397 0.310676 0.311079 0.312312 0.313309 0.316147 
0.319368 0.321942 0.323637 0.324227 0.324095 0.322853 0.310619 0.3071 0.31048 
0.321782 0.340414 0.366578 0.326345 0.327987 0.32446 0.323926 0.327521 0.32593 
0.323986 0.322493 0.319857 0.321432 0.321961 0.367608 0.376523 0.322466 0.309153 
0.309303 0.340804 0.325301 0.29934 0.30139 0.294256 0.298404 0.292087 0.295571 
0.300363 0.305794 0.308587 0.320165 0.313377 0.315387 0.357937 0.296786 0.295843 
0.295576 0.297027 0.299547 0.302691 0.305137 0.345295 0.343904 0.325667 0.347727 
0.319015 0.306574 0.325654 0.335805 0.321495 0.325513 0.322778 0.333645 0.302634 
0.305883 0.346552 0.303804 0.338368 0.305869 0.306038 0.334212 0.368287 0.362885 
0.33408 0.31022 0.340094 0.334196 0.331207 0.344243 0.358142 0.3134 0.319096 
0.324622 0.327617 0.330319 0.332826 0.32816 0.355052 0.318992 0.324238 0.31213 
0.329286 0.311868 0.31647 0.321563 0.326464 0.328329 0.32769 0.325413 0.329492 
0.347107 0.346371 0.327533 0.310296 0.335497 0.347897 0.340143 0.334107 0.332205 
0.328054 0.329653 0.331781 0.35732 0.341408 0.345671 0.34028 0.330657 0.326708 
0.3568 0.336646 0.349382 0.309814 0.315143 0.309039 0.308882 0.303475 0.305062 
0.307878 0.340432 0.338972 0.302473 0.335899 0.349668 0.331342 0.349736 0.334116 
0.336816 0.332595 0.34282 0.340656 0.33594 0.282547 0.404056 0.418905 0.362711 
0.230795 0.210427 0.19621 0.185238 0.159467 0.168615 0.179629 0.180972 0.181936 
0.182842 0.183903 0.184811 0.18501 0.185329 0.185134 0.184394 0.183806 0.183007 
0.182136 0.181868 0.181257 0.181407 0.182405 0.185964 0.192772 0.198301 0.275085 
0.258223 0.164736 0.14964 0.155054 0.184839 0.192034 0.184663 0.186825 0.186267 
0.185605 0.187296 0.187373 0.187201 0.187155 0.186629 0.186415 0.186583 0.187348 
0.185439 0.186279 0.18585 0.185928 0.187674 0.189446 0.19404 0.205553 0.288058 
0.333258 0.333296 0.333499 0.334015 0.334746 0.335607 0.336606 0.3377 0.338791 
0.339812 0.340721 0.34152 0.342037 0.342363 0.342362 0.34208 0.341541 0.340754 
0.339842 0.33871 0.337564 0.336488 0.33547 0.334595 0.333909 0.333435 0.333273 
0.333344 0.509364 0.370023 0.321211 0.301081 0.289301 0.282545 0.279006 0.277504 
0.277392 0.278269 0.280051 0.282605 0.285817 0.28965 0.294234 0.299471 0.305065 
0.310513 0.315422 0.3198 0.323574 0.326359 0.328313 0.329354 0.329518 0.328803 
0.327313 0.325327 0.323102 0.320845 0.318845 0.317305 0.316299 0.315956 0.316308 
0.317301 0.318911 0.320962 0.323235 0.325611 0.327987 0.330094 0.331857 0.333086 
0.333514 0.333468 0.333454 0.333516 0.33305 0.331907 0.330222 0.328009 0.325554 
0.323197 0.320878 0.31873 0.317071 0.316025 0.315647 0.316046 0.317082 0.318674 
0.320704 0.323096 0.325477 0.327439 0.32876 0.329347 0.329076 0.327869 0.325865 
0.322872 0.318979 0.314361 0.309234 0.303733 0.298352 0.293376 0.288762 0.28489 
0.281772 0.279303 0.277589 0.276899 0.2773 0.278999 0.28268 0.289389 0.301131 
0.321683 0.353698 0.548078 0.322697 0.159784 0.149848 0.166482 0.175943 0.18203 
0.186023 0.187921 0.187923 0.185915 0.181987 0.1751 0.166661 0.148912 0.161625 
0.417409 0.161559 0.150782 0.16521 0.175515 0.182103 0.18598 0.187919 0.187929 
0.185963 0.181681 0.17493 0.164728 0.152925 0.146848 0.333239 0.33326 0.333496 
0.333947 0.334619 0.335458 0.336456 0.337546 0.338627 0.339753 0.340782 0.34157 
0.342107 0.342376 0.342357 0.342063 0.341492 0.340747 0.339772 0.338746 0.337621 
0.336519 0.335529 0.334657 0.333956 0.333491 0.33326 0.333331 0.554999 0.351837 
0.323071 0.302281 0.289877 0.282941 0.279211 0.277432 0.277078 0.277849 0.27956 
0.282133 0.28535 0.289217 0.293543 0.298417 0.303517 0.308533 0.313475 0.318207 
0.322263 0.325501 0.327777 0.329147 0.329573 0.32912 0.327964 0.326109 0.323863 
0.321652 0.319532 0.317781 0.316614 0.316086 0.316304 0.317233 0.318718 0.320656 
0.322938 0.325245 0.327581 0.329819 0.331651 0.332941 0.33356 0.333448 0.333438 
0.333556 0.332913 0.331594 0.329832 0.327665 0.325253 0.322912 0.320631 0.318631 
0.317102 0.316072 0.315766 0.316212 0.317357 0.31907 0.321192 0.323585 0.325805 
0.327686 0.328933 0.329344 0.328727 0.32718 0.324585 0.321228 0.317292 0.312461 
0.307339 0.302296 0.296987 0.291921 0.287599 0.28401 0.281059 0.278873 0.277514 
0.277002 0.277538 0.279535 0.283437 0.29061 0.303564 0.326442 0.375598 0.51713 
0.297378 0.148238 0.155214 0.165406 0.174886 0.181609 0.185663 0.187776 0.188076 
0.186275 0.182278 0.175906 0.165934 0.151762 0.158658 0.228509 0.147673 0.158496 
0.168642 0.177782 0.18364 0.187026 0.18807 0.187524 0.185079 0.180907 0.174119 
0.163525 0.148483 0.157676 0.333364 0.333357 0.318696 0.314258 0.384593 0.374561 
0.253192 0.280953 0.193264 0.161917 0.156536 0.148358 0.1542 0.150362 0.155914 
0.163083 0.156912 0.137803 0.148134 0.165885 0.158618 0.163579 0.160273 0.163581 
0.160629 0.163868 0.160609 0.164872 0.162882 0.165306 0.162298 0.165593 0.162157 
0.165069 0.162616 0.165363 0.16293 0.164274 0.162984 0.164043 0.162961 0.163684 
0.16323 0.162483 0.161344 0.16161 0.161988 0.161235 0.161501 0.160404 0.161454 
0.160953 0.163132 0.161358 0.165387 0.164942 0.169693 0.17021 0.187683 0.210694 
0.33333 0.333291 0.33331 0.333482 0.333664 0.333443 0.333922 0.334231 0.33382 
0.334541 0.334921 0.334392 0.335304 0.335747 0.335063 0.336173 0.336693 0.335845 
0.337176 0.337714 0.336722 0.338177 0.338692 0.337642 0.339151 0.339629 0.338535 
0.340011 0.340415 0.339363 0.34074 0.341101 0.340069 0.341321 0.341531 0.340631 
0.341659 0.341746 0.340988 0.341746 0.341686 0.341114 0.341556 0.341363 0.341008 
0.341102 0.340773 0.340651 0.340473 0.340067 0.340096 0.339649 0.33915 0.339398 
0.338684 0.338078 0.33853 0.337615 0.337101 0.337622 0.336615 0.336083 0.336671 
0.335647 0.335196 0.335775 0.33482 0.334434 0.334995 0.33413 0.333844 0.334327 
0.333652 0.333475 0.333821 0.333362 0.333289 0.33345 0.333271 0.333316 0.33339 
0.333265 0.394994 0.425178 0.376092 0.350752 0.333621 0.371679 0.320224 0.312023 
0.337988 0.304126 0.299069 0.318387 0.29465 0.291942 0.306554 0.288946 0.287499 
0.299214 0.285935 0.285506 0.29457 0.28477 0.284859 0.292297 0.284344 0.284946 
0.290964 0.285204 0.286198 0.290661 0.286852 0.288287 0.291465 0.2892 0.29079 
0.292919 0.291954 0.294129 0.294954 0.295734 0.29802 0.297647 0.299835 0.302609 
0.301037 0.304569 0.307181 0.304747 0.308993 0.311624 0.308468 0.313446 0.315582 
0.312078 0.317232 0.319338 0.315502 0.320704 0.32227 0.318473 0.32335 0.324514 
0.320889 0.325333 0.326095 0.322765 0.326569 0.326857 0.324039 0.327014 0.3269 
0.324666 0.326725 0.326174 0.324626 0.325819 0.324993 0.324096 0.324482 0.323449 
0.323227 0.322751 0.321682 0.322018 0.320973 0.319912 0.320619 0.319351 0.318522 
0.319351 0.318082 0.317452 0.318363 0.317228 0.316904 0.317704 0.316928 0.316944 
0.317514 0.317217 0.317536 0.317825 0.318018 0.31867 0.318607 0.319354 0.320256 
0.319798 0.321069 0.322147 0.321316 0.323096 0.324218 0.323092 0.325224 0.326407 
0.325049 0.327374 0.328488 0.327023 0.329328 0.330256 0.328835 0.331018 0.331792 
0.330439 0.33234 0.332784 0.331753 0.333136 0.333233 0.332616 0.289545 0.333237 
0.332712 0.332304 0.331793 0.331071 0.331647 0.330309 0.329373 0.33039 0.328471 
0.327239 0.328719 0.32622 0.325061 0.326794 0.32406 0.322916 0.324769 0.321971 
0.320865 0.322819 0.31997 0.319008 0.320969 0.3183 0.317666 0.319362 0.317193 
0.31684 0.318174 0.3166 0.316608 0.317454 0.316638 0.316997 0.317223 0.317259 
0.317893 0.317495 0.318349 0.319248 0.318204 0.319909 0.320965 0.319321 0.321668 
0.32289 0.320695 0.323513 0.324538 0.322041 0.325045 0.325864 0.323187 0.326155 
0.326581 0.324 0.32669 0.326767 0.3244 0.32657 0.326176 0.324307 0.325721 
0.324917 0.323658 0.324101 0.322924 0.322401 0.321644 0.319848 0.320324 0.318347 
0.316331 0.317556 0.314634 0.312134 0.314385 0.310233 0.307749 0.310822 0.305698 
0.302843 0.306912 0.301052 0.298697 0.303119 0.296902 0.294428 0.299576 0.292917 
0.290912 0.296317 0.2897 0.287953 0.293651 0.286991 0.285709 0.291559 0.285085 
0.284037 0.290064 0.283856 0.283322 0.28933 0.283926 0.283935 0.289774 0.285204 
0.285807 0.291683 0.287752 0.289179 0.294943 0.29186 0.294662 0.299628 0.299339 
0.304089 0.306898 0.312238 0.321246 0.319303 0.335213 0.355446 0.340839 0.378978 
0.465797 0.375687 0.407771 0.289181 0.273354 0.267668 0.262522 0.350885 0.254573 
0.24942 0.329048 0.23927 0.246931 0.297932 0.235283 0.236267 0.276098 0.247288 
0.239254 0.268544 0.239574 0.239228 0.281606 0.240154 0.240664 0.281429 0.241459 
0.24139 0.282093 0.242149 0.241629 0.283986 0.242997 0.242592 0.284299 0.24292 
0.242326 0.284847 0.243023 0.242561 0.286092 0.243362 0.242926 0.286427 0.242763 
0.242662 0.287057 0.242504 0.242068 0.285129 0.241093 0.241159 0.283471 0.240535 
0.240568 0.28179 0.239307 0.239652 0.281342 0.239078 0.239894 0.279678 0.23887 
0.24023 0.280133 0.240344 0.242409 0.281622 0.244538 0.248186 0.28615 0.25255 
0.258267 0.296656 0.270293 0.294393 0.318314 0.585155 0.609657 0.259361 0.330276 
0.214526 0.220189 0.295644 0.19991 0.196948 0.241565 0.197482 0.194338 0.220591 
0.198026 0.195525 0.21378 0.198988 0.197658 0.21164 0.199516 0.198995 0.211159 
0.198881 0.199502 0.211074 0.197702 0.199394 0.211367 0.196355 0.199292 0.212595 
0.196387 0.200144 0.216821 0.200075 0.204369 0.225478 0.224917 0.223833 0.247016 
0.361884 0.279755 0.306425 0.609669 0.608701 0.284924 0.338096 0.215184 0.219348 
0.292968 0.199464 0.194982 0.238078 0.197298 0.193508 0.219064 0.197629 0.195033 
0.212676 0.197932 0.196666 0.20986 0.198149 0.197742 0.20877 0.197513 0.197997 
0.208371 0.196062 0.197501 0.208148 0.19368 0.196281 0.208491 0.191715 0.195116 
0.210206 0.192211 0.19649 0.216246 0.210281 0.208627 0.235537 0.308582 0.258601 
0.289677 0.333308 0.335677 0.478257 0.424497 0.437537 0.465453 0.355287 0.331827 
0.484867 0.4609 0.348612 0.43429 0.459777 0.34004 0.331828 0.396667 0.356522 
0.509168 0.426276 0.333531 0.333794 0.333995 0.334292 0.333678 0.334578 0.334956 
0.334189 0.335317 0.335743 0.334839 0.336181 0.33667 0.335661 0.337126 0.337597 
0.336585 0.338049 0.338518 0.337544 0.338934 0.339337 0.338468 0.339676 0.340013 
0.339287 0.34029 0.340535 0.339959 0.34071 0.340853 0.34043 0.340917 0.340924 
0.340692 0.340866 0.340742 0.340695 0.340554 0.340305 0.340431 0.34004 0.339708 
0.33994 0.339374 0.338958 0.339292 0.338517 0.338023 0.338466 0.33757 0.33708 
0.337533 0.336629 0.336142 0.336592 0.335719 0.335286 0.335677 0.334906 0.334529 
0.334835 0.334237 0.333937 0.334153 0.333714 0.333498 0.333604 0.333348 0.333192 
0.333223 0.258775 0.276851 0.37246 0.338538 0.35485 0.333094 0.346791 0.335159 
0.328398 0.320863 0.333227 0.316016 0.311956 0.323462 0.308313 0.305366 0.315863 
0.302499 0.300934 0.310135 0.298994 0.298119 0.305634 0.297005 0.296506 0.302934 
0.295837 0.296041 0.301242 0.295789 0.296372 0.300419 0.296428 0.297287 0.300263 
0.297723 0.298851 0.300802 0.299524 0.301074 0.301936 0.302096 0.303841 0.303663 
0.305029 0.306885 0.305854 0.30805 0.309777 0.308185 0.311054 0.312775 0.310588 
0.314043 0.315582 0.313053 0.316635 0.317911 0.315274 0.318768 0.319765 0.317089 
0.320476 0.32122 0.31856 0.321745 0.322171 0.319696 0.322527 0.322646 0.320478 
0.322826 0.322628 0.320923 0.32257 0.322219 0.320978 0.322004 0.321509 0.320645 
0.321193 0.32054 0.320084 0.320171 0.319508 0.319393 0.319126 0.318609 0.318636 
0.318366 0.31799 0.318039 0.317871 0.3177 0.317721 0.317768 0.317837 0.317742 
0.318114 0.318429 0.318167 0.31887 0.319391 0.318972 0.320009 0.320717 0.320105 
0.321429 0.322255 0.32151 0.323059 0.324006 0.323088 0.324861 0.325853 0.324795 
0.326757 0.327704 0.326584 0.328491 0.329306 0.328284 0.330061 0.330792 0.329815 
0.331444 0.331984 0.331183 0.332523 0.332872 0.33236 0.309499 0.328808 0.363975 
0.350283 0.341687 0.331856 0.331329 0.330705 0.329935 0.330998 0.329201 0.328288 
0.329615 0.327438 0.326412 0.327991 0.32551 0.324501 0.326188 0.323678 0.322729 
0.324399 0.321878 0.320978 0.322653 0.320247 0.319526 0.321006 0.318954 0.318452 
0.319633 0.318005 0.317761 0.318562 0.317498 0.317529 0.317801 0.317447 0.317717 
0.317476 0.317793 0.31827 0.317533 0.31849 0.319159 0.317907 0.319486 0.320203 
0.318543 0.320538 0.321186 0.319315 0.321392 0.321915 0.319975 0.322018 0.322331 
0.320394 0.322381 0.322493 0.320629 0.322362 0.322169 0.320617 0.321862 0.321406 
0.320214 0.3209 0.320084 0.319417 0.319293 0.318024 0.318111 0.317014 0.315516 
0.316289 0.314457 0.312761 0.314153 0.311531 0.309645 0.311785 0.308368 0.306354 
0.309191 0.305134 0.303327 0.30658 0.302287 0.300507 0.304201 0.29962 0.298113 
0.302155 0.297448 0.296249 0.300505 0.295826 0.294891 0.299313 0.294878 0.29429 
0.298784 0.294837 0.294711 0.299171 0.295728 0.296349 0.300684 0.297842 0.299157 
0.302982 0.301199 0.303141 0.306401 0.305908 0.308629 0.310714 0.312485 0.317211 
0.316783 0.322887 0.331506 0.325319 0.337924 0.351472 0.345674 0.336474 0.333103 
0.321129 0.325344 0.415951 0.506382 0.447464 0.306939 0.29582 0.289227 0.287578 
0.306924 0.279195 0.279189 0.29473 0.279695 0.277538 0.289417 0.277898 0.279026 
0.285928 0.278043 0.277958 0.285662 0.278342 0.278255 0.285971 0.278181 0.280051 
0.286361 0.279725 0.280571 0.286996 0.28012 0.281064 0.287825 0.28067 0.281516 
0.288102 0.281519 0.281901 0.288095 0.281444 0.280745 0.287965 0.280701 0.279798 
0.287598 0.279368 0.278776 0.287005 0.278338 0.277229 0.286129 0.276803 0.276827 
0.285099 0.27692 0.276176 0.284845 0.276952 0.276774 0.285189 0.278966 0.279718 
0.287395 0.284223 0.286514 0.292337 0.293917 0.300538 0.301825 0.318361 0.504974 
0.441902 0.287614 0.313848 0.304665 0.294357 0.229466 0.231587 0.225654 0.226352 
0.242541 0.22401 0.22425 0.237975 0.223313 0.223476 0.235887 0.224736 0.224326 
0.236048 0.228608 0.227369 0.239272 0.237473 0.233426 0.246255 0.252921 0.245436 
0.25774 0.284457 0.266598 0.278473 0.325552 0.299523 0.304395 0.346959 0.321306 
0.325152 0.313527 0.323804 0.334521 0.289595 0.322933 0.227858 0.230448 0.222833 
0.224013 0.239733 0.220694 0.221016 0.234273 0.219347 0.2194 0.231321 0.219502 
0.219288 0.230227 0.221603 0.220849 0.231693 0.227118 0.225021 0.236385 0.240188 
0.234498 0.246388 0.269664 0.254668 0.265706 0.313679 0.286427 0.293055 0.414962 
0.500463 0.44705 0.333236 0.238835 0.245786 0.251504 0.258388 0.274695 0.298235 
0.238232 0.2449 0.269839 0.250654 0.322543 0.270675 0.33298 0.332955 0.332889 
0.33284 0.403189 0.36898 0.333694 0.33237 0.350794 0.326001 0.346101 0.38736 
0.39849 0.332157 0.333162 0.314815 0.342911 0.305133 0.332592 0.350593 0.314463 
0.383191 0.326358 0.295073 0.30946 0.305982 0.302803 0.333549 0.33384 0.334159 
0.334547 0.333515 0.334985 0.335459 0.334315 0.335998 0.336532 0.335359 0.337054 
0.337585 0.336499 0.338124 0.338622 0.33767 0.339091 0.339491 0.338786 0.339874 
0.340203 0.339741 0.340477 0.340686 0.340463 0.34085 0.340931 0.340949 0.340941 
0.340864 0.341135 0.3407 0.340478 0.340961 0.340201 0.339874 0.340457 0.339481 
0.339079 0.339705 0.338617 0.338093 0.338752 0.337556 0.337028 0.337651 0.336508 
0.335997 0.336511 0.335498 0.335019 0.335407 0.33458 0.334177 0.334398 0.33382 
0.333495 0.333547 0.333242 0.333014 0.332922 0.331845 0.333654 0.328843 0.327508 
0.323265 0.326801 0.321058 0.318212 0.323827 0.316108 0.313663 0.320259 0.311484 
0.309816 0.316566 0.308151 0.307143 0.313136 0.30606 0.305501 0.310662 0.304696 
0.304519 0.308979 0.303933 0.304008 0.307726 0.30367 0.304143 0.306886 0.304175 
0.304858 0.30666 0.305115 0.306118 0.306999 0.30657 0.307724 0.307743 0.308347 
0.309481 0.308872 0.310232 0.311446 0.310279 0.312225 0.313405 0.311825 0.314111 
0.31509 0.313294 0.315668 0.316454 0.31455 0.31695 0.317585 0.315599 0.317972 
0.318423 0.316451 0.318689 0.318976 0.317068 0.319128 0.319256 0.317455 0.31932 
0.319227 0.317648 0.319287 0.319049 0.317747 0.319034 0.318714 0.317759 0.318561 
0.318213 0.317551 0.317972 0.317619 0.317122 0.317518 0.317306 0.316776 0.317313 
0.317245 0.316681 0.317439 0.317566 0.316888 0.317939 0.318281 0.317489 0.318847 
0.319344 0.318485 0.320008 0.320673 0.319777 0.321444 0.322196 0.321266 0.323028 
0.323858 0.322918 0.324726 0.325591 0.324649 0.326479 0.327383 0.326423 0.328219 
0.328991 0.328164 0.329714 0.330461 0.329718 0.331094 0.331743 0.331088 0.332262 
0.332787 0.333122 0.332246 0.250375 0.251945 0.417197 0.384004 0.333663 0.333661 
0.32795 0.318471 0.326202 0.30988 0.330216 0.329448 0.328727 0.327833 0.329367 
0.326984 0.326035 0.327744 0.325179 0.324314 0.325982 0.323465 0.322572 0.324216 
0.321717 0.320944 0.322452 0.320196 0.319576 0.320787 0.318869 0.318413 0.31931 
0.317881 0.31762 0.318025 0.31724 0.317198 0.317147 0.316988 0.317134 0.316595 
0.317049 0.317336 0.316382 0.317412 0.317824 0.316473 0.318009 0.318429 0.316852 
0.318524 0.318816 0.317268 0.318765 0.318943 0.317417 0.318926 0.319033 0.317432 
0.318912 0.318811 0.317353 0.318678 0.318386 0.31714 0.318119 0.317607 0.316754 
0.317164 0.316354 0.316043 0.315785 0.314749 0.315008 0.314078 0.312941 0.3137 
0.312257 0.310952 0.312256 0.310192 0.308854 0.310677 0.308097 0.306802 0.309065 
0.30623 0.305107 0.307603 0.304689 0.303731 0.306506 0.303518 0.302754 0.305795 
0.30281 0.302334 0.305496 0.30268 0.302613 0.305755 0.303577 0.304062 0.306935 
0.305191 0.30616 0.309029 0.30772 0.309186 0.311444 0.310648 0.312591 0.314377 
0.314372 0.316806 0.317582 0.318964 0.322381 0.320948 0.324793 0.329648 0.324906 
0.366851 0.405211 0.316697 0.306059 0.411093 0.367932 0.275182 0.286967 0.301726 
0.298755 0.310976 0.296533 0.294803 0.30459 0.293321 0.292632 0.300921 0.292371 
0.291873 0.298881 0.292048 0.292274 0.2984 0.292439 0.292652 0.298606 0.29307 
0.293504 0.299197 0.29382 0.294011 0.299846 0.294142 0.294185 0.300229 0.294328 
0.294448 0.300467 0.294388 0.294013 0.300475 0.293851 0.293654 0.30022 0.293323 
0.292857 0.299676 0.292402 0.291916 0.29889 0.291146 0.290852 0.297727 0.290673 
0.290739 0.296916 0.290881 0.291316 0.29697 0.292149 0.29399 0.298099 0.29678 
0.300387 0.302046 0.305274 0.311541 0.321795 0.309898 0.315114 0.311696 0.429621 
0.43441 0.397331 0.247974 0.248661 0.261033 0.254924 0.257794 0.265428 0.248735 
0.247656 0.258938 0.253539 0.2508 0.261089 0.262005 0.257481 0.266909 0.275891 
0.267655 0.276126 0.293777 0.282198 0.288264 0.310941 0.300684 0.301765 0.339767 
0.320398 0.31634 0.331215 0.311953 0.314038 0.314077 0.308412 0.36341 0.403483 
0.250279 0.254381 0.241131 0.241073 0.243601 0.24216 0.25205 0.250399 0.246981 
0.255957 0.263562 0.256973 0.26515 0.283648 0.272096 0.2789 0.302743 0.290826 
0.293467 0.425283 0.434636 0.40559 0.394579 0.31005 0.326803 0.333314 0.331501 
0.330856 0.330771 0.260596 0.267005 0.280897 0.271069 0.244686 0.246638 0.259372 
0.241661 0.242944 0.25411 0.251745 0.30124 0.336541 0.325388 0.322127 0.331206 
0.33287 0.332734 0.337951 0.323486 0.323637 0.336958 0.305731 0.30717 0.380603 
0.363638 0.3325 0.331969 0.328384 0.355564 0.276066 0.288628 0.298468 0.357934 
0.295012 0.293004 0.398596 0.332515 0.309644 0.301846 0.302799 0.316746 0.347191 
0.330233 0.348662 0.326588 0.337137 0.332963 0.307019 0.33191 0.354534 0.260204 
0.267991 0.282683 0.268647 0.346875 0.36536 0.310558 0.308256 0.301936 0.333335 
0.33384 0.334594 0.335228 0.333625 0.335854 0.336507 0.335149 0.337249 0.33793 
0.336662 0.338611 0.339198 0.338262 0.339809 0.340284 0.339709 0.340758 0.34111 
0.340919 0.341448 0.341658 0.341827 0.341799 0.341814 0.342354 0.341707 0.341482 
0.342372 0.341101 0.340735 0.341826 0.340255 0.339745 0.340854 0.33917 0.338581 
0.339644 0.337882 0.337207 0.338206 0.336507 0.33587 0.33666 0.335203 0.334615 
0.335162 0.334037 0.33353 0.333815 0.333093 0.332711 0.332726 0.33241 0.332145 
0.331953 0.324293 0.323482 0.323777 0.312968 0.313528 0.32426 0.269482 0.269662 
0.304985 0.309361 0.310888 0.324933 0.322983 0.321927 0.322938 0.321247 0.323358 
0.320323 0.318586 0.322412 0.317252 0.315824 0.320583 0.31466 0.313775 0.318282 
0.312832 0.31216 0.316416 0.311086 0.310585 0.314544 0.309655 0.309366 0.312636 
0.308784 0.308872 0.311211 0.308541 0.308822 0.310352 0.308758 0.309221 0.310007 
0.309408 0.310052 0.310145 0.310338 0.311084 0.310669 0.311439 0.312205 0.311345 
0.312529 0.313218 0.312036 0.313461 0.314034 0.312624 0.314248 0.314735 0.313102 
0.314892 0.315272 0.313498 0.315377 0.315641 0.313791 0.315725 0.315865 0.314014 
0.316004 0.316055 0.314264 0.316181 0.316231 0.314557 0.316393 0.316364 0.314863 
0.316613 0.316456 0.315305 0.316148 0.315921 0.315186 0.315854 0.315756 0.31481 
0.315842 0.315856 0.314825 0.316079 0.316307 0.315122 0.316789 0.317209 0.315864 
0.31792 0.318523 0.317138 0.319397 0.320093 0.318769 0.321004 0.321801 0.320597 
0.322779 0.323621 0.322528 0.324624 0.325502 0.324512 0.326455 0.327355 0.326484 
0.32822 0.329047 0.328318 0.329828 0.33055 0.329953 0.331243 0.331899 0.331412 
0.34413 0.36272 0.322088 0.266883 0.270663 0.324609 0.325621 0.3184 0.270738 
0.272594 0.279479 0.32871 0.3278 0.326895 0.326001 0.327886 0.324997 0.324127 
0.325963 0.323211 0.32232 0.324026 0.321477 0.320682 0.32223 0.319555 0.318852 
0.320185 0.318118 0.317579 0.318306 0.316881 0.31653 0.316868 0.315975 0.31583 
0.315634 0.315482 0.315478 0.314798 0.315321 0.315502 0.314357 0.315488 0.315769 
0.314303 0.316035 0.3162 0.314614 0.315854 0.315873 0.314671 0.315642 0.315712 
0.314117 0.315766 0.315659 0.314015 0.315611 0.315502 0.313964 0.315354 0.315083 
0.313828 0.315006 0.314548 0.313617 0.314334 0.313735 0.313285 0.313428 0.312692 
0.312743 0.312418 0.311635 0.312075 0.311237 0.310448 0.311331 0.31 0.309257 
0.310551 0.308984 0.308342 0.309775 0.308269 0.307822 0.309424 0.307993 0.30771 
0.309509 0.30816 0.308109 0.310055 0.308719 0.308984 0.310962 0.31004 0.310924 
0.312536 0.312392 0.313519 0.314978 0.314888 0.316336 0.317641 0.317239 0.318792 
0.319848 0.319499 0.321001 0.321485 0.321753 0.323528 0.322754 0.323791 0.325595 
0.322382 0.323414 0.295394 0.300938 0.397769 0.384328 0.307004 0.305689 0.305084 
0.304507 0.311112 0.304284 0.304306 0.310175 0.304624 0.304834 0.310275 0.305393 
0.305788 0.311301 0.305955 0.306289 0.312153 0.306186 0.306309 0.312262 0.306493 
0.306622 0.312428 0.306854 0.306775 0.312904 0.306881 0.306666 0.313216 0.30636 
0.306001 0.313006 0.305387 0.304898 0.312047 0.304065 0.303397 0.310514 0.302946 
0.30281 0.309192 0.302723 0.303032 0.308649 0.303482 0.304539 0.309038 0.305315 
0.308179 0.310406 0.382115 0.396611 0.381639 0.330226 0.329455 0.329572 0.332022 
0.272468 0.270167 0.278822 0.275216 0.278208 0.283314 0.278627 0.274877 0.282484 
0.287511 0.28228 0.288241 0.297508 0.291442 0.295289 0.306917 0.300823 0.308033 
0.317163 0.325567 0.303625 0.301025 0.262036 0.261228 0.289382 0.282162 0.299865 
0.293346 0.295778 0.301664 0.308385 0.304438 0.365891 0.345484 0.367701 0.26689 
0.263928 0.271819 0.38009 0.367568 0.31688 0.311881 0.311469 0.27718 0.271397 
0.277732 0.286942 0.30223 0.304011 0.303214 0.331529 0.31435 0.323153 0.330527 
0.338933 0.332973 0.33246 0.317489 0.310109 0.322812 0.331178 0.330856 0.298241 
0.305497 0.307001 0.307187 0.310387 0.332446 0.264836 0.274603 0.262929 0.283088 
0.29047 0.297031 0.358751 0.354297 0.341968 0.280627 0.274561 0.280593 0.308748 
0.313445 0.31099 0.343963 0.368171 0.313146 0.330988 0.305611 0.304665 0.302487 
0.314502 0.315114 0.311642 0.318372 0.327513 0.320135 0.316741 0.332658 0.364637 
0.378972 0.315571 0.331323 0.322411 0.269869 0.260863 0.261623 0.397927 0.392222 
0.377394 0.394972 0.340994 0.346085 0.335504 0.331292 0.33429 0.335065 0.335917 
0.336818 0.335124 0.337996 0.338955 0.337428 0.339774 0.340506 0.339646 0.34129 
0.341901 0.341446 0.34253 0.342973 0.343005 0.343354 0.343529 0.344135 0.343601 
0.343432 0.344631 0.34311 0.342573 0.344343 0.341748 0.341126 0.343031 0.340439 
0.339665 0.341227 0.338747 0.337866 0.339485 0.336964 0.336082 0.337353 0.335073 
0.334272 0.335264 0.333423 0.332742 0.333271 0.332127 0.331645 0.331718 0.316683 
0.323734 0.29447 0.30073 0.286249 0.309469 0.313457 0.315009 0.319243 0.320986 
0.315017 0.323126 0.323045 0.320695 0.324022 0.323235 0.323663 0.323373 0.322209 
0.324583 0.321071 0.320091 0.32365 0.31972 0.318933 0.322322 0.317842 0.316866 
0.32092 0.315414 0.314544 0.318463 0.3133 0.312776 0.315806 0.311938 0.311644 
0.313779 0.311059 0.31103 0.312374 0.310717 0.310893 0.311509 0.310842 0.311106 
0.311103 0.311143 0.311453 0.311072 0.311439 0.311732 0.31102 0.311637 0.311842 
0.310842 0.31187 0.312038 0.310613 0.311995 0.312124 0.310499 0.312009 0.312088 
0.310255 0.312061 0.31211 0.310001 0.31231 0.312407 0.310088 0.312696 0.312783 
0.310539 0.313166 0.313299 0.311213 0.313745 0.314021 0.312073 0.313746 0.313621 
0.313553 0.31237 0.313676 0.313743 0.312406 0.314072 0.314305 0.312813 0.314857 
0.315378 0.313706 0.316201 0.31695 0.3151 0.318114 0.318986 0.317173 0.320289 
0.321209 0.319681 0.32226 0.323275 0.322044 0.3245 0.325527 0.3244 0.326605 
0.32759 0.326739 0.328463 0.32935 0.328725 0.3301 0.33088 0.312282 0.308125 
0.357947 0.34981 0.286839 0.288219 0.337841 0.348239 0.326878 0.325861 0.324741 
0.323772 0.325753 0.322853 0.159548 0.166105 0.321305 0.320085 0.322953 0.317887 
0.317148 0.318881 0.316379 0.171369 0.175841 0.315252 0.314724 0.315454 0.313762 
0.313445 0.313408 0.313276 0.313223 0.312142 0.312746 0.312826 0.311679 0.312954 
0.313148 0.311289 0.312854 0.178955 0.182514 0.312095 0.312003 0.310679 0.311333 
0.311417 0.309159 0.312422 0.312345 0.309568 0.31203 0.311889 0.310192 0.311954 
0.31188 0.31 0.312308 0.312128 0.310521 0.311901 0.311572 0.310794 0.311686 
0.311307 0.310601 0.311323 0.310915 0.310733 0.310916 0.310525 0.310793 0.310507 
0.310248 0.310763 0.310428 0.310328 0.310834 0.310881 0.310983 0.311534 0.31179 
0.312191 0.31289 0.313244 0.313773 0.314761 0.314445 0.315437 0.316451 0.317344 
0.318728 0.318896 0.320164 0.321458 0.322156 0.321913 0.322853 0.324017 0.32289 
0.32356 0.324447 0.323124 0.323423 0.323862 0.330699 0.3299 0.315406 0.314823 
0.28007 0.278574 0.3239 0.316618 0.314318 0.329116 0.328178 0.328213 0.338699 
0.332802 0.375726 0.376293 0.314898 0.314781 0.319147 0.314596 0.314959 0.31921 
0.316814 0.317553 0.320998 0.318171 0.318464 0.323793 0.31866 0.318696 0.324672 
0.317803 0.318048 0.324191 0.319862 0.320141 0.325267 0.320284 0.320309 0.327151 
0.319928 0.319495 0.326888 0.318881 0.318142 0.325827 0.31652 0.315601 0.323323 
0.314478 0.314003 0.320266 0.313578 0.313506 0.318668 0.313307 0.31379 0.317996 
0.314009 0.296218 0.293008 0.289804 0.29239 0.295859 0.288626 0.281243 0.301481 
0.29808 0.301325 0.309593 0.307666 0.359053 0.369899 0.36511 0.306379 0.303209 
0.305061 0.308136 0.354726 0.366472 0.319718 0.306313 0.304965 0.369596 0.357079 
0.349178 0.364338 0.29116 0.288607 0.297971 0.306508 0.30782 0.286457 0.285673 
0.29309 0.29396 0.304321 0.30589 0.332828 0.333687 0.333525 0.382023 0.311797 
0.310172 0.310334 0.31799 0.316341 0.319806 0.32219 0.317533 0.32264 0.372685 
0.376212 0.315442 0.315577 0.312617 0.323482 0.328863 0.301832 0.305887 0.31022 
0.310579 0.330351 0.308501 0.33177 0.270994 0.342636 0.341885 0.184245 0.186579 
0.333381 0.344055 0.346445 0.352285 0.322019 0.32233 0.306173 0.304293 0.302348 
0.330253 0.31814 0.284513 0.288592 0.306992 0.309334 0.307815 0.285316 0.277942 
0.277874 0.312823 0.315751 0.334449 0.308103 0.361425 0.327662 0.3231 0.281337 
0.287075 0.285396 0.299476 0.294617 0.297119 0.335746 0.325229 0.281617 0.283845 
0.290552 0.333415 0.331995 0.290674 0.30081 0.296984 0.303711 0.303561 0.306344 
0.331951 0.366106 0.355309 0.371483 0.294754 0.290365 0.299884 0.364534 0.323802 
0.319547 0.319793 0.324633 0.335551 0.336928 0.341325 0.342355 0.343667 0.344501 
0.343736 0.345355 0.345828 0.346138 0.34608 0.346164 0.347328 0.346521 0.345976 
0.348071 0.343878 0.342775 0.346139 0.341869 0.187003 0.188455 0.339668 0.338481 
0.34122 0.337329 0.187977 0.188265 0.335682 0.334447 0.336689 0.333065 0.33206 
0.333252 0.330938 0.292638 0.298391 0.303532 0.295844 0.3105 0.31215 0.310114 
0.311398 0.309996 0.320332 0.323116 0.324064 0.320794 0.325874 0.32594 0.325412 
0.326089 0.324994 0.327567 0.324837 0.18683 0.186224 0.321518 0.320094 0.317997 
0.316725 0.320991 0.315562 0.314747 0.317661 0.31196 0.311718 0.310822 0.310773 
0.310547 0.310376 0.310007 0.309423 0.30911 0.308633 0.309132 0.308954 0.30707 
0.308703 0.308526 0.306519 0.307958 0.307735 0.30555 0.307444 0.307307 0.304569 
0.307397 0.30751 0.304212 0.307848 0.308068 0.304633 0.309974 0.310369 0.310796 
0.310693 0.308651 0.311153 0.311264 0.309557 0.311403 0.31169 0.310012 0.312542 
0.31314 0.311044 0.314003 0.314863 0.312805 0.319466 0.320842 0.323962 0.325254 
0.327329 0.328438 0.32721 0.32922 0.330146 0.330051 0.278213 0.279804 0.287693 
0.28527 0.314482 0.317385 0.321306 0.30841 0.309426 0.306825 0.306831 0.30899 
0.309254 0.311119 0.311301 0.312039 0.312623 0.31194 0.313697 0.314471 0.314101 
0.316551 0.317707 0.317301 0.318955 0.319627 0.320931 0.321579 0.183979 0.182259 
0.324339 0.325704 0.325142 0.326378 0.326755 0.328509 0.325857 0.325734 0.328081 
0.324426 0.323584 0.325444 0.32099 0.325471 0.330391 0.336215 0.330762 0.323912 
0.325711 0.328344 0.329326 0.331224 0.329953 0.33048 0.334509 0.332166 0.331351 
0.337688 0.333382 0.178692 0.175718 0.334925 0.33499 0.340855 0.333317 0.332786 
0.340992 0.333488 0.332453 0.339613 0.32922 0.327435 0.336552 0.324639 0.323415 
0.330233 0.322548 0.32203 0.326709 0.320934 0.32776 0.326607 0.333944 0.340247 
0.330681 0.331457 0.332372 0.331341 0.359715 0.363456 0.299238 0.310121 0.308463 
0.32446 0.319529 0.353737 0.359059 0.33305 0.305556 0.303818 0.33384 0.334762 
0.334096 0.332679 0.330611 0.32156 0.171393 0.166261 0.303455 0.325671 0.323062 
0.324647 0.328216 0.315665 0.313523 0.303235 0.301499 0.321792 0.340518 0.339339 
0.341298 0.337519 0.306654 0.31208 0.323186 0.324835 0.324217 0.313409 0.31287 
0.311212 0.311149 0.309078 0.307337 0.308779 0.329063 0.159655 0.149734 0.330311 
0.317305 0.31859 0.317419 0.316057 0.357479 0.363009 0.358145 0.348341 0.346408 
0.340435 0.341013 0.336121 0.305961 0.307707 0.32907 0.307822 0.30708 0.134625 
0.135508 0.323714 0.153715 0.134024 0.313346 0.310456 0.309947 0.309202 0.305356 
0.30778 0.307514 0.307971 0.309914 0.309878 0.306289 0.30877 0.308719 0.310469 
0.310497 0.309287 0.310792 0.310726 0.311027 0.310311 0.316979 0.319944 0.343607 
0.339681 0.351759 0.324624 0.326996 0.29143 0.291039 0.313519 0.308647 0.309955 
0.293328 0.333068 0.29981 0.301594 0.305736 0.307852 0.292939 0.291914 0.296609 
0.297177 0.326014 0.311415 0.312875 0.310602 0.303894 0.299292 0.346754 0.354199 
0.309744 0.308453 0.312122 0.306687 0.305208 0.310832 0.310063 0.352297 0.359817 
0.353217 0.29782 0.30443 0.302264 0.3324 0.328906 0.357474 0.303793 0.306922 
0.349831 0.344693 0.343569 0.306729 0.303416 0.304667 0.300048 0.311202 0.347359 
0.348469 0.296079 0.30004 0.310216 0.328297 0.326245 0.326569 0.329494 0.329764 
0.328765 0.332946 0.335849 0.336475 0.315079 0.317318 0.322816 0.304395 0.304066 
0.300638 0.300668 0.300991 0.301361 0.314851 0.332189 0.301593 0.331185 0.334292 
0.331931 0.30855 0.332403 0.308215 0.329068 0.332827 0.341531 0.345972 0.325901 
0.327592 0.308154 0.330318 0.329721 0.348073 0.345824 0.330052 0.295682 0.311528 
0.312644 0.300706 0.296231 0.301069 0.344171 0.34598 0.34802 0.343238 0.311196 
0.348753 0.352516 0.300792 0.304282 0.303962 0.312211 0.345846 0.346389 0.349665 
0.349808 0.338531 0.333984 0.332301 0.330844 0.311084 0.290998 0.323414 0.321195 
0.29575 0.291563 0.326912 0.32751 0.333972 0.328544 0.335467 0.335788 0.302382 
0.301815 0.296972 0.299426 0.350973 0.332368 0.355142 0.350293 0.351366 0.335968 
0.292171 0.294203 0.342198 0.337202 0.345367 0.34026 0.351686 0.342556 0.332729 
0.330776 0.332605 0.336762 0.351258 0.346425 0.341095 0.337325 0.352946 0.354817 
0.33334 0.333296 0.333272 0.333608 0.333456 0.333393 0.33411 0.333855 0.333732 
0.334809 0.33444 0.334284 0.335645 0.335211 0.334988 0.336597 0.336071 0.335787 
0.337584 0.337061 0.336651 0.338551 0.338033 0.33752 0.339616 0.33905 0.338439 
0.340484 0.340036 0.339339 0.341142 0.340813 0.34008 0.341545 0.341375 0.340637 
0.341758 0.341694 0.341006 0.341663 0.34175 0.341104 0.341317 0.341536 0.340961 
0.34074 0.341081 0.340589 0.339988 0.340417 0.340026 0.339103 0.339599 0.339302 
0.33809 0.338644 0.338473 0.337096 0.33763 0.337591 0.336141 0.336661 0.336709 
0.335247 0.335695 0.335833 0.334492 0.334891 0.335043 0.333889 0.334179 0.334379 
0.33349 0.333665 0.333833 0.333294 0.333351 0.33345 0.333314 0.333275 0.333304 
0.333407 0.395725 0.382203 0.450587 0.338004 0.357629 0.373348 0.315581 0.324496 
0.342157 0.301645 0.307015 0.322514 0.293833 0.29667 0.309985 0.288962 0.290615 
0.301894 0.286198 0.286916 0.296656 0.284961 0.28491 0.293183 0.285128 0.284601 
0.291653 0.286112 0.285101 0.291161 0.288036 0.286641 0.29161 0.290712 0.289009 
0.293022 0.293845 0.291859 0.29504 0.297463 0.295207 0.297496 0.301579 0.29915 
0.3005 0.305874 0.303379 0.30392 0.309953 0.307608 0.307396 0.314084 0.311681 
0.310812 0.317753 0.315608 0.31403 0.321029 0.319241 0.317013 0.323582 0.322218 
0.319648 0.325297 0.324417 0.321658 0.326363 0.325877 0.32306 0.326609 0.326595 
0.323886 0.326179 0.326549 0.324097 0.325206 0.325881 0.323778 0.323761 0.324778 
0.323073 0.322129 0.323158 0.322059 0.320493 0.321524 0.320877 0.318945 0.319893 
0.319696 0.317811 0.318501 0.318659 0.317157 0.31756 0.317972 0.317066 0.317139 
0.317719 0.317576 0.317311 0.317943 0.318663 0.318042 0.31866 0.320117 0.319339 
0.319799 0.322036 0.320951 0.321308 0.324039 0.32294 0.323054 0.326142 0.325018 
0.324938 0.328202 0.327079 0.326848 0.330114 0.329087 0.328671 0.331618 0.330875 
0.330311 0.332726 0.332204 0.331654 0.351827 0.333063 0.333254 0.33315 0.332182 
0.332692 0.332585 0.330752 0.331559 0.331535 0.329037 0.329966 0.330109 0.32697 
0.328172 0.328439 0.324803 0.325959 0.326547 0.322691 0.323819 0.324541 0.320725 
0.321794 0.322653 0.319027 0.319875 0.320915 0.317738 0.318343 0.319386 0.316917 
0.317263 0.318246 0.31674 0.31668 0.31752 0.317178 0.31678 0.317344 0.318175 
0.317447 0.317685 0.319646 0.31871 0.318504 0.321381 0.320273 0.31968 0.323191 
0.322032 0.32099 0.324801 0.323854 0.322308 0.326066 0.325281 0.323437 0.326732 
0.326364 0.324198 0.326611 0.326708 0.324448 0.325752 0.326287 0.324078 0.324057 
0.325079 0.323089 0.321517 0.323064 0.321427 0.318495 0.320231 0.319167 0.314858 
0.316989 0.316386 0.31049 0.313072 0.313116 0.306234 0.30864 0.309501 0.301783 
0.304309 0.305748 0.297341 0.29997 0.302038 0.293263 0.295549 0.298475 0.289968 
0.291866 0.295369 0.287265 0.288844 0.292918 0.285128 0.286391 0.29098 0.283987 
0.284822 0.28983 0.283647 0.284068 0.289649 0.284327 0.284271 0.290389 0.286107 
0.285384 0.292113 0.289674 0.2881 0.295131 0.295493 0.292632 0.300066 0.305949 
0.300569 0.307938 0.324231 0.314644 0.321188 0.356719 0.33933 0.341691 0.410241 
0.375828 0.376716 0.386254 0.283632 0.310118 0.262568 0.271065 0.292925 0.24231 
0.256502 0.287038 0.241047 0.250247 0.285095 0.245295 0.245282 0.288961 0.238926 
0.238693 0.305297 0.238197 0.239171 0.28502 0.239823 0.239558 0.286062 0.241238 
0.240587 0.286993 0.241939 0.24206 0.287627 0.242718 0.243037 0.288277 0.242394 
0.242267 0.288472 0.242521 0.2428 0.287298 0.242084 0.242475 0.287272 0.241916 
0.242606 0.286512 0.241411 0.242116 0.286891 0.241353 0.241826 0.286442 0.241295 
0.241029 0.286324 0.240461 0.240192 0.286032 0.240058 0.23939 0.285154 0.240836 
0.23947 0.285324 0.242141 0.240014 0.287408 0.245278 0.242009 0.289975 0.252116 
0.246607 0.295883 0.263419 0.255224 0.304876 0.292189 0.271345 0.324821 0.386809 
0.605056 0.633441 0.351869 0.262317 0.214245 0.211548 0.289387 0.192963 0.198637 
0.236007 0.192858 0.196802 0.218761 0.194572 0.197515 0.212491 0.197 0.198597 
0.210632 0.19846 0.199083 0.210467 0.199381 0.199117 0.210677 0.199707 0.198512 
0.211761 0.198973 0.196522 0.213131 0.19845 0.19537 0.215261 0.201318 0.197382 
0.222866 0.213883 0.214573 0.242942 0.267316 0.330303 0.301042 0.59862 0.632035 
0.301881 0.25938 0.213703 0.211484 0.287297 0.197286 0.20082 0.238632 0.196395 
0.199672 0.222548 0.1974 0.199648 0.216047 0.198551 0.199707 0.212901 0.199161 
0.199337 0.211439 0.199086 0.198417 0.210741 0.198141 0.196433 0.210259 0.197353 
0.194571 0.2106 0.196808 0.192885 0.213123 0.198651 0.193297 0.218905 0.214406 
0.214088 0.237219 0.281549 0.331468 0.287543 0.333332 0.383179 0.333375 0.489365 
0.398164 0.333276 0.333105 0.348279 0.336865 0.41175 0.522081 0.324828 0.487076 
0.333192 0.407967 0.514847 0.333081 0.333566 0.332646 0.333549 0.333308 0.333176 
0.333089 0.332897 0.332979 0.334948 0.334555 0.335743 0.335323 0.334888 0.336586 
0.336121 0.335684 0.337494 0.337038 0.336536 0.338434 0.337927 0.337453 0.339314 
0.338878 0.338381 0.340022 0.339685 0.339242 0.340557 0.340309 0.339962 0.340863 
0.340735 0.340455 0.340915 0.34093 0.340707 0.340707 0.340845 0.340693 0.340255 
0.340514 0.340412 0.33963 0.339966 0.339893 0.338847 0.339262 0.339195 0.337975 
0.338441 0.338377 0.337066 0.337532 0.337508 0.336179 0.336627 0.336585 0.3353 
0.335757 0.335688 0.334607 0.334958 0.334893 0.333948 0.33427 0.334178 0.333467 
0.333695 0.333584 0.333165 0.333302 0.333154 0.325383 0.333257 0.332181 0.332602 
0.518338 0.412675 0.339069 0.350673 0.335473 0.352219 0.365108 0.333712 0.342522 
0.315238 0.320047 0.326518 0.308185 0.31142 0.319068 0.30319 0.305349 0.313015 
0.29994 0.301292 0.308576 0.298074 0.298505 0.305342 0.297178 0.297267 0.303287 
0.297077 0.296616 0.301991 0.297767 0.296892 0.301293 0.299065 0.297986 0.301371 
0.300944 0.299653 0.302196 0.303439 0.301827 0.303655 0.306137 0.304436 0.305522 
0.308907 0.307263 0.307633 0.311657 0.310033 0.309845 0.31418 0.312739 0.311986 
0.316571 0.315188 0.313997 0.318578 0.317469 0.315816 0.320089 0.31931 0.317362 
0.321134 0.320595 0.318523 0.321678 0.321459 0.319284 0.321816 0.321862 0.319726 
0.321592 0.321858 0.319895 0.321132 0.32153 0.319836 0.320363 0.320909 0.319529 
0.319515 0.320057 0.31899 0.318686 0.319197 0.318377 0.318095 0.318481 0.317899 
0.31782 0.318016 0.317672 0.317944 0.317922 0.317752 0.318498 0.318226 0.318196 
0.319456 0.318975 0.31902 0.320751 0.320082 0.320187 0.322308 0.321488 0.321601 
0.324039 0.323155 0.323215 0.325856 0.324907 0.324946 0.32759 0.326682 0.326644 
0.329291 0.328425 0.328302 0.330816 0.330047 0.329903 0.332046 0.331439 0.331309 
0.31408 0.287063 0.446643 0.515042 0.325688 0.315713 0.331057 0.331709 0.331831 
0.329652 0.330454 0.330732 0.328016 0.328904 0.329335 0.326212 0.327232 0.327743 
0.324361 0.325344 0.326034 0.322658 0.323552 0.324304 0.321014 0.321837 0.322643 
0.319584 0.320246 0.321034 0.31853 0.318993 0.319663 0.317857 0.318095 0.318572 
0.317657 0.317592 0.317877 0.317901 0.317592 0.317587 0.318549 0.318008 0.317693 
0.319433 0.318783 0.318125 0.3204 0.319728 0.318764 0.321362 0.320701 0.319471 
0.322073 0.321591 0.320102 0.322475 0.32219 0.32053 0.32239 0.322442 0.320663 
0.321834 0.322158 0.320436 0.320767 0.321444 0.319825 0.319136 0.320134 0.318806 
0.317023 0.318306 0.317314 0.31451 0.31603 0.31544 0.311633 0.313422 0.313276 
0.308551 0.310407 0.310847 0.305384 0.307305 0.308261 0.302455 0.304268 0.305759 
0.299696 0.301445 0.303541 0.297429 0.298816 0.301562 0.295828 0.29694 0.300084 
0.29475 0.295596 0.299265 0.294757 0.295017 0.299188 0.295464 0.295372 0.300041 
0.297005 0.296366 0.301366 0.299421 0.298368 0.303493 0.303533 0.301486 0.30657 
0.309267 0.306207 0.311017 0.318642 0.313482 0.317376 0.332389 0.324292 0.326421 
0.353595 0.339476 0.337971 0.367732 0.354869 0.345783 0.326466 0.284349 0.289613 
0.298268 0.306031 0.308487 0.332493 0.319469 0.278503 0.283878 0.293918 0.279126 
0.274762 0.288547 0.281041 0.281257 0.285375 0.280795 0.280531 0.286757 0.28059 
0.280941 0.286613 0.281105 0.281165 0.286644 0.282416 0.281643 0.287599 0.282454 
0.281959 0.287977 0.282045 0.281847 0.288426 0.281765 0.28132 0.288188 0.281846 
0.28113 0.288219 0.281199 0.281332 0.287955 0.280783 0.281439 0.287635 0.280737 
0.281042 0.287274 0.27955 0.280468 0.286731 0.279255 0.280057 0.286309 0.280439 
0.280614 0.286855 0.282605 0.282704 0.288626 0.286528 0.287074 0.292558 0.294092 
0.293401 0.299242 0.307629 0.304572 0.310838 0.327041 0.31573 0.318039 0.337207 
0.435557 0.528418 0.270205 0.255452 0.293782 0.243749 0.238544 0.268204 0.231709 
0.22944 0.251729 0.225272 0.224977 0.241914 0.223387 0.223268 0.236925 0.222856 
0.223416 0.235364 0.224308 0.225154 0.236148 0.227192 0.228078 0.239076 0.23287 
0.235367 0.245241 0.243656 0.250441 0.257696 0.262552 0.276694 0.274541 0.294885 
0.322167 0.31166 0.300031 0.270915 0.257259 0.246062 0.240489 0.269944 0.23495 
0.23174 0.253997 0.22813 0.226693 0.244509 0.225078 0.224376 0.239126 0.223683 
0.223424 0.236649 0.223677 0.223534 0.236034 0.22539 0.226436 0.238008 0.229787 
0.232412 0.242941 0.23906 0.244805 0.252343 0.256654 0.273421 0.269627 0.287134 
0.316608 0.293431 0.495323 0.414145 0.437525 0.334188 0.33386 0.333408 0.334112 
0.316676 0.287094 0.308904 0.315981 0.337924 0.331105 0.3331 0.332629 0.332937 
0.410937 0.356644 0.370393 0.405188 0.33241 0.305258 0.294205 0.335672 0.329861 
0.31658 0.336252 0.359752 0.403703 0.325219 0.331489 0.348081 0.326608 0.33407 
0.447207 0.391388 0.307491 0.422217 0.382808 0.33645 0.335949 0.334635 0.334229 
0.337489 0.336984 0.336436 0.338557 0.338036 0.337598 0.339494 0.339055 0.338751 
0.340256 0.339913 0.339777 0.340767 0.340553 0.340568 0.340989 0.340925 0.341061 
0.340908 0.34099 0.341229 0.340507 0.340741 0.341041 0.339839 0.340187 0.3405 
0.338992 0.339426 0.33969 0.338041 0.338513 0.338698 0.337007 0.337513 0.337603 
0.335985 0.336484 0.336486 0.335049 0.33552 0.335419 0.334227 0.334617 0.334449 
0.333517 0.333864 0.333599 0.332961 0.333223 0.332904 0.33264 0.332794 0.332435 
0.332272 0.376778 0.41625 0.320789 0.323796 0.304893 0.308944 0.37936 0.420853 
0.325476 0.32928 0.324563 0.329862 0.332502 0.313027 0.314812 0.310049 0.311321 
0.316529 0.307769 0.308538 0.313645 0.30614 0.306684 0.311242 0.305147 0.305326 
0.309433 0.304815 0.304605 0.30812 0.305148 0.304603 0.307382 0.306077 0.305245 
0.307272 0.307421 0.306456 0.307769 0.309069 0.307995 0.308741 0.310748 0.309676 
0.309922 0.312376 0.311366 0.311147 0.313858 0.312927 0.312305 0.315202 0.314381 
0.313349 0.316246 0.315589 0.314218 0.317041 0.316593 0.314895 0.317607 0.317331 
0.315486 0.317978 0.317831 0.315969 0.318122 0.318103 0.316306 0.318118 0.318192 
0.316498 0.317927 0.318141 0.316563 0.317556 0.317837 0.316491 0.317158 0.317432 
0.316277 0.316974 0.317121 0.316128 0.317034 0.317052 0.316178 0.317416 0.317257 
0.316506 0.318182 0.317853 0.317219 0.319325 0.31881 0.318338 0.320719 0.32007 
0.319753 0.322319 0.321573 0.321377 0.324089 0.323245 0.323174 0.325871 0.325008 
0.325026 0.327493 0.326678 0.326766 0.329117 0.328288 0.328371 0.330643 0.329869 
0.32992 0.332078 0.331437 0.331481 0.311939 0.308014 0.331781 0.327646 0.328481 
0.325913 0.326821 0.327571 0.324309 0.325136 0.325911 0.322628 0.323442 0.324254 
0.320974 0.32174 0.322492 0.319549 0.320148 0.320749 0.318458 0.31891 0.319244 
0.317681 0.317915 0.318064 0.317303 0.317314 0.317183 0.317261 0.31709 0.316684 
0.317557 0.317235 0.31654 0.318007 0.317623 0.316692 0.318482 0.318102 0.31698 
0.31883 0.318533 0.317233 0.318975 0.318809 0.317344 0.318953 0.318961 0.31738 
0.31855 0.318769 0.317218 0.317915 0.318313 0.31682 0.316926 0.317569 0.316238 
0.315634 0.316503 0.315452 0.313991 0.315047 0.314392 0.312134 0.313311 0.313038 
0.31018 0.311467 0.311584 0.308074 0.309398 0.310048 0.306185 0.307353 0.308339 
0.304736 0.305815 0.307196 0.303423 0.304392 0.306386 0.302612 0.303188 0.305684 
0.302548 0.302818 0.305518 0.303504 0.303281 0.306379 0.304904 0.304321 0.307905 
0.306782 0.305985 0.309589 0.309123 0.307942 0.311688 0.312812 0.31074 0.31433 
0.317316 0.31481 0.317495 0.323586 0.319705 0.321628 0.330661 0.326049 0.325793 
0.33848 0.332396 0.330067 0.332733 0.293793 0.294898 0.297076 0.302011 0.302723 
0.30706 0.304098 0.316454 0.33392 0.314973 0.33517 0.293044 0.293274 0.300079 
0.293517 0.2937 0.300144 0.293113 0.293171 0.300011 0.293032 0.292801 0.299277 
0.293826 0.293289 0.299184 0.294553 0.294398 0.300069 0.294703 0.294707 0.300842 
0.294318 0.29447 0.300791 0.294396 0.294288 0.300551 0.294252 0.294468 0.300611 
0.29411 0.294171 0.300629 0.293754 0.293856 0.300292 0.292798 0.29334 0.299627 
0.292772 0.292743 0.299194 0.294019 0.293361 0.299744 0.296623 0.295216 0.301675 
0.301501 0.298657 0.305285 0.309316 0.304914 0.310842 0.322342 0.314585 0.320057 
0.305555 0.293618 0.3067 0.327266 0.310304 0.308115 0.316548 0.31892 0.322389 
0.319477 0.329495 0.333079 0.443915 0.443361 0.285663 0.275044 0.269346 0.263362 
0.283033 0.258436 0.254311 0.272456 0.25093 0.249235 0.264791 0.247713 0.247399 
0.259824 0.247831 0.248692 0.258781 0.250762 0.252664 0.260766 0.256873 0.261676 
0.266635 0.26825 0.275744 0.276739 0.283177 0.291578 0.289107 0.287018 0.276828 
0.297063 0.401541 0.363404 0.270824 0.264366 0.284015 0.260066 0.25583 0.273413 
0.253305 0.25125 0.266443 0.249678 0.248712 0.262078 0.248657 0.24876 0.260205 
0.250324 0.252152 0.261354 0.25527 0.258572 0.265506 0.263783 0.270021 0.273084 
0.276515 0.286935 0.283842 0.29228 0.303464 0.295051 0.43679 0.429853 0.403096 
0.335486 0.335047 0.334432 0.335376 0.329201 0.329996 0.329168 0.303643 0.290656 
0.294387 0.326587 0.330567 0.330623 0.331266 0.333669 0.333938 0.333536 0.345494 
0.364853 0.329913 0.325405 0.302611 0.309743 0.406918 0.31263 0.310193 0.31263 
0.331747 0.346386 0.328628 0.310343 0.319414 0.314141 0.330644 0.348299 0.332682 
0.35535 0.336762 0.325925 0.323226 0.368216 0.414463 0.29721 0.309243 0.307848 
0.300623 0.393382 0.384943 0.367109 0.351548 0.301972 0.312272 0.336391 0.335752 
0.340412 0.339874 0.341269 0.340899 0.341071 0.341798 0.341604 0.341996 0.341934 
0.341944 0.342498 0.341597 0.341806 0.342555 0.340864 0.34127 0.342028 0.339779 
0.340306 0.341035 0.338533 0.339149 0.339689 0.337169 0.337808 0.338175 0.335819 
0.336447 0.33659 0.334622 0.335177 0.335122 0.333577 0.334076 0.333829 0.332696 
0.333108 0.332735 0.332061 0.332361 0.33188 0.331893 0.300881 0.295187 0.302183 
0.304742 0.324315 0.325193 0.31476 0.315729 0.316834 0.318132 0.319685 0.319235 
0.320575 0.321576 0.312696 0.31346 0.317422 0.311052 0.31159 0.315101 0.309854 
0.31009 0.313074 0.309296 0.309234 0.311471 0.309327 0.308978 0.310574 0.309885 
0.309335 0.310278 0.310652 0.31005 0.310474 0.311462 0.310847 0.310867 0.312177 
0.311623 0.311218 0.312711 0.312201 0.311416 0.313067 0.312688 0.311408 0.313429 
0.313082 0.311403 0.31376 0.313455 0.311481 0.314138 0.31389 0.311714 0.314441 
0.314334 0.312132 0.314674 0.314625 0.31253 0.314844 0.314819 0.312866 0.314862 
0.314943 0.313155 0.314904 0.314995 0.313438 0.314888 0.3149 0.313573 0.315139 
0.315024 0.313742 0.31577 0.315522 0.314273 0.316847 0.316394 0.315315 0.318351 
0.317712 0.316821 0.32013 0.31938 0.318737 0.322027 0.321161 0.320811 0.324075 
0.323132 0.322991 0.326096 0.325159 0.325207 0.327784 0.326957 0.327185 0.329385 
0.328576 0.328868 0.330862 0.330088 0.330381 0.332293 0.331494 0.331722 0.308972 
0.305038 0.354619 0.375585 0.306058 0.306471 0.304097 0.302096 0.302356 0.304885 
0.393717 0.40689 0.333022 0.323663 0.312454 0.326048 0.326858 0.326171 0.327689 
0.328567 0.327883 0.322421 0.323317 0.324285 0.320502 0.321356 0.32218 0.318898 
0.31955 0.320113 0.317568 0.318102 0.318322 0.316579 0.316903 0.316833 0.315912 
0.316045 0.315671 0.315693 0.315621 0.31493 0.315728 0.315561 0.314614 0.31585 
0.315655 0.31452 0.315883 0.315785 0.314461 0.315839 0.315773 0.314353 0.315724 
0.315705 0.314158 0.315396 0.315557 0.313854 0.315048 0.315275 0.313609 0.314529 
0.314911 0.313378 0.313964 0.314415 0.313067 0.313149 0.313802 0.312792 0.312038 
0.312815 0.312208 0.311035 0.311752 0.311536 0.309819 0.310616 0.310895 0.308736 
0.309433 0.309982 0.308304 0.308719 0.309511 0.307937 0.308321 0.309532 0.307727 
0.308074 0.309696 0.308379 0.308239 0.310158 0.310116 0.309402 0.311697 0.312067 
0.31124 0.313794 0.314044 0.313118 0.315879 0.316045 0.315035 0.317773 0.318547 
0.316966 0.319609 0.321581 0.319596 0.321412 0.324041 0.322115 0.322942 0.326 
0.324124 0.323176 0.324685 0.3307 0.331369 0.325389 0.317733 0.307274 0.309424 
0.307228 0.30703 0.313009 0.310294 0.314628 0.316895 0.330272 0.320752 0.323405 
0.317464 0.362953 0.34453 0.304846 0.305478 0.312098 0.311837 0.305223 0.305509 
0.311808 0.304488 0.304206 0.310309 0.306773 0.306132 0.311105 0.307651 0.30746 
0.313494 0.307055 0.307259 0.313833 0.306595 0.306638 0.31308 0.306999 0.306941 
0.312979 0.307207 0.307326 0.313621 0.306612 0.306896 0.313558 0.305709 0.306139 
0.312715 0.305233 0.305267 0.311709 0.305977 0.305363 0.311236 0.308392 0.307151 
0.312471 0.311979 0.309837 0.314891 0.308961 0.305954 0.322653 0.339225 0.338587 
0.339775 0.313797 0.309955 0.309594 0.313937 0.306111 0.311091 0.312256 0.329302 
0.330078 0.329486 0.337825 0.337146 0.336547 0.338212 0.395386 0.381452 0.365526 
0.285003 0.280563 0.277072 0.273774 0.287534 0.271323 0.270055 0.281625 0.269276 
0.269357 0.27915 0.269966 0.271904 0.278764 0.274846 0.278826 0.282164 0.283027 
0.289083 0.2891 0.293756 0.299485 0.297741 0.303795 0.29754 0.306077 0.284607 
0.280056 0.27751 0.274681 0.286684 0.273057 0.271214 0.282324 0.270827 0.270496 
0.28008 0.271478 0.272697 0.280341 0.2745 0.277128 0.282696 0.280055 0.284535 
0.286925 0.287992 0.293418 0.292813 0.296272 0.301362 0.29883 0.390188 0.398738 
0.381928 0.372657 0.409641 0.397319 0.293215 0.287761 0.293372 0.298629 0.294156 
0.288056 0.292868 0.300126 0.321438 0.333176 0.332861 0.318564 0.330382 0.316726 
0.318713 0.302801 0.374221 0.377869 0.330884 0.305276 0.392416 0.334026 0.333561 
0.332746 0.323036 0.321326 0.322568 0.310338 0.380521 0.31522 0.332784 0.329648 
0.321253 0.330494 0.322326 0.308896 0.309746 0.335011 0.335108 0.334567 0.322371 
0.323805 0.321522 0.322996 0.327168 0.338934 0.348353 0.31429 0.339647 0.318226 
0.305057 0.303198 0.356555 0.342617 0.336547 0.354043 0.328219 0.338042 0.348989 
0.316541 0.321212 0.321724 0.342336 0.34169 0.343531 0.343662 0.342962 0.343417 
0.344552 0.341405 0.34211 0.343508 0.339871 0.340703 0.341679 0.337722 0.338672 
0.339619 0.335893 0.336734 0.337135 0.334143 0.334916 0.334939 0.332761 0.333398 
0.333152 0.331608 0.332129 0.331663 0.331222 0.304202 0.305516 0.317111 0.317625 
0.317685 0.31596 0.319883 0.321098 0.314635 0.31561 0.312566 0.313235 0.315447 
0.311542 0.311912 0.313329 0.310883 0.310923 0.312017 0.310826 0.310693 0.311166 
0.310792 0.31064 0.310723 0.310662 0.310554 0.310122 0.31022 0.310269 0.309248 
0.309661 0.309741 0.308141 0.309086 0.309115 0.306898 0.308875 0.30891 0.306006 
0.308979 0.308877 0.305527 0.309295 0.309152 0.305594 0.309954 0.309842 0.306202 
0.310714 0.310625 0.307442 0.311282 0.311182 0.308609 0.311725 0.311581 0.309474 
0.312207 0.312193 0.310339 0.312164 0.311997 0.310457 0.313519 0.313094 0.311418 
0.314718 0.314061 0.312862 0.316792 0.315899 0.314712 0.319374 0.318301 0.317547 
0.321899 0.320766 0.320566 0.324101 0.322911 0.323172 0.326493 0.325357 0.325555 
0.328522 0.327623 0.32799 0.330197 0.329372 0.329969 0.331568 0.330841 0.331459 
0.332113 0.319866 0.306503 0.322215 0.323315 0.326498 0.327397 0.321323 0.316746 
0.324502 0.325565 0.326916 0.328264 0.329122 0.328708 0.31972 0.320689 0.321924 
0.317617 0.318454 0.319092 0.316096 0.316789 0.316843 0.314673 0.315167 0.315097 
0.31379 0.31401 0.313494 0.313346 0.313375 0.312436 0.313209 0.313224 0.311968 
0.312952 0.312979 0.311637 0.312471 0.312474 0.31096 0.311998 0.312082 0.31009 
0.311687 0.311866 0.309601 0.311341 0.31145 0.309016 0.311052 0.311232 0.308816 
0.311263 0.311398 0.308973 0.31139 0.311601 0.309702 0.311383 0.31174 0.310425 
0.310768 0.311089 0.310375 0.310522 0.310791 0.310611 0.31017 0.310376 0.310474 
0.310407 0.31067 0.311165 0.311052 0.311706 0.312096 0.31163 0.312844 0.314589 
0.313523 0.31464 0.317278 0.316209 0.317709 0.319573 0.318611 0.320639 0.321357 
0.320488 0.322732 0.322488 0.321634 0.323845 0.323457 0.322405 0.324054 0.323221 
0.323094 0.32365 0.309216 0.311053 0.305705 0.307007 0.306703 0.308884 0.313916 
0.316774 0.317023 0.321672 0.345667 0.334859 0.379028 0.368044 0.320374 0.319552 
0.324417 0.32078 0.321067 0.327162 0.318581 0.318999 0.326244 0.31863 0.318328 
0.324204 0.320673 0.320442 0.325751 0.31954 0.319976 0.326733 0.318052 0.318617 
0.324909 0.316845 0.31744 0.323269 0.315694 0.315668 0.321186 0.317544 0.31669 
0.320545 0.319083 0.318051 0.321725 0.366896 0.377885 0.385094 0.384056 0.372586 
0.316875 0.322128 0.306061 0.308645 0.311674 0.307513 0.340706 0.339843 0.341896 
0.322111 0.323038 0.324296 0.294919 0.292275 0.329854 0.330626 0.296565 0.293368 
0.28956 0.28754 0.29785 0.289688 0.289129 0.296073 0.285817 0.286219 0.295037 
0.287844 0.290825 0.29364 0.293157 0.297253 0.297601 0.300119 0.304062 0.303137 
0.308442 0.306201 0.317207 0.318265 0.321777 0.318541 0.312243 0.31654 0.311915 
0.321241 0.314369 0.367655 0.356911 0.291135 0.289302 0.297651 0.288909 0.288231 
0.295941 0.28825 0.288872 0.295295 0.289714 0.291077 0.295844 0.292515 0.295053 
0.297977 0.296725 0.299525 0.300849 0.300954 0.303413 0.305933 0.343961 0.343768 
0.344939 0.34314 0.342739 0.34463 0.314949 0.34345 0.332866 0.326122 0.342975 
0.354861 0.35725 0.322103 0.31883 0.314767 0.318345 0.326917 0.330299 0.309774 
0.303771 0.306303 0.305233 0.307906 0.333746 0.32433 0.324709 0.336658 0.335699 
0.317009 0.320726 0.328374 0.323205 0.324106 0.325753 0.33262 0.324699 0.324591 
0.319634 0.322473 0.334719 0.333971 0.334743 0.321017 0.300004 0.296481 0.300688 
0.304999 0.303559 0.306158 0.312761 0.325441 0.341989 0.353392 0.356654 0.308478 
0.349036 0.371586 0.297825 0.302187 0.300348 0.307531 0.339611 0.338758 0.337819 
0.305623 0.303622 0.301375 0.305001 0.301635 0.304034 0.307243 0.340208 0.331105 
0.328295 0.374259 0.363291 0.320724 0.376357 0.363532 0.373008 0.365755 0.354758 
0.336848 0.330526 0.310465 0.309174 0.339049 0.340725 0.335208 0.336302 0.337176 
0.333974 0.145925 0.331764 0.332593 0.332626 0.34315 0.34394 0.342838 0.343668 
0.342358 0.33707 0.333214 0.363611 0.366931 0.310288 0.310508 0.309232 0.309536 
0.307489 0.308001 0.305342 0.305867 0.3032 0.303802 0.301588 0.301866 0.30109 
0.30118 0.30107 0.300984 0.302199 0.301807 0.306011 0.305636 0.307474 0.307196 
0.314615 0.313381 0.318998 0.317312 0.31629 0.323244 0.321518 0.322052 0.325744 
0.324604 0.326286 0.327157 0.329617 0.328425 0.329084 0.331772 0.330895 0.331656 
0.325647 0.326966 0.361446 0.35688 0.322936 0.309977 0.310732 0.31837 0.31964 
0.322171 0.323723 0.321741 0.314315 0.314234 0.327585 0.328526 0.328779 0.329486 
0.330382 0.312327 0.313052 0.306962 0.307192 0.31642 0.314885 0.32049 0.318913 
0.318985 0.324247 0.322937 0.324093 0.326012 0.32519 0.327543 0.325967 0.325701 
0.32799 0.324672 0.324996 0.32645 0.31141 0.309407 0.304047 0.314598 0.312452 
0.323664 0.311236 0.33216 0.337609 0.324741 0.356368 0.347519 0.34073 0.351517 
0.344335 0.340104 0.350643 0.324804 0.324286 0.311383 0.332313 0.334238 0.30884 
0.31027 0.331139 0.3289 0.345755 0.34538 0.346207 0.33294 0.333913 0.329005 
0.33016 0.337224 0.327321 0.328211 0.332967 0.324153 0.325497 0.330072 0.31654 
0.308726 0.308772 0.327603 0.327473 0.327596 0.328493 0.330746 0.33285 0.322247 
0.317229 0.310913 0.312306 0.366737 0.362289 0.319854 0.316882 0.313422 0.310474 
0.334608 0.333643 0.338562 0.340784 0.346658 0.345119 0.288929 0.321493 0.342333 
0.3406 0.339201 0.326144 0.329123 0.326727 0.3468 0.346837 0.347472 0.324897 
0.323289 0.324952 0.330294 0.330952 0.323796 0.323984 0.362567 0.356094 0.337624 
0.336172 0.338409 0.315132 0.318861 0.3101 0.328977 0.331008 0.326324 0.311835 
0.315375 0.303518 0.323818 0.326746 0.324563 0.308797 0.308255 0.311328 0.311924 
0.332222 0.326458 0.347321 0.348737 0.309797 0.334421 0.33326 0.311312 0.310951 
0.309484 0.310916 0.330283 0.315575 0.316495 0.314516 0.310419 0.310552 0.31006 
0.310357 0.314193 0.313069 0.30558 0.305767 0.306576 0.30665 0.303771 0.304034 
0.307589 0.307424 0.309304 0.308988 0.352583 0.327458 0.153856 0.157153 0.332041 
0.311761 0.311865 0.304704 0.333141 0.337351 0.334644 0.164621 0.170103 0.316013 
0.333995 0.174799 0.1781 0.340522 0.181393 0.183579 0.334679 0.18588 0.186744 
0.329193 0.309389 0.305914 0.300245 0.297218 0.306072 0.308942 0.299065 0.357988 
0.307386 0.307534 0.308229 0.360497 0.300245 0.302767 0.304132 0.306774 0.333293 
0.340861 0.30751 0.309315 0.342875 0.348863 0.355851 0.307814 0.333237 0.33948 
0.349889 0.3579 0.32869 0.326472 0.35316 0.352271 0.338807 0.332977 0.308122 
0.354077 0.334079 0.331283 0.326946 0.333358 0.332181 0.335525 0.353437 0.303591 
0.346274 0.349653 0.334442 0.341819 0.343355 0.308286 0.306367 0.308713 0.302197 
0.300861 0.188053 0.187979 0.337573 0.342774 0.327767 0.329953 0.330135 0.324126 
0.31865 0.329478 0.324832 0.337349 0.338539 0.330188 0.326603 0.331489 0.33174 
0.29859 0.349402 0.349269 0.350128 0.338473 0.340474 0.346394 0.352162 0.321601 
0.188121 0.187649 0.317035 0.186529 0.185148 0.342492 0.337491 0.331716 0.334286 
0.339157 0.332871 0.330945 0.349304 0.313547 0.348422 0.330603 0.331363 0.33417 
0.341125 0.183158 0.180067 0.338402 0.343983 0.341876 0.349883 0.331879 0.34678 
0.344961 0.342504 0.338681 0.334738 0.31534 0.176854 0.17232 0.334638 0.332358 
0.34545 0.167644 0.161179 0.147492 0.146992 0.33591 0.155055 0.147704 0.333435 
0.575773 0.469866 0.333581 0.333577 0.333369 0.333016 0.332477 0.331774 0.330939 
0.330005 0.329051 0.32781 0.326574 0.3254 0.324219 0.32305 0.321897 0.320754 
0.319658 0.31864 0.317784 0.317095 0.316488 0.31607 0.315754 0.315721 0.315818 
0.316146 0.316585 0.317201 0.317973 0.318889 0.319866 0.32094 0.322102 0.32338 
0.324588 0.325673 0.32665 0.327551 0.328352 0.328838 0.329213 0.329364 0.32928 
0.328905 0.328354 0.327564 0.326518 0.325346 0.323767 0.321951 0.320172 0.318142 
0.315956 0.313413 0.310746 0.308218 0.305751 0.30282 0.300234 0.297829 0.295127 
0.292571 0.290224 0.28816 0.28621 0.284392 0.282787 0.281455 0.280137 0.279008 
0.278144 0.277537 0.277075 0.276955 0.276981 0.277413 0.278089 0.279276 0.280725 
0.283134 0.285882 0.289911 0.295126 0.302299 0.311113 0.324888 0.347021 0.383419 
0.532593 0.33346 0.333528 0.516352 0.373615 0.338197 0.321811 0.310313 0.301951 
0.294971 0.289729 0.28549 0.28292 0.28063 0.279194 0.27805 0.277523 0.277201 
0.277276 0.27752 0.278077 0.278815 0.279876 0.280975 0.282387 0.283922 0.285639 
0.287437 0.289323 0.291607 0.293914 0.296282 0.298774 0.30165 0.304235 0.306921 
0.309355 0.312066 0.314562 0.316739 0.318964 0.321119 0.322965 0.324549 0.325964 
0.327113 0.32803 0.328782 0.329276 0.329518 0.329541 0.329376 0.328996 0.328383 
0.327664 0.326779 0.325685 0.324585 0.323491 0.322371 0.321278 0.320161 0.319149 
0.318299 0.317549 0.316909 0.316463 0.316135 0.316027 0.316072 0.316327 0.316676 
0.317292 0.317995 0.318782 0.319726 0.320835 0.321957 0.323087 0.324239 0.3254 
0.326611 0.327781 0.328916 0.329997 0.330926 0.331715 0.332485 0.333023 0.333425 
0.333575 0.333252 0.333317 0.333233 0.333238 0.333272 0.333316 0.333449 0.333705 
0.333964 0.334298 0.334683 0.335086 0.335529 0.335997 0.336534 0.337076 0.337614 
0.33817 0.338708 0.339237 0.339831 0.340724 0.341173 0.34157 0.341885 0.342126 
0.342246 0.342369 0.342409 0.342365 0.342249 0.342074 0.341831 0.34155 0.341181 
0.340771 0.340311 0.339826 0.339307 0.338748 0.338116 0.337575 0.337054 0.33651 
0.335975 0.335503 0.335049 0.334621 0.334244 0.333927 0.333648 0.333424 0.333332 
0.333228 0.340306 0.119005 0.136028 0.146194 0.157517 0.164489 0.17052 0.174686 
0.178457 0.181385 0.184106 0.185496 0.186939 0.187374 0.188011 0.187307 0.186957 
0.185323 0.181359 0.178327 0.17414 0.16985 0.16335 0.154841 0.147318 0.11866 
0.103526 0.183992 0.100362 0.11788 0.155509 0.145821 0.169202 0.163307 0.177468 
0.173594 0.183274 0.180335 0.186465 0.184914 0.187863 0.187124 0.187415 0.187603 
0.184969 0.186087 0.179797 0.182451 0.171884 0.175878 0.159099 0.166268 0.138578 
0.150346 0.123684 0.153746 0.187872 0.18781 0.165873 0.178713 0.182404 0.177921 
0.180917 0.184607 0.18347 0.163991 0.187387 0.174364 0.129016 0.144123 0.185276 
0.107569 0.101538 0.186173 0.175584 0.1705 0.186569 0.187213 0.156729 0.169877 
0.147791 0.155748 0.128695 0.310417 0.315131 0.31182 0.34133 0.341117 0.340894 
0.340666 0.316049 0.315667 0.315159 0.337502 0.337529 0.337987 0.337977 0.338034 
0.309141 0.309684 0.30791 0.308137 0.306615 0.199208 0.194087 0.338255 0.338585 
0.338806 0.339368 0.339633 0.33898 0.322351 0.322311 0.321212 0.350888 0.348451 
0.348339 0.338678 0.339123 0.314915 0.316108 0.313552 0.314851 0.35415 0.36706 
0.363214 0.380735 0.338418 0.337984 0.338474 0.313645 0.338545 0.338067 0.332291 
0.326535 0.339577 0.333778 0.317146 0.318819 0.318737 0.310873 0.305761 0.306149 
0.300947 0.337649 0.337129 0.337111 0.32447 0.324647 0.325201 0.325381 0.32289 
0.309505 0.309009 0.308664 0.307951 0.324876 0.32396 0.324008 0.299113 0.301937 
0.300867 0.302933 0.292114 0.295013 0.328347 0.326392 0.328538 0.326493 0.327642 
0.326881 0.326787 0.332034 0.331098 0.333581 0.332945 0.334519 0.331501 0.330017 
0.335889 0.336476 0.335815 0.33646 0.220719 0.220459 0.23318 0.329009 0.325815 
0.326376 0.329056 0.329556 0.333258 0.333275 0.333304 0.333276 0.330979 0.328721 
0.334486 0.332394 0.33746 0.333907 0.340293 0.337241 0.340524 0.340844 0.340813 
0.341176 0.310231 0.310323 0.309608 0.326404 0.32566 0.32394 0.318761 0.317118 
0.313032 0.312252 0.313514 0.312676 0.334325 0.334453 0.334644 0.319099 0.319531 
0.317872 0.309854 0.319497 0.318486 0.318323 0.309094 0.309188 0.309964 0.326495 
0.324182 0.324399 0.319989 0.320193 0.319587 0.334865 0.335293 0.335219 0.310183 
0.312117 0.31241 0.314278 0.303265 0.30048 0.302459 0.320105 0.31936 0.320521 
0.340406 0.340026 0.340305 0.32189 0.322149 0.321354 0.32075 0.321404 0.319696 
0.32034 0.320687 0.3198 0.320006 0.319165 0.314414 0.314485 0.315461 0.337221 
0.336356 0.335924 0.220489 0.215206 0.238319 0.332296 0.333716 0.329446 0.330381 
0.328135 0.335061 0.318698 0.325928 0.286773 0.294485 0.282583 0.303522 0.305584 
0.304744 0.306855 0.310723 0.310425 0.329265 0.33001 0.329368 0.324346 0.326282 
0.324083 0.330854 0.331363 0.331478 0.333626 0.334185 0.33393 0.334474 0.315682 
0.311487 0.316909 0.312835 0.317375 0.315644 0.317393 0.299854 0.306555 0.300214 
0.330223 0.330763 0.327675 0.328285 0.328557 0.308773 0.30887 0.309636 0.293975 
0.297337 0.293009 0.329199 0.321522 0.308428 0.32092 0.318406 0.318147 0.316527 
0.301014 0.296384 0.300643 0.320175 0.320132 0.319531 0.309946 0.304248 0.31042 
0.287744 0.287716 0.293312 0.312581 0.308116 0.314439 0.317545 0.317602 0.31752 
0.317752 0.314445 0.314798 0.31583 0.317697 0.31607 0.316845 0.31539 0.312758 
0.318047 0.301427 0.323471 0.325366 0.318623 0.295949 0.313071 0.313362 0.312123 
0.312428 0.30732 0.306935 0.30828 0.322771 0.318863 0.319624 0.325636 0.318688 
0.316497 0.320013 0.321142 0.338999 0.338737 0.338195 0.320827 0.319278 0.317295 
0.283642 0.343469 0.345318 0.342328 0.301886 0.314016 0.311814 0.311922 0.284275 
0.290834 0.283887 0.313185 0.324001 0.326108 0.323569 0.319241 0.318882 0.318603 
0.29322 0.28519 0.292058 0.287785 0.29481 0.28985 0.263041 0.27859 0.254342 
0.321786 0.314464 0.309682 0.317286 0.295952 0.282021 0.297213 0.3146 0.315554 
0.297296 0.296078 0.293896 0.331211 0.330539 0.331373 0.310813 0.311028 0.310719 
0.310974 0.310424 0.310166 0.310698 0.310576 0.326579 0.325787 0.325744 0.306027 
0.30521 0.303569 0.302841 0.300279 0.293954 0.32017 0.32904 0.32908 0.328323 
0.320834 0.321468 0.320689 0.323171 0.322332 0.324156 0.323319 0.316165 0.314845 
0.316516 0.303664 0.305989 0.310321 0.19716 0.209025 0.209576 0.250054 0.292139 
0.237569 0.319682 0.322466 0.321116 0.323364 0.321384 0.323209 0.310676 0.311656 
0.310634 0.350012 0.348853 0.347507 0.212988 0.198704 0.21371 0.325425 0.324451 
0.329557 0.291158 0.28734 0.259193 0.33477 0.333812 0.337789 0.321439 0.323955 
0.323601 0.4572 0.645494 0.307133 0.30786 0.309479 0.315707 0.311089 0.315873 
0.322801 0.323318 0.324662 0.293287 0.281035 0.295162 0.404717 0.372036 0.387187 
0.602496 0.634827 0.30827 0.304597 0.307701 0.327378 0.328249 0.327437 0.309487 
0.310029 0.322329 0.323167 0.323068 0.323929 0.209689 0.197144 0.324176 0.321326 
0.199401 0.32116 0.323233 0.31816 0.317879 0.31768 0.237497 0.240656 0.294106 
0.324815 0.323936 0.324799 0.310809 0.311191 0.310121 0.3107 0.333517 0.333189 
0.333383 0.19872 0.306599 0.313165 0.30645 0.292725 0.282939 0.294087 0.285074 
0.317931 0.319539 0.320819 0.314713 0.316064 0.316142 0.321384 0.322072 0.320586 
0.304805 0.228924 0.243726 0.226466 0.322455 0.32041 0.322519 0.317021 0.317659 
0.317345 0.309088 0.310793 0.311511 0.326132 0.327363 0.326982 0.240727 0.296256 
0.323659 0.323603 0.322169 0.322502 0.324051 0.32163 0.310753 0.310726 0.322669 
0.294166 0.295894 0.287904 0.335454 0.334818 0.335008 0.333908 0.333595 0.333102 
0.316467 0.315627 0.316509 0.32217 0.327222 0.327405 0.335156 0.327392 0.341592 
0.333665 0.354599 0.319122 0.319618 0.341525 0.341138 0.340838 0.330329 0.340094 
0.339686 0.336178 0.336223 0.335758 0.339672 0.340497 0.340217 0.340209 0.340272 
0.324267 0.322629 0.292605 0.285364 0.293945 0.337523 0.337999 0.33704 0.337557 
0.314638 0.314268 0.315307 0.321558 0.334942 0.335013 0.335365 0.293812 0.300114 
0.296647 0.333502 0.33382 0.334135 0.311288 0.309999 0.311553 0.314014 0.314924 
0.317222 0.317964 0.308147 0.310055 0.313213 0.314716 0.311941 0.31372 0.334855 
0.334559 0.334482 0.317358 0.314839 0.316104 0.316608 0.315065 0.31556 0.251621 
0.259965 0.23194 0.239021 0.291935 0.297309 0.298412 0.303171 0.304008 0.311793 
0.311416 0.31119 0.311414 0.31055 0.312163 0.322746 0.317056 0.321095 0.320291 
0.320443 0.321949 0.31139 0.313182 0.318795 0.329135 0.328429 0.327961 0.327328 
0.320372 0.321325 0.319048 0.318972 0.318734 0.319518 0.317794 0.317992 0.318478 
0.319862 0.32567 0.326553 0.344475 0.329799 0.329914 0.329062 0.300735 0.305408 
0.296674 0.302183 0.323439 0.295737 0.313193 0.326634 0.308706 0.30658 0.295578 
0.294806 0.299893 0.320824 0.319864 0.32092 0.30201 0.301939 0.299703 0.312773 
0.309261 0.3149 0.321814 0.321831 0.310971 0.312424 0.310989 0.306451 0.300542 
0.309587 0.304103 0.312828 0.307375 0.324348 0.323513 0.325116 0.324277 0.302662 
0.299245 0.305641 0.3025 0.318439 0.317883 0.341555 0.289597 0.286757 0.256894 
0.312942 0.312776 0.314873 0.323569 0.322719 0.322714 0.317355 0.318742 0.31736 
0.310908 0.310948 0.312648 0.33158 0.331887 0.332425 0.332719 0.306879 0.307087 
0.307993 0.305272 0.30801 0.334414 0.333935 0.335037 0.334602 0.320797 0.320104 
0.30553 0.306415 0.308393 0.319074 0.318022 0.318822 0.317803 0.316874 0.32249 
0.324465 0.32065 0.322444 0.326017 0.32502 0.325096 0.318855 0.301699 0.299033 
0.300801 0.319487 0.3234 0.323455 0.321288 0.323981 0.323873 0.325235 0.318343 
0.317936 0.317904 0.317215 0.312341 0.330701 0.317309 0.317769 0.3191 0.286751 
0.282826 0.292754 0.295738 0.279798 0.2817 0.296919 0.288334 0.282372 0.211332 
0.195281 0.213494 0.316832 0.316359 0.316106 0.311375 0.328299 0.327289 0.327874 
0.32702 0.32793 0.335979 0.335394 0.317263 0.315722 0.314688 0.319357 0.319008 
0.3183 0.310042 0.30125 0.335687 0.335239 0.321815 0.322589 0.321726 0.304275 
0.311827 0.310552 0.304845 0.310968 0.305165 0.305777 0.307962 0.306089 0.322365 
0.30599 0.309816 0.309156 0.311136 0.311253 0.31082 0.300059 0.306177 0.306516 
0.312552 0.302651 0.301377 0.299401 0.300604 0.340531 0.340169 0.340724 0.339725 
0.339139 0.33927 0.322807 0.323709 0.319465 0.314515 0.316248 0.315994 0.317881 
0.320527 0.31797 0.272157 0.260978 0.26347 0.341161 0.357891 0.336943 0.340799 
0.317515 0.314884 0.323426 0.315079 0.245665 0.228656 0.23302 0.319137 0.321934 
0.331611 0.326016 0.329881 0.248884 0.238682 0.236772 0.315352 0.320405 0.317161 
0.32229 0.344356 0.344151 0.343196 0.328118 0.325597 0.330726 0.2691 0.256693 
0.332249 0.33233 0.331722 0.316713 0.317368 0.317054 0.322682 0.319004 0.317403 
0.238889 0.23735 0.225148 0.326671 0.326875 0.325726 0.325895 0.316718 0.315807 
0.266555 0.270522 0.256482 0.341545 0.197897 0.331683 0.339971 0.339879 0.282985 
0.293827 0.274757 0.289274 0.209182 0.195559 0.239526 0.31217 0.310961 0.312196 
0.311092 0.322376 0.323318 0.32127 0.277129 0.281936 0.197986 0.219429 0.215796 
0.326835 0.325103 0.334643 0.335189 0.294575 0.300479 0.337651 0.337051 0.337876 
0.337192 0.319368 0.316965 0.228761 0.212333 0.214711 0.19799 0.210351 0.338111 
0.31908 0.31889 0.318569 0.316313 0.315181 0.324164 0.323021 0.324751 0.323229 
0.326373 0.32768 0.288514 0.294315 0.285358 0.326454 0.330998 0.332016 0.305187 
0.291824 0.302132 0.328199 0.335871 0.335832 0.336502 0.339661 0.339765 0.339332 
0.339009 0.339443 0.341566 0.318205 0.325259 0.325042 0.325399 0.32747 0.30508 
0.304547 0.32509 0.326567 0.328808 0.32486 0.312213 0.311398 0.311831 0.311026 
0.312133 0.312663 0.312707 0.299596 0.294844 0.300287 0.323653 0.293546 0.28729 
0.330861 0.349424 0.35847 0.313044 0.314254 0.312937 0.312948 0.314188 0.314227 
0.319676 0.320873 0.494144 0.394872 0.301423 0.298951 0.303638 0.322104 0.32239 
0.313749 0.327474 0.312135 0.312988 0.312725 0.318141 0.317576 0.31757 0.336217 
0.336626 0.336672 0.329343 0.328788 0.310835 0.296742 0.209778 0.20921 0.314034 
0.315796 0.315781 0.304714 0.339754 0.339324 0.339807 0.329171 0.329899 0.328766 
0.321263 0.322954 0.325905 0.308546 0.309524 0.308698 0.309691 0.330637 0.33029 
0.329525 0.310822 0.440083 0.494876 0.451206 0.514619 0.311168 0.311961 0.358433 
0.358445 0.368164 0.427625 0.435077 0.412762 0.354215 0.348147 0.36297 0.367932 
0.32642 0.335035 0.339466 0.310079 0.310676 0.310029 0.310367 0.308866 0.308094 
0.310687 0.313585 0.311789 0.313483 0.311666 0.310587 0.309039 0.304795 0.333679 
0.333579 0.33387 0.333788 0.349896 0.305067 0.306417 0.310718 0.311066 0.310989 
0.341974 0.341534 0.246388 0.309769 0.309272 0.328129 0.335038 0.329452 0.325286 
0.311071 0.335072 0.334978 0.335775 0.288354 0.338969 0.338494 0.338902 0.332277 
0.318027 0.316888 0.311249 0.302821 0.304357 0.301878 0.313649 0.332921 0.311601 
0.334278 0.304537 0.30415 0.299412 0.299058 0.353831 0.353009 0.360575 0.359863 
0.332914 0.328245 0.327303 0.336399 0.336592 0.333516 0.339433 0.339683 0.340702 
0.282189 0.288324 0.271162 0.278664 0.338313 0.338336 0.21677 0.366043 0.376635 
0.368573 0.317572 0.336141 0.335798 0.2742 0.282079 0.265923 0.274947 0.280117 
0.285173 0.302442 0.297404 0.285977 0.290566 0.322751 0.316859 0.317687 0.311767 
0.340456 0.340701 0.288367 0.30926 0.317968 0.351863 0.346488 0.372876 0.371581 
0.275633 0.269685 0.341678 0.341136 0.341764 0.340733 0.340652 0.340861 0.335672 
0.317057 0.324556 0.318806 0.32423 0.339323 0.320147 0.318764 0.317781 0.323255 
0.323125 0.334643 0.340925 0.337904 0.300898 0.304074 0.304374 0.347548 0.352875 
0.35173 0.332754 0.331974 0.331318 0.294252 0.288732 0.300484 0.294363 0.333926 
0.333569 0.311321 0.312385 0.312745 0.328518 0.32942 0.333795 0.332985 0.332999 
0.339348 0.338907 0.327614 0.335342 0.335778 0.325672 0.327906 0.327181 0.340336 
0.314474 0.314596 0.313566 0.313655 0.315881 0.313067 0.338221 0.338745 0.307423 
0.309566 0.340185 0.31443 0.313158 0.277179 0.274288 0.268891 0.265245 0.310904 
0.310809 0.31054 0.310381 0.319353 0.319008 0.318824 0.318546 0.223397 0.235462 
0.211398 0.223424 0.278912 0.278695 0.285777 0.298813 0.293005 0.292613 0.287265 
0.32275 0.34103 0.329148 0.309775 0.307902 0.306477 0.30591 0.30272 0.298985 
0.33527 0.335016 0.334853 0.346292 0.355061 0.347807 0.222122 0.305342 0.267286 
0.304914 0.334973 0.335389 0.308681 0.308895 0.311504 0.311841 0.310874 0.328467 
0.32722 0.328674 0.327018 0.326092 0.326344 0.326023 0.314365 0.31581 0.286973 
0.293702 0.316738 0.31517 0.316866 0.292741 0.296343 0.340757 0.341104 0.340413 
0.314441 0.313081 0.31312 0.34047 0.340104 0.333631 0.313754 0.313821 0.312089 
0.312241 0.322229 0.293786 0.338114 0.33806 0.328225 0.327844 0.333285 0.331028 
0.33031 0.322701 0.324878 0.325972 0.327961 0.36203 0.366326 0.371494 0.329509 
0.338266 0.338565 0.339064 0.339956 0.339644 0.340009 0.27185 0.270332 0.262529 
0.260296 0.30391 0.304218 0.304734 0.305136 0.299658 0.293042 0.30102 0.29614 
0.30178 0.317265 0.31712 0.293367 0.293642 0.236369 0.333307 0.313202 0.312888 
0.306545 0.310977 0.340882 0.34065 0.341337 0.341708 0.341522 0.342295 0.342338 
0.340468 0.310253 0.310707 0.324142 0.324113 0.325114 0.199472 0.210829 0.199113 
0.317037 0.315495 0.315433 0.356328 0.351393 0.307603 0.308684 0.513378 0.435301 
0.382442 0.311347 0.310889 0.31115 0.323632 0.338141 0.331604 0.336241 0.302103 
0.303551 0.211528 0.197443 0.197705 0.332577 0.3322 0.332144 0.343602 0.344928 
0.343422 0.310465 0.31206 0.312036 0.33846 0.328564 0.328703 0.284648 0.291379 
0.307401 0.309207 0.325694 0.328109 0.32628 0.332786 0.333098 0.31761 0.334669 
0.334988 0.304544 0.298505 0.303953 0.297874 0.316757 0.315538 0.315645 0.34771 
0.343077 0.464954 0.353559 0.403611 0.308148 0.309351 0.3135 0.280116 0.28352 
0.316533 0.285349 0.287981 0.334429 0.294651 0.293609 0.288708 0.297248 0.301312 
0.301477 0.29643 0.318812 0.335795 0.338288 0.395378 0.379538 0.396783 0.341154 
0.289291 0.320022 0.318604 0.417238 0.387179 0.402618 0.316591 0.318233 0.32082 
0.333873 0.323745 0.337695 0.296479 0.292207 0.328213 0.315949 0.325735 0.291127 
0.290789 0.305595 0.301141 0.2911 0.290451 0.29607 0.331632 0.316959 0.287685 
0.276876 0.317546 0.317211 0.306487 0.304287 0.304869 0.309562 0.285016 0.222445 
0.22393 0.210391 0.322195 0.294184 0.292759 0.286479 0.209568 0.268567 0.260233 
0.27046 0.341873 0.342287 0.341172 0.309698 0.309249 0.307897 0.280402 0.339835 
0.339723 0.311748 0.310929 0.256593 0.217252 0.319979 0.320739 0.296597 0.279937 
0.281409 0.287769 0.303746 0.30097 0.317551 0.317383 0.317922 0.317813 0.308705 
0.308563 0.30702 0.323118 0.316889 0.317382 0.241878 0.241748 0.298248 0.336617 
0.336781 0.335827 0.285917 0.295088 0.320755 0.312828 0.313434 0.333606 0.325593 
0.320959 0.34399 0.341957 0.347241 0.344611 0.355655 0.359595 0.365146 0.316974 
0.313059 0.318176 0.317912 0.324826 0.314581 0.316012 0.31628 0.452777 0.404648 
0.292007 0.297241 0.295054 0.316495 0.31666 0.315843 0.31526 0.296245 0.317104 
0.316452 0.31519 0.321643 0.308862 0.307447 0.307044 0.317855 0.305606 0.309392 
0.309591 0.346226 0.311409 0.327496 0.327729 0.323665 0.324958 0.324614 0.325956 
0.324821 0.326186 0.401062 0.454462 0.315224 0.316842 0.340016 0.324417 0.323167 
0.322645 0.32598 0.318201 0.317691 0.318725 0.33852 0.310373 0.311653 0.324986 
0.324015 0.325174 0.325984 0.313226 0.312026 0.313364 0.312071 0.344725 0.350262 
0.240422 0.309593 0.333136 0.33223 0.299972 0.293033 0.297416 0.317296 0.317558 
0.317297 0.323422 0.329451 0.329041 0.310283 0.31014 0.24327 0.305834 0.303736 
0.310997 0.337428 0.337857 0.336635 0.336104 0.316641 0.326078 0.325739 0.31134 
0.311308 0.311814 0.193889 0.213991 0.194646 0.324416 0.327128 0.311109 0.283807 
0.291702 0.285034 0.336903 0.332057 0.303732 0.245527 0.255565 0.269954 0.316633 
0.334848 0.349323 0.323187 0.241582 0.236201 0.257187 0.310485 0.308628 0.308486 
0.31314 0.316323 0.313252 0.315812 0.316961 0.310945 0.308182 0.388505 0.299635 
0.305668 0.29916 0.290728 0.287439 0.314855 0.507678 0.618379 0.399998 0.363478 
0.378946 0.28646 0.33351 0.336986 0.343418 0.341907 0.321934 0.325067 0.320712 
0.304387 0.306188 0.308014 0.321687 0.323435 0.319636 0.321166 0.210228 0.195751 
0.195378 0.303945 0.301706 0.269263 0.258682 0.269423 0.319138 0.282005 0.285335 
0.290609 0.322749 0.31561 0.314424 0.297094 0.33018 0.351847 0.344168 0.315772 
0.31484 0.309962 0.333152 0.331789 0.332345 0.301438 0.363723 0.322902 0.322018 
0.389241 0.378988 0.393311 0.301587 0.299008 0.303542 0.317967 0.319265 0.31726 
0.310594 0.309987 0.302756 0.305494 0.305506 0.319106 0.312578 0.335464 0.31749 
0.290597 0.275079 0.29853 0.378124 0.314722 0.439902 0.29507 0.297783 0.335487 
0.336224 0.336599 0.337238 0.342717 0.343284 0.342192 0.305272 0.441074 0.377438 
0.339884 0.343019 0.326471 0.319532 0.318888 0.314488 0.31321 0.324514 0.321951 
0.305357 0.28546 0.289841 0.290439 0.310885 0.31041 0.308729 0.333312 0.323646 
0.323908 0.333716 0.33318 0.331827 0.311521 0.311089 0.338885 0.264801 0.305551 
0.306697 0.31235 0.309939 0.333299 0.326186 0.33052 0.306052 0.318824 0.312863 
0.318544 0.376395 0.344347 0.330843 0.308689 0.307562 0.309185 0.284741 0.297439 
0.300556 0.301377 0.303791 0.325404 0.306733 0.318634 0.319377 0.313119 0.331571 
0.328479 0.33056 0.317005 0.315282 0.312422 0.337761 0.338525 0.353095 0.356774 
0.317761 0.31772 0.319899 0.319989 0.345451 0.344252 0.301554 0.303867 0.318124 
0.339344 0.332463 0.331962 0.331573 0.331083 0.317128 0.317046 0.330883 0.33068 
0.330359 0.330947 0.336487 0.336092 0.336559 0.340191 0.32195 0.294733 0.289586 
0.322695 0.322442 0.323792 0.323613 0.312805 0.329231 0.235465 0.295069 0.312916 
0.312291 0.319057 0.289196 0.321833 0.306566 0.295771 0.291729 0.342163 0.334103 
0.335747 0.311519 0.317886 0.319026 0.328421 0.326238 0.341481 0.341339 0.343182 
0.389525 0.343887 0.415559 0.330004 0.329585 0.329268 0.315267 0.268572 0.27108 
0.279246 0.324842 0.322631 0.305093 0.336493 0.337055 0.198788 0.210694 0.292592 
0.286827 0.292614 0.287239 0.294672 0.29206 0.308261 0.305904 0.30639 0.305535 
0.308107 0.305134 0.303821 0.303843 0.308011 0.283185 0.288906 0.290828 0.33099 
0.265019 0.265436 0.255945 0.255855 0.30972 0.310139 0.348341 0.327783 0.342487 
0.343427 0.334491 0.334168 0.334334 0.31344 0.299326 0.306237 0.346956 0.348765 
0.340932 0.340904 0.341131 0.335671 0.318091 0.305641 0.321587 0.322483 0.327271 
0.310476 0.326961 0.312914 0.337081 0.310224 0.309923 0.307095 0.311938 0.311134 
0.310505 0.31008 0.310787 0.310336 0.337603 0.31156 0.4966 0.320019 0.242548 
0.377797 0.374229 0.352751 0.335007 0.29383 0.298136 0.291205 0.295319 0.298909 
0.30424 0.296591 0.301581 0.318454 0.319333 0.318413 0.31814 0.34093 0.341197 
0.340876 0.321154 0.322343 0.324736 0.31704 0.318596 0.323009 0.326977 0.323876 
0.324208 0.29744 0.296445 0.304373 0.240546 0.295564 0.297456 0.289169 0.282634 
0.281727 0.306563 0.299503 0.292687 0.315251 0.358344 0.361001 0.317173 0.337861 
0.341529 0.328667 0.308122 0.307465 0.250806 0.305744 0.304531 0.300046 0.298788 
0.357319 0.367076 0.362737 0.357132 0.362874 0.324627 0.330935 0.328822 0.321413 
0.32156 0.341566 0.318554 0.337006 0.315567 0.314857 0.326818 0.340852 0.320069 
0.320564 0.199626 0.319416 0.318887 0.343358 0.311255 0.309786 0.31264 0.310462 
0.309406 0.308241 0.318538 0.329819 0.330576 0.330254 0.194906 0.315864 0.242973 
0.297647 0.337519 0.3392 0.317793 0.317503 0.31805 0.312106 0.313426 0.312438 
0.334383 0.333487 0.33399 0.299056 0.323896 0.322951 0.324567 0.309355 0.313609 
0.315755 0.323235 0.29869 0.296084 0.302558 0.333414 0.321548 0.322605 0.236089 
0.335205 0.334405 0.334648 0.292626 0.2925 0.298984 0.262101 0.265062 0.266834 
0.31059 0.308777 0.297996 0.294361 0.318338 0.347027 0.34154 0.317104 0.319312 
0.338056 0.338628 0.31929 0.306596 0.306796 0.30046 0.317017 0.31853 0.316785 
0.286765 0.286838 0.393968 0.408136 0.414433 0.437692 0.288857 0.282622 0.282478 
0.296771 0.287241 0.298659 0.33464 0.308783 0.365536 0.34567 0.273293 0.330814 
0.337031 0.33651 0.336008 0.336584 0.314648 0.311526 0.212016 0.211975 0.226801 
0.333617 0.325455 0.325562 0.292739 0.286459 0.291599 0.312043 0.314689 0.316034 
0.329404 0.328354 0.319983 0.316195 0.211607 0.225392 0.199059 0.197223 0.302165 
0.296867 0.319298 0.330525 0.329752 0.31731 0.318983 0.279133 0.27959 0.287048 
0.304514 0.308438 0.309381 0.308558 0.303359 0.311022 0.33265 0.332964 0.332523 
0.332878 0.308438 0.306351 0.318183 0.318757 0.318434 0.311047 0.31102 0.311079 
0.253127 0.257273 0.241796 0.340024 0.323357 0.33578 0.314532 0.400898 0.344331 
0.427199 0.348267 0.335913 0.335418 0.33487 0.335512 0.214747 0.336624 0.334686 
0.337045 0.337007 0.331812 0.307623 0.306216 0.306427 0.312469 0.306217 0.304269 
0.311018 0.311149 0.343387 0.344082 0.343819 0.344571 0.304099 0.318566 0.315849 
0.31671 0.323812 0.322801 0.246779 0.258247 0.245084 0.317551 0.307835 0.308186 
0.309561 0.3104 0.302554 0.308775 0.308739 0.313612 0.292826 0.332987 0.332619 
0.332451 0.325877 0.324765 0.298226 0.288771 0.310707 0.323566 0.325361 0.330014 
0.335457 0.30366 0.311503 0.319593 0.322509 0.319779 0.307055 0.307878 0.238239 
0.295034 0.295034 0.299367 0.299817 0.311345 0.311744 0.311625 0.309918 0.310676 
0.30894 0.309638 0.329567 0.330494 0.32948 0.323667 0.293758 0.261595 0.251312 
0.322737 0.320055 0.353029 0.328156 0.327754 0.327832 0.340194 0.312348 0.311912 
0.310541 0.290134 0.308969 0.322974 0.31103 0.307144 0.322157 0.321528 0.323732 
0.332461 0.312902 0.311172 0.315627 0.335043 0.334059 0.334271 0.335082 0.332588 
0.333011 0.32065 0.308276 0.306262 0.307705 0.317026 0.315642 0.314388 0.320343 
0.320312 0.336909 0.313783 0.312778 0.316706 0.318065 0.313311 0.31215 0.323057 
0.32217 0.323064 0.328597 0.221986 0.234743 0.220467 0.23351 0.294489 0.289171 
0.322245 0.289289 0.299814 0.319903 0.297236 0.197033 0.304867 0.310819 0.30956 
0.310515 0.298947 0.28095 0.332747 0.314768 0.321878 0.321469 0.320039 0.31778 
0.318846 0.241486 0.236219 0.294015 0.294668 0.238475 0.294291 0.292962 0.27894 
0.307107 0.309102 0.306093 0.318676 0.317558 0.318308 0.32044 0.311898 0.31176 
0.319239 0.421194 0.305965 0.312473 0.320566 0.329069 0.333251 0.333411 0.359299 
0.368194 0.298084 0.318699 0.31802 0.332849 0.332325 0.333333 0.238535 0.269317 
0.289269 0.275171 0.333331 0.316427 0.319847 0.316451 0.311664 0.30667 0.312521 
0.286434 0.337635 0.337581 0.333847 0.341886 0.316473 0.299585 0.301181 0.30779 
0.299734 0.338895 0.338538 0.298119 0.325719 0.31854 0.344791 0.341153 0.351336 
0.347571 0.354245 0.307024 0.30872 0.307423 0.282102 0.26801 0.305079 0.341464 
0.310813 0.333149 0.333098 0.31014 0.310217 0.29026 0.313253 0.312486 0.316129 
0.317416 0.306365 0.310177 0.312821 0.312308 0.311453 0.311144 0.314002 0.315329 
0.314147 0.326975 0.314301 0.313204 0.314419 0.318759 0.319255 0.313597 0.313707 
0.320317 0.318693 0.297109 0.321329 0.32593 0.30921 0.311798 0.307416 0.322825 
0.320025 0.316724 0.315597 0.283708 0.29752 0.294719 0.297677 0.285038 0.320811 
0.319694 0.31841 0.31815 0.315126 0.31543 0.316937 0.2892 0.292269 0.321918 
0.324956 0.323908 0.311984 0.310116 0.310834 0.324947 0.315724 0.315488 0.313872 
0.309927 0.284361 0.303814 0.320579 0.320672 0.322377 0.315744 0.239772 0.306527 
0.275981 0.287887 0.282706 0.239653 0.339128 0.33964 0.337973 0.317775 0.317621 
0.305856 0.309995 0.315214 0.309624 0.315611 0.315952 0.314871 0.241847 0.317934 
0.321095 0.296179 0.292197 0.293271 0.331707 0.338872 0.3363 0.344466 0.322073 
0.325243 0.288775 0.294515 0.300462 0.300332 0.293898 0.288691 0.294151 0.300584 
0.314478 0.288424 0.333724 0.333583 0.333927 0.333799 0.306557 0.304966 0.298902 
0.295017 0.343008 0.339495 0.267411 0.257362 0.274995 0.30631 0.333865 0.334017 
0.339309 0.297307 0.303315 0.306477 0.213709 0.314086 0.247458 0.248143 0.235807 
0.332589 0.287759 0.262601 0.273401 0.246852 0.245336 0.2582 0.266603 0.256777 
0.277508 0.341006 0.340468 0.341373 0.371635 0.371818 0.382535 0.331683 0.330955 
0.331004 0.331196 0.331652 0.334208 0.333557 0.333186 0.333833 0.199512 0.210534 
0.198692 0.332117 0.331415 0.314502 0.317225 0.306485 0.3264 0.315444 0.316141 
0.312998 0.349972 0.347983 0.342658 0.341599 0.34199 0.323076 0.33522 0.312494 
0.310606 0.312252 0.314548 0.315217 0.319758 0.307391 0.307228 0.300253 0.303387 
0.302336 0.308877 0.307176 0.305444 0.295876 0.296488 0.319134 0.290509 0.295831 
0.33349 0.333338 0.311093 0.237773 0.280426 0.292357 0.306856 0.313281 0.31317 
0.340319 0.338438 0.300379 0.290993 0.196868 0.31469 0.31528 0.319051 0.31678 
0.338517 0.409903 0.289153 0.198223 0.284768 0.346047 0.346259 0.34461 0.306914 
0.307629 0.305469 0.305302 0.309212 0.319637 0.31818 0.316461 0.332883 0.333256 
0.309286 0.326201 0.316598 0.317407 0.30549 0.314021 0.312992 0.312861 0.317261 
0.309179 0.309364 0.292415 0.286708 0.287282 0.287594 0.31115 0.320206 0.319656 
0.316301 0.30607 0.320295 0.34038 0.340474 0.320395 0.316427 0.310574 0.310117 
0.311961 0.317656 0.317837 0.311975 0.309853 0.336698 0.323358 0.223567 0.223783 
0.211065 0.321733 0.318928 0.318937 0.321368 0.354721 0.318878 0.330288 0.327776 
0.328648 0.332524 0.305342 0.310877 0.280603 0.280314 0.313901 0.31508 0.314496 
0.289194 0.282414 0.298763 0.29297 0.359674 0.34946 0.34452 0.241408 0.236355 
0.357389 0.360728 0.349728 0.352479 0.330972 0.331102 0.316084 0.315014 0.298411 
0.294726 0.30739 0.304467 0.268497 0.282298 0.261989 0.318633 0.316935 0.315985 
0.354182 0.317498 0.318542 0.339765 0.341767 0.372226 0.372997 0.36033 0.340439 
0.314947 0.3216 0.326716 0.326557 0.33514 0.332781 0.300501 0.299531 0.311919 
0.311906 0.310385 0.31391 0.315152 0.31453 0.312603 0.333489 0.313171 0.3051 
0.307405 0.308793 0.311667 0.310354 0.309367 0.306306 0.307408 0.313555 0.378243 
0.330171 0.317682 0.29933 0.306453 0.339045 0.289466 0.275922 0.27569 0.317807 
0.31477 0.316023 0.322678 0.293018 0.296414 0.343078 0.310557 0.308963 0.309801 
0.295778 0.640633 0.659966 0.306512 0.304605 0.353002 0.290986 0.283028 0.506275 
0.45183 0.446824 0.346064 0.346409 0.3446 0.339802 0.340659 0.30249 0.333562 
0.333942 0.339478 0.324179 0.336101 0.335668 0.331285 0.322707 0.319797 0.320098 
0.320121 0.318565 0.435522 0.316053 0.259579 0.416398 0.309946 0.309716 0.310863 
0.331982 0.33271 0.332169 0.303082 0.304675 0.3325 0.310949 0.311592 0.31063 
0.311152 0.33303 0.333239 0.333271 0.34046 0.321013 0.320498 0.311841 0.306846 
0.308474 0.342603 0.343565 0.322963 0.327268 0.331396 0.295015 0.239505 0.341036 
0.306966 0.340857 0.322911 0.339559 0.333325 0.326922 0.325 0.340242 0.340708 
0.341028 0.333337 0.361988 0.373603 0.314448 0.313382 0.32768 0.32583 0.330797 
0.279143 0.317763 0.242249 0.33425 0.315609 0.31865 0.299473 0.295988 0.300842 
0.307822 0.308062 0.317438 0.320312 0.312686 0.398256 0.382001 0.316891 0.322227 
0.316402 0.315527 0.373721 0.308552 0.308298 0.306793 0.309372 0.306143 0.341739 
0.341212 0.281299 0.313098 0.314331 0.309284 0.306997 0.317868 0.323088 0.323802 
0.322859 0.308284 0.305673 0.309245 0.309472 0.341678 0.264214 0.320069 0.321456 
0.320369 0.320546 0.346869 0.348989 0.332521 0.331424 0.35135 0.31875 0.317214 
0.318257 0.327847 0.312196 0.316494 0.278501 0.276991 0.327129 0.290611 0.294959 
0.291852 0.296254 0.330583 0.329889 0.32479 0.324295 0.324249 0.322599 0.324943 
0.294411 0.343036 0.311049 0.284673 0.330081 0.330662 0.306887 0.402301 0.405822 
0.318511 0.305298 0.305044 0.334274 0.331145 0.301695 0.237824 0.323454 0.325652 
0.324523 0.306562 0.302468 0.388364 0.384475 0.330014 0.313201 0.317779 0.308286 
0.306517 0.33317 0.314487 0.332968 0.332866 0.331977 0.331386 0.317236 0.31771 
0.317211 0.318714 0.327774 0.317163 0.321834 0.320476 0.320031 0.318164 0.325196 
0.30924 0.325951 0.323767 0.314123 0.309421 0.314401 0.31242 0.313322 0.302584 
0.300495 0.241874 0.298164 0.272801 0.210376 0.263155 0.279962 0.244236 0.232326 
0.340789 0.34095 0.317214 0.30478 0.312675 0.259182 0.317623 0.313621 0.313702 
0.311191 0.312174 0.303868 0.303032 0.332909 0.315753 0.330116 0.332707 0.307997 
0.305949 0.30741 0.306124 0.302024 0.32098 0.320229 0.321021 0.199463 0.209617 
0.241603 0.287579 0.286901 0.301053 0.31469 0.252196 0.226302 0.329237 0.337213 
0.302055 0.33326 0.323764 0.320685 0.196016 0.374662 0.364315 0.318527 0.3197 
0.317254 0.318447 0.317136 0.315506 0.338697 0.30524 0.306648 0.236916 0.3995 
0.306811 0.315543 0.27079 0.260879 0.27533 0.312611 0.313037 0.310419 0.329615 
0.326674 0.304365 0.312629 0.312567 0.318716 0.317614 0.243902 0.233141 0.198811 
0.244059 0.333492 0.26999 0.25944 0.331826 0.323896 0.36894 0.297176 0.238697 
0.298207 0.304472 0.321728 0.333194 0.332163 0.337624 0.337828 0.337202 0.318494 
0.319717 0.318108 0.321646 0.319305 0.313523 0.318219 0.318115 0.306618 0.305265 
0.313454 0.313387 0.326664 0.22429 0.275015 0.282546 0.276062 0.336153 0.317077 
0.28082 0.331856 0.331252 0.243969 0.315126 0.312163 0.376136 0.319557 0.237454 
0.225294 0.239339 0.293544 0.288264 0.294384 0.300382 0.318962 0.288025 0.281685 
0.233846 0.244367 0.324393 0.322146 0.314068 0.315826 0.333748 0.325648 0.402794 
0.317238 0.320549 0.322314 0.326711 0.242278 0.236304 0.311441 0.303756 0.30792 
0.276681 0.380297 0.307849 0.240995 0.297686 0.241785 0.304997 0.29723 0.32736 
0.320109 0.331959 0.332322 0.331919 0.318695 0.320321 0.338909 0.342448 0.296234 
0.320524 0.283551 0.279076 0.34186 0.34122 0.280856 0.294718 0.241315 0.316873 
0.336651 0.333485 0.287533 0.250198 0.321142 0.330194 0.299711 0.331316 0.359193 
0.358011 0.318357 0.315929 0.317517 0.295457 0.30806 0.297798 0.313419 0.290721 
0.283234 0.272454 0.288751 0.313236 0.207427 0.342239 0.336148 0.332771 0.312633 
0.313572 0.313485 0.314363 0.25524 0.326063 0.281192 0.30024 0.30318 0.200019 
0.323125 0.310922 0.336611 0.337146 0.337069 0.324062 0.341938 0.322007 0.319275 
0.334611 0.346616 0.319215 0.321551 0.333828 0.340587 0.31498 0.321486 0.323459 
0.313488 0.260968 0.316425 0.317303 0.320954 0.322343 0.315384 0.31596 0.319597 
0.310511 0.307468 0.311353 0.284091 0.283719 0.2894 0.316669 0.326032 0.23227 
0.252178 0.328691 0.339214 0.326066 0.311137 0.312222 0.314387 0.396857 0.326643 
0.3244 0.32429 0.32683 0.315643 0.1958 0.317754 0.317669 0.312033 0.345443 
0.337452 0.340824 0.320288 0.320945 0.33446 0.282326 0.25058 0.25933 0.19715 
0.22477 0.245138 0.291538 0.308447 0.317081 0.304416 0.346584 0.32163 0.320032 
0.323263 0.313674 0.340651 0.340705 0.339791 0.34057 0.33973 0.33263 0.339494 
0.316219 0.291453 0.332689 0.332804 0.33247 0.270661 0.331852 0.285224 0.307219 
0.315471 0.316485 0.328777 0.31715 0.3162 0.317619 0.31718 0.317306 0.330933 
0.301578 0.297816 0.298867 0.321101 0.287626 0.295967 0.295193 0.289546 0.244748 
0.226516 0.220836 0.344674 0.310176 0.315819 0.285054 0.313276 0.280827 0.224052 
0.33946 0.301137 0.339385 0.282538 0.317971 0.320039 0.369276 0.245829 0.278909 
0.292184 0.320114 0.278131 0.282891 0.2387 0.298094 0.310151 0.340734 0.322624 
0.313018 0.320244 0.313807 0.3182 0.321199 0.333568 0.334071 0.326 0.317466 
0.341837 0.317658 0.2905 0.322341 0.320806 0.332453 0.332322 0.333031 0.28263 
0.332307 0.316659 0.334144 0.334035 0.331848 0.330199 0.291734 0.301994 0.28639 
0.322138 0.302297 0.304287 0.328401 0.236715 0.300818 0.302837 0.31304 0.329749 
0.320231 0.320143 0.280804 0.293925 0.218215 0.388505 0.357263 0.374583 0.221735 
0.333094 0.334589 0.333269 0.34103 0.340735 0.340544 0.316523 0.316911 0.317555 
0.308076 0.311271 0.31588 0.316395 0.31484 0.329849 0.329283 0.342635 0.309954 
0.318494 0.303167 0.299149 0.303895 0.304561 0.33117 0.331815 0.32225 0.309469 
0.300762 0.251329 0.249681 0.200872 0.265467 0.275046 0.313596 0.306967 0.194432 
0.321926 0.340245 0.326337 0.24778 0.248692 0.294451 0.295807 0.297864 0.326766 
0.313225 0.346682 0.326329 0.294334 0.326695 0.318974 0.308299 0.311297 0.348523 
0.254784 0.353456 0.31792 0.260773 0.503334 0.32757 0.315233 0.320729 0.332158 
0.310741 0.329733 0.350565 0.338894 0.307722 0.33235 0.298084 0.327303 0.28275 
0.32149 0.312925 0.317398 0.32865 0.319568 0.336393 0.327333 0.324813 0.330584 
0.295338 0.324242 0.319677 0.199421 0.306425 0.304424 0.314033 0.3327 0.286763 
0.3124 0.309387 0.435919 0.302975 0.283604 0.304151 0.317237 0.332219 0.331595 
0.334985 0.312585 0.300228 0.290503 0.305528 0.300139 0.29559 0.308777 0.306389 
0.300309 0.320404 0.318615 0.387887 0.307381 0.33423 0.334378 0.336062 0.332005 
0.332777 0.30089 0.323249 0.30467 0.304016 0.300111 0.321029 0.306666 0.309491 
0.320816 0.31685 0.316523 0.324452 0.329737 0.323448 0.319312 0.290254 0.282327 
0.320123 0.266859 0.31071 0.310875 0.222949 0.326409 0.332338 0.338523 0.336622 
0.337403 0.322736 0.310522 0.319901 0.311176 0.311189 0.317387 0.282551 0.288519 
0.197485 0.316604 0.320571 0.312779 0.308362 0.296788 0.30204 0.317639 0.266581 
0.351526 0.316534 0.370718 0.344274 0.343069 0.309785 0.279625 0.220644 0.342689 
0.331685 0.313743 0.333751 0.322617 0.312015 0.235135 0.319887 0.314537 0.293989 
0.311457 0.312023 0.313762 0.313846 0.318508 0.314264 0.310131 0.310943 0.317025 
0.341251 0.343418 0.280022 0.309303 0.345164 0.300805 0.32214 0.319486 0.33902 
0.336517 0.320207 0.32319 0.325227 0.336252 0.332227 0.35049 0.340161 0.30503 
0.326371 0.311659 0.291836 0.306067 0.310084 0.300714 0.318783 0.323238 0.325759 
0.322722 0.322322 0.33244 0.350383 0.355947 0.328622 0.297629 0.332404 0.300202 
0.339766 0.344794 0.340999 0.296177 0.310357 0.313633 0.326261 0.30504 0.320249 
0.319405 0.333341 0.332532 0.325659 0.329933 0.298652 0.310972 0.321674 0.330839 
0.331536 0.331015 0.357174 0.309661 0.348539 0.353647 0.237069 0.251976 0.301863 
0.299023 0.376766 0.431712 0.320838 0.353892 0.313956 0.300953 0.315037 0.333373 
0.333428 0.330115 0.297049 0.333183 0.321946 0.309848 0.306592 0.300503 0.310138 
0.280708 0.333278 0.330176 0.333335 0.333309 0.333092 0.353542 0.257829 0.241783 
0.249515 0.259837 0.317972 0.281198 0.338792 0.340534 0.340265 0.337837 0.33038 
0.322016 0.337164 0.297001 0.308818 0.291257 0.313535 0.33748 0.286882 0.24368 
0.252045 0.261211 0.225949 0.228711 0.352353 0.317008 0.33076 0.26118 0.313863 
0.31192 0.307711 0.317856 0.256585 0.337536 0.338621 0.333726 0.318392 0.312335 
0.317785 0.375115 0.312666 0.325485 0.29149 0.311052 0.288165 0.320504 0.311476 
0.294585 0.211902 0.322173 0.286615 0.338154 0.346995 0.346494 0.318042 0.339284 
0.313328 0.342007 0.311711 0.30114 0.302905 0.31136 0.253379 0.299928 0.324828 
0.337123 0.312741 0.314781 0.244701 0.315133 0.294385 0.312072 0.336517 0.328938 
0.2886 0.329361 0.309922 0.318437 0.311462 0.307126 0.314213 0.301922 0.321883 
0.323482 0.299604 0.339698 0.301522 0.315343 0.31278 0.322064 0.333094 0.306902 
0.342814 0.275311 0.304363 0.287874 0.326762 0.330811 0.295466 0.326926 0.292115 
0.313806 0.31736 0.323599 0.334218 0.318891 0.313988 0.295271 0.292076 0.33434 
0.306295 0.296706 0.3251 0.293116 0.301619 0.285935 0.318943 0.288647 0.333242 
0.33361 0.242045 0.240514 0.282691 
Strain%20yz%20component 1 12442 double
-0.142942 0.0809672 -0.103767 0.166663 5.18311e-06 -1.60158e-06 9.38078e-06 -3.46309e-06 0.0368142 
-0.0277248 0.0418399 -0.0403355 -0.0243352 0.0491572 -0.0291522 0.0526405 0.0551563 0.0813287 
0.0679367 0.0774035 0.0762839 0.104902 0.0732036 0.0723347 0.0717945 0.0729095 0.0728248 
0.0735369 0.0749428 0.075404 0.0742267 0.0739908 0.0737847 0.0737579 0.0742566 0.0749158 
0.074909 0.0755644 0.0761281 0.0775867 0.0822081 0.0950127 0.0933891 -0.108815 -0.118048 
-0.11108 -0.078938 -0.0726437 -0.0664041 -0.0739414 -0.0733785 -0.0744645 -0.0738825 -0.0727104 
-0.074818 -0.075184 -0.0746701 -0.0749863 -0.0752648 -0.0748551 -0.0748028 -0.0759392 -0.075852 
-0.0767897 -0.0774004 -0.0780486 -0.0803286 -0.0903986 -0.0671099 1.0792e-06 6.04199e-07 -1.48595e-05 
-1.18698e-05 -6.07741e-06 -6.5453e-06 -2.3713e-06 -6.56179e-07 3.65586e-06 8.46187e-06 1.07357e-05 -3.50359e-06 
1.38543e-05 1.24326e-05 1.14829e-05 1.3433e-05 -1.30426e-05 9.88321e-06 -6.44005e-06 8.01095e-06 -1.98574e-06 
-3.27978e-06 -8.29561e-06 -9.30069e-06 6.11202e-06 -1.44178e-05 -1.73884e-06 0.00546593 -0.00263128 -0.000204676 
-0.000223744 -0.000191575 -0.00013758 -8.92641e-05 -0.000104369 -8.92113e-05 -8.05204e-05 -7.76081e-05 -6.12601e-05 
-7.56659e-05 -8.03162e-05 -6.95267e-05 -5.78929e-05 -5.04284e-05 -4.39578e-05 -3.80844e-05 -2.92872e-05 -2.19637e-05 
-1.3157e-05 -5.96999e-06 5.55743e-07 5.86145e-06 1.03351e-05 1.32858e-05 1.59774e-05 1.56779e-05 1.46713e-05 
1.13577e-05 5.87883e-06 4.49571e-07 -5.4211e-06 -8.78776e-06 -1.32641e-05 -1.52662e-05 -1.65239e-05 -1.5357e-05 
-1.27075e-05 -1.03499e-05 -6.48831e-06 -2.89821e-06 1.40791e-05 3.58614e-06 4.49275e-06 1.32777e-05 5.08557e-06 
-9.10815e-06 -1.43899e-05 -2.02679e-05 -2.29063e-05 -2.22065e-05 -1.91361e-05 -1.89578e-05 -1.60978e-05 -8.91145e-06 
7.99619e-06 2.01298e-05 2.52376e-05 2.943e-05 3.22133e-05 3.44357e-05 3.31133e-05 2.55187e-05 1.84508e-05 
3.24536e-06 -7.42639e-06 -1.90565e-05 -2.65039e-05 -3.67288e-05 -4.77637e-05 -5.75491e-05 -6.57651e-05 -7.71239e-05 
-7.78192e-05 -7.64806e-05 -7.81117e-05 -8.13427e-05 -7.91802e-05 -8.67794e-05 -9.5955e-05 -0.000112752 -0.000128379 
-0.00014007 -0.000163912 -0.000254814 -0.000330114 0.00478079 0.0409287 0.00430312 -7.79278e-05 8.14401e-06 
-2.33027e-05 -3.93632e-05 3.75946e-06 -7.57448e-05 -9.4209e-05 -4.57518e-05 -4.51782e-05 -0.000345927 -0.00255728 
-0.00444993 -0.0038292 0.000318826 -0.000170243 -0.000203538 -8.23987e-05 7.5123e-05 3.67274e-05 -4.79899e-05 
-9.19111e-05 -0.000259378 -0.000362144 -9.46436e-05 0.000532977 3.12509e-06 2.58098e-06 9.022e-06 9.06117e-06 
7.0647e-06 3.9697e-06 2.19633e-06 -2.26706e-06 -3.85294e-06 2.74696e-06 -1.04264e-05 1.10432e-05 -1.51084e-05 
-1.30856e-05 -1.15533e-05 -1.54557e-05 4.83842e-06 -1.04141e-05 1.03887e-06 -4.3769e-06 4.81748e-06 4.57614e-06 
8.84138e-06 9.09224e-06 -4.09917e-07 1.41778e-06 -4.22576e-06 -0.0398416 0.00165895 0.000450879 9.06127e-05 
8.35943e-06 2.30396e-05 3.53548e-05 2.55883e-05 6.6198e-06 1.68349e-05 2.26215e-05 2.52683e-05 1.07458e-05 
2.40659e-05 3.82914e-05 3.93712e-05 3.80431e-05 3.52759e-05 3.03962e-05 2.50235e-05 1.99433e-05 1.22195e-05 
1.53567e-06 -8.96426e-06 -1.84371e-05 -2.48162e-05 -3.08007e-05 -3.76198e-05 -4.01144e-05 -3.91906e-05 -3.77081e-05 
-3.29272e-05 -2.46894e-05 -1.47502e-05 -6.82662e-06 2.99847e-06 8.63488e-06 1.50105e-05 1.88131e-05 1.96782e-05 
1.9129e-05 1.83649e-05 1.14164e-05 -2.82757e-06 -2.60864e-05 -2.53076e-05 -4.63367e-06 8.27653e-06 1.3074e-05 
1.66358e-05 1.95782e-05 1.98003e-05 1.8254e-05 1.20847e-05 3.48148e-06 -5.69296e-06 -1.65475e-05 -2.65891e-05 
-3.65425e-05 -4.06019e-05 -4.47098e-05 -4.7696e-05 -4.85659e-05 -4.24861e-05 -3.23091e-05 -2.2305e-05 -1.22077e-05 
-4.58161e-06 2.10225e-06 1.23278e-05 2.38317e-05 2.77534e-05 3.53034e-05 4.26823e-05 4.35177e-05 3.62747e-05 
3.72518e-05 3.6066e-05 3.4726e-05 3.32261e-05 4.20359e-05 5.97808e-05 8.35705e-05 0.00010904 0.000152236 
0.000219816 0.000178447 0.000962426 0.00164211 -0.0404098 -0.00612679 -0.000593055 -0.000211221 -0.000289812 
-0.000122471 -7.33649e-05 -8.58655e-05 -5.919e-05 -0.000121474 -0.00030595 -0.000483581 -0.000822561 1.4829e-05 
0.0037756 0.000181057 0.000120978 6.07648e-05 5.06372e-06 4.28601e-05 3.98062e-05 8.81596e-06 4.03049e-05 
3.56149e-05 -7.77913e-05 -0.000200981 -0.00274715 -8.20379e-07 -2.89424e-06 1.84777e-07 8.88163e-07 1.1289e-06 
1.46063e-06 -3.49477e-06 -4.43439e-06 -6.78869e-06 -5.72701e-06 -1.72379e-06 1.39397e-07 -4.7341e-06 -4.96629e-06 
-6.10187e-06 -3.28178e-07 -7.02961e-06 3.13308e-06 -1.44925e-06 -7.76523e-08 3.05652e-06 2.20344e-07 2.90891e-06 
3.40364e-06 -4.28017e-06 -1.19603e-06 1.01728e-05 0.00980264 -0.000367969 5.34854e-05 4.08087e-05 3.61311e-05 
8.55636e-06 7.34587e-06 2.38535e-05 2.92255e-05 2.76814e-05 2.37208e-05 2.37195e-05 6.55657e-06 1.84068e-05 
1.42719e-05 1.16448e-05 5.62011e-06 3.73037e-06 1.6609e-06 -2.30838e-06 -4.51975e-06 -6.84161e-06 -7.46258e-06 
-7.11866e-06 -6.51037e-06 -7.56045e-06 -5.76689e-06 -4.42886e-06 -3.43405e-06 -2.20887e-06 1.37894e-06 3.41555e-06 
4.49459e-06 6.56765e-06 6.50532e-06 7.5214e-06 7.45253e-06 5.99336e-06 4.23992e-06 2.44855e-06 1.9727e-06 
1.44935e-06 -1.45063e-06 1.75908e-07 -8.45252e-06 -3.89867e-06 -2.82376e-06 -2.44895e-06 -2.41926e-06 -1.53965e-06 
5.06864e-08 6.00277e-06 8.19729e-06 7.6172e-06 9.25988e-06 5.84935e-06 6.88358e-06 7.25651e-06 8.30375e-06 
7.69052e-06 5.17336e-06 2.87316e-06 -6.78838e-07 -2.9735e-06 -4.01183e-06 -3.49383e-06 -5.98306e-06 -8.5705e-06 
-1.0391e-05 -9.12209e-06 -9.33649e-06 -9.17973e-06 -8.01633e-06 -9.29303e-06 -9.13233e-06 -8.68773e-06 -7.05495e-06 
-6.0869e-06 -1.59351e-05 -1.53084e-05 -6.45894e-06 9.97365e-06 1.3899e-05 7.25721e-06 8.24826e-05 0.000796197 
0.00167627 0.0115649 0.00814962 0.00447244 0.0104183 0.0190598 0.00613151 0.00707205 0.00834059 
0.00872707 0.00787418 0.00850573 0.00809125 0.00806035 0.00814818 0.0086568 0.00894764 0.00851581 
0.00886114 0.00831462 0.0085827 0.00836798 0.00838568 0.00911856 0.00778522 0.00562708 0.0251165 
-0.00272814 0.000872233 5.83105e-05 7.16276e-05 -1.30308e-05 -4.14039e-05 -3.66104e-05 -9.69971e-06 7.19564e-05 
0.000296976 0.000430356 0.00079708 0.00113213 0.00657941 -0.0248359 0.00241566 9.54285e-05 0.000542538 
0.000240702 7.43115e-05 2.94772e-05 -2.77346e-05 -5.00275e-05 -3.51421e-05 -1.29212e-05 -7.66333e-05 -0.000147714 
-0.00063619 -0.00444191 0.00127179 0.0086655 -0.00801685 -0.00284476 0.00295323 -1.92683e-06 3.48572e-07 
3.41857e-07 -1.94008e-06 5.95241e-07 -9.77195e-07 -1.46169e-06 2.89956e-06 4.40242e-07 -1.40444e-06 2.69569e-06 
-2.66976e-06 -1.64448e-06 -3.40203e-06 3.33094e-07 -2.4742e-06 1.62922e-06 3.73081e-07 1.40488e-06 -1.13701e-06 
1.89154e-06 9.61767e-07 -3.50848e-06 5.53477e-07 -9.1721e-05 0.0020078 6.94964e-05 8.14877e-05 1.07004e-05 
4.04468e-05 3.1852e-05 4.23908e-06 6.98231e-06 2.51588e-06 2.00263e-06 5.60931e-06 9.05793e-07 -6.32253e-06 
-3.39312e-06 -1.24399e-06 -3.14571e-06 -4.93355e-06 -4.53427e-06 -2.05831e-06 -3.80671e-06 -4.84931e-06 -5.08882e-06 
-4.74762e-06 -3.94216e-06 -3.45978e-06 -3.42529e-06 -2.76691e-06 -1.08207e-06 -2.74689e-06 8.12478e-07 2.43765e-06 
3.50702e-06 3.17933e-06 4.53269e-06 5.1084e-06 4.087e-06 2.0531e-06 1.28282e-06 5.02078e-07 6.20152e-07 
-2.16795e-06 -1.86627e-06 3.8696e-06 0.000278222 0.000589593 5.03271e-08 -6.96721e-07 1.34198e-07 1.23661e-06 
2.98537e-06 7.88024e-06 6.50472e-06 4.9664e-06 4.64826e-06 2.26322e-06 1.05901e-06 2.25125e-06 1.38098e-06 
2.4074e-07 -2.87952e-06 -4.71785e-06 -5.33708e-06 -3.65786e-06 -4.75712e-06 -4.51422e-06 -4.97646e-06 -4.72464e-06 
-3.95407e-06 -3.63023e-06 -2.88884e-06 7.38522e-07 1.64559e-06 8.96237e-06 2.84029e-06 -3.54483e-06 9.60614e-07 
5.03562e-06 1.42969e-07 2.27445e-05 1.62339e-05 2.99036e-05 1.93772e-05 3.76671e-05 3.72953e-05 -0.000101693 
-0.000134594 -0.00113882 0.00180736 0.00168061 0.000202635 0.00158093 8.86564e-05 -0.000134703 -0.000171576 
-8.53975e-05 -0.00018729 -0.000125247 3.16535e-05 -5.96937e-05 4.10617e-06 -0.000136012 -0.000114829 -0.000176405 
-5.29912e-05 -8.59165e-05 -1.48126e-05 3.465e-05 -6.33029e-05 1.9993e-05 0.00030822 -0.000519464 1.26315e-05 
-3.99232e-05 1.79255e-05 3.77821e-05 4.46089e-05 -4.88243e-05 -7.82633e-05 3.00458e-05 -3.3852e-05 -0.000121589 
0.000215003 0.000803334 0.00077505 -0.000563972 -2.78314e-05 -1.05354e-05 -1.74324e-05 -1.62844e-05 -2.16108e-05 
-2.53245e-05 -5.45686e-05 -0.000178035 -0.00053966 -0.000337431 0.000501593 6.29141e-05 -0.000357235 -3.48911e-05 
-4.21286e-08 5.01599e-05 -0.000317658 0.000278063 -0.000801624 -4.61672e-05 -7.31704e-06 2.61036e-06 2.56035e-07 
-3.90954e-06 2.41119e-06 -5.51568e-07 1.29691e-06 4.42107e-06 -1.30794e-06 2.13266e-07 6.46111e-07 -2.55446e-06 
-7.98046e-07 -5.84689e-07 -5.4834e-07 8.57276e-07 4.3493e-07 8.10529e-07 1.35224e-06 5.93568e-07 4.66288e-06 
-8.4363e-07 -3.84803e-05 3.44883e-05 -4.02904e-07 -1.67944e-05 1.58175e-05 2.25136e-05 8.51331e-06 1.91237e-06 
3.76447e-07 1.70487e-06 -1.23084e-07 -8.85592e-07 -2.68886e-06 -1.45568e-06 -3.81385e-06 -2.79546e-06 -1.44982e-06 
-1.64163e-06 -1.96741e-06 -1.72399e-06 -1.06772e-06 5.38039e-07 -1.56446e-06 -1.4244e-06 -1.06643e-06 -4.52457e-07 
-2.17053e-06 -1.0795e-06 1.52349e-06 6.76463e-07 6.62476e-07 1.9002e-06 2.89001e-06 2.28904e-06 4.8861e-06 
1.13814e-06 -1.0602e-06 1.14154e-06 3.18873e-07 -2.00177e-06 -3.14809e-06 1.54937e-06 -0.000123911 -0.000122211 
4.9884e-05 -3.06341e-07 1.08021e-06 3.48056e-06 3.82975e-06 2.73491e-06 1.30028e-06 3.45253e-06 -4.94067e-06 
-5.98713e-06 -4.53641e-07 5.74974e-07 1.91687e-06 -3.34613e-06 -6.0866e-06 -1.42193e-05 -4.43099e-06 -4.97541e-06 
-9.38797e-07 -3.74874e-06 -5.20067e-06 5.75095e-07 -3.68231e-06 -4.79694e-07 1.30626e-05 2.29927e-05 1.22752e-05 
3.17844e-05 2.89409e-05 4.28947e-06 4.82026e-06 2.18605e-05 1.62355e-05 4.96369e-06 1.38217e-05 1.66279e-05 
2.20446e-05 1.81498e-05 -2.52623e-05 -0.000309512 0.000134176 0.000339773 -8.47358e-05 -4.74527e-05 3.37977e-06 
-2.66192e-05 1.63023e-05 -1.52031e-05 -5.29347e-05 -4.59495e-05 -3.75869e-05 -3.8191e-05 -2.78045e-05 -3.29873e-05 
-3.24747e-05 -4.48842e-05 -5.32689e-05 -4.66291e-05 -4.53385e-05 -2.52961e-06 -3.16909e-05 -2.45378e-05 -0.000132226 
7.59781e-06 -0.000150214 -2.48883e-05 2.80637e-05 -7.9009e-06 2.39827e-05 6.37627e-05 -4.23862e-05 -8.50676e-05 
7.53857e-05 -4.37812e-05 -0.00020619 0.000135892 -0.000122724 -7.64226e-06 -1.47993e-06 -9.93264e-06 -3.26782e-05 
-6.12767e-05 -6.49721e-05 8.57269e-05 0.000358575 -2.79854e-05 -1.29094e-06 7.5004e-05 5.2338e-06 6.46899e-06 
1.62965e-05 -2.87896e-06 3.42821e-05 5.87283e-05 4.19045e-05 -9.41632e-05 -5.53023e-05 -3.12843e-05 2.36205e-05 
-0.000102571 -5.23059e-06 -2.18407e-06 3.47282e-05 1.59801e-07 1.93268e-07 3.58128e-06 1.8033e-06 6.13628e-06 
3.0663e-06 -2.33564e-06 -1.56629e-06 2.32714e-06 3.57346e-06 3.44026e-06 -3.00029e-06 1.95489e-06 -2.1945e-06 
-3.37212e-07 1.61468e-06 1.43662e-06 1.76946e-06 -6.30086e-07 -2.8351e-05 1.3314e-05 1.44496e-05 -4.77358e-06 
3.28628e-05 2.65638e-06 -2.8924e-06 -4.31336e-06 -8.46137e-06 1.49516e-06 1.38602e-06 6.08236e-07 1.16867e-06 
3.70455e-06 -2.7151e-06 -5.29852e-06 1.75538e-06 -3.72833e-06 -2.21157e-06 -1.41243e-06 6.48442e-09 1.02171e-06 
7.04458e-07 8.41317e-07 -5.51602e-07 5.23926e-08 3.90868e-06 -1.3376e-06 -9.43108e-07 -2.74297e-06 -5.31791e-06 
-3.66278e-06 -3.10616e-06 3.74604e-06 5.83454e-06 1.26288e-06 7.32406e-06 5.28241e-06 2.86502e-06 7.36967e-07 
-1.28251e-06 1.17935e-07 -6.35406e-07 1.29247e-05 -1.51884e-05 -2.76157e-05 -2.19434e-05 2.65005e-06 4.25016e-06 
3.21025e-06 4.9328e-06 -1.00423e-06 1.52706e-05 7.01681e-07 2.23053e-06 1.61412e-06 -2.51692e-06 -9.08431e-06 
-1.66414e-05 1.58228e-06 6.21463e-06 8.0371e-08 -1.23847e-05 -6.81002e-06 6.55194e-07 1.11105e-05 6.91624e-06 
5.29071e-06 1.25501e-05 6.8555e-06 1.16266e-05 1.07586e-05 1.07495e-05 1.22393e-05 1.31373e-05 1.67483e-05 
8.09354e-06 2.50554e-06 1.72238e-05 -1.02737e-05 -3.21791e-06 7.95818e-06 -7.42173e-06 -3.51286e-05 -1.73328e-05 
-2.03167e-05 -3.80725e-08 -2.78735e-06 1.53773e-05 2.53519e-05 -2.19448e-06 -6.33716e-06 -7.3873e-07 -2.145e-06 
-7.62971e-06 -1.02083e-05 -6.12141e-06 9.61816e-06 7.09001e-06 -1.36723e-05 -1.57216e-07 6.12957e-05 -9.08006e-05 
-7.11205e-07 3.72292e-05 -2.24853e-05 -1.0427e-05 4.14594e-05 9.89626e-06 -5.28672e-05 0.000107399 4.885e-06 
-6.51276e-06 -3.86637e-06 4.75652e-05 3.52459e-05 7.43791e-05 -1.60168e-05 4.36804e-05 -6.16456e-05 -3.8061e-05 
5.04057e-05 3.3123e-05 -1.0578e-05 -2.00137e-05 -1.84921e-05 -4.75423e-06 -6.54797e-05 -1.77928e-05 -1.57392e-05 
-1.80893e-05 3.17609e-05 -0.000145777 -2.04468e-05 6.81996e-05 -5.80634e-06 2.83222e-05 5.59495e-05 3.36212e-06 
-1.25023e-05 -2.37855e-06 -2.16895e-06 -6.02991e-07 -3.34844e-06 -5.97871e-06 -1.64257e-05 1.27057e-05 1.05996e-06 
1.05899e-05 7.26636e-06 6.24872e-06 -4.2936e-06 1.12983e-06 -1.60295e-07 -2.89082e-05 -1.38079e-05 5.06322e-06 
3.54745e-05 1.92198e-05 -2.13268e-05 -1.4077e-06 -8.83128e-06 1.14244e-05 3.0362e-06 -5.63815e-06 -4.53601e-06 
-5.27961e-06 2.63653e-06 2.19754e-05 -4.38952e-06 -1.42795e-05 -2.45074e-05 -2.51593e-05 -1.53289e-05 6.78915e-06 
1.02022e-05 5.87889e-06 1.10717e-05 5.19706e-06 2.85004e-07 3.61165e-06 2.74236e-06 -3.94122e-06 -1.64519e-06 
4.47481e-06 9.76242e-06 1.98445e-05 3.57057e-06 -7.49145e-06 1.16135e-05 -1.3073e-06 -2.76102e-06 -4.05623e-06 
1.03804e-05 -5.32011e-05 -1.45725e-05 2.00917e-05 -5.82051e-06 -1.2683e-05 2.82714e-05 -2.48401e-06 9.74637e-06 
-2.06624e-06 -1.60725e-06 -5.45641e-06 -1.0051e-05 6.18539e-06 -1.90988e-05 2.27726e-05 -3.84533e-06 -1.80623e-05 
1.30686e-06 1.56472e-05 -5.46699e-06 -8.35683e-06 -9.27748e-06 -2.65738e-05 4.35236e-06 3.76076e-06 8.88495e-06 
-5.04539e-06 -5.78482e-06 5.38205e-06 -4.05034e-06 5.00781e-06 6.31215e-07 1.32516e-05 -1.12137e-06 1.40533e-05 
7.63225e-05 -2.52304e-06 2.23512e-05 -1.98203e-05 5.01233e-06 4.24523e-05 -3.06554e-05 -9.48219e-06 -1.21724e-06 
7.92936e-06 -6.85939e-06 1.84843e-05 -1.17964e-05 -1.1222e-06 7.84295e-06 -2.37713e-05 1.9514e-05 3.75607e-05 
-2.12287e-05 -3.05372e-05 -2.18062e-05 4.50743e-05 -3.0179e-05 -1.06601e-05 -9.52614e-05 -2.82149e-05 -3.48879e-06 
-6.97767e-06 2.92145e-05 -2.10496e-05 -9.94364e-08 -9.45659e-08 4.44666e-05 4.06855e-05 1.74756e-05 1.14388e-05 
2.91964e-05 3.35187e-05 -5.46399e-06 -5.92398e-05 7.03257e-05 -1.65806e-05 -6.39714e-06 -8.96841e-07 9.0001e-06 
1.10817e-05 3.65367e-05 -1.37419e-05 -2.26142e-05 3.27048e-06 3.03927e-06 0.000113945 3.50669e-05 7.40443e-06 
1.73548e-05 -1.57313e-07 1.16409e-06 3.88288e-06 -1.40684e-05 -1.34632e-06 -5.55935e-06 -1.89481e-05 -8.20788e-07 
1.37601e-05 -7.15636e-06 1.68514e-05 -2.29047e-06 -4.35735e-06 2.85403e-05 -7.74209e-06 6.90104e-06 1.40783e-05 
-1.73838e-05 -6.47186e-06 1.17726e-05 -7.40604e-06 2.86179e-05 -4.72979e-06 -1.56932e-05 -5.14536e-06 -1.60153e-06 
-2.19111e-06 1.13384e-05 -1.35524e-07 5.80273e-06 -5.13469e-06 7.67455e-07 2.31509e-05 -6.44988e-06 -4.18331e-06 
-6.9196e-06 -2.47189e-06 1.03787e-05 -7.49708e-06 1.09234e-05 8.23661e-06 -7.66809e-06 -1.73269e-05 3.30609e-05 
-4.20573e-05 2.54472e-05 -2.70321e-05 3.73567e-05 1.15647e-05 -9.18872e-06 1.57161e-07 -3.93643e-06 9.60153e-07 
-5.89801e-06 -2.69914e-05 -5.15558e-05 5.44789e-05 9.42608e-07 -4.84682e-06 4.18656e-05 -6.43662e-06 -0.00011181 
4.97629e-06 8.45358e-06 -7.21108e-07 -2.74687e-05 2.48955e-05 -1.56259e-06 -8.54925e-06 -1.90062e-05 1.93465e-05 
3.23611e-06 -1.04438e-05 -5.36051e-05 -3.49936e-05 -1.70092e-05 -7.9166e-06 -1.18995e-05 1.28826e-05 -5.44791e-06 
-5.0022e-05 4.17472e-06 -2.31188e-05 -2.4224e-05 -1.10658e-05 5.60591e-05 -2.91799e-05 1.08508e-05 5.39911e-07 
-2.22649e-05 -1.16025e-05 -1.21713e-05 -1.0731e-05 1.0121e-05 -2.36637e-05 6.73012e-05 -4.10616e-06 6.18536e-06 
1.19083e-06 1.6792e-06 1.15592e-06 -3.48603e-06 -2.67903e-06 3.21347e-06 4.41729e-06 2.2995e-06 2.06179e-07 
3.62486e-06 -1.72674e-06 2.19317e-06 5.53565e-06 4.03807e-06 2.21339e-06 2.45607e-06 1.58389e-06 -1.26834e-06 
9.94101e-08 -2.57367e-06 1.3606e-06 -3.57273e-06 -5.08159e-07 3.64018e-06 8.80827e-06 -1.42824e-06 -0.00251411 
-0.00095372 -0.000243033 -7.33917e-05 -6.31942e-05 -5.49624e-05 -3.26889e-05 -4.44709e-06 -1.31467e-05 -1.55482e-05 
-1.64869e-05 -2.09518e-05 -6.87945e-06 -4.00774e-06 -1.21813e-05 -1.27219e-05 -1.13655e-05 -8.4914e-06 -8.0987e-06 
-1.00239e-05 -6.43717e-06 -4.05668e-06 -1.2701e-06 2.28859e-06 3.5549e-06 4.45483e-06 6.09564e-06 7.13822e-06 
7.88363e-06 9.85906e-06 6.48807e-06 5.32825e-06 2.70075e-06 5.27239e-07 -2.976e-06 -4.20212e-06 -4.87663e-06 
-5.4109e-06 -4.93094e-06 -4.58844e-06 -3.05393e-06 -2.17637e-06 1.52461e-06 -3.81121e-06 1.94081e-06 3.28651e-06 
3.86221e-06 4.49881e-06 4.67764e-06 1.86383e-06 -2.51996e-06 -4.40254e-06 -2.802e-06 1.48404e-06 -4.13846e-06 
-6.12002e-06 -6.69352e-06 -7.88294e-06 -9.08193e-06 -8.23938e-06 -5.27383e-06 -3.86966e-06 -2.40846e-06 3.33482e-07 
5.47103e-07 4.39061e-06 5.88554e-06 9.07088e-06 1.12107e-05 1.29701e-05 1.31831e-05 1.4832e-05 1.72291e-05 
1.6323e-05 1.79723e-05 1.95529e-05 2.26444e-05 1.79795e-05 1.47565e-05 3.25615e-06 1.75976e-05 2.15084e-06 
-1.56522e-05 3.53334e-05 8.21213e-05 -0.00106642 -0.0102884 -0.0299828 -0.0222609 -0.022599 -0.00891737 
-0.0048339 -0.00780552 -0.00748142 -0.00704453 -0.00785497 -0.0088669 -0.00844359 -0.00798153 -0.00850676 
-0.00794344 -0.00814465 -0.00789407 -0.00840212 -0.00847854 -0.00876731 -0.00842676 -0.00839106 -0.00795623 
-0.00769334 -0.00803379 -0.00785997 -0.0118573 -0.0216369 0.000193526 0.00146302 0.000291953 0.000130703 
5.86731e-06 1.50718e-05 -1.51391e-05 -2.59126e-06 1.35337e-05 3.01888e-05 -0.000221906 -0.000508695 -0.000651985 
-0.00486388 0.0134152 -0.00383021 -0.000582541 -1.55888e-05 -7.63434e-06 1.11544e-05 -3.23752e-06 -4.31956e-06 
1.79374e-05 7.99073e-05 0.000245371 0.000460528 0.000796327 0.00122204 0.0057614 0.00471223 -0.00292975 
-2.06381e-06 -0.00441064 0.00317839 -5.98885e-07 -2.2476e-06 1.34066e-07 3.06772e-06 -2.58639e-06 -1.16943e-06 
7.6066e-07 1.76632e-06 -2.05828e-06 -8.2956e-07 2.53477e-06 4.69224e-07 1.63121e-06 2.50817e-08 8.86219e-07 
3.62321e-07 3.69248e-08 -2.04158e-06 -1.23117e-06 -1.26043e-06 8.5945e-07 -1.39697e-06 2.29052e-06 -9.37522e-07 
-4.99589e-05 4.41235e-06 0.00185584 0.000258683 0.00020928 -3.14629e-05 2.03609e-05 -7.12877e-06 -1.06337e-05 
-2.32518e-05 -4.89484e-06 2.47728e-06 3.98973e-06 3.31258e-06 2.8599e-06 1.97539e-06 1.40878e-06 -7.48448e-07 
-1.03523e-06 -1.38479e-06 -3.26829e-06 -3.23392e-06 -3.41391e-06 -3.94168e-06 -4.77607e-06 -4.43995e-06 -2.50875e-06 
-4.86414e-07 -2.21169e-07 -7.35282e-07 1.42235e-06 2.03573e-06 1.77006e-06 2.0926e-06 2.32066e-07 2.6423e-07 
9.52039e-07 -2.26235e-07 -1.15594e-07 1.57197e-06 7.76851e-07 -1.37703e-07 -1.12208e-06 2.83866e-06 -0.00113333 
-0.00128342 5.7086e-05 2.8533e-06 1.53723e-06 7.33586e-07 -7.73138e-07 -3.51735e-06 -3.43727e-06 -5.51867e-07 
-4.78201e-07 2.01784e-06 -3.48431e-06 -1.52852e-06 -1.02208e-06 -1.52055e-06 4.6434e-07 1.5745e-07 2.01429e-06 
1.47202e-08 1.42104e-06 1.19885e-06 9.24103e-07 8.3986e-07 1.51218e-06 1.85051e-06 2.45767e-06 1.72934e-06 
-5.37319e-06 -1.45233e-06 9.98341e-08 -2.92244e-07 1.23719e-06 4.32104e-06 -2.58739e-06 -1.70747e-05 -1.58613e-05 
-6.75062e-06 -3.44285e-05 -4.2409e-05 -5.12564e-05 -3.94385e-05 -9.42697e-05 -0.000598808 -0.00464837 -0.000311303 
-2.42914e-05 -0.0019352 -0.00106768 -0.00013042 -0.000274361 -0.000207558 -0.000123409 -5.31717e-05 -0.000212896 
-5.38096e-05 -0.000171418 7.2715e-05 -5.8887e-05 2.77848e-05 7.61664e-06 -4.39599e-05 -6.32208e-06 6.82933e-06 
-0.00016256 -0.000134666 -0.000226093 0.0001693 0.000797057 -0.00126274 -0.000103241 -9.82454e-05 0.000205581 
3.54867e-05 9.8806e-05 7.97328e-07 2.41368e-06 -3.01297e-05 -5.35543e-05 -0.000163576 -0.000131207 -0.00038903 
-0.000481353 -0.000230253 -4.86615e-05 -3.14742e-05 -1.46939e-05 -2.59569e-06 1.29448e-06 1.5972e-05 3.60454e-05 
5.36072e-05 -2.82571e-05 2.79241e-06 -0.00128737 -0.000513229 3.02977e-06 -0.000282423 0.00159598 -0.000648366 
-0.00122278 0.000549537 0.000678534 -0.00156589 0.000555171 -1.73093e-06 -5.61563e-07 1.28587e-06 -2.28743e-06 
-2.81449e-06 -5.95219e-07 -4.38206e-07 4.18295e-06 -7.58817e-06 1.07598e-06 -3.56469e-07 3.26406e-07 8.07534e-07 
-9.75396e-07 -2.0891e-06 -1.50602e-06 -1.38817e-06 -1.73421e-06 8.48771e-07 2.10259e-06 -8.04314e-05 -3.31976e-05 
4.53563e-05 0.000202018 -2.89204e-05 1.8527e-05 -8.67688e-07 2.69321e-06 7.52432e-07 3.87504e-06 4.98397e-06 
6.43051e-06 6.43961e-06 6.55116e-06 5.09251e-06 3.11277e-06 -3.60276e-07 -2.52022e-06 -4.70887e-06 -4.38854e-06 
-3.2296e-06 -2.62325e-06 -7.39193e-07 -1.99694e-06 -8.69215e-06 -1.61759e-06 -2.14417e-06 -1.37091e-07 9.90286e-07 
1.27416e-06 2.51848e-08 3.35405e-06 4.07065e-06 -9.99561e-07 -2.055e-06 -9.45931e-07 2.17999e-06 4.71131e-06 
-3.07868e-07 1.14235e-06 3.90027e-07 3.31189e-05 1.12517e-06 6.46486e-07 -1.21398e-06 -3.23775e-07 3.59221e-06 
2.2742e-06 2.59402e-07 7.00869e-06 2.16958e-07 4.3224e-07 7.21784e-07 2.75253e-06 5.23173e-06 6.07206e-06 
-3.79433e-06 3.7153e-06 1.70189e-07 -1.95385e-06 6.36796e-07 -1.20815e-06 -1.4484e-06 -2.9484e-07 -1.9841e-05 
-1.8068e-05 -1.83918e-05 -2.00991e-05 -9.8434e-06 -4.18497e-06 -1.20692e-05 -6.37629e-06 8.00673e-07 -1.26057e-05 
-1.1749e-05 4.66027e-06 -4.96797e-05 -4.00697e-05 -2.09454e-05 -8.39818e-05 -5.51648e-05 -0.000249052 0.00031948 
0.000269349 2.7396e-05 1.95092e-06 8.32353e-05 2.68941e-05 5.66235e-06 1.67466e-05 3.09402e-05 2.2852e-05 
8.68924e-06 2.17292e-05 1.11049e-05 2.59248e-05 2.75325e-05 3.69201e-05 2.17726e-05 2.64326e-05 8.41904e-05 
0.00010121 0.000143922 0.000105251 -8.06471e-05 -4.83363e-05 -9.26747e-06 -0.000265977 -0.000194404 -3.86031e-05 
-9.32344e-06 -8.83768e-06 1.19831e-05 -2.34091e-05 -3.44037e-05 4.51642e-06 -1.79461e-05 7.86031e-05 -3.42163e-05 
0.000135465 -2.25054e-05 -7.48816e-06 -5.88871e-06 1.23275e-06 1.08456e-05 1.5381e-05 5.12802e-06 -1.09084e-05 
-1.04885e-05 -0.000207878 4.20314e-05 3.34558e-06 1.05966e-06 -8.09009e-05 1.141e-06 1.89102e-06 -0.000206286 
-6.29499e-05 -8.5257e-05 0.000102053 -0.000171758 -0.000136131 0.000246167 -0.00014992 9.37962e-07 -5.27055e-06 
-1.64159e-06 -2.81565e-06 1.25118e-06 -1.58706e-05 -4.49495e-06 -4.6854e-06 1.71156e-06 -1.6276e-06 -2.23897e-06 
1.99808e-06 -9.49007e-07 5.79434e-07 2.34845e-07 6.63385e-06 -2.17205e-05 9.48594e-06 -1.10114e-06 6.61065e-06 
-9.26404e-06 -9.15164e-07 2.3936e-06 6.71196e-06 1.21025e-05 1.84236e-06 -6.86597e-06 7.42103e-08 4.54233e-06 
3.09709e-06 5.83204e-07 1.78331e-06 4.7346e-06 3.5724e-06 1.14192e-06 -1.15585e-06 -6.39759e-06 -7.54495e-06 
-1.05919e-05 -7.52091e-06 -2.70414e-06 -2.77785e-06 9.24681e-06 -2.26508e-06 -4.26249e-06 -1.02497e-06 4.64454e-06 
-5.2493e-06 8.764e-07 5.61226e-06 3.82764e-06 2.39673e-06 -1.05812e-06 4.7405e-05 4.16802e-05 -9.87481e-06 
-5.8508e-05 -2.16757e-05 -3.56561e-05 1.61564e-07 -6.35969e-06 4.35102e-06 -7.44666e-06 9.7744e-06 -5.74806e-06 
9.08522e-06 1.10163e-05 2.88241e-06 1.35356e-05 1.50836e-05 -1.16822e-05 -7.28594e-06 1.53467e-07 -4.81715e-06 
-7.24131e-06 -5.59643e-06 -1.45657e-05 -9.52705e-06 6.0547e-06 4.78897e-06 5.19103e-06 -1.7691e-05 -5.332e-06 
-6.47911e-06 -3.56765e-06 1.0906e-06 7.18053e-07 -1.22438e-06 -6.6458e-06 -2.68884e-06 -1.02901e-06 -2.3943e-06 
-3.58968e-05 9.50397e-07 6.40546e-05 9.88754e-06 2.78977e-05 1.55452e-06 -3.53595e-05 2.38721e-05 -1.70168e-05 
5.90351e-05 -1.67637e-05 -1.13605e-05 6.94352e-06 -1.3238e-05 -1.04773e-05 7.36658e-06 6.31814e-06 -6.72449e-06 
-1.27297e-06 6.31696e-07 1.46835e-05 2.4509e-05 2.03799e-05 -2.00442e-05 -2.64932e-05 -3.83588e-06 1.37954e-05 
2.69102e-05 -1.67178e-07 1.00091e-06 -4.9245e-05 3.72017e-06 -1.67295e-05 -6.42809e-06 3.94667e-06 -7.28394e-06 
-2.07363e-05 -2.77111e-05 5.1093e-05 -3.08961e-05 8.44694e-07 -5.72114e-06 -9.89756e-06 4.28647e-08 -4.37874e-07 
-1.17993e-05 -2.97006e-05 -4.75848e-05 -5.89613e-05 6.98955e-05 0.00013608 -1.07457e-05 -2.64802e-05 6.04029e-05 
-0.000104294 2.13713e-07 -1.85701e-05 -2.42845e-06 -1.49256e-06 -8.17241e-05 -1.98702e-06 2.20039e-05 -7.98251e-05 
-5.40898e-05 4.80327e-05 2.1604e-05 6.6967e-06 -1.90399e-05 2.03295e-05 -2.64454e-05 9.13553e-06 -3.93917e-06 
-2.71305e-06 1.03628e-06 -2.41308e-06 1.41713e-07 -6.2384e-07 4.00558e-06 -2.24306e-06 -2.99549e-06 -1.071e-05 
3.2696e-05 -8.64122e-06 -2.77435e-07 6.18306e-06 7.59522e-06 -1.30868e-05 2.56383e-05 6.15669e-06 -2.30038e-05 
-2.1691e-05 -2.05656e-05 -1.80989e-05 -1.21214e-05 -4.6701e-06 -4.37968e-06 -9.53954e-06 -6.66924e-06 2.29367e-05 
5.20662e-06 -9.78677e-06 1.30104e-07 1.43115e-05 1.81052e-05 -1.46644e-06 8.12983e-06 8.25421e-06 1.64416e-06 
-2.76331e-06 5.08615e-06 3.00469e-05 3.05938e-06 4.1287e-06 9.54571e-06 -1.85026e-05 5.75355e-06 -3.62203e-06 
1.38799e-05 3.79642e-06 -5.7453e-06 -3.4354e-06 -1.43813e-05 -3.65249e-06 -1.93868e-05 -2.83682e-05 6.32385e-06 
1.7764e-05 5.06962e-06 -2.09757e-05 1.30297e-05 -1.11809e-05 4.907e-05 9.226e-06 -1.54205e-05 -8.96381e-06 
-1.86418e-06 1.26888e-05 -1.19719e-05 2.34924e-05 3.79196e-05 -3.6303e-05 -5.59029e-05 1.34375e-05 1.62207e-05 
-2.59004e-07 -2.97695e-05 0.000116447 -9.85401e-06 4.54426e-06 -1.53366e-05 4.49441e-07 -1.74888e-05 3.61681e-05 
1.04957e-06 1.38507e-05 -8.24139e-07 7.03982e-06 2.82151e-05 -7.23217e-05 -9.01818e-05 1.83079e-05 -3.11056e-05 
-4.90922e-06 -7.44611e-06 -9.39969e-06 -9.20654e-06 1.28275e-05 3.63523e-05 -2.21002e-05 -1.70017e-05 1.99408e-05 
-1.36272e-05 2.82782e-06 -1.08315e-05 5.48024e-06 2.83679e-05 -7.20314e-05 -3.86638e-05 -5.66176e-06 1.23081e-05 
-1.3911e-05 -4.9962e-06 -1.05823e-05 -1.05591e-06 -1.61518e-05 1.86193e-05 -9.23937e-06 -2.5633e-05 0.000148255 
-3.04811e-05 -4.15534e-05 3.05559e-05 3.18191e-06 -1.73313e-05 2.24794e-05 -1.81193e-05 2.81824e-06 3.41728e-05 
-2.31384e-06 -3.66903e-05 -1.81369e-05 -3.08977e-06 -3.06356e-05 -6.00451e-06 -6.28875e-05 -1.44532e-05 3.60672e-05 
-3.24124e-05 -1.48101e-06 1.46133e-05 -1.32046e-05 2.64124e-06 -2.28359e-05 -6.50558e-05 2.05992e-05 -1.73119e-05 
2.7385e-05 -4.48922e-06 -9.99847e-06 -1.47397e-05 4.43565e-05 2.3249e-05 6.86218e-06 -7.3692e-06 7.88001e-07 
-1.52858e-05 1.54939e-05 6.5248e-06 -3.74827e-05 -2.65182e-05 4.4187e-05 1.9438e-05 -1.43727e-05 -5.92996e-06 
-1.50694e-05 1.98137e-05 -7.91615e-06 -1.52487e-05 -6.67984e-05 -1.44189e-05 7.5822e-05 -1.03032e-05 -1.53916e-05 
-1.94546e-05 -9.86288e-06 -1.27132e-05 -1.79391e-05 2.23951e-05 1.51992e-05 -1.31333e-05 4.53446e-05 3.8702e-06 
8.34353e-05 -8.26154e-06 2.57759e-05 -3.11047e-05 9.71473e-06 -2.7633e-05 -2.09963e-05 2.19553e-06 1.71411e-06 
9.12384e-06 1.27544e-05 0.000154453 2.28234e-05 -2.63472e-05 3.34974e-05 -4.3403e-05 7.84396e-05 -8.30761e-06 
-1.80053e-05 -5.61827e-05 2.25521e-05 5.24836e-05 3.70113e-05 -0.000323461 -0.0367866 0.0549224 0.076737 
0.0857282 0.0731114 0.0672322 0.104985 0.104208 0.102966 0.0975889 0.096005 0.097282 
0.0988719 0.0978863 0.0999689 0.101393 0.100802 0.0998309 0.0995894 0.0993933 0.09895 
0.100285 0.100277 0.100272 0.100623 0.101853 0.104545 0.11625 0.141486 0.146163 
-0.132518 -0.129717 -0.112084 -0.104434 -0.107644 -0.0623568 -0.103763 -0.0993747 -0.100806 
-0.102148 -0.0990341 -0.100735 -0.10211 -0.10118 -0.100608 -0.101405 -0.102139 -0.101074 
-0.102985 -0.102409 -0.103753 -0.104794 -0.105039 -0.107624 -0.113113 -0.126864 -0.121055 
2.98568e-05 -1.3225e-05 -2.45608e-06 -3.29244e-05 -3.11883e-05 -2.53799e-05 -2.33995e-05 -1.36469e-05 -7.56537e-06 
-5.77018e-06 3.46681e-05 3.64643e-05 1.02976e-05 4.10786e-05 3.54504e-05 2.89236e-05 -4.02084e-06 1.11369e-06 
-1.00773e-05 1.50371e-05 1.15881e-05 7.18238e-06 -6.61371e-06 -1.21293e-05 -1.75991e-05 -7.78563e-06 -9.43975e-06 
-8.83488e-06 -0.0491333 0.00384322 -0.000978681 -0.000594959 -0.000434789 -0.000307162 -0.000211203 -0.000168814 
-0.000158963 -0.000132924 -0.000125335 -0.000116512 -0.000111369 -0.000100641 -0.000126999 -0.000107265 -9.52229e-05 
-8.17826e-05 -7.43434e-05 -5.42052e-05 -4.07381e-05 -2.64223e-05 -1.02722e-05 6.71792e-06 2.30948e-05 2.85389e-05 
3.5588e-05 4.14639e-05 4.29608e-05 3.60706e-05 3.20454e-05 2.12284e-05 8.04875e-06 -6.76905e-06 -1.77813e-05 
-2.63413e-05 -3.04435e-05 -3.12914e-05 -3.18898e-05 -2.87958e-05 -2.38307e-05 -1.57042e-05 -4.08393e-06 1.32051e-05 
1.98849e-05 1.32328e-05 1.60027e-05 -5.88501e-06 6.73565e-06 -5.17039e-06 -1.88695e-05 -2.48771e-05 -3.30296e-05 
-3.37005e-05 -3.28024e-05 -3.20041e-05 -3.02547e-05 -2.29244e-05 -5.17249e-06 1.32742e-05 2.78743e-05 3.64003e-05 
4.65172e-05 5.08158e-05 5.71208e-05 5.14089e-05 4.09854e-05 2.40912e-05 3.51987e-07 -1.45644e-05 -3.40602e-05 
-4.88349e-05 -6.18521e-05 -7.27989e-05 -9.04077e-05 -9.41512e-05 -0.000110108 -0.0001022 -0.000105139 -0.000103498 
-0.000105074 -0.000107961 -0.000129334 -0.000154881 -0.000185401 -0.000218071 -0.000274186 -0.00037631 -0.00052847 
-5.78011e-05 0.0373263 -0.0272549 -0.0279678 -0.00473017 0.000454931 0.000143573 0.000154255 3.44924e-05 
9.20311e-05 5.50735e-05 -4.91156e-05 -5.05742e-05 8.31816e-06 -0.000109695 -0.0016685 -0.00480968 0.00488383 
0.0523077 -0.00580533 -0.000681733 -6.10157e-05 -0.000260742 -0.000300822 0.000134973 7.84524e-05 -5.38576e-05 
-2.53117e-05 -5.1392e-05 -0.000259506 2.29292e-05 0.00154101 -0.000497146 2.57261e-06 3.94093e-05 1.12081e-05 
2.10329e-05 1.72196e-05 5.46043e-06 -1.61959e-06 -1.26229e-05 -1.91305e-05 -2.8194e-05 -1.24794e-05 -1.17896e-05 
2.58364e-06 -3.38332e-05 -3.9071e-05 -4.41531e-05 -1.1124e-05 -3.5516e-05 -1.79275e-05 1.59736e-05 9.12602e-06 
2.66857e-05 2.90857e-05 3.21743e-05 2.78468e-05 7.02959e-06 3.76596e-06 -3.47957e-06 0.0504882 -0.026536 
0.00266106 0.000396474 9.26856e-05 5.21807e-05 4.04719e-05 4.00259e-05 2.00397e-05 2.42613e-05 2.41381e-05 
3.43232e-05 4.80873e-05 5.16917e-05 4.36031e-05 6.28032e-05 6.07663e-05 5.91791e-05 4.75016e-05 4.65892e-05 
3.67425e-05 2.81265e-05 1.76999e-05 5.74729e-06 -5.46517e-06 -2.12757e-05 -3.58192e-05 -4.24058e-05 -5.41904e-05 
-5.6978e-05 -5.51614e-05 -5.24932e-05 -4.50205e-05 -3.44154e-05 -2.13774e-05 -8.27677e-06 6.51262e-06 1.58591e-05 
2.54865e-05 2.93355e-05 3.06607e-05 3.12424e-05 2.8811e-05 1.036e-05 -2.88064e-05 -2.3926e-05 -3.42077e-05 
-1.3032e-05 9.34927e-07 1.87801e-05 2.71138e-05 2.96614e-05 3.20512e-05 2.91743e-05 2.21504e-05 1.15081e-05 
-2.37424e-06 -1.94507e-05 -3.69946e-05 -5.46953e-05 -6.26892e-05 -7.16296e-05 -7.23989e-05 -6.94693e-05 -6.72142e-05 
-4.69406e-05 -3.20736e-05 -1.40395e-05 -2.62195e-07 1.06277e-05 1.77931e-05 3.63015e-05 4.85196e-05 5.47867e-05 
6.88434e-05 7.4144e-05 6.16387e-05 5.52309e-05 5.15312e-05 4.78198e-05 4.27283e-05 4.88096e-05 6.55545e-05 
9.47596e-05 0.00012253 0.000173098 0.000253679 0.000374631 0.000799945 0.00132408 -0.00480314 -0.00748402 
0.0692799 0.00317869 -0.00415341 -0.000292048 -0.000336242 -0.000297003 -1.52424e-05 -3.97697e-05 9.06815e-06 
1.7391e-05 -4.11127e-05 -0.000268576 -0.000347299 -0.0002767 -0.00253197 -0.0363961 0.00301551 0.00190553 
0.000387744 0.000181851 -1.94354e-05 2.00552e-05 5.21019e-05 3.31171e-05 -4.87009e-06 0.000140807 -2.04337e-06 
-0.000343034 0.000187997 -0.00443194 5.49524e-06 -4.2733e-07 -0.00231198 0.0176469 -0.0145141 0.0221737 
-0.0263628 -0.0100625 -0.0257043 -0.0323892 -0.0292826 -0.0284276 -0.0215969 -0.027846 0.00554406 
-0.00120496 -0.00290593 0.0252043 0.0298566 -0.00103693 -9.77854e-05 -2.89175e-05 -0.000222196 -0.000169076 
-0.000787413 -6.96252e-05 -0.000135429 -0.000412961 0.000548181 0.0001686 0.000405816 -1.39165e-05 -5.00417e-05 
6.21588e-06 0.000649819 -0.000188299 -0.000309657 -0.000567693 0.000184418 -0.000567983 -2.86371e-05 -8.06074e-05 
-0.000332368 0.000506706 -0.000572361 -0.00015137 -0.000112976 0.000501002 -0.00100318 0.000682127 -0.000802475 
0.000571473 -0.000744141 0.00117878 -0.000828171 0.000889264 -0.00233382 -0.000868826 0.0036488 0.0192265 
1.06716e-05 6.42939e-06 2.62847e-06 6.92499e-06 -1.23316e-05 -2.58318e-06 -9.57143e-06 -4.90268e-06 2.38564e-06 
-7.00826e-06 -1.76196e-06 -3.08093e-06 -7.22663e-06 -6.61584e-06 -5.03481e-06 -9.25477e-06 -7.3278e-06 -7.7331e-06 
-8.73583e-06 -5.41619e-06 -1.48845e-05 -8.72813e-06 -6.5386e-06 -1.62914e-05 -8.88479e-06 -1.31667e-05 -2.35768e-05 
-3.03588e-06 9.12174e-06 -1.5026e-05 3.77342e-06 7.04995e-07 -8.26359e-07 1.63421e-05 2.34121e-05 8.32847e-06 
4.70182e-06 7.50734e-06 -8.85148e-06 -1.66249e-06 5.57323e-06 -1.49393e-05 -3.85119e-06 3.60235e-06 -1.69413e-05 
4.12582e-06 -1.48263e-05 -1.82443e-05 -1.60806e-05 -4.15226e-06 -1.21098e-05 3.38744e-08 -5.28735e-06 -1.91715e-05 
-5.09961e-06 1.1898e-05 -9.65576e-06 3.20256e-06 6.5838e-06 1.34121e-05 7.18724e-06 5.95361e-06 1.60272e-05 
5.23239e-06 4.40859e-06 1.7208e-05 1.19007e-06 1.12553e-06 1.17311e-05 2.5929e-08 5.64961e-06 1.49404e-05 
8.22763e-06 -1.75406e-05 2.85816e-06 -1.33452e-05 2.72507e-06 -6.36089e-06 3.85119e-06 1.28482e-05 2.44549e-05 
4.1903e-06 -0.0241153 0.0142076 0.000148803 -0.000356413 0.000181894 0.000679264 -1.70658e-05 5.91124e-05 
-0.000236244 -1.67597e-05 6.05804e-05 -7.72659e-05 -3.44079e-05 3.44403e-05 -9.19754e-06 -3.63705e-05 1.7992e-05 
-9.54359e-06 -2.96279e-05 -1.89559e-05 -8.27294e-06 -3.00246e-05 4.92324e-06 -2.2195e-05 -2.57188e-05 6.93256e-06 
1.32653e-05 -2.37332e-05 4.53802e-06 1.65071e-05 -2.49662e-05 1.07368e-05 1.41924e-05 -1.40644e-05 3.62078e-05 
7.51797e-06 -3.50328e-05 -9.98782e-06 2.32462e-05 -3.99594e-05 -7.77943e-06 1.60416e-05 -3.52235e-05 -1.2763e-05 
1.05112e-05 -3.17136e-05 -1.5632e-05 8.13838e-06 -2.96808e-05 -1.97424e-05 4.86623e-06 -2.77166e-05 -1.96401e-05 
2.20715e-06 -2.4247e-05 -2.09087e-05 -6.40488e-07 -2.39912e-05 -2.13045e-05 -8.69206e-08 -2.23968e-05 -1.9583e-05 
-1.69198e-08 -1.68797e-05 -1.85111e-05 -1.16826e-06 -1.39257e-05 -1.72777e-05 -1.51126e-06 -8.89652e-06 -1.59182e-05 
-2.80753e-06 -1.82611e-06 -8.99372e-06 -2.34484e-06 2.50059e-06 -4.00719e-06 -2.12655e-06 5.14316e-06 -6.79787e-07 
-1.35335e-06 9.1203e-06 3.58427e-06 -9.63822e-07 1.18537e-05 8.75393e-06 -2.51643e-06 1.67784e-05 1.0383e-05 
-6.57244e-06 1.74817e-05 1.33191e-05 -3.8471e-06 1.74361e-05 1.56234e-05 -4.82697e-06 1.52292e-05 1.58184e-05 
-4.88592e-06 1.24243e-05 1.46518e-05 -2.71009e-06 8.47354e-06 1.17674e-05 -1.10759e-06 1.9169e-06 6.92694e-06 
1.43597e-06 -3.08473e-06 2.08113e-06 3.99531e-06 -8.27897e-06 -1.97743e-06 5.35745e-06 -1.04713e-05 -4.75649e-06 
4.85848e-06 -1.21468e-05 -8.72742e-06 4.70481e-06 -1.52694e-05 -1.2581e-05 7.42494e-06 -1.51024e-05 -1.68045e-05 
7.95415e-06 -1.37097e-05 -1.10515e-05 9.06075e-06 3.81296e-06 1.69291e-05 1.72281e-06 0.0311095 5.57458e-06 
-4.84684e-06 -3.46612e-06 -1.09985e-05 -1.3373e-05 -8.67034e-06 -1.3129e-05 -1.58188e-05 3.11171e-07 -1.35356e-05 
-1.8293e-05 -1.88872e-07 -1.26118e-05 -1.96982e-05 4.04612e-07 -9.81787e-06 -1.70959e-05 -1.30383e-06 -5.49374e-06 
-1.11816e-05 -2.75877e-06 4.00246e-06 -1.82248e-06 4.21341e-07 1.19285e-05 5.68825e-06 3.78703e-06 1.6552e-05 
1.23925e-05 2.0131e-06 1.91921e-05 2.27363e-05 -3.32159e-06 2.51199e-05 3.10642e-05 -4.36149e-06 2.86769e-05 
3.65144e-05 -5.58641e-06 2.87677e-05 3.524e-05 -4.42238e-06 2.48567e-05 3.66745e-05 1.35249e-06 2.16463e-05 
3.38952e-05 4.79111e-06 1.36504e-05 2.82196e-05 6.82525e-06 4.27184e-06 1.66357e-05 7.53766e-06 -3.36454e-06 
7.27998e-06 8.14608e-06 -9.67957e-06 -3.55612e-06 5.79825e-06 -1.16659e-05 -6.87533e-06 5.81009e-06 -1.60959e-05 
-1.44535e-05 2.29904e-06 -1.93556e-05 -1.95264e-05 -1.47119e-06 -2.38861e-05 -2.55963e-05 -4.20426e-06 -3.30197e-05 
-3.71924e-05 -5.80771e-06 -3.802e-05 -4.11724e-05 -5.33869e-06 -3.95571e-05 -4.91398e-05 -4.42563e-06 -4.11233e-05 
-5.52563e-05 -5.52374e-06 -3.85418e-05 -5.42097e-05 -4.22475e-06 -3.8606e-05 -5.09325e-05 -7.96778e-06 -3.59947e-05 
-5.09029e-05 -1.11541e-05 -3.49013e-05 -5.12046e-05 -1.27881e-05 -3.35959e-05 -5.14091e-05 -1.29019e-05 -3.14418e-05 
-5.34366e-05 -1.47432e-05 -3.25897e-05 -6.22483e-05 -2.41501e-05 -2.90007e-05 -6.76158e-05 -3.44084e-05 -2.00913e-05 
-7.09621e-05 -3.65896e-05 -3.17626e-06 -7.05903e-05 -2.83747e-05 2.19439e-05 -6.39815e-05 -2.68936e-05 7.06309e-05 
-8.43596e-05 -4.55737e-05 0.000291774 0.00021252 6.39281e-05 0.000614493 0.00249996 0.000173224 0.00851137 
0.0217876 0.00315081 -0.0276895 -0.0438964 -0.0450039 -0.0459598 -0.0411433 0.00965618 -0.0443677 
-0.040678 0.0108766 -0.0323507 -0.0358399 0.0117672 -0.0157183 -0.0236686 0.0174326 -0.0344848 
-0.0367923 0.0188675 -0.0315315 -0.0358432 0.0103558 -0.0308798 -0.0346529 0.0106127 -0.0309211 
-0.0335597 0.0114446 -0.0312568 -0.0341987 0.0110828 -0.0304823 -0.0343074 0.0107684 -0.031808 
-0.034652 0.0115527 -0.0315744 -0.0343415 0.0114098 -0.0311736 -0.0336879 0.0115703 -0.031149 
-0.0333393 0.0121376 -0.0316105 -0.03265 0.0122464 -0.0325653 -0.0331639 0.0117032 -0.0325417 
-0.0330768 0.0115765 -0.0337037 -0.0339453 0.0115866 -0.0338408 -0.0340019 0.011393 -0.0348362 
-0.034615 0.0116501 -0.0354321 -0.0346416 0.0116912 -0.0358072 -0.0341154 0.0120927 -0.0384479 
-0.038181 0.0126759 -0.0438915 -0.039939 0.0140393 0.000103709 -0.0192105 0.00522257 -0.0207961 
0.00106734 0.00271593 -0.000357299 -0.000422914 -0.00024521 0.000519244 -0.000244989 7.1156e-05 0.00020171 
-0.000310866 -0.00016033 0.000204312 -0.000294477 -0.000156626 0.00010934 -0.000307054 -0.000155539 5.6985e-05 
-0.000330097 -0.000154149 0.000129013 -0.000158206 -0.000145007 0.000161339 -0.000196752 -4.73107e-05 0.000381417 
-0.000200202 -5.22717e-05 0.000531383 -0.00106253 -0.000284526 0.000622352 -0.00394889 -0.00245001 0.000391671 
0.00898445 -0.003273 0.0035049 0.00665761 0.0058186 -0.00460142 -9.64678e-05 -0.000834285 -0.00195754 
0.00296538 -2.03834e-05 0.000425841 0.000605947 -6.36226e-05 -7.76038e-05 0.000400242 -0.000150786 -0.000231096 
0.000212446 -5.14946e-05 -1.30882e-05 8.79898e-05 -4.64198e-05 -4.9831e-05 9.00368e-05 -0.000125688 -0.000101247 
4.76622e-05 -0.000187121 -0.000117622 6.77654e-05 -0.000177404 -0.000126567 7.19662e-05 -0.000280918 -0.000446896 
5.87294e-05 -0.000444444 -0.000749252 6.23215e-05 -0.00175253 -0.00154419 5.95604e-05 -0.0189907 -0.00672738 
-0.00157812 2.59735e-05 -0.01721 0.0273346 -0.0328148 -0.021554 0.0149537 -0.0354783 -0.00176765 
-0.0159357 0.0223896 0.00133591 0.0242511 -0.016546 -1.90465e-05 -0.00218808 0.00968829 0.0172477 
0.0108886 0.00400289 5.18562e-06 -2.27966e-06 5.14758e-06 -8.54253e-06 -3.35089e-06 -1.20962e-05 2.30218e-06 
-6.02711e-06 -4.50182e-06 2.80062e-06 5.80033e-06 -2.84672e-06 -6.80714e-06 1.17728e-05 -3.80375e-06 -6.58911e-06 
-1.05385e-05 -7.17047e-06 -9.84951e-06 -1.10854e-05 -7.41483e-06 -4.89976e-06 -9.89697e-06 4.53579e-06 -9.54183e-06 
-6.43999e-06 3.12745e-06 -1.86421e-05 6.11552e-06 -3.1156e-07 -1.32664e-05 7.75543e-06 4.25435e-07 -1.79963e-05 
2.73747e-06 -3.87685e-07 -1.70701e-05 -4.13225e-06 -3.26331e-06 -1.68169e-05 -5.7389e-06 -4.14373e-06 -1.20587e-05 
-7.5831e-06 -9.56543e-06 -6.45521e-06 -8.42477e-06 -4.30587e-06 -7.96048e-06 -1.05436e-05 -3.65285e-07 4.17837e-06 
1.00644e-05 4.3033e-07 7.21475e-06 1.1682e-05 4.55346e-06 2.38073e-06 1.05065e-05 7.11743e-06 8.95796e-06 
1.45056e-05 9.5459e-06 4.74652e-06 8.406e-06 4.0068e-06 1.35456e-06 2.22246e-06 5.95127e-06 8.33346e-06 
-4.4693e-06 0.00011441 -0.000488454 0.00471774 0.0106716 0.00130512 -2.26898e-06 4.90588e-05 0.000222354 
0.00017619 0.00025275 -2.10931e-05 5.08398e-06 0.000112799 7.69182e-05 2.65987e-05 8.79368e-05 0.000149064 
5.35321e-06 3.12467e-05 0.000133984 3.62941e-05 0.000113554 5.7662e-06 3.25638e-05 8.56613e-05 2.94996e-05 
3.20168e-05 8.05317e-05 4.11831e-05 3.55796e-05 7.37058e-05 3.39127e-05 3.97937e-05 7.52687e-05 3.0689e-05 
3.16033e-05 6.31376e-05 3.32845e-05 3.43699e-05 6.02981e-05 2.15323e-05 4.37492e-05 5.70465e-05 2.17322e-05 
4.79605e-05 5.30107e-05 2.29245e-05 4.49752e-05 4.56307e-05 1.88251e-05 4.14616e-05 3.8367e-05 1.1686e-05 
3.89172e-05 3.78947e-05 4.10507e-06 3.70163e-05 2.80391e-05 2.76872e-06 2.68014e-05 1.57619e-05 -4.08535e-07 
1.73259e-05 4.56838e-06 -6.63376e-06 1.01338e-05 -2.08431e-06 -1.22376e-05 2.21045e-06 -1.03467e-05 -1.45479e-05 
-4.48529e-06 -1.80257e-05 -1.63993e-05 -1.39805e-05 -2.54075e-05 -1.62011e-05 -2.15826e-05 -2.66786e-05 -1.75369e-05 
-2.49094e-05 -2.58272e-05 -1.68722e-05 -2.65097e-05 -2.659e-05 -1.18966e-05 -3.23201e-05 -2.75482e-05 -9.24435e-06 
-2.69406e-05 -1.40213e-05 -8.17492e-06 -2.11223e-05 -9.89071e-06 -2.92089e-07 -1.78683e-05 -4.04374e-06 4.36502e-06 
-1.12356e-05 4.35444e-06 7.4441e-06 -2.62317e-06 1.01285e-05 1.07242e-05 4.37574e-06 1.52531e-05 1.31526e-05 
9.22223e-06 1.75062e-05 1.31197e-05 1.34921e-05 1.63237e-05 1.1087e-05 1.513e-05 1.24864e-05 8.29641e-06 
1.56365e-05 9.49261e-06 6.23499e-06 1.37108e-05 7.74112e-06 5.21495e-06 1.18363e-05 1.54735e-06 5.11687e-06 
6.22651e-06 -5.3445e-06 -1.58658e-08 -6.20592e-06 1.46609e-05 4.16111e-06 -0.000190425 0.00123328 0.00172668 
0.000424731 0.000598588 -5.05337e-06 -7.80508e-06 -3.37291e-06 -8.05085e-06 1.09158e-06 2.19723e-07 -7.79105e-06 
1.95143e-06 3.49197e-06 -8.01138e-06 3.7449e-06 7.98614e-06 -4.36843e-06 3.27098e-06 1.23336e-05 2.78298e-06 
4.17597e-06 1.39015e-05 7.71927e-06 7.55402e-06 1.79559e-05 3.55564e-06 1.62481e-05 1.60624e-05 -1.78559e-06 
1.24618e-05 1.48686e-05 1.59234e-05 2.14273e-06 1.10263e-05 2.02518e-05 -1.09397e-05 4.47409e-06 2.01813e-05 
-7.64849e-06 -2.06065e-06 1.70533e-05 -5.24123e-06 -4.46538e-06 1.72731e-05 -2.39239e-06 -1.0204e-05 1.43748e-05 
-3.11432e-06 -1.57842e-05 9.35849e-06 -6.6806e-07 -1.79871e-05 1.73829e-06 1.38929e-06 -1.86158e-05 -3.71054e-06 
1.8423e-06 -1.74374e-05 -9.3941e-06 2.54022e-06 -1.14207e-05 -1.02598e-05 2.71366e-06 -8.0457e-06 -1.15096e-05 
1.04267e-06 -5.29125e-06 -1.17304e-05 -1.10402e-06 -6.05135e-06 -1.30815e-05 -2.95407e-06 -4.6305e-06 -1.46997e-05 
-1.88444e-06 -2.90498e-06 -1.35442e-05 -1.9274e-06 7.98971e-07 -1.14105e-05 2.00907e-06 6.29532e-06 -1.02016e-05 
6.26778e-06 1.82231e-05 -1.1368e-05 8.89226e-06 1.43657e-05 -9.33993e-06 1.06631e-06 8.58525e-06 -9.89971e-06 
-7.01554e-06 1.23151e-05 -5.6898e-06 -6.17944e-06 1.69284e-05 -3.23767e-06 -7.25911e-06 2.33217e-05 5.40794e-06 
-1.43492e-05 4.31296e-05 1.55673e-05 1.37561e-06 4.33728e-05 1.1283e-05 2.45561e-06 8.16834e-05 5.85849e-05 
1.61498e-06 0.000108273 5.2838e-05 1.84231e-06 0.000155865 9.19555e-05 -3.08716e-05 0.000236103 0.000143061 
-2.03383e-05 0.000356678 9.8393e-05 -7.65774e-06 -7.93426e-05 0.00025852 0.000427054 -8.1825e-05 2.22204e-06 
0.0127504 0.00603369 0.00423282 0.00115803 -0.0002701 0.0127121 0.0139031 0.0101402 0.00911078 
0.00214427 0.00421554 0.00330458 3.24047e-05 0.0047204 0.0084478 0.000642816 0.00263205 0.00751871 
0.000215557 0.0032179 0.00692287 -0.000541347 0.00353046 0.00648547 -0.000738215 0.00360827 0.00673693 
-0.000684209 0.00344965 0.0067638 -0.00074687 0.00371699 0.00632798 -0.000686131 0.00381135 0.00677071 
-0.00069835 0.00397915 0.00608756 -0.000722993 0.0041255 0.00626731 -0.000705421 0.00416702 0.00560709 
-0.000718568 0.00437722 0.00530756 -0.000654188 0.00464989 0.00517994 -0.00063769 0.0049237 0.00535954 
-0.000639232 0.0048448 0.00503846 -0.000615312 0.00513489 0.0052238 -0.000593676 0.00534233 0.00524135 
-0.000442163 0.00557122 0.00494265 -0.000412486 0.0067975 0.00419808 -0.000132206 0.00758215 -0.000302777 
-0.00320109 -0.000581041 -0.00183096 -0.00047614 -0.000215139 -7.15438e-05 -3.50641e-05 -3.17041e-05 -8.62589e-05 
4.39301e-05 5.77369e-05 -1.18731e-05 -1.13228e-05 8.8688e-05 3.29272e-05 2.69086e-05 0.000116492 2.93443e-05 
2.77313e-05 0.000129582 -4.52355e-06 -8.87685e-06 1.2997e-05 -0.000200596 -2.16807e-05 0.000105378 -0.00045021 
9.00614e-05 0.000709533 -0.000602162 -8.91155e-05 0.00244516 0.000878865 -0.000171553 -0.000760171 0.00409762 
0.0018525 -0.001029 0.004048 0.00100082 -0.0010216 0.000802417 0.000245445 3.37231e-05 0.000149689 
1.57416e-05 9.75983e-06 7.78413e-05 1.25328e-05 -7.29341e-06 2.39278e-05 8.21071e-07 -2.02199e-05 -3.38574e-06 
-3.69407e-05 -3.5775e-05 -5.43248e-05 -4.78017e-05 -6.17197e-05 -0.000141505 -0.000134579 -0.000128907 -0.000267951 
-0.000310949 -0.00027903 -0.000551214 -0.000733034 -0.00061417 -0.00166592 -0.0011649 -0.000983573 -0.00134606 
-0.00474889 -0.000231268 4.6526e-06 -0.000170096 -3.70626e-05 0.000111819 -7.63916e-05 -0.000770197 -0.000205535 
0.000479972 0.00018002 -1.85888e-05 1.273e-05 -0.000196031 -1.30632e-05 -1.74874e-06 -1.14348e-05 5.17839e-06 
1.60127e-06 0.00114465 -0.00302994 0.00236162 -1.22982e-05 -0.00105706 0.000618708 0.00263679 -0.00175276 
0.00172127 6.93132e-06 2.97874e-06 -0.000498524 0.000812755 -0.000195163 -0.000284065 -0.00368334 5.19457e-05 
0.000716747 -5.59065e-05 -0.000287799 4.68051e-05 -2.7065e-05 -0.000286682 -5.86158e-06 5.80573e-06 -1.84374e-06 
-3.05979e-06 7.20144e-06 5.41363e-06 2.03394e-06 7.37894e-06 1.26079e-07 -1.39192e-06 1.16477e-05 -1.43761e-06 
-7.59933e-07 -1.2158e-05 -5.27282e-06 -5.46031e-08 -1.12162e-05 -5.76527e-06 -4.9745e-07 -9.05367e-06 -2.30165e-06 
-1.27408e-05 1.27657e-05 -2.25851e-06 -1.36416e-05 5.92439e-06 -3.26359e-06 -1.57339e-05 3.46921e-06 -3.9969e-06 
-1.81884e-05 9.36976e-07 -2.72753e-06 -1.44779e-05 -4.56818e-06 -3.06107e-06 -1.07127e-05 -6.8444e-06 -2.05712e-06 
-6.9478e-06 -7.20969e-06 -7.59862e-07 -6.12911e-06 -6.85836e-06 9.75101e-07 2.30215e-07 -9.09914e-06 2.01757e-08 
2.53864e-07 1.21929e-05 2.30334e-06 5.45095e-07 9.88426e-06 1.79342e-06 2.21565e-06 1.02164e-05 5.76667e-06 
6.00846e-06 1.40976e-05 4.09286e-06 4.74779e-06 7.10571e-06 0.000557825 5.15387e-05 -1.32693e-05 6.80268e-05 
9.68979e-05 -1.34843e-05 -8.91859e-05 2.25095e-05 3.38962e-05 -3.47482e-05 3.57656e-05 3.73086e-05 2.96004e-07 
1.35571e-05 5.13173e-05 -4.40311e-06 4.16838e-05 6.45141e-05 1.13647e-05 3.80908e-05 4.84725e-05 1.35959e-05 
4.04711e-05 3.00492e-05 1.66198e-05 3.96014e-05 2.44448e-05 1.75802e-05 4.02883e-05 2.74232e-05 2.46449e-05 
3.74654e-05 2.8152e-05 2.27315e-05 3.17283e-05 2.75626e-05 2.30309e-05 3.0382e-05 2.16284e-05 2.47695e-05 
2.39351e-05 1.80055e-05 1.74323e-05 1.49814e-05 1.10368e-05 1.66557e-05 1.64675e-05 5.98487e-06 1.84852e-05 
1.80146e-05 3.2911e-06 1.55393e-05 1.56842e-05 2.92204e-06 9.66081e-06 9.29221e-06 5.77148e-07 4.55029e-06 
4.60234e-06 -1.86205e-06 1.13272e-07 2.66067e-06 -3.3109e-06 -3.88735e-06 1.87469e-06 -5.3092e-06 -6.68877e-06 
-4.41851e-07 -6.87097e-06 -6.66719e-06 -6.16851e-06 -6.12037e-06 -9.17942e-06 -7.64203e-06 -6.86858e-06 -1.07077e-05 
-3.81578e-06 -7.14999e-06 -1.065e-05 -8.6546e-06 -5.27145e-06 -1.08245e-05 -9.07582e-06 -4.46679e-06 -9.60218e-06 
-6.09635e-06 -4.06579e-06 -7.86159e-06 -2.79645e-06 -5.95431e-07 -3.60158e-06 -2.31351e-06 1.65233e-06 -9.58475e-07 
-1.12404e-06 5.08995e-06 2.8618e-06 2.99347e-06 6.3963e-06 5.15725e-06 4.51302e-06 8.47559e-06 7.45686e-06 
8.85443e-06 7.1246e-06 3.788e-06 5.88474e-06 6.47535e-06 5.02853e-06 3.0831e-06 5.54041e-06 5.78847e-06 
5.09938e-06 5.4735e-06 9.37706e-06 5.45961e-06 4.15283e-06 1.13897e-05 2.50578e-07 5.9264e-06 2.4496e-06 
-2.58033e-06 -2.10229e-06 -2.80231e-06 9.79659e-05 -1.1651e-05 0.000143821 0.00146052 0.000299291 -8.75868e-05 
-2.3735e-05 -0.000155956 0.000492283 -0.000263946 1.17222e-06 -7.70168e-06 4.53767e-06 -6.72912e-06 3.78172e-06 
9.46872e-06 -5.61065e-06 4.61896e-06 1.02929e-05 1.24632e-05 2.53722e-06 1.25563e-05 8.96688e-06 1.13857e-05 
8.89852e-06 3.2239e-06 9.56482e-06 6.36679e-06 -9.85338e-07 1.08166e-05 9.7189e-06 7.17077e-06 -6.45624e-07 
3.62156e-06 8.11426e-06 -1.40867e-05 4.80562e-07 1.47992e-05 -1.30277e-05 -3.4674e-06 1.746e-05 -9.06689e-06 
-5.73716e-06 1.61187e-05 -4.62055e-06 -1.37029e-05 1.26159e-05 -4.70288e-06 -1.99448e-05 7.81678e-06 -3.21422e-06 
-2.31824e-05 -4.42933e-06 -4.17256e-06 -1.6891e-05 2.1638e-06 -5.15813e-06 -1.33292e-05 -4.59526e-06 4.66307e-07 
-8.84167e-06 -6.24441e-06 7.20965e-07 -6.2434e-06 -8.34675e-06 2.23011e-07 -4.61999e-06 -9.71664e-06 -2.79221e-06 
-7.82421e-07 -6.67077e-06 -2.30327e-06 -7.66755e-07 -8.63291e-06 -3.19021e-06 2.68173e-06 -8.66976e-06 -3.49796e-06 
6.75352e-06 7.44407e-06 3.272e-07 3.18748e-05 1.88741e-05 2.45059e-06 3.57603e-05 7.50126e-06 1.48966e-05 
4.29406e-05 1.27518e-05 2.63924e-05 3.53077e-05 6.87144e-06 2.70043e-05 1.72931e-05 -2.76232e-06 4.72483e-06 
2.35279e-05 1.0227e-05 -7.96915e-06 4.51587e-05 1.84322e-05 6.73883e-06 3.47818e-05 3.18302e-05 2.17073e-05 
8.73119e-05 2.88618e-05 2.59326e-05 7.91736e-05 3.15706e-05 -1.50708e-05 1.51611e-06 8.39435e-05 3.83053e-05 
0.000123116 8.72998e-05 -1.23687e-05 0.000179669 7.88714e-05 -3.19067e-05 0.000168711 -6.7716e-05 -3.08189e-05 
0.000687526 -0.000581941 0.000753585 0.000835243 0.0013809 0.000357869 8.97431e-05 -0.000394609 0.00046516 
0.000264563 9.77669e-06 0.00035941 0.000418893 -3.88024e-06 0.000253607 -9.4045e-05 5.98111e-05 9.11537e-05 
-6.61643e-05 1.59367e-05 2.38235e-05 6.13423e-06 1.93298e-05 8.95214e-05 -2.80474e-05 -4.07057e-05 0.000128431 
-9.63908e-05 -1.20363e-05 0.000101067 -4.15006e-06 -2.14123e-05 0.000102897 -1.12574e-05 -3.93543e-05 0.000108429 
-1.69885e-05 -2.40678e-05 7.80318e-05 -2.6015e-05 -1.94572e-05 8.54336e-05 -6.8302e-06 -1.71706e-05 7.72501e-05 
8.68253e-06 -1.75378e-05 6.06416e-05 5.76891e-05 -1.87579e-05 5.69303e-05 9.54311e-05 -8.26657e-06 0.000108214 
0.000134408 -3.72342e-05 0.000176201 0.000198681 -2.37367e-05 0.000269138 0.000230974 -1.02439e-05 0.000330672 
0.000138724 -6.75674e-05 4.57234e-05 0.000143692 -0.000163339 -7.50758e-05 0.000288033 3.91427e-05 0.000242349 
0.000169101 -0.00114235 2.8383e-05 -3.49111e-05 2.59566e-05 0.000127584 -0.000102149 0.000104084 4.22186e-05 
5.18179e-07 -8.01532e-05 2.69954e-07 -5.70688e-05 1.58299e-05 -0.000150726 -0.000134304 4.90965e-05 -0.0002722 
2.32555e-05 0.000125928 6.02752e-06 -0.000253644 -0.000103832 0.000313519 0.000157517 -8.09259e-07 3.68434e-05 
0.000475323 -0.00030867 -0.000256343 -0.000471006 -0.000296342 -0.00014484 -0.000287699 -0.000740852 -0.000114143 
8.20404e-05 -0.000128032 2.22444e-05 -2.02568e-05 2.17419e-05 -1.70061e-05 -2.54472e-05 7.81519e-06 -2.25348e-05 
-6.33426e-05 -2.39293e-05 -6.85435e-05 -0.00014003 -0.000111772 -0.00026183 -0.000197589 -0.000291953 -0.000259147 
-0.000158116 0.000618241 -0.000924873 4.45553e-05 0.000133602 -0.000507746 0.000484445 -6.8959e-06 -1.46313e-06 
-6.08557e-06 2.00186e-06 -0.000136305 8.81193e-05 -0.000114221 0.000189786 6.41582e-05 -5.79384e-05 1.40667e-06 
4.02993e-05 -2.55942e-05 5.90983e-06 -1.99061e-06 -3.71014e-05 0.000252519 0.000392139 -7.03173e-05 -3.69453e-05 
-3.53319e-06 -3.94855e-07 2.15745e-05 0.000296478 5.74459e-05 0.000468939 -0.000206163 -8.39987e-05 0.000892929 
2.28379e-05 -1.58499e-06 -5.81245e-06 7.74092e-05 -0.000606506 -5.70547e-05 -0.00022014 -0.000268709 9.3434e-05 
-6.13729e-05 9.44355e-05 0.00094616 -1.49785e-06 -0.000180984 -0.000493306 8.8347e-05 6.88217e-05 -0.000472061 
6.4059e-05 -0.00092391 -0.000138584 -0.000508587 -3.68711e-06 5.86572e-06 2.52743e-06 0.000568076 8.33659e-05 
-0.000231244 -3.09192e-05 -9.16431e-06 0.000217599 -0.000109771 3.85482e-05 9.55743e-06 1.02721e-05 2.91822e-06 
-8.30148e-06 4.04244e-07 5.06517e-06 1.86199e-05 -8.81369e-07 2.75175e-06 -7.54793e-06 -5.6435e-06 3.42523e-06 
-1.5038e-05 -7.10551e-07 4.62367e-06 -7.49694e-07 2.60793e-07 -4.79698e-06 -1.98143e-06 -4.73591e-06 -1.07947e-05 
8.87116e-06 -3.90623e-06 -1.19701e-05 4.41839e-06 5.90866e-08 -1.54319e-05 4.43606e-06 -4.0975e-06 -1.61445e-05 
2.65886e-06 8.02673e-06 -6.80145e-06 5.95072e-06 1.63505e-06 -7.47892e-06 -8.12941e-06 3.06931e-06 -2.31594e-06 
-8.29873e-06 -3.79155e-08 -5.1191e-06 -1.13326e-05 2.25623e-06 -4.39012e-06 1.0172e-05 3.2743e-06 -3.24574e-06 
1.05725e-05 3.25161e-06 -1.65719e-06 9.84074e-06 1.89855e-06 4.41509e-06 9.15203e-06 1.20623e-06 1.89986e-06 
6.06388e-06 -1.49185e-05 -2.16709e-05 0.000142713 -5.07852e-05 -0.000182868 0.00023224 2.3105e-05 4.27365e-05 
-5.61742e-05 3.48573e-05 2.49369e-05 -2.67331e-05 9.29302e-05 3.37115e-05 2.28299e-05 2.47783e-05 -3.56132e-06 
-5.81361e-05 -1.97563e-05 1.14636e-05 -2.81763e-05 -9.41589e-06 -1.34633e-05 -5.26933e-06 4.09137e-06 1.10599e-05 
9.96733e-06 2.31367e-05 7.55671e-06 1.02556e-05 2.77933e-05 1.47683e-05 1.33443e-05 3.16329e-05 1.60165e-05 
2.10548e-05 3.61183e-05 2.34719e-05 2.48647e-05 3.7141e-05 2.33598e-05 2.93674e-05 3.2595e-05 2.143e-05 
2.10904e-05 1.96331e-05 2.57201e-05 1.59107e-05 1.42533e-05 9.32258e-06 1.03358e-05 1.35691e-05 4.65219e-06 
9.21732e-06 8.73287e-06 1.87694e-06 7.74072e-06 8.74102e-06 -2.19413e-06 -1.498e-06 3.23479e-06 -6.90458e-07 
-6.32473e-06 1.94359e-06 9.20332e-07 -6.61943e-06 3.41028e-07 1.59692e-06 -7.15593e-06 -8.323e-07 3.73713e-06 
-1.05336e-05 -4.63862e-06 1.08454e-06 -9.22757e-06 -1.6889e-06 8.05182e-06 -1.00385e-05 -1.01088e-06 5.42293e-06 
7.13563e-06 1.30743e-05 4.9015e-06 -1.83738e-06 -2.72224e-06 -1.05057e-06 -6.75183e-06 -5.63114e-06 -5.41409e-06 
-4.03892e-06 -5.42438e-06 -2.69555e-06 1.38511e-07 1.54793e-06 -1.31125e-05 -1.04822e-06 5.31454e-07 5.28281e-07 
-6.71855e-06 -1.01917e-05 1.83788e-05 1.86838e-06 -5.13291e-06 9.97099e-06 4.58624e-06 5.28467e-06 4.94601e-06 
8.45408e-07 4.63893e-06 9.20907e-06 4.35697e-06 3.06173e-06 9.0109e-06 7.29857e-06 2.81117e-06 3.96258e-06 
4.29015e-06 4.49712e-06 2.72143e-06 8.86676e-06 7.55055e-06 6.07283e-07 9.19706e-06 5.27432e-06 2.34287e-06 
-0.000286179 9.14022e-05 -0.000101187 -1.31353e-06 -5.74074e-05 6.88819e-05 1.46375e-06 8.5508e-05 0.00010846 
-6.02781e-05 -9.11945e-05 7.29273e-06 -7.04853e-06 1.19064e-05 5.60728e-06 -7.06605e-06 9.23347e-06 3.23098e-06 
1.09818e-05 7.01158e-06 4.66937e-06 8.44709e-06 3.93075e-07 -9.368e-06 7.06955e-06 6.30549e-06 9.51463e-06 
-3.67972e-06 -5.03924e-06 -1.49814e-05 1.38338e-05 -8.50652e-06 -5.31813e-07 -1.77802e-06 -9.03192e-06 3.78944e-06 
-1.1963e-05 -1.71568e-05 1.21427e-05 8.9529e-06 -1.77155e-05 6.61828e-06 -1.92154e-05 -2.85689e-05 4.57668e-06 
1.68223e-05 -2.34303e-05 -1.99905e-05 -5.84897e-06 -2.47527e-05 4.45168e-06 4.15056e-06 -3.63825e-06 3.58141e-06 
9.71559e-06 -1.47899e-05 -3.81816e-06 7.03659e-08 -2.36623e-07 -2.61361e-06 -1.17837e-05 2.94249e-07 -3.58644e-06 
-4.70981e-06 2.9874e-06 1.52156e-06 3.03005e-06 1.15134e-05 1.94988e-06 6.55701e-06 5.12636e-06 -1.14016e-06 
4.5119e-06 1.138e-05 -9.87694e-07 1.48781e-06 -2.00786e-05 -3.01902e-05 8.73001e-06 -1.34407e-05 -7.93307e-06 
5.1087e-06 4.29168e-05 4.4767e-05 2.83117e-05 7.54996e-05 4.88495e-05 4.03761e-05 6.95272e-05 1.3193e-05 
2.3437e-05 3.76283e-05 9.15814e-06 -8.03813e-06 3.05219e-05 2.64371e-05 1.36648e-05 5.28169e-05 2.38089e-05 
4.82137e-05 7.0208e-05 1.54484e-05 2.12566e-05 6.27e-05 2.00462e-05 1.80175e-06 -3.80662e-06 4.39942e-05 
2.2327e-05 -1.29391e-05 7.82992e-05 -1.47103e-05 9.40766e-05 6.36523e-05 -3.07961e-05 9.33819e-05 1.53444e-05 
1.61845e-05 1.42054e-05 -1.39421e-05 -0.000208202 0.000367702 -0.000103662 -8.16363e-06 3.76023e-05 -5.49435e-05 
3.027e-05 5.54462e-05 -4.61543e-05 -8.28579e-06 1.38643e-05 -4.30317e-05 2.89301e-05 1.03167e-05 -2.92882e-05 
-4.98013e-07 2.816e-05 -2.62033e-05 -3.54562e-05 5.68507e-05 -4.51131e-05 -9.88713e-06 -1.25167e-05 -2.39954e-05 
-2.20574e-05 -7.42019e-06 -2.07855e-05 -2.02253e-05 8.8024e-06 -1.61086e-05 -1.73386e-05 3.45126e-06 -2.65978e-05 
-3.15876e-05 7.56717e-06 -2.67491e-05 -3.7738e-05 2.83253e-05 -2.04018e-05 -2.65088e-06 -1.05855e-05 8.67814e-06 
-4.18929e-05 1.27916e-05 -5.74331e-06 -8.28229e-05 -4.85496e-06 -3.96787e-05 2.15866e-05 -1.61923e-05 -2.50806e-05 
-4.73288e-05 2.50294e-05 -2.72341e-05 -0.000443886 0.000207276 4.30501e-06 -7.99527e-06 1.89525e-06 -4.04511e-06 
9.87412e-05 1.88979e-06 -2.37988e-06 0.000117387 -0.000138016 3.57504e-05 0.000163267 -1.97905e-05 2.01889e-05 
2.0331e-05 0.000204599 -5.01974e-05 -6.17141e-05 9.78728e-05 7.04172e-05 -4.37005e-06 -9.34722e-05 -6.37252e-05 
-3.33955e-05 -2.41465e-05 -8.14109e-05 0.0001516 1.46875e-06 -1.86981e-05 3.62674e-05 -7.16703e-05 -1.5715e-05 
-3.97499e-06 6.53428e-06 -0.000101129 0.000159351 -9.4926e-05 0.000442624 -1.09406e-06 0.000346164 3.35656e-06 
-1.0258e-05 5.77527e-06 -0.000378473 -0.00016782 0.000173496 0.000171975 -0.000125274 -1.63285e-05 -3.69117e-05 
-4.10842e-05 -4.78502e-05 1.64942e-05 -4.25446e-05 -4.48451e-05 1.78633e-06 0.000131545 -3.95823e-05 -0.000117498 
0.000180343 6.63994e-06 9.98227e-06 6.12538e-05 8.17835e-05 -3.092e-05 0.000187926 -5.26928e-06 -0.000151398 
-1.57765e-06 -0.000137687 -0.000242789 -5.4882e-06 3.04686e-06 -3.5204e-05 7.36666e-06 -3.11145e-06 -9.15946e-05 
-0.0001116 -1.3184e-05 -0.000298686 7.55636e-05 -0.000219619 -2.39168e-05 1.25119e-08 -4.86954e-05 -1.02244e-05 
-5.34093e-05 2.65246e-05 0.000284533 -0.00051702 -0.000216135 1.3808e-06 4.58446e-05 -8.87987e-06 -5.68637e-05 
-0.000243154 -2.60927e-05 -0.000102583 5.41084e-05 -5.74907e-05 0.000137117 -0.0001459 2.21152e-06 0.000200157 
0.00012259 -0.00018627 0.000218825 0.000121253 1.61421e-05 -2.72867e-06 -3.47951e-05 0.000455275 0.000121993 
0.00048012 -0.00019052 8.39935e-06 0.000201798 3.71187e-05 -4.24379e-06 -2.9502e-06 2.81582e-06 -5.21094e-06 
2.83305e-06 -1.89591e-05 1.43813e-05 -2.61868e-06 -2.18558e-05 -2.20941e-06 1.07165e-05 5.19945e-07 -3.75951e-06 
-7.97364e-06 9.2179e-06 -3.64702e-06 -7.07413e-06 5.10974e-06 -3.85366e-06 -7.07575e-06 8.33236e-06 -3.47396e-06 
9.00454e-06 -1.92196e-05 7.51534e-06 -9.64921e-06 1.79058e-05 6.18461e-06 -2.52074e-06 -9.30294e-06 6.62288e-06 
2.42463e-06 7.84272e-06 1.32673e-05 -1.28325e-06 7.16645e-06 7.2531e-07 -4.903e-06 5.44535e-07 2.49545e-06 
-7.06957e-06 -7.93491e-06 2.92039e-06 -2.04108e-06 -1.27536e-05 -3.79396e-07 -3.53244e-07 3.34228e-06 -2.75735e-05 
0.000118144 -3.53923e-07 -0.000104234 -6.10169e-05 -3.52391e-05 0.000100648 -3.69249e-06 5.09653e-05 -8.573e-05 
5.36533e-05 8.83501e-05 6.6333e-06 2.3927e-05 -4.83461e-05 2.87938e-05 -5.20271e-05 -2.28759e-05 -3.52478e-05 
1.4185e-05 -1.09511e-05 -3.17652e-05 -7.42308e-06 1.77147e-05 -1.43962e-05 -2.44933e-05 1.00102e-05 -2.24267e-06 
3.58575e-06 3.99096e-06 -3.37352e-06 8.93001e-07 9.51142e-07 -3.79986e-06 3.08474e-06 1.79143e-05 5.87842e-06 
1.44955e-05 2.88331e-05 2.2708e-05 1.54678e-05 4.78389e-05 4.15129e-05 4.82792e-05 3.55127e-05 1.50499e-05 
1.07868e-05 2.10988e-05 3.67214e-06 -4.64202e-06 1.78751e-05 -3.65134e-06 -1.94061e-05 1.44471e-05 -1.47884e-05 
-2.80392e-05 6.39569e-06 -1.55189e-05 -1.58426e-05 9.44753e-06 -4.68141e-06 7.38463e-06 1.14206e-05 4.64969e-06 
2.58903e-05 2.66408e-06 6.82745e-06 2.00711e-05 -6.14526e-06 6.13702e-06 2.6236e-05 -1.14417e-05 1.3376e-06 
2.59638e-05 -1.27186e-05 3.64927e-06 1.74878e-05 1.21359e-06 2.15735e-05 1.88011e-05 1.25596e-05 5.39545e-06 
2.62582e-06 1.56299e-05 6.42822e-06 2.70449e-06 1.35828e-05 1.21072e-05 -4.79433e-06 -5.05087e-06 4.7028e-06 
1.81757e-06 -9.8107e-07 -9.06679e-08 1.57572e-06 1.38527e-05 -6.24938e-06 -8.71902e-06 3.10052e-05 -1.1206e-05 
-2.81395e-06 2.02005e-05 8.69577e-06 -5.06987e-06 -6.77387e-06 1.03477e-05 3.13187e-06 1.54468e-05 1.03093e-05 
4.91525e-06 6.34089e-06 1.07295e-05 2.95703e-06 1.75722e-07 8.69636e-06 3.46494e-06 7.9063e-05 -2.54193e-05 
0.000164518 -0.000201374 -1.16799e-05 7.60954e-05 7.27977e-05 -5.14695e-05 -6.56176e-06 1.11213e-05 -7.53329e-07 
5.77455e-06 1.31929e-06 -7.84311e-06 -0.00224135 0.000140263 1.95662e-05 -1.23199e-05 8.33405e-06 -1.60898e-05 
1.95251e-05 1.08593e-05 -1.31494e-05 -0.000895726 0.000343225 -2.34002e-05 -5.24486e-06 6.93789e-06 -1.59031e-06 
5.22917e-06 2.2096e-05 -2.28168e-05 9.07835e-06 -4.274e-07 7.03071e-06 1.76823e-05 4.56989e-06 -9.54952e-07 
1.34246e-05 3.70934e-05 -8.74116e-07 -0.000670377 0.000339783 7.83463e-06 8.97648e-06 -1.10099e-05 1.00634e-05 
2.77171e-05 -1.77822e-05 9.34761e-06 -9.44354e-06 1.6263e-06 1.24357e-05 1.73767e-06 3.52545e-05 1.70441e-05 
1.44707e-05 -1.75762e-05 3.45332e-05 2.25735e-05 -1.57043e-05 2.58753e-05 1.1985e-05 1.866e-05 6.92718e-06 
3.21635e-05 -6.70076e-06 4.93934e-05 2.54001e-05 -5.26821e-06 -4.29214e-05 -1.9272e-05 -1.04822e-06 3.58452e-06 
1.95836e-05 4.33537e-06 6.72649e-05 5.29256e-05 8.37218e-06 3.05815e-05 2.84183e-05 3.25362e-05 -1.56419e-05 
3.6908e-06 8.98184e-06 3.97529e-05 2.77632e-05 8.47279e-06 3.43076e-05 -5.08759e-06 1.24708e-05 3.674e-05 
4.43138e-06 1.45002e-05 3.90107e-05 -9.61904e-07 4.39143e-05 -1.36044e-06 3.63359e-07 -2.55752e-05 -1.56996e-05 
8.61154e-05 -5.06654e-07 1.39976e-05 -6.76769e-06 -4.64438e-06 4.37635e-06 -8.47605e-06 -2.01836e-05 2.29509e-05 
-4.78414e-05 -7.16017e-06 -4.6338e-05 8.84038e-05 0.00010875 -1.74032e-06 -1.45943e-05 -5.24083e-06 -0.000241377 
-4.55229e-05 6.99593e-05 -0.0001431 -5.71366e-05 2.04262e-06 3.58735e-05 -1.5576e-05 3.43266e-07 5.49352e-05 
-6.49819e-05 3.47404e-05 9.97372e-06 -6.03162e-06 -5.19978e-05 -3.40367e-05 -1.5865e-05 -2.88238e-05 -2.84227e-05 
-2.87733e-05 2.87633e-06 7.53221e-06 2.9733e-07 1.49808e-05 8.35339e-06 2.31082e-05 2.80269e-05 -6.67494e-06 
-9.57499e-06 -2.0073e-05 1.58015e-05 -2.61423e-05 -1.14451e-05 1.24486e-05 2.27932e-05 -1.08087e-05 -8.43585e-06 
2.20842e-05 -5.28961e-05 -1.12448e-05 -9.69329e-07 -3.94951e-05 4.3608e-06 2.13649e-05 1.61967e-05 2.8816e-05 
1.56747e-05 7.89411e-05 4.24284e-05 4.63902e-05 -9.37877e-05 -5.99048e-05 -2.94483e-05 2.68302e-05 -2.46306e-05 
6.09623e-05 -6.83771e-05 -5.28694e-05 -0.00019433 1.03786e-05 -0.000176852 -6.52392e-05 -0.000119051 -2.37956e-05 
-4.65973e-05 -3.18561e-05 -0.000131625 -2.03735e-05 2.53705e-05 -3.14757e-05 -0.000125517 0.000209491 -0.000105671 
0.000144447 0.000123643 0.000130952 -1.9984e-05 -3.33427e-05 5.26581e-05 2.7747e-05 -2.59945e-06 9.65488e-05 
-1.68345e-05 1.83886e-05 -1.0972e-05 -5.15325e-05 3.30683e-07 4.75442e-06 -2.81065e-06 0.000124514 5.25844e-05 
0.000105671 4.52238e-05 5.49808e-05 1.89928e-05 -3.5988e-05 4.60854e-05 5.28014e-05 -3.66798e-05 0.000236482 
0.000214821 -6.39816e-06 1.39232e-05 1.32832e-05 -1.20546e-05 5.47575e-05 -0.000121201 -4.90754e-05 2.72339e-05 
-4.62963e-05 -5.52547e-06 2.08436e-05 8.66602e-06 1.4021e-05 0.000133687 -6.63903e-05 -0.000557224 0.000612972 
-1.2583e-05 -9.23839e-06 0.000138172 -0.000231463 5.88922e-05 1.90393e-05 -3.65402e-05 -5.89298e-06 0.000101324 
5.61993e-06 5.36703e-05 4.18223e-05 6.69626e-06 -8.34409e-05 -5.21117e-05 -6.98389e-05 6.99745e-05 -3.34486e-05 
-2.7498e-05 0.000213923 -0.000140716 7.69392e-05 3.35712e-05 -0.000127191 8.09527e-06 8.23441e-05 -2.11316e-05 
9.5865e-05 -4.3969e-05 6.95692e-06 2.87839e-05 -2.81224e-05 -2.57327e-05 -7.79994e-05 -3.68529e-05 1.87095e-05 
-5.45154e-05 -6.96042e-05 -2.70507e-06 -4.32893e-05 0.000122759 8.3473e-06 1.75035e-05 -4.16909e-05 1.4173e-05 
-1.21779e-07 0.000192722 -7.0143e-05 -0.00021741 0.000113419 4.95746e-05 4.95681e-05 0.00025042 3.07707e-05 
-2.98629e-05 -8.77766e-05 0.000131471 6.66696e-06 -8.08233e-06 -5.12917e-06 1.7586e-07 1.44981e-05 1.27346e-06 
2.07762e-05 3.63419e-06 9.53367e-06 -1.51246e-05 2.34148e-06 -2.39776e-05 1.66549e-06 6.19374e-06 1.66638e-05 
-7.24197e-05 -2.95011e-05 2.30102e-06 1.99511e-06 2.40891e-05 -0.000529284 0.000596999 1.12781e-06 3.12719e-06 
-3.05047e-05 -3.24292e-06 -0.000544061 0.000617465 1.9474e-05 -1.05968e-05 -1.59845e-05 6.93338e-06 5.95077e-06 
2.01171e-05 -5.90699e-06 -4.82312e-05 2.19981e-05 -4.92356e-05 -1.49111e-05 -3.0784e-06 9.89424e-07 -7.81064e-05 
-5.23942e-05 -3.60338e-05 -8.50052e-06 3.72263e-05 -9.35857e-06 2.12919e-06 1.0841e-05 -3.64759e-05 1.79346e-05 
3.37519e-05 1.86968e-05 1.57405e-06 -3.25851e-05 -0.00054438 0.000648107 1.10812e-05 -1.49454e-05 -8.22953e-06 
-2.70545e-05 -1.37536e-07 4.86844e-05 1.29124e-05 2.56185e-05 3.3507e-05 3.31688e-05 -4.70097e-05 -3.92052e-05 
-4.70533e-05 -3.7393e-05 5.20227e-06 3.58191e-05 -7.11968e-06 2.10904e-05 -5.2513e-05 -5.01591e-05 3.81125e-05 
-2.73525e-05 -2.01406e-05 5.79382e-06 1.52e-05 -9.84485e-06 -3.49482e-06 1.65373e-05 -2.636e-06 -2.24488e-05 
1.56155e-05 8.57241e-06 -3.79828e-05 -4.13173e-06 8.41331e-07 8.11261e-06 -2.20254e-05 3.05402e-05 1.89572e-05 
1.14586e-06 3.4249e-05 3.42504e-05 4.63078e-05 -6.83613e-06 3.03559e-05 -9.06987e-06 1.09582e-05 1.14436e-05 
1.88302e-06 -4.46243e-06 3.80452e-05 2.67663e-05 3.12949e-05 9.14145e-06 -1.63064e-05 2.23924e-05 -9.15655e-06 
-1.05776e-06 5.3031e-06 -5.46808e-05 9.54884e-06 -3.03423e-06 9.13485e-06 -2.1729e-05 -2.78167e-05 1.19541e-05 
4.95892e-05 1.05132e-05 -1.05549e-05 4.69964e-05 2.69833e-05 2.05078e-05 2.03488e-05 1.22165e-05 -1.08194e-06 
3.86189e-05 -1.03632e-05 3.58574e-06 4.43505e-05 6.87451e-05 4.00049e-05 4.39222e-05 1.9161e-05 1.02155e-05 
1.6611e-05 9.2956e-06 -6.79805e-05 -6.15674e-07 1.61935e-05 1.12099e-05 4.46056e-05 -0.000587555 0.00053023 
2.28636e-07 -2.28732e-05 3.63339e-05 6.31743e-06 5.63215e-06 -3.49144e-05 1.46964e-05 -2.85358e-05 9.61837e-07 
-2.78873e-05 1.23573e-05 3.17721e-05 -3.6943e-05 -3.44684e-05 9.43595e-06 -4.051e-05 -2.34517e-05 -0.000133072 
-2.72826e-05 -1.20863e-05 5.32434e-05 -1.22776e-05 1.43638e-05 -2.50799e-05 -6.90527e-05 -5.82979e-05 -8.34115e-05 
0.000110941 -1.31072e-05 -0.000640562 0.000439902 4.41367e-05 4.81399e-05 1.23042e-05 -4.09152e-05 -3.02552e-05 
-3.79588e-05 3.19251e-05 9.08734e-07 4.90125e-07 7.46226e-05 -6.70767e-05 3.44815e-07 -1.18213e-05 -4.54518e-05 
-1.44297e-05 -7.87965e-06 -3.22402e-06 -1.78015e-05 -2.9254e-05 8.51626e-06 -6.95897e-06 7.13082e-05 -9.09128e-06 
3.24268e-06 -4.5287e-06 -3.60543e-06 -5.84374e-06 -3.16324e-05 -7.57534e-05 -1.06248e-05 -1.68245e-05 -7.4608e-05 
-5.00223e-05 4.22638e-05 7.73334e-05 7.23633e-05 -1.1516e-05 -3.78627e-05 1.3532e-05 -6.43288e-07 -1.3636e-05 
3.84594e-05 -1.76924e-05 -1.66615e-05 2.0324e-05 -0.000669431 0.000345839 -5.60782e-05 2.11503e-05 9.02392e-06 
-1.45834e-06 5.60271e-05 3.72895e-05 8.16969e-05 7.51379e-05 -2.16122e-05 5.41015e-05 6.77568e-06 -1.24728e-05 
3.44652e-05 3.73021e-05 -7.01703e-05 2.16109e-06 -1.18084e-05 -3.34893e-06 5.63294e-06 2.58033e-05 4.28674e-06 
-8.17487e-06 -9.28305e-06 7.0872e-06 5.47067e-05 -3.66621e-05 -3.51946e-06 -0.00067821 -0.000813915 -3.44526e-07 
-2.55262e-05 3.57969e-05 5.38269e-05 -1.11855e-06 1.51976e-05 6.58046e-05 -8.34864e-05 3.23381e-05 -7.77142e-05 
3.42504e-06 2.05717e-05 8.36643e-05 1.43527e-05 1.00297e-05 6.46522e-05 4.89006e-05 6.87868e-05 -0.00153778 
-0.00510835 -4.89468e-05 -0.00119132 -0.000394793 4.28129e-05 4.4619e-05 1.63335e-05 4.62491e-06 -1.29985e-05 
-2.79143e-05 -5.97699e-05 -3.07756e-05 5.04664e-06 4.40698e-05 -5.26428e-05 -2.4618e-05 -1.30572e-05 7.6749e-05 
6.53477e-05 2.06753e-05 0.000129082 5.5813e-05 -2.28397e-06 2.69487e-05 3.28727e-05 -4.80228e-05 -7.25388e-05 
6.4949e-05 0.000126103 -4.94258e-05 1.56439e-05 -5.06742e-05 3.05538e-05 -2.35707e-05 -4.72792e-05 -2.01153e-05 
7.8582e-05 -0.000128354 -2.26288e-05 7.2898e-05 5.62219e-05 -3.27729e-05 -9.54074e-05 6.19947e-06 -2.60215e-05 
5.4282e-07 1.90455e-05 -4.66621e-05 -4.40642e-05 -5.59497e-05 3.43186e-05 2.48639e-05 -2.38703e-05 -3.30561e-05 
2.23545e-05 -2.90058e-05 -4.77987e-05 4.77363e-05 2.63551e-05 -9.38173e-05 -9.22e-06 1.91598e-05 -5.64212e-05 
-3.42612e-05 6.63642e-05 2.36076e-05 -4.20551e-05 0.00010342 -5.56095e-05 0.000149235 -6.10473e-05 -1.62938e-05 
-4.65296e-05 -5.45822e-05 -1.55032e-05 -1.76308e-05 1.34272e-05 -8.5885e-08 1.04364e-05 -9.86438e-05 -6.78574e-06 
3.97473e-05 2.66032e-05 9.11752e-05 -4.73609e-05 8.69257e-05 5.5683e-06 7.37257e-06 4.19741e-05 2.9934e-05 
4.47107e-05 -6.06085e-05 1.10796e-05 0.000109922 -2.97961e-05 -7.73958e-05 4.77091e-05 -9.43646e-05 5.40904e-05 
2.25939e-05 2.54557e-05 6.34204e-05 9.84438e-06 -1.62401e-05 -2.36358e-05 1.8053e-05 6.96894e-05 -2.88954e-05 
1.11911e-05 -1.25446e-05 -2.26181e-05 4.07107e-05 6.24661e-05 -3.16472e-05 9.70714e-06 -0.000103804 -8.28438e-05 
8.32805e-05 -0.000122331 7.16494e-06 -2.9848e-05 -7.77955e-05 -5.03802e-05 -2.15283e-05 -6.57198e-05 -3.56558e-08 
2.8873e-05 1.60686e-05 -8.88529e-06 -3.41481e-06 -4.69698e-05 -1.15092e-05 0.000103865 2.41407e-05 6.8571e-05 
-4.90248e-05 2.70064e-05 -2.64361e-05 -1.9811e-05 6.16372e-05 6.05086e-05 -2.07273e-05 -1.51751e-05 -2.80803e-05 
5.43557e-05 1.61329e-05 -2.13621e-05 4.00446e-06 8.77661e-06 -3.49054e-05 -4.08249e-05 2.8484e-05 -6.50558e-05 
1.57845e-05 2.15065e-05 2.03935e-05 5.14936e-05 -8.67364e-05 1.17626e-05 0.000122041 2.64924e-05 -1.96892e-05 
-8.42625e-09 1.42262e-05 2.94274e-05 -9.18808e-05 -8.17901e-05 -0.000125396 0.000182849 -1.86548e-05 1.10754e-05 
-1.30936e-05 5.71666e-05 -0.00017489 2.79624e-05 -2.43778e-05 -1.97516e-05 -1.08872e-06 -5.98161e-05 2.72914e-07 
-9.53582e-05 4.36499e-05 -1.60456e-05 0.000108822 -0.00011571 -8.16079e-05 7.82539e-06 7.27908e-05 -1.97278e-05 
-8.666e-06 -1.19465e-06 1.80868e-05 1.44021e-05 1.63921e-05 1.24635e-05 5.53842e-06 5.52261e-06 -1.50406e-06 
2.08567e-07 -1.19731e-06 -8.27665e-06 -4.27735e-06 -3.2079e-06 -1.8007e-05 -6.35583e-06 -3.2573e-06 -1.66077e-05 
-5.59938e-06 -5.18061e-06 -1.68467e-05 -4.1448e-06 -4.61039e-06 -6.93625e-06 -5.85788e-06 -5.50352e-06 -6.90011e-06 
2.41227e-06 -3.01234e-06 -7.75643e-06 1.38689e-05 1.56394e-06 1.35474e-05 -1.00811e-05 1.7076e-05 4.96562e-06 
-4.70476e-08 -5.89579e-06 7.68931e-06 -1.12326e-06 -7.84663e-06 9.94126e-06 -9.80303e-06 -7.43191e-06 5.63371e-06 
-1.09283e-05 -2.06044e-05 1.07655e-06 -9.91561e-06 9.74464e-07 -6.03351e-06 -4.70819e-06 -1.58887e-05 -6.72184e-06 
5.35271e-06 -6.78088e-06 -1.27221e-05 7.37331e-06 -4.37732e-06 1.1336e-05 6.39352e-06 8.22542e-06 1.18778e-05 
8.78939e-06 5.32563e-06 8.90541e-06 6.98021e-06 4.86058e-06 9.93949e-06 -1.11216e-07 4.75217e-06 8.67206e-07 
1.72479e-05 1.45211e-05 7.35467e-06 1.49217e-06 1.09663e-05 1.56939e-05 -3.45133e-06 -4.68e-06 1.30349e-06 
-2.1143e-05 0.0310557 -0.00270635 -0.0213949 6.80765e-05 0.00135529 -0.00608884 7.51012e-05 0.000263435 
-0.000518217 0.000110949 0.000195871 -0.000207695 8.47935e-05 6.21124e-05 4.86558e-05 5.16147e-05 4.63671e-05 
1.38884e-05 3.49724e-05 1.92026e-05 -2.74816e-05 3.94803e-05 5.66935e-05 -5.11686e-05 3.17126e-05 2.11731e-05 
2.71318e-05 2.99193e-05 2.47913e-05 4.88969e-06 2.71432e-05 2.122e-05 3.25894e-06 2.01722e-05 1.21008e-05 
-7.03765e-07 4.0509e-05 1.07135e-05 1.00576e-05 3.02078e-05 2.23481e-05 1.52794e-05 1.62302e-05 1.02589e-05 
9.59723e-06 7.45815e-06 4.70258e-06 4.39496e-06 -1.31505e-06 -7.13533e-07 3.79296e-06 -5.06407e-06 -3.18946e-06 
2.86243e-06 -1.00506e-05 -6.82137e-06 1.3908e-06 -1.15735e-05 -9.72321e-06 -5.07056e-06 -1.44181e-05 -1.40347e-05 
-7.91384e-06 -1.8903e-05 -1.90102e-05 -6.9378e-06 -1.83918e-05 -2.12947e-05 -6.72518e-06 -2.00375e-05 -2.22805e-05 
-7.78737e-06 -1.96279e-05 -2.06862e-05 -6.61368e-06 -1.52783e-05 -1.4913e-05 -5.74385e-06 -1.18219e-05 -1.16802e-05 
-4.43908e-06 -8.65481e-06 -6.33052e-06 -2.08564e-06 -4.42774e-06 -2.39261e-06 -2.75977e-07 -3.53546e-06 1.29662e-06 
3.23087e-06 2.4467e-06 6.18517e-06 3.33755e-06 8.28332e-06 1.23162e-05 2.01383e-06 1.20522e-05 1.59606e-05 
4.72944e-07 1.35772e-05 1.50122e-05 2.45404e-07 1.42917e-05 1.46679e-05 -8.28311e-07 1.46635e-05 1.25923e-05 
-3.29957e-06 1.25373e-05 9.45752e-06 -3.45344e-06 1.03647e-05 5.11383e-06 -3.52331e-06 6.5181e-06 1.07427e-06 
-2.62111e-06 2.27792e-06 -2.90507e-06 -2.528e-06 -1.63988e-06 -7.85049e-06 6.96691e-07 -6.43972e-06 -1.21959e-05 
1.73741e-06 -8.27156e-06 -1.05617e-05 5.85567e-06 0.0385679 -1.59561e-05 -7.48472e-06 9.70464e-06 -3.02544e-06 
-7.74909e-06 -9.70902e-08 1.16057e-06 4.51426e-06 6.46077e-06 4.06658e-06 9.36293e-06 7.62181e-06 6.80325e-06 
1.35521e-05 8.41329e-06 9.62491e-06 1.80595e-05 7.37922e-06 1.05842e-05 1.81814e-05 3.69325e-06 8.36255e-06 
1.69401e-05 -4.05442e-06 1.15187e-05 1.5689e-05 -3.13119e-06 1.3623e-05 1.57408e-05 -1.11411e-07 1.29028e-05 
1.30913e-05 7.55476e-07 4.55859e-06 -2.10789e-06 -1.2027e-05 -2.17802e-06 -1.25262e-05 -1.70306e-05 -8.73208e-06 
-2.32986e-05 -1.81032e-05 -1.33425e-05 -2.69424e-05 -1.71719e-05 -2.03332e-05 -3.48807e-05 -1.67693e-05 -2.5425e-05 
-3.97195e-05 -1.11108e-05 -2.66402e-05 -4.18761e-05 -5.48812e-06 -2.62973e-05 -3.75902e-05 -8.404e-07 -2.24538e-05 
-3.21234e-05 3.2271e-06 -1.76669e-05 -1.75315e-05 6.95205e-06 -1.15618e-05 -9.92818e-06 6.56208e-06 -4.23528e-06 
-1.8753e-07 6.397e-06 4.57789e-06 1.02959e-05 6.25168e-06 1.17454e-05 1.59003e-05 9.92801e-06 1.5593e-05 
2.44063e-05 1.40224e-05 2.10417e-05 2.90705e-05 1.64204e-05 2.60281e-05 3.87766e-05 1.81257e-05 2.75435e-05 
4.50448e-05 1.93971e-05 3.05919e-05 4.78461e-05 1.69976e-05 3.27409e-05 4.25416e-05 1.16378e-05 3.45476e-05 
4.45824e-05 1.05102e-05 3.65411e-05 4.79131e-05 1.04387e-05 3.91945e-05 4.95947e-05 1.10551e-05 4.53991e-05 
5.34722e-05 5.16282e-06 5.38043e-05 6.23592e-05 4.87871e-08 6.37412e-05 7.97917e-05 -7.79933e-06 8.588e-05 
0.000112554 -1.21822e-05 0.000112189 0.000138727 -1.57455e-05 0.000157784 0.000182793 -3.46232e-05 0.000202664 
0.000286882 -3.22561e-05 0.000770419 0.000377242 -1.01722e-05 0.000748388 0.000354041 -0.000661545 -0.0170468 
-0.00361902 -0.00372868 -0.00727837 0.027456 0.0180627 0.0220101 0.0285227 -0.0320757 0.0142673 
0.0210517 -0.021916 0.0327417 0.0365336 -0.0178287 0.0434203 0.0350221 -0.0134045 0.0311813 
0.0425953 -0.00653521 0.0294061 0.0345722 -0.011141 0.0292118 0.0336615 -0.0122031 0.0291162 
0.0321009 -0.0118773 0.0284447 0.0312019 -0.0122706 0.0287006 0.0320839 -0.0127927 0.0307088 
0.0332304 -0.0122166 0.030726 0.0334641 -0.0123198 0.0314319 0.034427 -0.0124391 0.030988 
0.0334113 -0.0118679 0.0312488 0.033048 -0.0117811 0.0308069 0.0316006 -0.0118849 0.0306946 
0.0311948 -0.0125332 0.030936 0.0308784 -0.0125568 0.0316028 0.0317871 -0.0131065 0.0317528 
0.0312138 -0.0128413 0.0326598 0.0316426 -0.012903 0.0342577 0.0321461 -0.0129317 0.0371513 
0.0324217 -0.0129848 0.0437058 0.036157 -0.0135548 0.0474578 0.0447218 -0.0136819 -0.00654279 
0.0396018 0.0193061 0.00173671 -0.00175543 -0.00412857 0.00102788 0.00494763 0.000737601 0.000370209 
0.00105967 -6.50192e-05 -0.000326125 0.000394044 -0.000408673 -0.000292392 0.00016871 -0.000136066 -0.000246693 
0.000138607 -0.000164563 -0.000254599 0.000162893 -0.000184595 -0.000218403 0.000127228 -0.00012672 -0.000242994 
0.000150165 -0.000231161 -0.000251124 0.00016833 -0.000647111 -0.000489719 0.000151253 -0.0011549 -0.00112274 
-9.74449e-05 -0.0023937 -0.00323163 -0.000155757 -0.00713674 -0.0189739 -0.000264949 -0.0309229 -0.0293994 
-0.0165285 -0.00538446 -0.00086938 -0.00150344 -0.000958805 3.55617e-06 -0.00036302 0.000340005 -5.59127e-05 
-0.000245815 -3.82522e-05 -0.000159149 -0.000140069 -6.78596e-05 -8.55325e-05 -0.000124756 -1.91911e-05 -7.76617e-05 
-0.000134195 3.92965e-05 -9.25001e-05 -0.000156427 5.68326e-05 -5.01864e-05 -0.000159304 5.98225e-05 0.00013381 
-0.000103508 0.000218165 0.000104462 -1.17101e-05 0.000335292 -0.000184832 -0.000202692 0.000557869 -0.00170905 
-0.00113927 0.00074857 -0.00410616 0.00325221 0.0036357 2.8469e-05 -0.0265906 0.00229213 -0.0200556 
0.0138121 -1.02439e-05 -1.16749e-05 0.0136647 -0.0156654 0.0220895 -0.00882158 -0.00406144 0.027992 
0.00235536 -0.0183046 0.00975323 1.64574e-05 -3.93858e-05 8.89114e-06 -8.75756e-07 3.15275e-06 -4.10521e-06 
8.91263e-06 4.82627e-07 3.7434e-07 -5.41178e-06 -3.24977e-07 -3.66376e-06 -1.94787e-06 9.23161e-06 -9.28212e-06 
-3.32829e-06 8.0322e-06 -1.43439e-06 -7.42687e-07 -1.60911e-05 -1.98291e-06 -2.64231e-06 -1.03304e-05 -2.95838e-06 
-8.02e-06 -7.89898e-06 -1.2973e-05 -1.53622e-05 -1.01774e-05 -1.72691e-05 -6.46134e-06 7.85471e-06 -1.9054e-05 
-1.38302e-06 4.51621e-06 -1.67793e-05 -4.63833e-06 1.84632e-06 -1.67634e-05 -3.81118e-06 4.54159e-07 -1.06891e-05 
-4.54816e-06 -3.00568e-06 -1.14474e-05 -1.3342e-06 -4.52659e-06 -4.27578e-06 -4.62356e-06 -5.54117e-06 -3.54715e-07 
-7.15765e-06 -1.0779e-05 1.86984e-06 -4.97199e-06 6.66366e-06 1.14371e-06 -1.56656e-06 8.50113e-06 6.06156e-06 
1.15803e-06 7.06389e-06 2.08509e-06 6.81111e-06 6.60522e-06 4.05774e-06 5.32938e-06 1.28712e-05 9.90864e-06 
1.16697e-05 3.32014e-06 1.61185e-06 -4.63788e-06 6.90119e-08 -0.000147805 7.91196e-06 -1.71539e-06 -3.90665e-06 
0.0134034 0.000843868 -4.1352e-05 0.000227008 -0.000137669 0.000351996 -0.00359373 -0.00862053 0.000174769 
8.50714e-05 -9.85487e-05 -7.60803e-05 8.28748e-05 -6.97395e-05 8.4232e-05 6.59091e-05 -5.02096e-05 9.07555e-05 
-7.80144e-06 -2.06182e-05 3.30036e-05 2.80718e-05 -2.21295e-05 2.45318e-05 3.92192e-05 2.48664e-06 1.83349e-05 
4.39743e-05 1.64049e-05 2.27238e-05 3.52396e-05 1.9536e-05 2.84796e-05 4.06803e-05 1.55625e-05 3.02272e-05 
4.30735e-05 1.97333e-05 2.84134e-05 3.8944e-05 2.72626e-05 2.52347e-05 3.3173e-05 2.48268e-05 2.2537e-05 
2.76006e-05 2.20444e-05 1.59372e-05 2.17729e-05 2.3056e-05 9.81046e-06 1.74002e-05 2.58896e-05 6.55473e-06 
9.95237e-06 2.45534e-05 1.33808e-06 5.50273e-06 1.91173e-05 -1.88114e-06 1.43145e-06 1.64457e-05 -3.50145e-06 
6.34013e-08 1.48316e-05 -5.50113e-06 -3.51052e-06 1.13872e-05 -8.77065e-06 -6.18549e-06 6.96351e-06 -1.06017e-05 
-1.03935e-05 1.9688e-06 -1.02256e-05 -1.58042e-05 -3.78323e-06 -7.30732e-06 -1.74793e-05 -7.35331e-06 -4.78119e-06 
-1.63445e-05 -9.53685e-06 -3.24587e-06 -1.09518e-05 -1.07591e-05 -8.38536e-07 -6.70152e-06 -1.06949e-05 1.34286e-06 
-2.14501e-06 -1.09158e-05 6.65054e-07 -1.15591e-06 -1.06041e-05 9.25085e-07 5.60443e-06 -1.0658e-05 2.4301e-07 
1.14697e-05 -6.19952e-06 -4.0385e-07 1.2908e-05 -2.41557e-06 1.14663e-06 1.2996e-05 -4.3523e-07 1.58388e-06 
1.31568e-05 2.73062e-06 8.35568e-07 1.07758e-05 4.43331e-06 2.45427e-06 8.75282e-06 5.41532e-06 2.91324e-06 
7.81008e-06 1.03152e-05 4.87258e-06 4.79631e-06 1.47692e-05 4.61513e-06 -1.48097e-06 9.6935e-06 5.8751e-06 
0.000171624 0.00152287 -0.000631464 -0.0165405 -1.45431e-05 -0.00112342 -4.76793e-06 2.20701e-06 4.31988e-06 
-5.37159e-06 1.53687e-06 4.61357e-06 -7.43173e-06 3.20499e-06 5.73599e-06 -7.50234e-06 4.98591e-06 4.80092e-06 
-8.32732e-06 5.45055e-06 -1.47859e-06 -5.65166e-06 3.95206e-06 -1.40437e-07 -3.63482e-07 1.31566e-05 2.81895e-06 
-4.4175e-06 1.40935e-05 4.37354e-06 -3.25802e-06 1.06846e-05 3.06178e-06 1.2743e-05 2.91112e-06 -8.40427e-06 
1.55598e-05 3.84366e-06 -1.23802e-05 1.6064e-05 -2.5327e-07 -1.25433e-05 1.30615e-05 -3.77068e-06 -1.03131e-05 
1.43549e-05 -9.68134e-06 -9.03222e-06 1.26401e-05 -1.29338e-05 -3.80361e-06 7.65635e-06 -1.43552e-05 1.65554e-06 
3.32857e-06 -1.49137e-05 2.42669e-06 -7.95587e-07 -1.28486e-05 4.19904e-06 -3.72733e-06 -6.67858e-06 4.76607e-06 
-4.70458e-06 -3.73927e-06 5.8794e-06 -3.18477e-06 -2.82555e-07 3.92637e-06 -2.52731e-06 2.39172e-06 2.83035e-06 
-4.34482e-06 2.32272e-06 4.39954e-06 -2.66933e-06 5.59139e-06 6.79715e-06 -4.48883e-06 8.18107e-06 9.48538e-06 
-1.01066e-05 7.95405e-06 9.5549e-06 -1.08352e-05 1.4917e-05 1.05144e-05 -6.39187e-06 1.97529e-05 3.90901e-06 
-3.46015e-07 1.85207e-05 -2.25852e-06 4.05623e-06 2.16437e-05 -2.6311e-06 7.46048e-06 2.51339e-05 -4.17982e-06 
9.05087e-06 2.72091e-05 -1.06817e-05 -9.55255e-06 2.18648e-05 -3.12593e-05 1.17543e-05 2.85295e-05 -8.23254e-06 
3.75526e-06 4.39245e-05 -1.45127e-05 1.65151e-05 4.42275e-05 -5.09564e-05 -9.67685e-06 7.31932e-05 -5.84194e-05 
-1.26635e-05 6.89573e-05 -7.81059e-05 4.76857e-05 0.000121936 -8.68231e-05 0.000397376 0.000197216 -0.00015827 
-0.000379536 -0.000422202 -0.000266603 -0.00339038 -0.0018077 -0.00167454 -0.0129544 -0.00485749 -0.0035424 
-0.00298636 -0.00334703 -0.00020947 -2.39486e-06 -0.00798002 -0.00950591 -0.00918275 0.000367064 -0.00625368 
-0.012256 -0.0018233 -0.00293627 -0.00715412 -0.000383554 -0.00318835 -0.00749301 0.000485629 -0.00350565 
-0.00678437 0.000454342 -0.00347551 -0.00640984 0.000636706 -0.00318299 -0.00648643 0.000625291 -0.0035433 
-0.00670522 0.000675695 -0.0037517 -0.00629211 0.000693699 -0.0039395 -0.0067214 0.000623327 -0.00419356 
-0.00614967 0.000693059 -0.00418529 -0.00631285 0.000734246 -0.0043994 -0.00560621 0.000737625 -0.00454413 
-0.00522552 0.000738081 -0.00483764 -0.00510087 0.000765766 -0.00475547 -0.00521271 0.000683215 -0.00506033 
-0.00493349 0.000775334 -0.00530202 -0.00501527 0.000482513 -0.00564369 -0.00478338 0.000472803 -0.00716147 
-0.00452478 0.000471693 -0.00749945 -0.00403469 0.000916068 0.000204933 0.00138285 -0.00227409 0.00153916 
-0.00227648 0.00774037 -0.0010279 0.000267933 -0.000651954 -0.000182406 0.000110014 0.000354378 0.000107398 
-1.02655e-05 0.000286856 8.36047e-05 6.6283e-05 0.000152674 0.000120244 8.73579e-05 0.000106741 5.52713e-05 
4.15577e-06 -5.61462e-06 4.47505e-05 7.37103e-06 -8.38798e-06 -7.21138e-06 -3.28433e-05 -3.37834e-05 -0.000110831 
-0.000293132 -8.89019e-05 -0.000414813 -0.000562107 -0.000300348 -0.000820412 -0.000405029 -0.000591159 -0.00159254 
-0.000423837 -0.000621299 -0.00108966 -0.000782878 -0.00069485 -0.000236494 0.000150247 -0.000142818 0.00016183 
0.00012289 -0.000181417 9.99036e-05 8.48445e-05 -0.000102206 5.86586e-05 4.91122e-05 -4.75505e-05 2.39771e-05 
3.4501e-05 -2.01356e-05 -1.4669e-06 3.69247e-05 -6.44579e-06 -2.47087e-05 7.75534e-05 7.63275e-06 -0.000108142 
0.000128077 1.58867e-05 -0.000332902 0.000146365 -9.11711e-05 -0.000549012 0.000289227 -0.000170546 -0.00069074 
0.000418185 -0.000176906 -0.0158657 0.000144883 -0.00237627 6.17731e-06 1.03985e-05 -8.02876e-07 -1.71015e-05 
-0.00102134 -0.00101998 -0.000816348 0.00533152 0.000188779 -0.00107067 -7.42564e-06 7.15604e-06 2.1139e-06 
-0.0015476 0.000976002 -0.00235419 0.00137045 3.84358e-06 -0.00108101 9.48503e-05 0.000856484 2.43464e-05 
0.00144984 0.000554134 0.00273901 0.00142788 -0.00436123 0.000636183 -0.00506748 -0.00228836 0.000259514 
0.00198374 -0.00170226 -0.00106424 0.00284872 -0.000190542 -3.99537e-06 -3.41457e-06 1.10037e-05 -6.9143e-07 
2.91615e-06 -2.85195e-06 -1.27319e-05 1.18681e-06 -6.359e-06 -1.09602e-05 -8.257e-06 -1.10025e-05 -1.11844e-05 
-9.44904e-06 -2.77951e-06 5.93463e-06 -9.44006e-06 -3.27957e-06 4.85727e-06 -1.2171e-05 -1.49952e-06 5.05383e-06 
-1.29108e-05 -3.16175e-06 -3.32515e-07 -1.20394e-05 1.30716e-06 -5.8268e-07 -7.64675e-06 1.56723e-07 -9.17633e-06 
-6.15631e-06 6.67868e-07 -3.88679e-06 -3.96715e-06 -8.55517e-07 -6.11817e-06 -4.48793e-08 -9.0266e-07 -1.12537e-05 
-1.65181e-06 -3.66733e-06 8.3348e-06 -2.85053e-06 -2.0835e-06 6.32752e-06 1.51189e-06 -9.4836e-07 5.87944e-06 
-4.24737e-07 6.52339e-06 5.28094e-06 5.2508e-07 3.97524e-07 4.8757e-06 1.11887e-06 1.82023e-06 3.82033e-06 
1.79824e-06 0.000583586 6.96298e-05 -5.20232e-05 -9.8299e-05 -0.00074908 -0.000212452 7.46842e-05 -4.92735e-05 
-0.000143611 2.50299e-05 3.45269e-05 0.000286882 2.16918e-06 1.78848e-05 -2.84782e-05 1.79567e-05 -1.86604e-05 
2.45376e-05 3.1257e-05 -5.00811e-06 2.06087e-05 3.48938e-05 1.28884e-06 2.20282e-05 3.72632e-05 1.17172e-05 
2.14617e-05 3.31405e-05 1.55827e-05 2.67698e-05 3.81747e-05 1.81333e-05 3.03356e-05 3.60701e-05 2.11159e-05 
3.10736e-05 2.95313e-05 1.91914e-05 3.15417e-05 1.68073e-05 1.48982e-05 2.44698e-05 8.31424e-06 1.14371e-05 
1.71842e-05 4.96288e-06 1.09039e-05 1.28572e-05 -8.19681e-07 1.35232e-05 7.55531e-06 -4.30161e-06 1.04906e-05 
3.38884e-06 -8.6711e-06 6.53703e-06 8.62491e-07 -9.27791e-06 5.77332e-06 1.27206e-06 -9.40903e-06 4.82571e-06 
9.13785e-07 -7.82353e-06 2.16553e-06 -4.21264e-07 -8.60464e-06 5.48795e-08 -3.52237e-06 -8.77803e-06 -3.3056e-08 
-8.46932e-06 -8.07401e-06 -1.73895e-07 -7.38198e-06 -8.68455e-06 -2.09181e-06 -1.5073e-06 -3.93696e-06 -2.1973e-06 
-6.98505e-07 -1.69012e-06 -2.85595e-06 -1.18111e-06 7.30872e-07 -3.47234e-06 -5.35666e-07 4.87881e-06 -2.38197e-06 
-2.77563e-06 9.90771e-06 2.1438e-07 -3.13882e-06 1.03586e-05 -6.63505e-07 2.55989e-06 8.60529e-06 -1.1115e-06 
1.31096e-07 6.33189e-06 3.32403e-07 -2.04005e-06 3.29951e-06 2.2402e-06 2.80528e-06 4.7664e-06 6.23609e-06 
5.99672e-06 5.9894e-06 7.81067e-06 5.75223e-06 3.65855e-06 6.6517e-06 6.78995e-06 2.73818e-06 1.12905e-05 
5.71448e-06 2.68809e-06 1.01099e-05 8.23109e-06 0.000223038 -0.000402339 -3.42795e-07 -8.68103e-06 4.86971e-06 
-1.02881e-05 5.16966e-06 4.42547e-06 3.2407e-06 5.47562e-06 5.24996e-06 1.40395e-06 9.25208e-06 3.75278e-06 
-4.09652e-06 9.91838e-06 5.9781e-06 2.37089e-07 6.01374e-06 -3.24473e-06 9.45137e-06 4.25357e-06 -3.28965e-06 
1.04145e-05 5.38441e-06 -2.30623e-07 1.34206e-05 -3.31767e-06 -7.3755e-06 1.26958e-05 -7.12237e-06 -8.9917e-06 
1.71506e-05 -1.04511e-05 -1.15248e-05 1.93484e-05 -1.11522e-05 -7.78121e-06 2.08771e-05 -8.37996e-06 7.08277e-06 
1.08368e-05 -2.05679e-06 -2.18516e-06 3.39565e-06 -1.15532e-05 1.89717e-06 1.74182e-06 -4.05061e-06 9.54208e-07 
-1.80295e-06 -2.74125e-06 3.12687e-06 -3.27546e-06 -1.17854e-06 -2.36354e-07 -3.95647e-06 9.19875e-07 -2.34017e-06 
-3.85328e-06 5.42069e-07 -1.87738e-06 -5.76709e-06 2.36459e-06 5.34401e-08 -6.27374e-06 2.02764e-06 3.29108e-06 
-2.21652e-05 -5.73707e-06 -3.52453e-06 -2.147e-05 -7.988e-06 -1.55196e-05 -3.51379e-05 1.20194e-06 -1.8001e-05 
-2.39272e-05 -1.10334e-06 -4.36269e-06 -2.74604e-06 8.71368e-06 1.17586e-05 -3.84815e-06 1.53764e-05 -4.7504e-06 
-1.8556e-05 1.10431e-05 -2.77891e-05 -4.59268e-06 8.06668e-06 -6.25979e-06 7.04793e-06 6.03965e-05 2.38895e-05 
-9.86574e-06 2.04327e-05 -2.78218e-06 1.77494e-05 3.1433e-05 -4.01167e-05 7.81849e-06 -7.18257e-05 -1.699e-05 
1.11491e-05 6.34976e-05 -2.88604e-05 5.81323e-05 9.53669e-05 -6.75902e-05 0.000155005 0.00014529 -8.05914e-05 
-0.000134758 -0.000213163 3.33491e-05 -0.00071457 -0.000216186 -0.000745613 -0.00090595 -0.000655456 -0.00021119 
0.000416669 -0.000572878 0.000547639 0.000260301 0.000546838 0.000541308 2.75622e-05 -0.000288647 6.21792e-05 
-9.00466e-06 6.88927e-05 6.60311e-05 -5.62404e-05 -6.49054e-05 4.84992e-05 -9.3473e-05 -7.42531e-06 3.64449e-05 
-0.000111401 5.27323e-06 5.00676e-05 -0.000111049 7.40947e-05 2.11719e-05 -8.35218e-05 -9.22765e-06 1.20764e-05 
-0.00011703 -2.76037e-05 2.04742e-05 -7.78239e-05 -1.5903e-05 1.37565e-05 -0.000103296 1.34385e-05 1.19691e-05 
-7.05772e-05 1.49746e-05 1.17036e-05 -5.69435e-05 1.83271e-06 2.10656e-05 -3.19315e-05 -2.63085e-05 2.16894e-05 
-5.39575e-05 -5.19018e-05 4.99564e-05 -8.82622e-05 -5.61937e-05 1.41995e-05 -0.000161105 -2.60433e-05 6.69098e-05 
-9.48372e-05 6.09108e-05 8.69279e-05 -0.000122545 -6.09539e-06 -6.9073e-06 -3.6528e-05 -1.01777e-05 5.96657e-05 
-0.000600441 -3.21347e-06 -0.000137275 -0.000133631 -0.000150277 -0.000158015 1.36768e-05 -9.45848e-06 -2.75964e-05 
-4.05767e-06 2.07934e-06 0.000255717 0.000714789 -4.89898e-05 -0.00045331 -6.57492e-05 -0.000153234 -0.000172925 
-6.32821e-05 -0.000115394 4.95608e-05 0.000191772 -1.67246e-05 4.38418e-05 3.62733e-05 -5.00353e-05 -1.15252e-05 
3.32476e-05 -7.38897e-05 -4.57962e-05 -3.73476e-05 -0.00011232 -7.19772e-05 -3.26835e-05 -0.000160294 -0.000133302 
-4.53092e-05 0.000180707 -0.000280568 6.46395e-05 -0.000182885 -0.000115052 0.000204768 -0.00018374 3.58746e-05 
-3.37491e-05 -0.000323003 0.000710455 -1.53861e-06 6.55988e-05 -6.06571e-05 5.33372e-05 3.80097e-05 -6.33605e-05 
4.90322e-05 1.89579e-05 -2.874e-05 2.88099e-05 3.87649e-06 -1.11731e-05 -9.81619e-06 1.97189e-07 6.99312e-06 
-5.03257e-05 9.42942e-06 1.39385e-05 -0.000116595 3.53059e-05 6.87554e-06 -0.000176877 7.84524e-05 -4.426e-05 
-0.000161087 2.65743e-05 -4.76221e-05 -0.000291618 -0.000783149 -3.12166e-05 -0.000323518 0.00048213 -9.53361e-05 
-5.06674e-07 6.35049e-06 1.38795e-05 9.92538e-06 -6.28191e-06 3.17414e-06 4.2604e-06 -0.000355854 -0.000135531 
-0.000325618 -9.60256e-05 3.59185e-06 -4.22415e-06 2.54672e-06 3.19568e-06 -4.56028e-06 -1.33383e-06 -0.00118205 
6.20563e-05 0.000270657 2.67588e-08 -0.000344118 -0.000124628 -0.000873999 -0.000472074 0.000548132 0.000247804 
2.75867e-06 -0.000189638 0.000244676 -0.00030223 -8.60685e-05 0.000550337 0.000303366 -9.71369e-05 5.58261e-07 
-0.000812524 -0.000649465 7.28763e-05 -0.000221499 0.000942381 0.00015525 -0.000433169 0.000389467 0.000135722 
0.000102716 0.000204672 -0.000175568 -0.000498801 0.000362421 4.59981e-05 0.000264126 6.17123e-06 -2.26733e-06 
-2.47581e-06 -1.06999e-05 -8.17149e-06 -5.59412e-06 1.41364e-06 -2.656e-06 -3.35285e-06 7.08845e-06 -1.16505e-05 
6.72052e-06 1.68164e-06 -1.44792e-06 -7.48223e-06 -6.09484e-06 -7.48384e-06 -4.34253e-07 -9.34292e-06 -5.13682e-06 
1.54471e-06 -1.16467e-05 1.06304e-06 6.67159e-06 -8.3533e-06 -4.7641e-06 2.6544e-06 -6.90191e-06 -4.88393e-06 
-1.55926e-06 1.16771e-05 -2.7814e-06 -3.12163e-07 8.27174e-06 -4.62388e-06 -2.79696e-06 4.92501e-06 -1.44979e-06 
-1.41339e-06 9.24934e-06 5.00776e-07 -7.8346e-07 6.65225e-06 -1.83039e-06 -7.07093e-05 -0.000113818 -3.88311e-05 
-0.000104117 1.33633e-05 3.13319e-06 1.49555e-05 -2.12889e-06 3.46002e-06 -2.52935e-06 -1.08582e-06 -2.61827e-05 
2.27391e-05 -3.66423e-05 1.67805e-05 5.34351e-06 -1.71097e-06 1.50336e-05 2.60057e-06 5.60644e-06 1.74609e-05 
9.64435e-06 1.64342e-05 2.74245e-05 1.64374e-05 2.83135e-05 2.79392e-05 1.68314e-05 2.85793e-05 2.16013e-05 
1.20884e-05 2.26044e-07 1.40337e-05 -5.87234e-06 -8.5888e-06 6.23685e-06 -3.9652e-06 1.36028e-05 -3.35855e-06 
-3.67051e-06 9.64831e-06 -1.38921e-05 -1.43475e-05 7.73691e-06 -1.45129e-05 -1.07169e-05 5.32349e-06 -1.3622e-05 
-9.54954e-06 3.27544e-06 -1.58403e-05 -6.22063e-06 3.88889e-06 -1.38434e-05 -2.11127e-06 1.9144e-06 -4.84489e-06 
1.23355e-05 -4.2944e-06 -8.97204e-06 1.76897e-05 -1.04134e-05 -2.50504e-07 7.48765e-06 -1.0911e-05 1.00035e-05 
1.11432e-05 -6.55302e-06 2.49547e-06 7.5229e-06 -1.01246e-05 6.0853e-06 6.71806e-06 2.12638e-06 7.83606e-06 
5.19467e-06 -1.67237e-05 5.5176e-06 3.12112e-06 1.0489e-05 -1.12918e-06 -1.9256e-07 9.9329e-06 -7.8789e-06 
-1.59488e-06 -2.90198e-06 -1.5961e-06 3.64523e-06 -7.88288e-06 1.26686e-06 6.53791e-07 8.90967e-06 -1.45881e-06 
6.14943e-06 9.72139e-06 3.02012e-06 7.57628e-06 4.15218e-06 5.49741e-06 6.99507e-06 8.46187e-06 3.58981e-06 
8.78389e-06 7.6244e-06 5.45787e-06 8.71394e-06 5.26944e-06 4.36687e-07 5.5756e-06 2.46474e-06 3.70236e-05 
2.11999e-05 -8.98961e-06 0.000210573 -1.42873e-05 -6.07322e-07 9.84798e-05 -0.000134825 -8.43575e-05 -9.45337e-05 
8.11683e-05 8.87626e-05 -7.8331e-07 2.86783e-05 7.02021e-05 8.76858e-06 4.84449e-06 1.22469e-06 -1.04351e-05 
2.65855e-06 -1.50433e-07 6.55589e-06 -4.98648e-06 1.75918e-05 5.06108e-06 2.07701e-06 3.65559e-07 6.24485e-06 
4.85229e-07 -5.82727e-06 -5.58144e-06 -9.52961e-06 -1.01643e-06 8.66405e-06 -4.83683e-07 2.47077e-06 1.65121e-05 
-1.44602e-06 1.83128e-06 1.85509e-05 -8.13025e-06 -1.89183e-06 2.50063e-05 -4.02813e-06 4.32848e-07 2.29569e-05 
-3.08111e-06 1.44899e-05 -1.79784e-05 -1.72627e-05 6.44773e-06 4.45427e-06 -1.27375e-05 -1.60474e-05 1.03921e-05 
-3.72197e-06 -4.3973e-06 2.38323e-08 1.05221e-06 -6.46733e-06 -3.16844e-06 9.76481e-07 2.93607e-06 -9.26958e-06 
-4.10778e-06 7.99583e-06 -1.47913e-05 -6.89243e-06 -1.0599e-05 -2.25297e-06 -9.03951e-06 -5.37864e-06 -1.59764e-05 
-2.14276e-06 -6.30935e-07 -4.95154e-05 -2.02575e-05 3.22213e-05 -4.19339e-05 -3.92988e-05 -3.10684e-06 -2.05856e-05 
-3.74385e-05 -7.64374e-06 1.01251e-05 6.24444e-05 -4.53409e-05 3.532e-06 4.73609e-05 9.57594e-06 -6.10708e-06 
1.1853e-05 2.86996e-05 -5.54206e-06 1.5867e-05 -2.20889e-05 6.81669e-06 3.40441e-05 -1.83166e-06 -8.23402e-07 
4.11249e-05 2.01095e-05 1.55324e-06 2.98242e-05 1.67373e-05 3.62204e-05 3.38148e-05 -1.8673e-05 5.3498e-05 
-4.17793e-05 -5.75307e-06 8.25282e-07 -3.65532e-06 1.08625e-05 1.61943e-05 7.46947e-05 7.75555e-06 5.25767e-05 
4.6367e-05 -2.3687e-05 5.6518e-05 -4.81268e-06 4.03816e-06 9.683e-05 -0.000101872 -1.08635e-05 -4.81127e-05 
-4.65489e-08 -2.52376e-05 -5.75329e-06 -1.26905e-05 0.000169101 0.000142329 0.000222839 3.75732e-05 -5.732e-05 
5.31416e-05 3.02752e-06 0.000352881 0.000125728 3.78163e-05 4.76701e-05 5.22733e-05 -3.79007e-05 -3.81758e-05 
-4.27416e-05 3.84714e-05 -1.92498e-05 3.59223e-05 2.24011e-05 2.7778e-05 -4.51804e-07 -1.77248e-05 -5.67859e-06 
-3.08356e-05 1.39777e-05 1.15825e-05 -2.18116e-05 8.691e-06 5.4147e-06 1.7927e-05 5.85688e-06 1.27083e-05 
9.80799e-06 1.7379e-05 8.41529e-06 -8.40907e-06 1.47245e-05 1.46257e-05 -7.49114e-07 3.98216e-05 2.3526e-05 
-5.59492e-06 8.69009e-06 -5.66993e-06 -2.25534e-05 -1.53683e-05 -2.97982e-05 5.02514e-05 1.33045e-05 -2.90954e-05 
-3.0556e-06 3.4058e-05 3.43623e-05 -2.57383e-05 -0.000149544 -9.42525e-05 -3.34917e-05 4.97401e-06 -6.65903e-06 
-1.56992e-05 -0.000117394 -7.99445e-05 -4.33855e-05 9.83172e-05 -7.48376e-05 -6.36176e-05 5.92464e-05 -7.63845e-06 
5.82326e-06 -3.36217e-06 2.4888e-06 -6.51567e-06 -6.38827e-06 -1.78613e-05 -5.51037e-05 0.000534062 -7.76846e-06 
-6.10423e-05 6.9187e-05 -4.99566e-05 8.90583e-05 4.29163e-05 1.49414e-05 5.86834e-05 3.90516e-05 8.07822e-05 
0.000117481 8.00276e-07 -3.23962e-05 5.51866e-05 -7.98823e-06 -0.000103729 3.50344e-05 -6.28335e-06 7.87947e-05 
-6.8811e-05 -4.69463e-05 0.000177992 -7.96198e-05 2.90978e-05 -0.000243229 -3.11837e-05 -6.13393e-05 -2.54563e-05 
4.63832e-05 3.93666e-06 3.7149e-06 2.24722e-05 1.6055e-05 -2.03681e-05 1.511e-05 -1.67339e-05 -3.0804e-05 
1.67083e-05 -1.83685e-05 -1.92927e-05 3.53855e-05 -2.23454e-05 -1.75843e-05 1.52285e-05 -2.19283e-05 4.76171e-05 
-1.7088e-05 -4.22351e-05 8.63726e-06 -5.0194e-05 -0.000159996 -0.000202997 -9.65057e-06 -1.18881e-05 8.2053e-05 
-0.000263735 0.000168374 0.000546634 0.000193013 -0.000134107 -6.53699e-05 6.11314e-05 -6.41081e-05 -0.000125802 
1.52302e-05 3.54849e-06 -4.76683e-05 -2.63498e-05 5.16002e-06 3.69107e-08 -0.000336836 0.00023725 2.59976e-05 
4.80724e-05 -4.78309e-05 9.79067e-05 0.000421194 4.97576e-07 -4.26416e-05 -0.000222536 1.09859e-05 -1.2104e-06 
7.41406e-06 -2.9777e-05 -4.73117e-05 5.59698e-06 -7.97697e-06 7.53209e-05 8.13864e-05 -2.64241e-06 -0.000124917 
-0.000115318 -0.000101331 5.47429e-05 -0.000206585 9.43572e-05 -9.77628e-06 2.9096e-07 2.85496e-06 -3.11847e-05 
-2.35856e-05 3.85896e-05 -8.83638e-06 7.79078e-05 4.23549e-05 0.000253222 -8.98351e-06 -0.000404801 -9.87993e-05 
-9.33681e-05 8.96781e-05 0.000164597 -0.000215336 8.22627e-05 -0.000209005 0.000109649 2.66443e-05 -0.000346948 
1.2181e-05 1.84672e-05 6.50538e-05 3.18226e-06 -6.01055e-06 -1.82199e-05 9.67049e-06 -5.00369e-07 -5.51238e-06 
-3.51754e-05 -1.33062e-05 -2.63263e-05 1.79367e-05 5.58387e-07 1.25426e-05 -1.50778e-05 -1.03255e-05 -1.49753e-05 
-6.2124e-06 -3.01204e-06 -4.3521e-06 6.01921e-07 3.84205e-06 4.97556e-06 -7.26774e-06 -2.3621e-06 -7.63346e-06 
-9.56116e-06 3.26024e-07 -3.15581e-06 9.86715e-06 -4.05124e-06 -5.87208e-05 -0.000139435 -3.08254e-05 -5.3759e-06 
-8.07648e-06 4.55547e-05 1.28297e-05 3.96468e-06 1.30421e-05 -1.43474e-05 2.96497e-05 2.08607e-05 -9.36548e-06 
4.03033e-05 -1.32237e-05 8.27065e-06 2.5971e-05 1.53926e-05 3.52116e-05 -8.00743e-07 -1.76209e-05 -5.22251e-06 
-1.73404e-05 -1.28687e-05 1.72918e-05 -1.56432e-05 -5.6497e-06 1.65701e-06 -2.63508e-05 5.0574e-06 -1.55747e-05 
-2.89208e-05 6.32791e-06 1.73785e-05 -1.16122e-05 1.17778e-05 6.78028e-05 -1.1347e-05 1.54769e-05 1.19183e-05 
-1.87175e-05 1.77187e-05 -3.3775e-05 -1.06486e-05 1.89519e-05 -2.36476e-05 -4.42295e-06 3.33544e-05 -5.12984e-06 
-3.52604e-06 2.98574e-05 -1.68165e-06 1.73551e-05 3.44358e-05 -2.10427e-06 2.09752e-05 4.06405e-05 1.35138e-06 
-1.2674e-05 -4.96434e-06 -4.89241e-06 3.20474e-05 2.93824e-05 6.04365e-06 4.81019e-06 2.09777e-06 3.73673e-05 
1.64286e-05 9.88369e-06 1.42522e-05 3.40425e-06 4.21485e-06 -3.92226e-06 -9.9333e-06 2.32989e-05 -1.89351e-06 
-3.72546e-07 8.29642e-06 1.05088e-05 4.52883e-06 -1.15277e-05 2.89134e-05 1.80343e-06 6.83105e-06 1.62434e-05 
3.9836e-06 2.15676e-06 1.26049e-05 -3.7528e-07 -2.68275e-10 1.66935e-05 3.46077e-06 3.66143e-06 3.78003e-06 
8.88478e-06 3.6755e-05 -0.000146223 -4.42866e-06 1.58304e-05 -1.12016e-06 -8.40027e-06 8.19638e-05 -3.35231e-05 
9.22331e-06 5.57015e-06 1.00735e-05 -1.28946e-05 -1.13493e-05 -5.5589e-07 9.17001e-06 -5.11488e-07 2.07531e-05 
7.8114e-06 9.97643e-06 -2.59883e-05 1.37398e-05 6.55425e-06 3.19824e-06 2.21329e-05 -6.25207e-06 -8.24899e-06 
2.42213e-05 2.53169e-05 1.1097e-05 3.29652e-05 -1.43764e-05 3.55955e-06 4.73253e-05 3.13838e-05 7.01599e-06 
-5.22262e-06 2.15104e-05 7.74148e-06 -4.65214e-07 -1.55055e-05 -8.08358e-06 2.49169e-05 -1.04975e-05 -1.22952e-05 
2.24474e-05 1.01591e-05 -2.43798e-05 -3.21867e-05 -7.84302e-06 -4.55479e-05 2.72382e-05 1.06626e-05 8.09413e-06 
5.11767e-06 -2.88942e-06 3.20329e-05 1.37567e-05 -1.98874e-05 3.12021e-05 1.32124e-05 -9.41818e-06 1.25078e-05 
8.05582e-06 2.1841e-05 -5.04003e-05 5.42626e-06 -4.64207e-05 2.14859e-05 -3.40571e-05 -2.18385e-05 -9.99337e-07 
6.85367e-05 8.48722e-05 2.52706e-05 1.04729e-05 6.07189e-05 -6.46799e-06 -2.60318e-05 5.12657e-06 1.35348e-05 
6.3769e-05 -2.61102e-05 -2.04256e-07 3.99883e-05 -1.31513e-05 3.44024e-06 1.76495e-05 -1.46642e-05 1.42868e-05 
1.72635e-05 7.31366e-06 2.26491e-05 -1.52739e-05 7.74131e-06 4.33615e-05 -1.60261e-05 1.6439e-05 -5.36351e-05 
2.98266e-05 6.38499e-05 3.10506e-05 4.14697e-05 -0.000125638 -6.29758e-05 -3.75807e-05 4.86563e-05 6.04845e-05 
-1.00367e-05 2.2927e-05 3.91586e-05 -5.27284e-05 0.000204791 0.000257959 -0.00016821 -7.16753e-06 -3.01851e-06 
-5.51407e-05 5.42072e-06 -1.58266e-06 5.50051e-05 2.04854e-05 -1.86357e-05 1.30013e-05 1.78733e-05 2.14924e-05 
-4.5818e-06 2.52369e-06 4.60061e-05 6.72569e-06 4.94837e-06 -5.68888e-06 2.14029e-05 2.34123e-05 4.5367e-06 
4.4239e-05 -1.15318e-05 -5.87951e-05 -1.55052e-05 -4.45414e-05 -1.90919e-05 -5.76531e-06 7.36493e-06 -2.84724e-05 
6.22687e-05 5.74615e-05 1.76062e-05 -3.05531e-05 0.000215975 -9.70149e-05 2.49172e-05 9.0363e-05 0.000197082 
5.93898e-05 -9.11926e-05 6.53231e-05 -0.000110474 1.7185e-05 9.38086e-05 -9.61441e-06 -7.65777e-06 -1.4638e-05 
8.8811e-06 -8.4197e-07 -3.33522e-05 -4.16271e-05 -1.60833e-05 -1.50624e-05 7.79896e-06 4.35333e-05 6.83241e-05 
-4.71368e-06 0.000109697 9.74163e-05 0.0001317 -3.67969e-05 -8.83381e-05 1.39447e-06 0.000101787 1.75391e-05 
-5.78143e-06 8.74633e-05 -1.23755e-05 6.16312e-05 6.87121e-05 2.82404e-07 8.4936e-05 -2.85368e-05 -9.43665e-06 
-9.21086e-05 -7.22339e-05 9.88453e-06 2.03334e-06 -2.59454e-08 1.12769e-05 2.92575e-05 0.000119234 1.89095e-05 
-3.92496e-05 0.000110722 -7.36688e-05 0.000241846 4.04961e-05 -5.22224e-07 2.21731e-05 -9.33407e-06 -5.20144e-06 
3.5922e-05 -5.4832e-06 -3.91255e-05 4.43437e-05 1.03812e-05 -6.9596e-05 5.17652e-05 5.2151e-05 -6.82091e-05 
4.49778e-05 5.6427e-05 3.72156e-05 2.23621e-05 9.92052e-05 6.24728e-05 -3.15949e-05 -1.64625e-06 -2.83213e-06 
1.45814e-05 -1.48962e-05 -8.48402e-06 3.78322e-05 1.24686e-05 -3.77222e-06 -0.000146437 4.44321e-05 2.29167e-05 
2.86175e-05 -0.000204354 -3.76123e-07 1.21428e-05 -1.36486e-05 0.000137248 0.000173454 1.20796e-06 -5.86307e-05 
-1.94233e-05 6.60618e-05 -2.06701e-05 -1.41291e-05 1.20943e-05 3.76601e-05 9.86841e-06 1.49383e-05 -4.62395e-06 
1.86022e-05 -0.000150257 4.00919e-05 5.73239e-06 -1.54078e-05 8.10255e-06 2.83251e-06 -2.71139e-05 -4.73795e-05 
3.32569e-05 -2.04544e-05 5.02235e-06 -2.71083e-06 -7.96948e-06 4.04695e-05 -0.000112398 3.43656e-05 6.92482e-05 
5.44217e-06 2.1155e-05 -4.94326e-05 -0.000105042 2.47199e-06 -9.31089e-05 7.3368e-05 0.000217686 -1.93147e-05 
-1.6024e-05 -0.000220593 1.53828e-05 -1.5404e-05 -1.43862e-05 -4.05733e-05 -5.78763e-06 -5.08247e-06 7.32919e-07 
-5.05399e-05 -1.81014e-05 -8.91221e-05 -0.00014019 -4.8341e-05 2.12465e-05 -6.83482e-05 9.22914e-05 -3.39924e-05 
5.04855e-05 -4.81648e-05 -0.000156671 -0.00011365 -5.37199e-05 3.3712e-05 0.000183451 -9.74661e-05 7.43945e-05 
-5.66093e-05 7.82153e-05 -2.05128e-05 -8.03291e-05 -4.37644e-06 3.37098e-05 -1.43771e-05 -2.67728e-07 8.18408e-06 
-4.13585e-06 -0.00655154 1.04047e-06 -4.99393e-06 3.05644e-05 -2.9272e-05 -1.2505e-05 0.000121604 -5.77131e-06 
-2.61324e-05 -1.73996e-05 4.73424e-06 8.01287e-05 6.80257e-06 -5.00712e-05 -4.86561e-05 -5.28859e-05 -2.73525e-05 
-9.9664e-05 -6.31401e-05 1.6176e-05 3.06215e-05 -3.99464e-05 1.64611e-05 1.59329e-05 -1.76444e-06 3.72132e-05 
4.10392e-05 3.29558e-05 3.00816e-05 1.92679e-05 7.40409e-06 1.61295e-05 1.73664e-05 3.76848e-05 3.67367e-05 
6.76548e-05 2.64771e-05 3.6314e-05 -2.34416e-05 -3.57534e-06 -4.21807e-05 -3.46223e-05 -4.36482e-05 -3.82698e-06 
-1.50895e-06 2.71458e-05 -1.06607e-05 1.80859e-05 1.04381e-05 -2.12598e-05 -2.21866e-05 -4.47084e-06 -3.08292e-05 
1.26805e-05 2.32788e-05 -1.40149e-05 -7.39131e-05 5.08502e-05 3.59327e-05 1.18232e-05 5.17487e-06 3.64437e-05 
8.16577e-07 -7.48889e-05 -1.76831e-05 4.84334e-05 6.11773e-05 2.30508e-05 4.05752e-06 -2.5236e-06 -5.00297e-06 
-3.22279e-06 1.85297e-05 2.32042e-05 -9.36202e-08 -2.36731e-05 -4.9422e-06 -2.01582e-05 -9.32576e-07 4.52024e-05 
-5.22511e-06 2.0887e-06 -2.94162e-06 -3.76693e-05 -1.08794e-05 1.89521e-05 -7.59012e-05 3.1907e-05 3.41741e-06 
4.33868e-05 4.06712e-05 7.68065e-05 -2.19476e-06 -7.39006e-05 -2.82338e-05 -3.12776e-06 1.56489e-05 1.92695e-05 
3.08158e-05 2.96105e-05 1.40053e-05 0.000195408 -8.36992e-05 5.65572e-05 -0.000139053 0.000234418 2.67054e-06 
9.76635e-05 3.67703e-06 -2.76607e-06 -2.54398e-05 -8.40293e-06 -3.59146e-05 5.31522e-05 -1.25474e-05 4.89358e-05 
5.55553e-05 -5.6927e-05 5.50574e-06 -3.22209e-05 -2.59934e-06 5.54681e-05 3.94366e-05 -4.35591e-06 -4.51066e-05 
6.46816e-05 -1.19074e-05 -6.6478e-05 -9.58907e-05 0.0001002 -1.53344e-05 -1.08948e-05 -1.5188e-05 -4.35525e-05 
-7.51437e-06 -4.73103e-05 3.40549e-05 -3.74163e-05 3.21927e-05 3.95787e-05 2.88369e-05 -2.446e-06 -0.000115879 
0.000123218 -6.27789e-05 6.42867e-06 -0.000207684 6.92676e-05 -1.59582e-05 -4.13138e-05 -2.85955e-05 0.000226732 
-3.0547e-05 3.95898e-05 -4.2342e-05 1.88573e-05 -1.49663e-05 9.29494e-06 -0.0135745 -2.90466e-05 -7.41161e-06 
-1.12126e-05 1.36301e-05 -7.37897e-06 0.000149019 2.6649e-05 1.24763e-05 2.22753e-05 2.34194e-06 1.0217e-05 
1.52303e-05 -1.42967e-05 9.15434e-05 9.97972e-06 5.03997e-05 -2.25257e-05 0.000110154 -4.54954e-05 3.51237e-06 
1.01662e-05 1.41171e-06 6.61993e-06 -8.93596e-06 -7.65973e-05 -1.28606e-05 -4.41869e-05 8.18191e-06 6.59383e-05 
3.78306e-05 -8.46751e-06 5.53629e-05 -2.17354e-05 -1.4085e-05 3.57389e-05 5.38e-05 -3.17781e-05 2.4403e-05 
4.44453e-06 1.70595e-05 1.07065e-05 -2.08406e-05 -3.8189e-05 1.69787e-05 -8.4445e-06 5.56345e-05 -2.30216e-07 
9.75138e-05 5.32848e-05 3.80221e-06 1.88475e-05 2.58367e-05 1.09871e-05 2.93054e-05 3.8196e-05 1.66659e-05 
2.00392e-05 1.23901e-05 -2.55459e-06 4.60132e-05 2.21863e-05 9.09051e-05 -3.46262e-05 -3.42042e-05 5.63535e-06 
2.90312e-05 4.69985e-05 -3.0229e-05 1.2249e-05 -0.000131383 -1.83412e-05 0.00112905 -0.000706261 3.84805e-05 
-1.54697e-05 0.000110912 2.15867e-05 -0.000113369 7.98139e-05 3.71913e-05 0.000674385 -0.000758631 2.34441e-05 
-4.91541e-05 0.000391028 -0.000678495 -4.58021e-05 0.000477052 -0.000608037 -2.1595e-05 0.0006799 -0.000615388 
-6.0896e-05 -1.47216e-05 -5.33317e-05 5.00249e-05 5.28041e-05 1.50075e-05 7.07536e-07 0.000116889 0.000119107 
2.96118e-05 -1.3547e-05 2.59129e-05 5.26425e-05 1.68179e-05 2.0595e-05 -4.71718e-05 -7.5629e-05 -1.03937e-05 
2.85825e-06 4.71207e-05 4.32704e-05 9.94704e-05 7.9765e-05 0.000123463 6.39993e-05 6.5751e-06 -0.000214111 
-0.000161339 2.13998e-05 3.93694e-05 -0.00011511 -2.4716e-05 -1.14682e-06 -1.62169e-05 -0.000120109 6.21796e-05 
2.18012e-05 -1.46899e-05 1.49344e-05 4.11206e-05 1.46994e-05 4.03034e-05 -5.10007e-05 6.25117e-05 1.35427e-05 
-9.25643e-05 -3.28704e-05 -9.75211e-05 0.000193189 2.29813e-05 -5.45305e-06 3.42596e-05 6.21804e-05 -1.83684e-05 
-4.28236e-05 0.000735273 -0.000588258 0.000120217 -9.25696e-05 3.0936e-05 -6.90672e-05 -2.10677e-05 -8.01008e-06 
3.43164e-05 1.64668e-05 -4.6523e-06 0.000110809 4.68927e-05 -4.16785e-05 6.30787e-05 6.18784e-05 3.7757e-05 
-1.06339e-05 2.57694e-05 -2.54679e-05 -2.5006e-05 1.78615e-06 2.93093e-05 6.2887e-05 3.63704e-05 -7.27455e-05 
0.000707106 -0.000679921 1.08912e-05 0.000716725 -0.000748149 -2.8689e-06 -1.96284e-05 8.89107e-05 -8.72449e-05 
2.55864e-05 -3.90728e-05 4.63372e-06 -1.31439e-05 1.03006e-05 1.0313e-05 6.00673e-05 -4.12749e-05 -0.000110849 
6.55474e-05 0.000674567 -0.000675768 -7.21503e-05 8.54004e-05 9.44768e-05 -4.64828e-05 0.000144243 -7.13197e-05 
-5.4989e-05 9.12698e-07 0.000154751 1.53472e-05 -5.5162e-05 0.000601478 -0.000679645 -0.000114525 6.44923e-05 
-2.0408e-05 0.000810846 -0.000488921 0.000156057 -0.00265066 5.14961e-05 0.00275934 0.00127106 -6.63651e-06 
0.0613562 -0.0141046 -1.77133e-05 1.50228e-05 1.11868e-05 1.16486e-05 9.86856e-06 8.42535e-06 4.23428e-06 
5.86578e-06 3.96866e-06 2.61486e-06 3.05878e-07 3.17692e-07 -1.57328e-06 -2.95324e-06 -3.62017e-06 -5.93036e-06 
-8.05995e-06 -1.46167e-05 -1.51862e-05 -2.24963e-05 -1.94559e-05 -2.63593e-05 -2.16985e-05 -2.41598e-05 -1.66163e-05 
-2.37102e-05 -1.49268e-05 -2.37844e-05 -1.46584e-05 -1.79752e-05 -1.15047e-05 -1.31456e-05 -1.09261e-05 -6.38837e-06 
-5.29592e-06 -1.33198e-06 -2.50707e-06 2.96288e-06 2.3523e-06 7.0713e-06 3.08601e-06 1.55454e-06 -1.66665e-07 
1.21964e-06 -5.27744e-06 -1.84657e-06 -1.05656e-05 -6.04472e-06 -9.00015e-06 -4.57964e-06 -9.15797e-06 -3.96278e-06 
-9.55599e-06 -9.0558e-06 -1.38036e-05 -1.20605e-05 -1.09825e-05 -1.71173e-05 -1.87959e-05 -2.01078e-05 -2.34099e-05 
-2.46023e-05 -2.48677e-05 -2.81975e-05 -2.56068e-05 -3.37112e-05 -2.91445e-05 -3.44178e-05 -3.06942e-05 -4.54407e-05 
-3.29797e-05 -5.33485e-05 -3.09779e-05 -6.53679e-05 -3.39044e-05 -7.33032e-05 -3.79715e-05 -8.5611e-05 -2.94282e-05 
-0.000118456 -3.13283e-05 -0.000184687 -0.000113304 -0.000324597 -0.000143694 0.000814924 0.00255435 -0.00539032 
-0.0593982 -1.88868e-05 -2.4303e-05 -0.0216331 0.00629161 -0.00277194 -0.000761684 -1.28641e-05 -0.000345969 
-0.000147216 -0.000262769 -0.000149099 -0.000180691 -9.9129e-05 -0.000103534 -5.31995e-05 -6.90129e-05 -5.68345e-05 
-8.53272e-05 -5.56245e-05 -6.40683e-05 -5.04574e-05 -5.2995e-05 -4.24816e-05 -4.87015e-05 -3.39607e-05 -3.98775e-05 
-4.85191e-05 -5.59651e-05 -4.47789e-05 -3.66123e-05 -2.41653e-05 -2.43334e-05 -1.38962e-05 -1.42959e-05 -9.37761e-06 
-6.59141e-06 -6.74346e-06 -2.18204e-06 -7.92972e-06 3.91411e-07 -1.79991e-06 4.72496e-06 6.06447e-07 7.39741e-06 
2.26207e-06 7.46525e-06 2.48515e-06 7.01216e-06 2.24751e-07 6.0621e-06 -7.758e-07 2.63712e-06 -2.8371e-06 
-2.41813e-06 -4.16153e-06 -8.7414e-06 -7.59007e-06 -1.19119e-05 -9.31405e-06 -1.51246e-05 -1.31293e-05 -1.95683e-05 
-1.41378e-05 -2.19599e-05 -1.80893e-05 -2.42974e-05 -1.85186e-05 -2.28714e-05 -1.77293e-05 -2.25904e-05 -1.53661e-05 
-1.74851e-05 -1.18787e-05 -1.36433e-05 -9.48523e-06 -6.74918e-06 -3.99253e-06 -1.45206e-06 -4.15872e-09 2.91132e-06 
3.54613e-06 7.66443e-06 7.3069e-06 1.42044e-05 1.17598e-05 1.59048e-05 1.23968e-05 1.14446e-05 1.32229e-05 
-1.42419e-06 -3.35162e-06 5.54338e-06 8.85921e-07 1.19031e-06 -5.02243e-06 -1.1742e-05 2.0981e-07 -1.7251e-06 
-2.76684e-06 1.70006e-06 -2.19268e-06 6.13102e-06 1.61483e-07 7.34591e-06 4.2899e-07 9.66486e-06 -1.0635e-07 
8.58311e-06 -1.20088e-06 8.98236e-06 4.12675e-06 6.68774e-07 -5.41819e-06 -9.24934e-06 -1.14206e-05 8.21485e-07 
1.85896e-07 -2.04717e-06 8.41211e-07 -3.51483e-07 4.01522e-06 2.41399e-06 1.76527e-06 9.75612e-07 1.03011e-05 
9.63268e-06 6.74239e-06 3.64437e-06 4.92775e-07 -9.42772e-06 -4.31664e-06 -2.00583e-06 -7.01873e-06 -3.4436e-06 
-7.30705e-06 -9.87878e-07 -7.56662e-06 -2.08504e-06 -5.43821e-06 -5.58932e-06 -1.00302e-05 1.09639e-05 -1.36148e-05 
-2.38494e-06 1.78655e-05 0.00511842 0.00493962 0.00116302 0.000363665 0.000254864 0.000107883 0.000225283 
2.83626e-05 0.000112016 1.282e-05 7.06991e-05 1.9987e-05 6.35528e-05 -7.96176e-06 2.52851e-05 -4.01354e-06 
-3.17911e-05 9.67397e-05 -2.28231e-05 5.20574e-05 -0.000117601 3.17997e-05 -0.000898515 -0.00133141 -0.00399811 
-0.000271904 1.62974e-05 -0.000955913 -0.00436056 0.000255569 -0.00247869 -3.0504e-05 0.000239802 -7.18141e-05 
0.000103992 -8.94764e-06 0.00014055 -1.43164e-05 8.85965e-05 -4.71844e-06 9.2101e-05 -3.0426e-05 6.4128e-05 
-3.00556e-05 7.39606e-05 4.35437e-05 0.000191901 0.000136158 0.000287758 0.000338828 0.000557799 0.00400655 
0.0022116 0.00633555 -0.00431588 -7.5927e-05 6.41327e-05 0.000343724 2.92784e-05 0.000146154 -5.84335e-06 
0.000106758 -4.67255e-05 -4.99025e-05 1.38569e-05 8.5919e-05 0.000157979 0.00305701 0.000964223 8.33589e-05 
0.000303509 -0.000741417 6.2649e-05 0.000184601 2.50762e-05 -6.72032e-05 -5.79304e-05 -0.000198074 1.69503e-05 
0.0015905 0.000413439 0.00139072 -4.03117e-05 2.40149e-05 -1.83614e-05 2.91155e-06 -8.7917e-06 -5.1797e-06 
-9.82877e-07 1.11165e-05 4.89698e-06 -3.62505e-07 3.17505e-06 5.88205e-06 9.19386e-06 -2.29357e-06 1.11546e-05 
6.99129e-05 7.49803e-05 -2.69792e-05 8.09663e-05 -5.71627e-05 -0.000113671 -0.000249728 8.47899e-06 7.77987e-06 
1.41344e-06 7.98807e-06 5.46368e-06 1.27383e-05 9.29312e-06 8.59202e-07 -1.24851e-05 3.85788e-05 9.61517e-06 
1.11195e-05 4.93576e-06 -1.59655e-06 3.24269e-05 -3.97021e-05 1.42715e-05 -2.05835e-05 0.000195915 -5.65878e-05 
-0.000221434 0.000207954 2.98468e-06 3.16435e-06 7.24492e-06 -1.40946e-05 4.53505e-06 -1.40731e-06 3.66231e-05 
9.58629e-05 -0.000103095 0.000222786 1.30594e-05 -1.73418e-06 -1.07212e-05 -1.65268e-05 2.77583e-05 1.33411e-06 
1.11476e-05 -1.72697e-06 -6.412e-06 -4.32534e-06 5.0186e-06 1.27585e-06 2.20884e-07 -2.86646e-06 -0.000138934 
-3.45156e-06 -6.31789e-07 -1.00992e-05 -1.64659e-05 -4.05108e-06 -3.29221e-06 -6.77634e-06 -2.86144e-05 -3.04656e-05 
-1.14392e-05 -7.92233e-05 4.67673e-05 -3.50192e-05 2.02859e-05 -3.54262e-05 3.95031e-05 1.48504e-05 4.50946e-06 
-4.09929e-06 4.7184e-06 9.61946e-06 -1.19715e-05 -4.41517e-05 6.97784e-06 -1.11795e-05 9.29825e-06 -1.67537e-05 
7.06866e-07 -4.352e-07 -1.48063e-06 8.36586e-06 5.46815e-05 4.96356e-05 3.70447e-08 -2.82652e-05 -2.10114e-05 
-5.78784e-06 1.4854e-05 4.77598e-05 -6.52588e-08 4.57756e-06 -3.12218e-06 2.21087e-06 -2.47055e-05 6.68682e-05 
-0.000194053 6.54263e-05 2.58015e-05 -3.3508e-05 3.12955e-05 -2.10945e-05 5.69382e-06 3.78282e-06 -1.84997e-06 
-5.10399e-06 -1.61104e-05 -2.99755e-06 -3.85597e-05 -1.69292e-05 -5.7074e-07 4.28215e-06 -8.41336e-06 4.30234e-06 
1.46145e-05 -2.81945e-05 5.86354e-06 -1.42723e-06 -2.62793e-06 -4.4648e-06 -1.00273e-05 -1.31473e-05 -1.08408e-05 
2.3381e-06 1.58004e-05 2.19612e-05 -1.35792e-05 -4.15687e-06 -4.85711e-05 1.49812e-05 -4.60061e-06 -5.71159e-06 
1.37049e-05 3.47074e-06 5.72084e-06 1.70253e-06 -2.56203e-06 -4.48144e-06 -3.85958e-06 -8.8194e-06 3.97884e-06 
1.09292e-05 -7.55234e-06 -4.91687e-06 -5.9692e-06 -5.04624e-05 -1.27103e-05 1.01387e-05 1.25474e-06 -7.4511e-06 
6.71037e-06 2.75355e-06 4.34425e-07 -2.1469e-06 -2.30254e-06 2.74837e-06 1.41047e-05 4.6324e-07 6.14187e-06 
-3.7198e-06 -2.96943e-06 -5.7618e-06 -1.1036e-05 -7.99596e-06 -1.06457e-05 -7.61318e-06 5.99042e-06 -5.78681e-07 
-1.53993e-06 3.72287e-06 0.000639463 -0.000242186 2.35527e-05 -7.9299e-05 6.68041e-05 5.10627e-05 9.63627e-06 
0.000367443 -0.00035178 0.000310117 0.000122627 -0.000138979 0.000145078 9.94966e-05 -9.69999e-06 -1.33825e-05 
-2.43303e-05 -4.85741e-05 -5.32712e-05 -1.61243e-05 2.87748e-06 1.16474e-06 3.96682e-06 5.79057e-06 -1.24191e-05 
6.03464e-06 4.38442e-06 -3.88896e-06 3.31058e-06 4.43418e-06 3.67972e-06 -1.99393e-06 3.31573e-06 6.12684e-05 
2.58573e-05 2.05981e-05 -2.81561e-05 -5.07039e-06 3.28683e-06 -4.21823e-06 -8.12502e-06 -9.66198e-06 -4.93908e-06 
2.84702e-06 3.52369e-06 4.39677e-06 -6.74722e-07 4.07589e-06 -5.8667e-05 0.000162553 -3.23314e-05 -3.89814e-05 
-1.12633e-05 -1.68117e-05 0.000490611 -0.00606143 0.00626171 -3.70193e-05 -2.01313e-06 2.32056e-07 -6.52536e-06 
-4.08929e-05 -1.32579e-05 -7.96403e-06 -4.49122e-06 -1.58747e-06 -5.33898e-06 3.24806e-05 -1.93101e-05 1.65082e-05 
2.34885e-05 -4.61219e-06 7.12254e-05 -5.05979e-05 1.43053e-05 -3.97457e-05 1.3564e-05 -1.05716e-05 -5.34987e-06 
-3.25388e-06 9.9612e-06 -1.14697e-07 2.81393e-06 2.06161e-06 7.06737e-06 5.89581e-07 0.000680749 -1.35906e-05 
0.000104376 -5.01574e-05 -6.89124e-06 -1.45546e-05 -2.91767e-05 -4.91446e-05 -1.03329e-05 1.99585e-06 -3.78437e-06 
5.13023e-06 -1.47069e-05 -2.07089e-05 -3.02234e-05 -2.10501e-05 1.80259e-06 -4.06034e-06 2.97448e-05 -1.2742e-06 
1.26475e-05 1.54068e-05 1.12629e-05 1.1931e-05 9.8971e-06 -3.86657e-06 -2.64838e-06 2.38827e-05 1.15304e-05 
-1.18022e-05 -2.34287e-05 -4.73578e-05 2.92859e-05 1.56207e-05 -7.91982e-06 -1.08029e-05 -9.39617e-06 -1.82724e-05 
-3.11226e-05 1.98058e-06 -1.58058e-05 2.39438e-06 -1.40098e-05 -4.13299e-06 -7.03615e-06 -1.50747e-07 -9.50906e-06 
-3.37736e-05 1.03515e-05 -4.02277e-05 0.000260744 -0.000202367 -0.000169066 -0.0265337 0.0144283 -0.0312704 
4.64122e-06 0.000146676 7.59186e-05 0.000119078 0.000642155 -0.00591059 0.000194666 -2.85765e-06 -2.81362e-06 
-8.13166e-07 -4.30967e-06 -8.79185e-06 -2.11718e-06 -6.78859e-06 -1.70258e-06 -5.96867e-05 -3.04465e-05 0.000102574 
6.90252e-05 2.91754e-05 6.91577e-05 -6.17971e-05 -7.72668e-05 -4.59822e-06 -2.01182e-06 -7.04551e-06 2.28527e-06 
-2.35003e-05 -1.39706e-05 -4.72732e-05 -1.12245e-05 -4.74461e-05 5.3455e-05 -2.47609e-06 -6.86497e-06 -3.55834e-06 
-5.06087e-07 -1.84353e-06 -5.00266e-07 3.44703e-06 3.13728e-05 -6.16114e-05 2.63e-05 -3.82631e-06 -4.61053e-06 
-4.05478e-07 -0.000114979 -0.000288358 3.52304e-08 -9.15133e-05 -0.000450766 0.000714411 -0.0301417 -0.000748699 
0.0279829 -2.45467e-05 -3.07299e-05 1.89e-06 -5.88287e-05 -2.96824e-05 -6.91093e-05 -3.31313e-06 1.76482e-06 
-1.32853e-05 -8.12989e-05 3.81412e-05 -1.87425e-05 0.000525088 -0.000119111 -0.000109699 2.01763e-06 2.34151e-06 
1.275e-05 0.00124632 -0.000163593 0.000759516 2.39262e-05 8.1173e-05 4.71488e-05 6.37309e-06 -1.41724e-05 
-4.79123e-05 -0.0298596 -0.0354357 -6.52898e-06 4.90115e-05 -8.47098e-05 1.26209e-05 1.48742e-05 7.4781e-06 
2.9088e-06 4.69819e-06 5.97039e-07 -0.000204028 -0.00557814 -0.000821555 -0.00729895 -0.0133703 0.0184872 
0.0128654 -0.0298835 0.000268178 0.000393015 0.000288139 3.92239e-07 -4.58663e-06 -7.8495e-06 -5.18644e-05 
-1.62186e-05 -4.30507e-06 -2.39862e-06 -2.04884e-09 1.36078e-06 0.000729665 -0.00019965 -5.04072e-06 -1.04984e-05 
-7.58955e-05 -2.50807e-05 2.59649e-05 -1.12665e-05 -4.07968e-06 5.45793e-07 0.0297266 -0.0294542 0.000630971 
-3.4372e-06 -5.47445e-06 7.28125e-07 3.44398e-05 3.36132e-05 1.53901e-05 3.73088e-05 -7.1328e-06 -1.57221e-06 
-4.75395e-06 -0.000221393 5.45487e-06 1.27051e-05 8.65391e-06 2.07765e-06 -1.13549e-05 8.87344e-05 -0.000143133 
4.93275e-05 4.53845e-05 -2.24457e-05 2.90082e-06 3.74905e-06 7.65203e-06 1.81056e-05 6.18647e-06 -4.49909e-06 
-6.2397e-06 0.000371394 8.67223e-05 0.000145484 9.77618e-07 6.66478e-06 1.26498e-05 2.88153e-07 5.30091e-06 
1.40374e-05 1.78132e-05 4.05934e-06 -4.79835e-05 8.60939e-06 4.53404e-06 5.34234e-06 0.0312213 0.000317132 
-1.63155e-05 7.98145e-06 4.20318e-05 -1.33437e-05 3.78113e-05 6.49055e-07 -5.45554e-05 8.54471e-05 -2.11423e-06 
4.40394e-05 -1.75785e-05 3.38086e-05 3.18262e-06 -6.68523e-06 -3.82883e-06 -4.84438e-06 -2.55937e-06 -4.58402e-08 
1.29319e-05 -2.19062e-05 2.41637e-05 1.52578e-06 0.000110881 8.65086e-05 -3.0563e-05 5.78626e-06 3.01035e-05 
1.02424e-05 -9.34425e-06 1.47418e-05 4.72074e-07 -2.44015e-06 5.76006e-06 1.00644e-05 -7.80805e-06 -2.86638e-06 
-3.3622e-06 -3.1908e-06 -9.01957e-06 2.55246e-06 6.21514e-06 1.87467e-06 -2.02657e-06 7.27986e-07 4.19072e-06 
3.17006e-05 -3.04263e-05 -9.8158e-06 9.60669e-06 -5.92601e-05 -4.84311e-07 -1.40218e-06 -5.88883e-06 3.03591e-06 
-8.34078e-06 -1.77846e-05 4.12068e-06 5.58032e-06 -8.36952e-06 -4.60355e-06 -5.84861e-06 3.54747e-05 -4.53194e-05 
1.67409e-05 -1.77674e-06 -7.12735e-06 -4.00121e-06 -2.64955e-05 -4.67499e-06 -3.88868e-05 -1.02839e-05 3.29744e-06 
-2.43486e-05 6.36566e-06 -5.9259e-05 1.45653e-06 1.90206e-05 3.09883e-05 -5.17008e-05 -5.65074e-05 -7.1947e-06 
-1.92087e-06 -2.1975e-06 5.23732e-06 2.25483e-05 -1.24425e-05 -1.26869e-05 1.95644e-05 1.60394e-05 -0.000134204 
-0.000101068 6.82106e-05 0.000131593 -2.03349e-05 -3.46198e-05 -7.84379e-07 -5.63285e-05 -3.04392e-05 3.07241e-05 
-5.30707e-05 4.54301e-06 -4.72733e-05 -1.01674e-05 4.85294e-06 -6.07489e-06 -0.000104976 -0.000137007 -2.22493e-07 
2.56233e-06 -1.37111e-05 -9.08857e-06 -2.67981e-05 -9.10554e-06 -5.59866e-06 -1.25357e-05 -1.74769e-05 -4.09053e-06 
2.46863e-05 1.96218e-05 2.43906e-06 1.52109e-05 -3.4581e-06 8.29591e-06 2.1148e-05 1.18981e-05 -9.49557e-07 
-1.16675e-05 1.05494e-06 1.5689e-06 9.21224e-05 -4.2902e-06 1.25878e-06 -8.37811e-06 1.00139e-05 -3.58935e-05 
2.60856e-05 8.79245e-06 0.00193744 0.000524021 -4.04714e-05 -4.72808e-06 -1.54106e-05 -1.42939e-05 1.88853e-06 
-4.44824e-05 1.58255e-05 -3.01021e-06 9.1004e-06 -5.81216e-06 -3.34846e-05 -0.000103895 8.90467e-05 -4.60625e-05 
-1.28396e-05 -1.97012e-05 -1.8223e-06 -5.98657e-06 8.22471e-06 -6.90272e-06 1.66886e-05 -3.66525e-05 -3.31775e-05 
-0.0001398 -0.000107296 4.79477e-05 -0.00011425 4.42449e-07 -3.91378e-06 -4.06401e-06 -3.40244e-06 -9.96509e-06 
-2.88856e-06 -2.03196e-05 2.40369e-05 -3.39816e-06 -1.81855e-06 -2.73263e-06 0.00045647 0.000469068 0.000470437 
4.87344e-06 -1.42077e-05 5.83895e-07 7.57556e-07 -2.16777e-06 4.41399e-06 1.98256e-06 -8.48233e-06 3.51167e-06 
7.23398e-06 7.11332e-06 -1.5371e-06 -1.90085e-06 -4.43347e-06 4.36606e-06 2.70219e-07 -6.45223e-06 -5.00843e-05 
-1.71512e-05 -1.9079e-05 -4.97023e-05 -3.73935e-06 -6.99168e-06 -2.01582e-06 5.3348e-06 7.25996e-06 1.74181e-05 
4.31879e-05 0.000140461 -1.35651e-05 -4.54781e-06 7.23433e-07 1.62658e-05 5.11781e-06 -1.27027e-05 -4.71147e-09 
4.8447e-06 2.17087e-06 -1.02633e-05 -8.50889e-07 -3.79155e-06 -3.91986e-06 4.08274e-06 -1.58511e-05 3.02167e-09 
2.05521e-06 1.2978e-05 -9.80477e-05 -2.15907e-05 -9.0402e-05 -1.13091e-05 2.96355e-06 -1.46178e-05 -7.59555e-06 
1.34184e-05 -8.83152e-06 3.65003e-05 1.5983e-05 -1.02063e-05 4.40155e-06 -8.76283e-06 -1.82253e-05 -0.00022698 
4.14527e-05 3.434e-05 0.000848233 0.00598141 0.00598443 0.000334723 -7.10046e-06 -0.00601023 -0.000362717 
-0.000252241 0.000576172 7.0035e-06 -1.1155e-05 8.291e-06 -2.22972e-05 4.12678e-06 -7.66955e-06 -4.63791e-06 
7.9973e-07 -1.00332e-06 -3.2157e-06 2.76254e-06 8.25438e-06 4.16409e-06 1.53292e-06 -6.83031e-06 -3.57808e-06 
1.00894e-05 -6.03144e-05 0.000422644 -2.12101e-06 -1.37346e-06 -2.64166e-06 -3.49026e-06 -2.80251e-06 -5.0212e-05 
-0.00100234 -1.68497e-05 2.29535e-05 1.41445e-05 1.16413e-05 -4.97207e-06 -9.9244e-06 -7.69186e-06 5.81565e-06 
2.4371e-05 -1.70167e-05 -1.25689e-05 -3.29118e-05 5.06396e-05 -3.89335e-05 -1.55528e-05 -1.57238e-05 1.05075e-05 
1.94385e-05 -1.49548e-05 -5.74992e-05 6.08414e-06 -1.46768e-05 1.22749e-06 8.71544e-06 -5.35929e-06 -4.97867e-06 
4.06303e-06 7.90425e-06 4.47053e-05 -1.14014e-05 -2.3195e-05 -4.18825e-06 6.12142e-06 -2.6429e-05 2.82029e-06 
1.36777e-05 -3.72979e-06 4.54699e-05 7.48548e-06 1.09924e-06 -6.7694e-05 -0.000349294 0.000664949 -4.18466e-06 
0.000140329 4.39129e-05 -0.000155916 4.11163e-06 -0.000189286 -9.99983e-05 0.000148752 7.05544e-06 3.09502e-05 
-0.00026957 -0.000135564 -0.00013802 2.0342e-05 -6.28016e-05 -3.94653e-05 -1.04812e-06 0.000103034 -2.41986e-05 
-1.41542e-05 -5.60038e-06 4.07747e-05 -2.87244e-06 1.31743e-05 -3.48542e-05 0.000258579 -0.000170712 -0.000133006 
1.10066e-05 -5.37389e-06 9.81589e-06 3.76502e-06 -1.16443e-05 5.74289e-06 -2.43532e-05 1.26515e-06 -2.608e-06 
-5.77933e-05 7.60124e-05 3.75471e-05 2.43181e-06 -4.12873e-06 2.90692e-07 -5.41404e-06 4.44495e-05 -3.26692e-05 
-8.06128e-06 -6.34777e-05 -1.03552e-05 -1.55176e-06 -5.97981e-05 -2.64862e-06 3.64419e-06 -6.56457e-08 0.000204385 
-5.72829e-05 2.61747e-05 -4.12799e-05 0.000546046 -7.14604e-05 0.000927096 -1.42323e-05 1.7229e-05 -3.86226e-05 
4.18619e-05 -3.75824e-06 4.95741e-05 -1.93213e-05 2.85239e-05 -6.21501e-05 -0.000262451 -0.000143829 0.00073268 
7.91302e-06 -5.98471e-05 -3.53706e-06 2.97488e-06 6.6474e-05 -1.35069e-05 -1.69279e-06 8.21161e-06 2.0614e-06 
-5.60365e-06 -0.00010289 1.53656e-05 9.18131e-05 -0.000602384 0.000713165 -7.53561e-05 0.000691913 8.19916e-06 
2.5781e-06 3.21309e-06 -4.11669e-06 -1.19631e-06 2.06842e-05 -3.30525e-05 -1.05987e-05 1.06285e-06 -4.47707e-05 
-9.98257e-06 -1.57038e-05 3.99313e-05 1.48385e-05 -2.81993e-05 2.69937e-05 -3.554e-05 1.15984e-05 -0.000635013 
7.31275e-05 -7.09348e-05 4.25684e-05 -4.60129e-06 -9.43147e-06 4.33998e-06 -3.51434e-06 7.46595e-06 2.70695e-06 
-3.07603e-06 4.37417e-06 3.57088e-06 1.73315e-05 2.60107e-05 5.64795e-05 5.33435e-05 -0.000172866 5.33177e-06 
-2.97445e-05 4.26938e-05 -3.92851e-05 6.41546e-05 -3.86761e-05 -5.23991e-05 -1.76053e-05 -1.60447e-06 1.89224e-05 
3.76701e-06 2.7397e-05 -1.49156e-05 -1.74938e-05 1.07081e-05 -1.86296e-05 -7.96525e-06 1.38955e-05 -3.75788e-05 
0.00158309 0.00268461 0.00768851 -2.99813e-05 1.88335e-05 -3.35367e-05 -1.73316e-05 2.2627e-05 1.18831e-05 
9.97929e-06 -2.57545e-06 0.00182303 -0.0178922 9.62925e-05 -2.8995e-05 -4.39332e-05 -1.87032e-06 1.13609e-05 
3.79289e-05 -8.19113e-06 -8.6014e-05 -6.39846e-05 8.64395e-05 4.1478e-06 -7.19433e-07 -9.33597e-06 8.93736e-06 
7.58329e-06 6.17244e-06 -3.36334e-06 6.1973e-06 -5.3317e-05 3.92964e-06 0.000678 -0.000542886 1.27773e-05 
-2.20107e-05 -1.74702e-05 -4.76322e-05 2.9737e-06 4.13558e-06 -3.32812e-06 9.86467e-06 6.57522e-06 2.72595e-06 
1.16679e-05 -4.15547e-06 9.96038e-07 6.63584e-07 2.1053e-05 -3.92279e-06 -4.27929e-06 -7.99521e-06 -1.02199e-06 
2.36854e-06 3.24741e-05 -0.000567871 -0.000577187 -0.0015581 0.00275823 0.000141243 -0.000246741 -2.87214e-05 
-0.000116834 -0.000100716 0.000222278 -0.000816917 -0.000231613 0.000144788 0.000317722 -0.000275118 4.61225e-06 
2.51384e-05 -1.43217e-06 -0.000350594 -4.61627e-06 2.87404e-06 -7.42193e-07 1.02457e-05 4.44598e-05 -0.000183701 
9.63392e-05 -1.18648e-06 -4.63286e-07 -9.46749e-06 -3.69696e-06 -3.58974e-06 2.86378e-05 -8.80891e-06 -7.21578e-08 
-5.4668e-06 -3.82788e-06 4.40814e-07 4.47924e-05 1.04642e-05 -8.38923e-06 -2.16103e-05 1.87828e-05 5.86049e-06 
8.49792e-06 4.23392e-06 -7.9492e-05 -5.57986e-05 -3.94786e-05 -4.58733e-05 7.64738e-05 -4.20646e-05 0.000353302 
-2.13005e-05 -3.52258e-06 4.08789e-06 9.30193e-06 -7.39192e-05 8.11573e-06 5.50991e-06 -2.70855e-06 -0.000199931 
-1.54096e-05 1.646e-05 1.85655e-05 -2.92901e-06 -1.21858e-06 -8.01372e-06 -0.00170938 -0.000678523 0.000534301 
-9.46112e-06 -6.3868e-06 -2.79004e-05 -2.9331e-05 -1.92867e-05 0.000127227 -3.59136e-05 -9.72836e-06 -0.000184509 
1.27876e-05 1.33579e-05 1.82409e-05 -5.82969e-06 5.96925e-05 -3.92503e-05 -6.52747e-06 1.41926e-06 1.58291e-05 
6.16725e-05 -1.07706e-05 2.01135e-05 0.000101299 -2.77784e-06 -3.67269e-07 -0.000522742 -4.37491e-05 -7.41245e-05 
-6.65802e-05 -7.58911e-06 5.62567e-06 3.50306e-06 -1.02907e-06 -3.33545e-05 0.00015909 -6.50182e-05 5.07327e-05 
2.87462e-05 -1.17453e-05 -4.14017e-05 -7.51637e-05 -2.31718e-05 3.8469e-05 4.4469e-06 4.132e-05 -6.92872e-06 
-5.63976e-06 6.49002e-06 -4.2235e-05 -5.32022e-06 4.10335e-06 2.15442e-05 -0.000105158 -0.000410854 -0.000636201 
4.7839e-05 -6.53451e-05 -3.13586e-06 4.26219e-06 -2.10922e-06 5.90545e-06 1.04873e-05 6.39886e-06 5.53263e-06 
-0.000111953 1.56387e-05 -4.84565e-05 -9.894e-06 -3.02793e-05 5.14109e-05 -3.55183e-05 1.8633e-05 -2.19071e-05 
8.81047e-06 -0.000106458 3.60078e-05 2.66014e-05 -4.2991e-05 -2.65486e-05 5.18079e-06 4.53651e-05 -2.31856e-05 
7.3576e-05 -7.22665e-06 3.52324e-06 1.85058e-05 2.55297e-05 3.38312e-05 -8.48316e-06 -2.87156e-05 1.33346e-05 
1.73963e-05 5.67542e-06 2.70739e-05 2.5994e-05 2.44181e-06 4.54353e-06 -4.87575e-07 -8.20517e-06 -3.5812e-06 
7.79589e-06 1.19946e-05 -1.84832e-06 4.90338e-06 -3.16828e-06 3.79415e-05 4.60098e-07 -9.8446e-06 2.53209e-06 
1.43543e-05 -1.77642e-05 -7.43491e-07 -4.56349e-05 2.0765e-06 1.34726e-05 7.97705e-06 5.97053e-07 3.35186e-05 
-4.84328e-05 5.30684e-06 1.36613e-05 3.22386e-05 -0.000113729 -4.73748e-06 -7.25469e-06 -1.17591e-05 3.83153e-05 
3.95917e-05 -5.25307e-05 -5.81817e-05 -2.84247e-06 5.15858e-06 -5.02614e-06 7.50298e-06 5.35831e-05 5.45722e-05 
0.000467215 3.06261e-05 3.77708e-05 -3.53508e-05 -2.18698e-05 -2.36886e-05 -6.82749e-05 3.71861e-05 -6.72112e-05 
-3.34844e-05 2.31429e-06 -1.62088e-06 -3.8622e-05 1.95838e-05 -1.42283e-06 -1.31379e-05 6.46078e-06 -1.03774e-05 
5.6044e-06 2.57327e-06 7.42191e-06 -1.30894e-05 3.93231e-05 3.79088e-05 -0.00309822 0.000979279 0.000480351 
2.24012e-06 -2.98233e-06 8.0653e-06 1.44936e-05 -9.42146e-06 -8.92829e-06 -2.88666e-05 5.69452e-05 2.14873e-05 
-1.75802e-05 3.58631e-05 2.13696e-06 2.14064e-06 4.10575e-06 -7.39568e-05 1.99728e-06 1.14215e-05 0.000636572 
0.000263272 -2.08385e-06 -5.58781e-06 3.00593e-06 -4.72494e-05 1.75322e-05 8.54753e-07 3.40359e-06 1.46091e-05 
-1.28545e-05 -1.36498e-05 -1.30441e-05 8.2668e-06 4.01225e-06 -2.20858e-06 -1.23094e-05 -8.3989e-06 8.98614e-07 
1.37786e-05 -3.29595e-07 -0.000118899 -5.85327e-06 1.70824e-08 3.00054e-06 2.48564e-06 -9.22536e-06 -9.98655e-07 
6.90375e-06 2.83515e-05 6.42811e-06 8.38214e-07 -6.72837e-05 -0.000176831 -0.00011718 -0.000237482 1.14839e-05 
-2.06074e-06 -5.30667e-07 1.60167e-05 4.98484e-06 1.03268e-05 9.52327e-06 -8.62391e-05 5.92435e-06 -5.45107e-05 
-4.74386e-05 -0.000160328 0.000166053 -0.000217476 0.000136233 -1.53771e-06 0.000110124 -6.64108e-06 -1.48448e-05 
-4.31893e-05 -1.91276e-06 -2.17432e-06 0.000256767 0.000947173 0.0315633 5.02859e-06 -1.05071e-05 -1.57344e-05 
7.72084e-05 -2.85094e-05 1.00704e-05 7.12155e-06 6.15141e-06 -5.82655e-06 -9.03505e-07 2.89424e-06 -2.27925e-06 
4.51979e-06 1.83578e-05 2.64576e-05 -3.7822e-07 -3.6989e-06 1.78293e-06 -0.000204276 -0.000351922 -0.000212126 
7.44874e-06 -1.43401e-05 -1.24552e-05 -4.59375e-05 -1.58431e-05 -1.38248e-05 -3.18068e-06 -0.00543013 -0.00459793 
-0.00711647 8.56399e-06 1.33305e-05 1.33891e-05 -5.80683e-06 1.83744e-05 -7.41171e-05 7.72687e-05 0.000289587 
0.000158036 0.000510737 -0.000263955 -0.000142703 -3.80236e-06 -1.28794e-06 -3.95802e-07 -1.26584e-05 5.55647e-06 
-7.14082e-06 -2.04692e-05 -9.73542e-05 2.65529e-05 5.14099e-06 -6.57159e-06 2.93554e-06 1.72799e-05 -1.21578e-05 
3.48506e-05 -4.01657e-05 4.27205e-07 9.65223e-05 4.93429e-05 -3.46468e-06 3.90487e-06 1.76856e-06 6.46628e-06 
-5.74139e-06 1.03309e-05 -3.85432e-06 2.39154e-05 1.86893e-05 1.03583e-05 -2.51794e-05 -1.21471e-05 -3.05778e-05 
1.73587e-05 -0.0028231 -0.0198804 0.00444682 2.11805e-06 -2.82975e-05 -1.20493e-05 0.00533024 -0.00328049 
2.27771e-05 -1.87255e-05 2.05899e-05 -3.27908e-06 -2.68962e-05 -0.000114938 7.00858e-05 -1.05459e-05 6.29605e-05 
-6.41117e-05 0.0442048 0.0354341 8.95707e-07 2.72121e-06 -9.46341e-05 -9.70715e-05 -0.000224073 1.96616e-06 
-1.83358e-05 7.02113e-07 1.77951e-06 0.00015703 0.00018142 -4.14075e-05 -2.69633e-05 -1.30238e-05 3.92334e-05 
0.000223583 0.000186323 0.000493262 -4.20274e-05 -3.51977e-05 2.58754e-06 -2.36274e-05 -6.90772e-06 -3.40182e-05 
-1.15919e-05 -1.53587e-05 -1.19822e-05 -3.73977e-06 -4.35345e-05 -2.83959e-05 9.05208e-08 1.76175e-05 1.14237e-05 
3.85568e-05 -8.76016e-06 -3.72072e-06 -8.50517e-06 -4.3644e-05 0.000119262 3.717e-05 -1.52641e-05 6.87213e-05 
4.73821e-05 -0.000594421 -5.01857e-06 8.592e-06 -4.38094e-05 5.86248e-05 -0.000474103 5.65708e-06 -1.62181e-05 
2.56889e-05 -6.13508e-08 -1.98609e-05 -5.05202e-06 -2.92632e-05 1.06865e-06 -8.08155e-06 -0.000111906 -3.50619e-06 
1.78584e-06 -4.63824e-05 -3.75093e-05 -1.00029e-05 -0.001031 7.74057e-06 4.56892e-06 0.000301376 0.00606399 
-0.00574183 -3.11846e-05 1.89725e-05 -4.83298e-06 -7.21262e-06 1.08849e-05 -6.28169e-06 1.349e-05 -4.2126e-05 
-3.42933e-05 9.32136e-05 9.40436e-05 -0.000234628 0.000196912 0.0306319 -0.0309097 -7.26273e-05 -4.04424e-06 
4.66006e-06 -7.48247e-06 -1.63971e-05 -4.07978e-05 -1.41094e-05 1.77012e-05 -4.55173e-05 -7.33693e-05 4.81684e-05 
-3.93765e-05 -7.64095e-05 3.26685e-06 -1.02098e-05 1.17123e-05 4.71518e-05 -4.5877e-05 -5.27945e-05 5.89408e-06 
-6.06861e-05 9.10773e-06 1.46428e-05 -4.7066e-06 -2.31076e-06 -1.6378e-05 -5.32186e-06 0.000490669 0.00029734 
-0.000121671 2.47841e-05 -1.14914e-05 -1.82131e-08 -4.77568e-06 -1.39079e-06 -2.35698e-06 -5.27549e-05 4.32021e-05 
-3.58142e-05 -4.04714e-05 -2.10841e-05 1.41569e-05 -5.26887e-05 -1.26466e-05 -1.00373e-05 -3.21247e-05 -3.70499e-05 
2.53382e-05 1.59622e-05 -1.70447e-05 -1.13015e-06 -6.82783e-06 -6.70844e-07 2.56586e-05 4.78559e-06 1.47104e-06 
3.34169e-06 3.97264e-06 0.000435993 0.000899221 -1.41134e-05 -1.70172e-06 1.06764e-05 4.0669e-06 4.9096e-06 
1.79715e-05 6.11413e-06 -6.27128e-06 -4.15245e-07 -6.81334e-06 4.65823e-06 2.87932e-05 -4.92778e-06 -3.34751e-06 
-6.89782e-06 -6.45053e-06 -5.7061e-06 -9.88671e-06 -1.33007e-06 -4.14849e-06 7.06657e-06 -0.000121831 -0.000343868 
0.0305836 7.0313e-05 7.76244e-06 -3.47139e-06 -8.59821e-05 6.64292e-05 -3.43331e-05 -1.16865e-05 1.22617e-05 
-1.00217e-05 -4.03288e-06 4.22053e-06 -5.85878e-06 1.6232e-05 9.97464e-06 0.032059 0.000995946 0.000642741 
1.04981e-05 3.93993e-06 9.75389e-06 3.96146e-06 -6.77708e-06 3.83943e-06 2.02335e-05 -1.18351e-05 3.23938e-07 
5.12653e-06 -1.65727e-05 -0.000415931 -0.000114176 -5.10699e-05 9.31927e-06 -4.22914e-05 -5.57053e-05 1.30298e-05 
-5.48142e-06 2.82938e-05 -8.96566e-05 4.10967e-05 -2.94299e-05 -3.01672e-05 0.000448589 0.000240842 6.62053e-06 
-3.10886e-06 6.43919e-05 -5.52464e-06 0.000620025 0.000242409 5.23687e-06 -1.32712e-07 -2.087e-05 -3.82019e-05 
-7.69773e-05 1.04765e-05 8.97981e-05 -6.2978e-06 -3.91597e-06 -8.16407e-05 -5.44576e-05 -0.000232094 -8.74467e-06 
-9.89103e-06 -6.66819e-06 1.55621e-06 3.36247e-05 -6.82719e-05 -0.00162878 -0.0227575 -0.00110788 0.000872771 
0.000231948 1.71785e-05 3.42444e-05 -0.000117589 0.000160627 -7.88681e-05 4.60175e-05 4.40328e-05 2.65943e-05 
3.58081e-05 6.21825e-05 0.000104994 -5.07972e-06 3.64127e-06 -6.61038e-07 -1.16026e-06 -0.00027758 -5.04224e-05 
-0.000316493 1.39189e-05 -3.50259e-05 7.60791e-05 7.2841e-06 4.72677e-05 1.51866e-06 -4.00319e-05 -8.20161e-05 
3.33017e-05 5.83894e-06 1.52898e-06 -1.57528e-05 1.5318e-05 0.00013657 -0.00119513 -0.000225884 1.8143e-05 
4.43864e-05 3.1163e-05 8.5117e-06 8.65468e-06 2.50961e-06 2.09303e-05 -0.000200178 -2.19381e-05 2.03447e-05 
-5.7866e-05 0.000112033 -0.000668269 3.10151e-05 1.68388e-06 -7.20308e-05 -1.52132e-05 4.01282e-06 -2.79353e-05 
-5.86856e-05 5.41258e-06 2.48969e-05 -8.57819e-06 -6.4879e-06 0.00105263 -0.000256715 0.0012151 -0.000659012 
2.71381e-05 -3.17147e-05 -8.96429e-05 0.000482557 1.16551e-06 -0.000624584 1.17762e-05 -3.10101e-05 -4.11015e-06 
4.72254e-06 1.1635e-05 3.36249e-06 -7.57189e-07 -1.97375e-05 3.04667e-05 1.35565e-05 -0.013397 -0.00115717 
5.59397e-08 -7.30283e-06 -1.03423e-05 3.01334e-06 -1.1049e-05 4.44223e-05 5.07236e-05 -4.90681e-06 2.04113e-06 
-8.48765e-05 -7.71086e-06 -2.98504e-06 -2.49737e-06 -2.15946e-06 3.20092e-05 -8.89972e-05 -4.80497e-06 -4.47087e-06 
-7.13414e-06 1.38778e-05 1.55821e-05 -2.04034e-05 1.85511e-05 8.88378e-07 0.00245408 -0.00766782 -1.12898e-05 
3.42797e-05 -4.2686e-05 -2.19538e-06 5.56028e-05 -1.35885e-05 2.38592e-05 -6.8074e-05 -7.57357e-06 -1.14765e-05 
4.71029e-06 -0.000706102 0.0045326 -0.0170864 -3.56756e-05 1.17061e-05 1.97349e-05 -2.23663e-06 -6.48442e-05 
6.82812e-05 2.51709e-05 7.90253e-05 -0.000105299 0.000152756 -4.56488e-06 -3.20103e-06 -3.48614e-05 4.06282e-05 
-2.49571e-06 2.13508e-05 4.09735e-06 -8.79421e-06 -1.77401e-05 1.33936e-05 8.50334e-06 4.91761e-05 -5.12748e-06 
-3.71457e-05 -1.78899e-06 5.12723e-06 1.64361e-05 5.63503e-06 1.12567e-05 0.000182123 8.07588e-05 5.42916e-06 
-1.11333e-05 -2.77676e-06 2.55086e-06 -8.57198e-06 -1.57788e-06 1.72409e-05 2.18715e-06 -7.45814e-06 -3.51526e-06 
6.88899e-06 -1.23137e-06 4.51702e-06 1.9282e-06 1.23501e-06 0.00728604 0.00208283 2.14922e-05 -8.28079e-06 
9.56098e-06 -8.36929e-06 -3.57022e-06 -1.65788e-05 -4.21901e-06 -1.86931e-06 0.028732 0.000314627 2.72606e-06 
3.57203e-06 -4.37101e-05 0.0381429 -0.0112101 -0.0149546 0.000392595 -0.00102473 0.000111496 -0.000185896 
-5.27275e-05 -8.33057e-07 -1.13215e-05 -2.83098e-06 2.7383e-05 2.06801e-05 -3.15623e-06 -1.35816e-06 -3.099e-05 
-0.00088635 0.000217068 0.00686966 1.03414e-06 4.64476e-07 -3.07877e-06 2.81065e-05 3.58322e-05 7.08651e-05 
-4.81839e-05 7.8932e-06 1.20836e-05 -4.55518e-05 1.39567e-06 1.98461e-06 -0.00021802 -0.000403247 -3.51394e-05 
-7.91483e-05 0.000129126 0.000117524 3.2937e-05 -3.74799e-05 -2.45906e-05 -2.49698e-05 -1.47315e-05 -2.88576e-05 
-2.37625e-05 -5.01074e-05 7.3954e-05 9.49185e-06 -1.0537e-05 -7.23876e-05 9.96453e-06 -6.07613e-05 -5.86937e-06 
5.24318e-05 6.408e-06 6.5406e-06 -2.42948e-05 8.89589e-06 -1.64543e-05 -0.00180288 -0.00593578 6.85684e-06 
4.09571e-06 2.83561e-06 1.48451e-06 3.18182e-08 -0.000100375 5.88678e-05 -5.03712e-05 -4.57145e-05 -1.9008e-05 
4.10168e-06 -6.0939e-06 9.53046e-06 -4.7404e-06 -2.96187e-06 0.000599171 -2.08607e-06 -3.02486e-07 0.000413324 
-0.000157434 0.000194223 -2.04915e-05 -2.87396e-06 6.19434e-07 2.95414e-05 -3.75213e-05 1.82876e-05 -2.61922e-05 
-4.87679e-05 9.94179e-05 -3.26618e-05 4.69892e-05 -4.00459e-06 -4.06026e-05 0.0178613 -2.2771e-05 -0.0309745 
0.0018972 0.000289516 -0.00128601 1.88883e-05 -8.35021e-05 1.88054e-06 9.3002e-05 -0.0320177 -3.09622e-05 
6.12078e-05 -5.001e-05 -1.10667e-05 -4.28466e-06 1.57954e-06 2.25798e-06 -1.07627e-05 -4.65399e-06 7.38215e-06 
4.71247e-06 -2.69542e-05 -3.48308e-05 -7.13099e-06 7.62037e-06 -1.8942e-05 -1.94607e-05 6.56894e-05 4.01828e-06 
3.06838e-06 0.000464341 0.000220467 -2.78289e-05 0.0310753 -1.79471e-05 -3.99523e-06 -5.79379e-05 -0.00580693 
0.00606246 0.000254371 -0.00632838 0.00626031 -0.000383782 0.000288135 6.70451e-05 3.81227e-06 4.84528e-05 
-3.60259e-05 1.03685e-05 -1.01792e-05 9.03268e-06 -0.0321467 2.58162e-05 4.15037e-05 6.56981e-05 3.59792e-05 
-0.000392378 -0.00218318 -7.79099e-05 -5.27436e-05 0.000149243 -8.5924e-05 -9.04422e-05 -3.80212e-05 -9.95436e-06 
-5.60216e-08 -0.00012196 -0.00147655 0.000217391 1.2409e-05 -5.43025e-06 -2.37318e-06 -5.85347e-06 8.71479e-07 
-2.14715e-06 -0.000216871 4.36313e-06 -6.88752e-06 5.89065e-06 -0.000319458 -6.64224e-05 -2.35134e-06 -4.37234e-05 
9.24005e-06 2.05786e-05 3.5478e-07 3.00142e-06 -4.62824e-06 4.82302e-06 3.37332e-06 5.10444e-05 -0.031103 
-2.1319e-05 5.34895e-06 7.10807e-06 -2.10099e-06 -4.57393e-06 3.32989e-06 -1.56824e-05 9.17805e-06 -7.22383e-06 
-3.01212e-06 -1.29015e-06 -5.82871e-06 -1.67986e-05 -2.5322e-05 -2.70141e-05 8.82551e-05 0.000118412 3.73645e-05 
3.11151e-05 -2.96567e-06 1.57252e-05 -1.10202e-05 6.70781e-07 7.88524e-06 5.09772e-05 -2.87173e-06 -6.27296e-05 
6.39507e-06 -5.31387e-06 -1.45641e-06 -7.96337e-05 2.09939e-05 2.80508e-05 0.0291871 0.0350701 0.000222681 
-5.2038e-05 -1.57032e-05 0.000333704 -0.00023841 -5.93593e-06 -6.52855e-05 4.83869e-06 -2.78593e-05 4.39149e-05 
-3.78464e-06 0.000298318 0.000355522 -1.49662e-05 -1.13899e-06 -1.49147e-06 6.683e-07 -3.56741e-06 -4.0878e-06 
-7.32995e-05 -7.49754e-05 -0.000254594 -0.000385355 -5.01107e-05 -0.000662179 2.47855e-05 0.00592668 -0.00593035 
-4.62901e-05 -0.00010671 -1.25469e-05 6.66908e-06 -3.36969e-06 0.00800442 -0.00645692 0.0354435 0.000548675 
-1.66395e-06 3.25571e-06 -2.43065e-06 -3.69776e-06 0.000186046 0.000202139 0.000481203 -0.000301348 4.24851e-05 
3.01947e-05 -2.56864e-05 -1.30522e-05 0.000140692 8.38743e-05 -2.89613e-05 5.22384e-05 0.000165332 3.35598e-05 
-8.05659e-06 4.34447e-06 3.03291e-05 -9.07484e-06 0.000728598 6.62621e-05 -0.000113322 -8.53215e-05 -4.37341e-06 
-9.03676e-06 -1.53106e-05 -6.4418e-06 -1.28917e-06 3.21368e-06 -8.30331e-06 0.00611545 -0.00586492 8.21638e-06 
-2.48551e-05 -9.11008e-06 -1.51718e-05 -8.18565e-05 3.58834e-05 -8.0272e-05 6.74362e-06 -7.50488e-06 1.79378e-07 
3.54852e-08 -2.62621e-05 1.51e-05 2.35979e-05 2.17767e-06 -2.13044e-05 -4.51381e-05 3.1062e-05 5.69713e-05 
4.64432e-05 -3.27883e-05 3.31368e-05 -2.86341e-06 -4.66497e-05 -2.36459e-06 1.77649e-05 -0.00125215 0.00037859 
-0.00233734 0.00369803 -6.10144e-06 -2.76009e-06 -6.52166e-06 5.54528e-06 -0.00132958 9.92723e-05 -7.58178e-05 
6.37159e-06 -2.95374e-06 -0.000106388 -1.90653e-05 -2.87071e-05 -5.07056e-06 9.49046e-05 4.21657e-05 -7.91709e-06 
-5.2493e-06 9.91964e-07 1.60276e-05 2.27331e-05 -1.36764e-05 -2.26082e-05 -2.32024e-05 4.09043e-06 -1.06491e-05 
1.29226e-05 -1.8712e-05 8.87076e-06 9.44124e-05 -3.07213e-06 9.07645e-06 3.6718e-07 -2.44256e-05 -1.3075e-05 
-3.35751e-05 1.18358e-05 -3.0144e-05 -1.20724e-05 2.83341e-05 -8.56172e-05 0.000196336 -2.44622e-06 -2.46445e-06 
-5.00027e-06 -8.98665e-06 -1.8706e-05 0.00157173 -0.00639738 -0.00188972 1.44021e-05 -1.73605e-05 1.33321e-05 
-3.72001e-05 -7.50138e-05 1.88453e-05 1.46358e-05 -9.15476e-06 6.8973e-06 4.6693e-05 -1.59874e-05 0.0311312 
0.000549729 0.000316694 6.46438e-05 5.26621e-05 -5.17626e-05 2.77682e-05 -4.99944e-05 -5.15023e-06 -8.11236e-05 
0.000128119 4.69972e-05 -0.000110207 3.83907e-05 3.76132e-06 -1.05714e-06 -1.4137e-06 -0.000220244 -9.54787e-05 
3.06174e-05 4.79682e-05 -0.0103734 3.59691e-06 5.15612e-06 3.10472e-06 -1.7331e-05 4.99102e-05 -3.06139e-06 
-1.87258e-05 -2.29812e-05 -2.47338e-05 -5.14852e-07 -8.32001e-06 1.84051e-05 5.60259e-07 -9.54809e-07 -8.82729e-06 
7.89391e-06 -5.34327e-05 2.76932e-05 -1.77103e-05 1.03879e-06 5.13675e-06 8.87404e-07 -7.77519e-06 0.000537169 
-0.000508148 0.000362604 3.83184e-06 5.41576e-07 -1.90179e-05 -6.91985e-06 2.8606e-05 6.66513e-06 1.47535e-05 
8.21575e-07 -5.47879e-07 1.6448e-05 1.81637e-06 -3.09462e-05 -5.04842e-06 -1.72644e-05 -3.80311e-06 -4.60959e-06 
-7.40568e-06 -7.99163e-06 -2.97163e-06 8.78776e-05 -8.13955e-06 8.2886e-05 3.71793e-05 1.8828e-05 -0.000109789 
-3.46905e-06 -2.47467e-05 -6.86949e-05 -5.91172e-06 -4.15743e-05 -3.21897e-05 1.58533e-05 0.000518587 -1.70797e-05 
3.95898e-05 1.54014e-05 -0.00549578 -7.77704e-06 9.20748e-06 9.75543e-06 -2.8789e-06 1.98242e-05 -7.3512e-06 
2.36714e-05 -0.0317923 0.0314027 0.000189283 0.000325584 0.0315153 0.000675928 0.000400073 0.00616101 
-4.32704e-05 -2.51223e-05 -4.26924e-05 -4.58992e-06 1.14953e-05 -3.42262e-06 2.16449e-06 7.5968e-06 -8.72624e-06 
-7.83762e-06 0.000287977 2.00321e-05 7.67234e-05 -7.15862e-05 -0.000291655 3.39271e-06 -4.00218e-06 0.000245991 
5.7601e-05 -1.78267e-05 1.20826e-05 -5.94866e-06 7.27549e-07 8.48026e-07 1.27215e-05 0.000867367 -1.74508e-05 
-1.41402e-05 8.52457e-05 -3.97706e-06 5.55933e-05 5.38384e-06 -2.52378e-06 -1.8495e-05 0.00030259 0.001799 
-9.5242e-06 4.93894e-06 3.89145e-06 4.09179e-05 -4.38021e-05 -1.14298e-06 7.73567e-05 8.73183e-06 -0.000712772 
0.000996499 8.99436e-06 -2.67487e-07 1.80688e-05 -4.09043e-05 3.44944e-07 -1.44378e-05 0.000334823 5.02033e-05 
-0.00015235 -0.00116422 -3.27507e-05 3.31535e-05 -3.78574e-05 0.00602748 -0.000145294 9.66876e-05 3.07948e-06 
2.32143e-05 3.16692e-06 -3.29701e-06 -3.55842e-05 -7.21078e-05 -3.54097e-05 -1.20699e-05 3.61306e-05 1.05556e-05 
-3.03922e-05 4.27248e-06 -1.77191e-05 -2.18451e-05 -4.36993e-05 6.86886e-06 3.00509e-05 1.77426e-05 -2.59354e-05 
-5.32199e-07 -1.74098e-05 7.17413e-06 -4.07731e-05 2.46559e-05 -2.83491e-06 -9.55067e-07 1.34309e-05 2.9301e-06 
-9.21482e-06 -5.12784e-06 0.00032957 -4.93772e-06 -2.55224e-05 -4.31565e-05 0.000229561 0.000157707 -3.59656e-06 
-3.89674e-06 -3.26583e-06 -3.37198e-06 -0.00565456 0.000597103 0.0010464 0.000927082 0.00613881 -8.14335e-06 
7.87205e-08 3.72137e-06 -2.2682e-05 8.82846e-06 3.07315e-06 3.20531e-06 -0.00575532 -1.31254e-06 0.000127512 
-3.21338e-06 2.69633e-06 5.3466e-06 3.42009e-06 -1.73446e-05 3.02387e-06 -5.33981e-06 -3.66831e-06 -2.48181e-05 
-6.11816e-05 9.04194e-05 0.000519995 2.42297e-06 3.21152e-06 -1.23726e-05 -5.19737e-06 -1.71979e-05 0.000247871 
-3.30116e-05 -7.77189e-05 -0.000126511 -0.0296346 8.47557e-06 4.97522e-06 -6.89763e-05 -4.29776e-06 -8.04772e-06 
4.72483e-07 3.98999e-05 4.31733e-06 -1.10208e-05 -3.73444e-05 -1.79551e-06 4.78094e-06 -0.0313992 -2.29972e-06 
-1.40396e-06 2.46776e-05 -2.82648e-06 -2.40234e-06 2.92381e-05 -0.000421032 -0.00036257 -0.000486348 -2.56117e-05 
-6.91922e-05 -5.0079e-05 5.66543e-05 -7.06858e-06 4.92195e-06 -1.51309e-05 -3.86471e-05 9.18965e-06 -7.03375e-06 
-2.93467e-05 -0.000144582 -1.86166e-06 2.04062e-06 2.29948e-06 8.13646e-07 6.80011e-06 1.68856e-06 -1.21225e-05 
2.53769e-05 8.69719e-06 -0.000233314 -2.13388e-05 5.62624e-05 -1.03707e-05 8.82103e-05 2.2562e-06 6.05712e-07 
5.59569e-06 -0.000100133 6.73601e-05 3.26054e-05 -0.00189876 -9.53152e-07 3.84968e-05 -4.36476e-05 -3.60257e-05 
-2.52705e-06 2.64576e-05 -4.47561e-05 -3.25293e-05 5.91773e-05 2.43303e-05 -3.74231e-05 4.57076e-05 -2.76261e-06 
-4.79473e-05 8.28752e-06 6.05029e-06 -4.42857e-06 -0.000129205 1.62269e-05 -2.45072e-05 -2.60703e-06 -9.70619e-07 
4.57057e-06 1.22668e-06 5.42125e-06 -7.15474e-07 -4.3304e-06 -2.84168e-06 -7.45618e-06 -0.000243253 -0.000471785 
-0.000210602 -6.91513e-08 -5.57425e-06 -3.25849e-06 2.83021e-05 3.18592e-05 0.000166123 -2.42091e-05 1.61588e-05 
-2.08588e-05 3.28132e-05 -5.08556e-05 2.98939e-06 8.09828e-07 -6.99908e-06 -4.91725e-06 -3.0883e-06 7.49421e-06 
7.06051e-05 -4.49021e-05 0.000131336 -8.91721e-05 -1.12869e-07 -7.55029e-06 -4.66243e-05 2.0785e-05 -7.11361e-06 
-1.19931e-05 -7.96139e-05 -3.77507e-05 6.03683e-05 -2.4961e-05 1.46716e-05 4.62325e-05 -1.32956e-05 -1.04226e-05 
-4.50807e-06 -3.83329e-06 -1.37725e-06 0.0315656 0.00570267 5.50157e-06 -1.19484e-05 -1.89561e-05 -6.66767e-06 
8.42985e-05 9.58379e-05 -6.2015e-06 -3.19229e-05 -0.00020907 6.98321e-07 -2.92251e-06 9.74194e-06 -7.4163e-06 
-0.0107594 -0.0259377 -1.8736e-06 -0.000247656 -2.00052e-05 -3.87617e-05 -7.9783e-06 2.93244e-05 -9.41972e-05 
7.01832e-05 -0.000111288 -9.75112e-05 1.04e-05 1.22796e-06 1.39615e-06 -1.57411e-05 -1.14555e-06 3.15645e-06 
-1.15934e-05 6.45374e-06 -4.51878e-06 -8.54474e-06 -5.78693e-05 6.61044e-07 -2.36958e-06 -1.71983e-05 -4.0848e-05 
1.99738e-05 -2.14089e-06 8.99293e-05 -5.12721e-05 2.12685e-05 3.97653e-05 1.76503e-05 2.45149e-06 -5.70017e-06 
-2.18229e-05 -5.39039e-06 -6.57268e-06 2.42625e-06 4.67153e-06 6.60806e-06 -2.4201e-05 -1.36419e-05 2.45976e-06 
1.42782e-05 -5.50277e-06 2.9365e-06 -1.52305e-06 1.84517e-05 -6.91291e-06 -3.58117e-06 5.33876e-05 1.54095e-05 
0.000605549 1.13335e-06 -2.47955e-05 -2.27691e-05 -2.37074e-05 -0.00060415 -7.29218e-07 0.000197877 2.59835e-07 
1.69225e-05 6.06845e-05 -7.43607e-07 2.75127e-05 -0.00585723 0.00603835 -1.4357e-05 -1.20146e-06 -3.73532e-05 
1.45496e-05 -0.0058789 -1.65346e-05 -4.02669e-05 0.00015753 -0.00021846 -0.000193021 -0.0312799 7.25951e-06 
5.59819e-05 -0.000194305 -3.06714e-05 -7.28065e-05 -9.3097e-06 4.7387e-06 -2.42245e-05 6.48976e-06 -9.94644e-05 
-1.83378e-05 5.17767e-05 -4.72346e-06 -7.16928e-05 -3.63046e-05 9.32711e-05 1.06652e-05 1.41488e-05 -2.16203e-05 
-6.44094e-05 -1.52431e-05 1.13296e-05 -2.09984e-06 1.68085e-06 -0.000110356 -0.000371193 0.000205675 -4.7909e-06 
-2.88076e-06 3.24532e-05 3.48253e-05 1.89674e-05 1.17275e-06 2.31047e-06 3.28077e-05 -2.28797e-05 -2.70988e-05 
-4.50719e-05 -4.18307e-05 1.33964e-05 -8.89886e-06 -1.67172e-05 -2.15753e-05 2.82144e-06 -0.000187936 -0.0001301 
-6.87968e-05 8.81978e-05 -2.75295e-06 -3.28304e-05 -4.84615e-05 0.000133709 -1.71151e-05 -9.2944e-06 0.000329533 
-6.8873e-06 -3.95611e-05 4.46175e-05 -5.76441e-05 -3.67846e-06 8.87218e-05 -0.000199046 -0.000296723 -3.83019e-06 
7.93512e-06 1.04678e-05 -3.08925e-06 0.000116278 0.00013133 -0.000324502 -1.68743e-05 -6.93041e-05 0.000213008 
0.00012802 0.0345914 0.0331579 -8.09501e-06 5.3138e-05 -0.000932607 -0.000410003 4.69347e-05 -0.00211633 
0.00083684 0.00156276 5.56131e-06 -1.22742e-06 -5.62469e-06 4.49122e-06 -7.90511e-07 -2.64375e-05 -6.18481e-06 
-2.1282e-06 -1.17962e-05 2.74199e-05 -6.5185e-06 -6.79372e-06 5.83776e-06 -4.03793e-05 6.60201e-06 -3.8004e-06 
-2.0631e-06 -1.17313e-06 -0.000186737 -1.12449e-05 -0.00612038 8.51051e-05 2.18792e-05 -1.16818e-05 -5.86601e-05 
-3.60812e-06 -5.54894e-07 -1.17081e-06 9.31532e-07 4.57007e-05 -1.47215e-06 -1.3917e-05 8.1162e-05 0.00014922 
-3.43439e-05 5.73497e-06 1.22835e-06 1.50678e-06 5.33796e-06 -3.87359e-07 3.57092e-06 2.7739e-07 -1.21093e-05 
2.45689e-05 6.48286e-06 5.96222e-06 6.68178e-05 -2.9553e-05 9.20861e-06 0.000665628 0.0308266 6.75239e-06 
-3.94656e-06 -7.24107e-06 -5.98296e-06 8.59287e-05 -6.25551e-05 -2.25592e-05 9.7173e-06 2.44567e-06 -6.06973e-06 
3.08156e-06 0.000634831 -0.00131266 0.000362915 -0.000275166 -0.000927231 2.63135e-05 -1.80363e-05 5.74472e-06 
-6.72582e-05 -9.9772e-05 -6.58664e-05 4.51527e-06 -1.64554e-05 -2.22277e-05 3.27632e-05 -4.60866e-06 -4.57106e-05 
2.38242e-05 -6.21777e-06 1.24721e-06 -1.30792e-05 7.64607e-06 -0.000101976 7.16112e-05 9.62446e-05 -2.84262e-06 
2.33108e-05 -1.07861e-05 -0.000864938 -2.8804e-05 0.00162126 -2.75315e-05 5.03863e-06 6.33051e-07 -5.51333e-06 
4.41043e-06 -0.00580331 -2.53243e-06 -1.94604e-05 0.00025183 -2.92933e-05 -6.27429e-06 3.62368e-07 8.86071e-07 
1.03116e-06 -2.46204e-05 -2.9092e-05 0.000140328 -8.61125e-05 1.52014e-06 -2.62084e-05 1.56368e-06 1.40793e-05 
-9.90501e-06 3.55084e-05 -5.3386e-05 -0.000105092 -7.78339e-06 7.32954e-05 -0.00019103 1.98526e-05 1.32625e-05 
-5.18574e-06 3.39378e-05 4.30745e-05 -5.82578e-06 -3.50392e-05 -2.53788e-06 -2.36284e-06 8.00321e-06 -1.8919e-05 
-9.48538e-06 -2.89169e-05 -5.16227e-06 1.1136e-05 1.92505e-06 -1.47853e-05 1.43572e-05 2.00991e-06 -2.90053e-05 
-5.88986e-05 -9.16459e-06 2.67521e-05 2.2826e-05 -6.32188e-06 2.25367e-06 -1.73973e-05 -0.00011019 0.000249682 
4.52284e-06 2.7761e-06 5.57095e-06 3.1607e-06 0.000401182 0.00046343 0.0304915 1.59638e-06 -1.84995e-05 
9.83987e-06 -7.36855e-06 1.33043e-05 0.000347681 3.28933e-05 0.00127201 4.88171e-06 -3.33877e-06 -5.4061e-05 
-1.91351e-05 9.75014e-07 8.93391e-06 6.03526e-07 -1.78176e-06 -5.247e-06 -4.58469e-07 -6.15415e-06 1.33974e-05 
-8.7837e-06 -1.83696e-06 1.67285e-06 1.31481e-05 4.5233e-06 -5.17817e-06 2.60601e-06 -2.11774e-06 -1.06611e-05 
-0.000101642 -3.45691e-06 6.19187e-06 9.97408e-06 -2.64089e-05 4.86974e-06 -2.08817e-05 -4.61174e-06 -2.16521e-07 
-2.13095e-06 -0.0314357 -8.48582e-06 -0.000140246 0.00047967 0.000436401 0.000958527 0.00106161 0.000124486 
7.95043e-06 4.2937e-06 9.20199e-06 -4.85395e-05 -0.000136959 -7.52912e-05 -6.71197e-06 -1.57076e-05 3.2372e-06 
-1.41573e-06 -1.51631e-05 -3.64777e-06 1.75537e-05 -1.51032e-06 -6.07274e-06 -6.5857e-06 -1.57944e-06 1.71798e-05 
1.34752e-05 7.06429e-07 -5.65093e-07 -2.74031e-05 -7.52585e-06 -2.77677e-06 -2.3121e-07 -0.000107976 -0.000573634 
0.030802 4.7865e-05 -4.17956e-05 2.24139e-05 -7.59493e-06 6.10974e-05 -0.000306037 0.00234337 -0.00947238 
-6.90137e-05 -4.18848e-06 6.01036e-05 7.99127e-06 -1.75195e-05 6.04439e-05 3.51032e-05 -5.11626e-05 5.49285e-06 
-3.52724e-05 6.46228e-06 -1.71869e-06 -4.05338e-07 -0.00010113 -2.81545e-05 -3.19116e-05 7.14745e-05 0.0339842 
2.13088e-05 -3.17622e-05 5.40869e-05 -3.0183e-05 0.000172985 -3.30703e-06 -2.11985e-06 -6.59994e-06 -1.09246e-06 
-3.37484e-06 3.80251e-06 1.10864e-05 -7.21449e-08 -9.86886e-06 5.26462e-06 1.16738e-05 -1.6444e-05 -0.000165019 
-0.0302517 9.56125e-07 -8.69516e-05 -1.11734e-05 0.00126379 -7.38621e-06 -3.59934e-05 -1.83454e-06 0.0301999 
7.077e-06 -2.77293e-05 2.2738e-08 -5.50411e-06 9.77734e-06 -2.77852e-06 2.00045e-06 -2.49773e-06 -5.37973e-07 
2.99313e-06 2.11922e-05 -9.59999e-06 3.32748e-06 0.0002444 1.38029e-05 9.88463e-06 -5.08065e-06 -4.88083e-05 
-6.30565e-06 -4.67231e-06 3.03607e-06 3.92569e-05 -3.86724e-05 -2.18559e-06 -1.89793e-05 5.43128e-06 1.35209e-05 
-7.79434e-06 -8.26747e-07 -5.64416e-06 6.39469e-05 -2.24378e-05 -7.79351e-05 -0.000906813 -1.08336e-05 -8.60772e-05 
5.01708e-05 7.03641e-05 -4.31822e-05 1.02161e-05 4.26945e-05 -1.4865e-05 -1.41824e-06 -5.57228e-05 0.00609147 
-2.2151e-05 5.62391e-05 8.06222e-06 2.66341e-06 -4.5777e-06 -0.000730276 0.0070311 2.23242e-06 0.000165402 
9.57049e-05 2.91169e-06 -1.74945e-06 -4.21556e-06 -0.0317405 0.0315432 -0.00398741 -0.00553567 2.62037e-05 
0.000128494 -0.000460496 -4.75528e-05 0.0308753 -0.000238319 -0.0308659 -2.60033e-05 -0.000101885 -1.2054e-05 
-7.85342e-06 5.65404e-06 -2.22356e-06 2.10872e-06 -5.85937e-06 1.1986e-06 -2.57096e-06 1.07899e-05 0.000214291 
-0.000117869 0.00610732 0.0364423 3.60748e-06 7.00037e-06 -0.00575969 0.0003602 -0.031811 3.74677e-06 
-1.00881e-05 3.37084e-07 0.000157387 2.23326e-05 6.34353e-06 -2.5614e-06 -3.95283e-06 9.27715e-08 -1.98818e-05 
9.84866e-05 6.99652e-06 6.0868e-05 8.10485e-06 -9.37294e-06 -5.58642e-05 -9.39126e-05 2.40007e-05 -7.03924e-05 
-2.87508e-05 -0.00081645 -0.000237295 0.000200427 -0.00101279 0.000118095 -0.000107694 -2.92555e-05 3.13077e-06 
-6.00788e-05 2.74251e-05 -2.7521e-05 0.000263237 5.99223e-05 -0.000131507 -5.83644e-06 -1.709e-05 -0.00105106 
-1.4186e-05 -3.83644e-06 7.35832e-06 9.1278e-06 2.38444e-07 8.03509e-06 7.67566e-06 9.41449e-06 -4.63784e-06 
-4.87541e-06 -1.443e-06 8.9927e-06 -7.90112e-05 -2.83235e-06 -0.000382058 -3.17248e-05 -6.84018e-06 2.16047e-05 
5.82702e-06 -3.90606e-05 -1.3362e-05 2.63935e-06 3.43758e-06 -2.23951e-06 9.63635e-05 5.3003e-06 -0.000349958 
-6.04931e-06 4.79716e-06 -2.33712e-05 -8.62986e-06 -2.78904e-06 -1.59213e-05 2.39628e-06 2.79564e-07 -3.62736e-05 
4.40895e-05 0.000192865 0.00717241 1.27093e-06 -3.71936e-06 -1.99284e-05 -2.22948e-05 0.000511835 -9.7717e-06 
1.04608e-05 5.68656e-07 -1.40583e-05 -8.18831e-06 -0.000217417 1.28901e-05 1.86298e-05 2.76224e-05 -8.65415e-05 
2.33659e-06 -0.000400568 -2.14439e-06 -5.43317e-06 0.000181907 -0.000167047 -2.5609e-05 0.000269966 -0.000415206 
0.00074298 0.000226645 -0.000100439 -4.49372e-06 -5.60707e-06 1.74727e-05 -0.000123904 1.34739e-05 -1.00023e-06 
9.18662e-06 1.30271e-06 8.57021e-06 -1.32321e-06 3.3752e-06 1.37754e-06 -4.56691e-06 -7.38217e-05 5.28642e-06 
1.22896e-05 -5.14481e-05 -1.18796e-06 4.77634e-06 8.93192e-06 0.000495535 4.9706e-07 9.67868e-06 -0.000119702 
-1.46065e-05 1.1475e-05 -6.53296e-07 -6.01231e-06 6.69895e-06 1.04447e-06 -9.45968e-07 1.29376e-05 7.09861e-07 
-4.46419e-05 -4.11417e-05 -6.71977e-06 1.68917e-06 -9.21943e-06 6.26415e-07 2.33849e-05 -1.8517e-05 -7.46004e-05 
-7.58124e-05 0.000921426 -3.60905e-05 -3.60018e-06 -1.42374e-05 0.00527615 6.64885e-06 0.00598267 0.000204844 
-9.81455e-06 -4.8551e-05 6.08848e-06 -0.00570977 1.51852e-06 6.71127e-07 0.00297996 0.000203694 0.00612058 
5.68857e-05 9.9585e-05 0.00996202 1.25445e-05 -0.02852 1.47849e-05 -3.02183e-06 5.92001e-06 -1.74688e-06 
-3.72221e-05 -2.74769e-05 -2.42505e-05 -2.67554e-06 -1.31024e-05 -7.01973e-07 8.60018e-06 -5.53861e-06 4.59069e-06 
-1.50514e-05 4.09731e-05 -9.87128e-06 3.15125e-06 6.25889e-06 3.97281e-06 -2.79457e-06 -6.54227e-06 0.00470908 
2.62004e-06 -5.36587e-05 -4.67705e-06 -3.5273e-06 1.64548e-06 6.17788e-06 -6.57286e-05 -1.18688e-05 5.49145e-05 
1.25167e-05 -0.000116512 3.91992e-06 6.94972e-07 0.00112451 -5.34417e-05 8.77294e-05 -6.14727e-06 -5.0908e-06 
-1.08292e-05 3.11149e-06 -1.1534e-05 -5.49351e-05 0.00089836 0.000257178 0.000833174 -0.00250677 3.53301e-05 
-1.08893e-06 4.36768e-06 -4.13568e-06 -2.74966e-06 5.36691e-06 -4.97882e-06 -3.03406e-06 1.36861e-05 2.71015e-06 
-4.14325e-05 1.70537e-05 1.14633e-05 1.00616e-06 -1.11406e-05 -5.1937e-06 -9.34097e-06 -2.70109e-06 -1.40053e-06 
-5.89681e-06 2.21982e-05 -2.83698e-05 -1.00229e-05 -1.53164e-05 -2.56256e-06 -3.76791e-06 -1.67032e-05 -3.09707e-05 
3.45457e-05 -9.73392e-05 5.0861e-05 -0.000564266 1.77015e-05 -1.22769e-05 -3.16088e-06 -3.93969e-06 -0.000366688 
3.45305e-05 9.72438e-06 0.000108255 -4.62898e-05 4.02433e-05 -1.63461e-06 -1.55487e-06 2.18979e-05 3.73089e-06 
0.000220828 0.000182655 0.000263481 -4.51268e-05 -1.49137e-06 3.18907e-05 2.73903e-05 2.31527e-06 -0.000384967 
-2.78893e-07 -0.000596748 6.62606e-06 0.00454386 0.00664457 8.42661e-06 -0.00012399 0.000121755 8.93909e-05 
-0.000417679 -7.36322e-06 -0.000494828 7.32449e-05 4.80307e-06 2.06229e-07 1.43536e-05 -6.28062e-06 4.50412e-05 
3.49843e-06 5.42427e-06 -7.77865e-06 0.000290592 -0.000118599 0.00028667 3.74672e-05 -3.69855e-06 -7.74587e-06 
-2.37411e-07 -2.65883e-06 -1.48836e-05 -0.000153917 2.90429e-05 0.000127428 -1.54979e-05 -3.03484e-06 -1.78476e-05 
-2.80588e-05 -2.2714e-05 0.0347697 -6.2015e-05 -2.40226e-05 -4.38984e-05 -1.21531e-05 -8.69796e-06 -3.6744e-06 
-3.03069e-06 -2.06372e-05 4.1035e-05 0.000119833 0.000169356 0.00026337 9.7002e-07 -0.000242254 0.00017954 
0.000144364 9.80853e-06 -1.46531e-05 -0.000280976 5.87534e-05 2.32319e-06 -1.71563e-06 -3.35396e-06 3.13616e-06 
-1.42964e-06 7.25447e-06 6.7516e-05 -1.24596e-05 8.51048e-06 -6.17371e-05 -3.90431e-06 -2.38292e-05 -1.90884e-05 
2.24549e-05 4.33018e-06 -0.000106649 0.000114521 -2.42634e-05 -3.37037e-05 8.3085e-06 -3.36331e-05 -2.03859e-05 
-4.09515e-05 2.42349e-05 -0.00013975 6.47948e-05 0.000192427 -1.41359e-06 -1.66991e-05 3.6419e-06 1.57076e-06 
-2.34369e-06 -1.2055e-05 1.14908e-05 6.58646e-05 2.37761e-05 4.00083e-05 -6.39236e-06 0.00601437 -5.86934e-05 
-0.000620083 -7.32276e-06 6.92683e-05 -2.3526e-05 -0.000119327 9.60719e-05 -1.32067e-05 9.11396e-07 5.36224e-05 
-0.000239819 7.74292e-06 -7.32266e-05 5.70136e-05 0.000199386 -2.75579e-06 -0.0058671 5.2176e-05 -7.44613e-06 
-4.41116e-06 -8.03721e-06 2.41509e-07 5.70674e-06 -1.49105e-05 -3.43607e-05 -7.05528e-06 1.99244e-06 4.33254e-05 
-8.26392e-06 -5.0297e-06 3.97887e-06 -1.54839e-05 2.4966e-05 -4.96032e-07 8.91259e-05 -5.52186e-05 -1.6248e-05 
-1.87433e-05 3.07573e-05 1.70154e-05 4.39139e-06 7.5423e-05 3.78108e-05 2.42747e-05 -1.11158e-05 -4.47946e-05 
-3.19578e-05 4.151e-05 1.47966e-05 2.00571e-05 1.91077e-06 -3.82484e-05 -4.36399e-05 6.40721e-06 -7.58743e-06 
-0.00924467 -4.75759e-05 3.82856e-05 -5.26552e-05 4.7607e-05 -8.1057e-06 -1.35198e-05 9.0013e-06 7.52588e-05 
-7.88952e-06 2.99662e-06 0.000127971 -2.38746e-05 -8.36601e-06 -3.15117e-06 1.91787e-05 8.80019e-06 1.46282e-05 
1.73395e-05 -3.04609e-06 -3.097e-06 -4.34077e-05 -1.27158e-05 1.51909e-06 -3.3506e-05 -2.02236e-05 -1.17947e-05 
-3.37834e-06 9.24143e-07 7.24341e-06 9.57541e-06 -6.5987e-06 2.29794e-05 6.4474e-06 8.1295e-06 -1.95712e-06 
-5.57744e-05 -0.000102275 0.000137803 -6.64466e-05 2.26257e-05 -0.000224783 0.000326121 0.000699529 0.000247261 
7.71348e-05 3.81e-05 0.0200174 1.15793e-06 6.47411e-05 -1.15694e-05 -5.85798e-06 0.000101926 -1.11325e-05 
-1.37032e-06 -1.26873e-06 -2.77318e-05 1.7774e-07 -3.74851e-06 -9.76255e-05 -9.11005e-06 -1.05147e-05 5.31228e-07 
0.00606924 -5.66107e-06 9.49405e-07 -7.55086e-06 2.84211e-06 -7.70052e-06 -0.00101712 -0.000102421 4.48104e-05 
-5.18703e-05 4.56324e-05 -6.33443e-06 -0.00571438 -3.2572e-07 4.80313e-06 -4.00636e-06 -3.99725e-07 2.09662e-06 
-5.71961e-06 -0.000226908 -1.17148e-05 -1.26392e-05 -3.84022e-06 -0.000102269 8.01526e-05 -2.02507e-05 -0.0309495 
0.0329446 -0.0356138 -2.52647e-05 6.24886e-05 -0.000154442 1.17949e-05 -4.24205e-06 -0.00596345 1.8009e-05 
-1.22893e-05 -1.34831e-05 -1.07889e-05 -2.30098e-05 2.93037e-06 5.47901e-06 1.35231e-06 -1.46034e-05 1.08815e-05 
4.41447e-06 0.000613279 4.56758e-05 -9.3439e-06 -1.32455e-05 0.000161688 -3.08195e-05 -6.10066e-06 2.99451e-05 
-5.39758e-06 0.000781226 2.63415e-05 -2.38254e-06 -0.000119502 2.50417e-05 2.4125e-06 5.13603e-06 4.28545e-06 
1.34281e-05 -9.63918e-05 -1.33825e-05 4.19101e-06 3.9745e-05 6.08196e-05 0.000150055 6.1973e-06 -9.28146e-06 
8.86861e-06 -3.0498e-05 1.55716e-05 -0.0318088 -1.75818e-06 -6.30577e-05 2.52759e-05 -0.000525256 3.11195e-05 
-0.000196899 4.55446e-05 -3.31971e-05 9.41051e-06 -6.45655e-06 -8.48454e-06 -1.66231e-05 -0.0142584 1.02273e-05 
3.3145e-05 -3.53631e-05 -2.49589e-06 2.2219e-05 -1.24665e-05 -2.51757e-05 -1.74064e-05 -3.88683e-06 -7.37078e-06 
8.04824e-05 -3.5721e-05 -6.24279e-05 2.79803e-05 -1.2983e-05 4.11438e-06 -4.35385e-05 -2.37109e-06 -0.0144084 
1.8967e-06 2.17685e-06 0.000124683 5.49717e-07 -1.365e-05 1.98175e-08 -0.00492286 0.000134963 0.0069782 
-8.12322e-06 3.2434e-05 1.79e-05 4.97571e-05 -1.47002e-05 2.16548e-05 -3.39911e-05 9.5367e-06 -2.46682e-06 
-3.16755e-06 -0.0306496 -0.0317478 -0.000171415 
Strain%20zz%20component 1 12442 double
1.27333e-06 -0.111717 -0.04671 1.2794e-06 -0.133422 -0.133349 -0.13339 -0.133355 -0.106144 
-0.0868715 -0.164562 -0.0732878 -0.111571 -0.0992771 -0.110201 -0.0641687 -0.111982 -0.0747423 
-0.061996 -0.0514365 -0.0344984 9.99222e-07 -0.0363831 -0.0349942 -0.0353875 -0.0368042 -0.0363127 
-0.0368032 -0.036836 -0.037223 -0.0374563 -0.0377398 -0.037724 -0.0363272 -0.036515 -0.035475 
-0.0353666 -0.0347049 -0.0347129 -0.0357633 -0.0367443 -0.0414352 -0.0490789 1.29116e-06 -0.000231011 
1.11507e-06 -0.0291013 -0.0447911 -0.0617244 -0.0376619 -0.0373608 -0.0391821 -0.0408235 -0.0397887 
-0.0385632 -0.0387416 -0.0369558 -0.0375356 -0.0378175 -0.0390629 -0.0395429 -0.0399785 -0.0388615 
-0.039581 -0.0389243 -0.0381089 -0.0377244 -0.038107 -0.0654856 -0.133433 -0.133364 -0.132975 
-0.132315 -0.131522 -0.130588 -0.129506 -0.128381 -0.127295 -0.126344 -0.125515 -0.124773 
-0.124345 -0.124182 -0.124322 -0.124734 -0.125449 -0.126261 -0.127328 -0.128579 -0.129664 
-0.130766 -0.131702 -0.132503 -0.133068 -0.133379 -0.133415 -0.252481 -0.134261 -0.1238 
-0.117821 -0.114097 -0.112165 -0.111211 -0.11094 -0.111084 -0.111638 -0.112489 -0.113679 
-0.115013 -0.116802 -0.118686 -0.12097 -0.123122 -0.125286 -0.127041 -0.12877 -0.130049 
-0.130992 -0.131603 -0.131826 -0.131722 -0.131251 -0.130546 -0.129676 -0.128779 -0.127886 
-0.127191 -0.126667 -0.126394 -0.126408 -0.126673 -0.127213 -0.12796 -0.128849 -0.129772 
-0.130744 -0.131661 -0.132421 -0.133044 -0.133374 -0.133384 -0.133432 -0.133354 -0.133037 
-0.132462 -0.131703 -0.130705 -0.129758 -0.128822 -0.127914 -0.127113 -0.126581 -0.12628 
-0.126283 -0.126575 -0.127095 -0.127844 -0.128715 -0.129729 -0.130593 -0.131283 -0.131658 
-0.131746 -0.131442 -0.130792 -0.129841 -0.128387 -0.126749 -0.124707 -0.12267 -0.120333 
-0.118398 -0.116358 -0.114708 -0.113268 -0.112205 -0.111317 -0.110852 -0.110799 -0.111208 
-0.112219 -0.114271 -0.117697 -0.12382 -0.138444 -0.313286 -0.0604643 -0.0685884 -0.0728601 
-0.0756183 -0.0768378 -0.077885 -0.0784417 -0.0778098 -0.0766145 -0.0753769 -0.0724992 -0.0683086 
-0.0459889 -0.059404 -0.0669613 -0.0723076 -0.0755553 -0.0791989 -0.0799097 -0.0800391 -0.079896 
-0.0786913 -0.0752952 -0.0722744 -0.06887 -0.066042 -0.133351 -0.13335 -0.133051 -0.132478 
-0.131696 -0.130785 -0.129689 -0.128593 -0.127502 -0.126312 -0.125359 -0.124711 -0.124313 
-0.124172 -0.124344 -0.124778 -0.125466 -0.12636 -0.127368 -0.128499 -0.129579 -0.130666 
-0.131593 -0.132426 -0.133001 -0.133369 -0.133453 -0.278074 -0.124016 -0.123317 -0.117808 
-0.114 -0.112189 -0.111144 -0.110788 -0.110868 -0.111368 -0.112244 -0.113408 -0.114899 
-0.11644 -0.118328 -0.120335 -0.122413 -0.124366 -0.126363 -0.128138 -0.129608 -0.130723 
-0.131439 -0.13182 -0.131808 -0.131473 -0.130882 -0.130006 -0.129121 -0.128239 -0.127436 
-0.126846 -0.1265 -0.126431 -0.12665 -0.127165 -0.127815 -0.128712 -0.129622 -0.130552 
-0.131484 -0.132333 -0.132946 -0.13336 -0.13342 -0.133458 -0.133341 -0.132942 -0.13229 
-0.131533 -0.130556 -0.129613 -0.128689 -0.127803 -0.127098 -0.12659 -0.126313 -0.126362 
-0.126688 -0.127283 -0.128059 -0.128984 -0.12995 -0.130749 -0.131411 -0.131734 -0.131677 
-0.131251 -0.130427 -0.129164 -0.127746 -0.126005 -0.12389 -0.121908 -0.119845 -0.11769 
-0.115808 -0.114242 -0.112944 -0.111894 -0.111178 -0.110772 -0.110728 -0.111202 -0.112279 
-0.114274 -0.117927 -0.123799 -0.136794 -0.176974 -0.0458556 -0.067556 -0.0721627 -0.075265 
-0.0786861 -0.0797418 -0.0802492 -0.0799301 -0.0788855 -0.0756499 -0.0727573 -0.067893 -0.0652452 
-0.0617528 -0.0697358 -0.0734866 -0.0761608 -0.0771534 -0.0780291 -0.0780885 -0.0774634 -0.0761833 
-0.0748614 -0.0716068 -0.0648905 -0.0545923 -0.133127 -0.132849 -0.132386 -0.131792 -0.131094 
-0.130329 -0.129469 -0.128649 -0.127847 -0.127113 -0.126554 -0.126138 -0.125898 -0.125881 
-0.126095 -0.126527 -0.127078 -0.127787 -0.128631 -0.129502 -0.130361 -0.131151 -0.131829 
-0.132404 -0.132809 -0.133067 -0.133237 -0.178407 -0.145106 -0.1328 -0.125617 -0.121708 
-0.119009 -0.117627 -0.116892 -0.11641 -0.116556 -0.11702 -0.117673 -0.118609 -0.119789 
-0.121173 -0.122647 -0.124024 -0.125405 -0.126653 -0.12771 -0.128553 -0.129199 -0.129587 
-0.129726 -0.129609 -0.12938 -0.129028 -0.128535 -0.128032 -0.127633 -0.127321 -0.127171 
-0.127206 -0.127416 -0.127784 -0.128296 -0.128911 -0.129634 -0.130399 -0.131135 -0.131772 
-0.132351 -0.132769 -0.13306 -0.132778 -0.132369 -0.131777 -0.131077 -0.130296 -0.129529 
-0.128811 -0.12812 -0.127586 -0.127234 -0.127051 -0.127069 -0.127251 -0.127573 -0.128043 
-0.128547 -0.12899 -0.129343 -0.129537 -0.129595 -0.129426 -0.129071 -0.128436 -0.127437 
-0.126269 -0.124964 -0.123516 -0.121964 -0.120594 -0.119234 -0.118078 -0.117164 -0.11644 
-0.115988 -0.115883 -0.11645 -0.117597 -0.119353 -0.121735 -0.1259 -0.133669 -0.146425 
-0.207417 -0.239015 -0.229376 -0.223345 -0.197123 -0.1698 -0.196936 -0.197347 -0.19761 
-0.198561 -0.199637 -0.20017 -0.200604 -0.201698 -0.202138 -0.201142 -0.199671 -0.198246 
-0.19752 -0.196512 -0.195612 -0.195016 -0.195761 -0.198876 -0.205253 -0.21446 -0.213086 
-0.121662 -0.0972192 -0.0952699 -0.0946451 -0.0950754 -0.0955665 -0.095731 -0.0958182 -0.0955624 
-0.0952087 -0.0954769 -0.0966796 -0.102039 -0.13737 -0.21038 -0.132427 -0.0988497 -0.0941712 
-0.0942779 -0.094632 -0.0948493 -0.0951754 -0.0951595 -0.0948879 -0.0944121 -0.0939985 -0.0941647 
-0.0974866 -0.117243 -0.174501 -0.17021 -0.17715 -0.19046 -0.173233 -0.132393 -0.131919 
-0.131433 -0.130912 -0.130307 -0.129658 -0.129055 -0.128532 -0.128117 -0.127746 -0.127505 
-0.127427 -0.127461 -0.127724 -0.128027 -0.128443 -0.129038 -0.129674 -0.130296 -0.130884 
-0.131421 -0.131886 -0.132286 -0.132653 -0.108254 -0.167118 -0.146982 -0.137572 -0.131924 
-0.12798 -0.124994 -0.122939 -0.121888 -0.121241 -0.120972 -0.120926 -0.121205 -0.121606 
-0.122245 -0.122957 -0.123653 -0.12443 -0.125204 -0.125875 -0.126427 -0.126908 -0.127283 
-0.127578 -0.127794 -0.127854 -0.127814 -0.12774 -0.127662 -0.127566 -0.127551 -0.127611 
-0.127752 -0.128003 -0.128335 -0.128746 -0.129204 -0.129731 -0.130289 -0.130872 -0.131362 
-0.131831 -0.132254 -0.132656 -0.138057 -0.162962 -0.132323 -0.131853 -0.131327 -0.130742 
-0.130133 -0.129568 -0.129012 -0.128534 -0.128141 -0.12782 -0.127606 -0.127494 -0.12747 
-0.127494 -0.127576 -0.127663 -0.127686 -0.127633 -0.127616 -0.127478 -0.127235 -0.12686 
-0.126268 -0.125552 -0.124794 -0.123969 -0.123128 -0.122321 -0.121628 -0.121037 -0.120551 
-0.120242 -0.120248 -0.120755 -0.12177 -0.123281 -0.1253 -0.128229 -0.132536 -0.139424 
-0.150606 -0.170064 -0.166108 -0.165054 -0.164611 -0.164339 -0.163754 -0.165062 -0.166283 
-0.166939 -0.167498 -0.168088 -0.1682 -0.168202 -0.168054 -0.167757 -0.16719 -0.166535 
-0.165663 -0.165029 -0.16419 -0.163617 -0.163495 -0.164173 -0.173649 -0.118541 -0.0996685 
-0.0992219 -0.0990859 -0.0988472 -0.0990668 -0.0997501 -0.100879 -0.103705 -0.111053 -0.125485 
-0.145242 -0.13705 -0.139864 -0.121401 -0.099123 -0.0982252 -0.097951 -0.0976454 -0.0975496 
-0.0977606 -0.0984824 -0.100629 -0.106523 -0.117789 -0.17392 -0.10204 -0.10829 -0.101849 
-0.13282 -0.155419 -0.151876 -0.149675 -0.154042 -0.11977 -0.126983 -0.131657 -0.131266 
-0.130908 -0.130482 -0.130131 -0.129777 -0.129457 -0.129224 -0.129044 -0.128967 -0.129005 
-0.129091 -0.129205 -0.129383 -0.129688 -0.130072 -0.13048 -0.13086 -0.131214 -0.131551 
-0.131907 -0.147947 -0.141385 -0.136211 -0.132718 -0.129587 -0.127481 -0.126258 -0.125413 
-0.124789 -0.124319 -0.124144 -0.123982 -0.123866 -0.123892 -0.124013 -0.124188 -0.124404 
-0.124656 -0.124922 -0.125167 -0.125397 -0.125621 -0.125883 -0.126256 -0.126589 -0.126847 
-0.127096 -0.127394 -0.127704 -0.128065 -0.128457 -0.128852 -0.129208 -0.129577 -0.129969 
-0.130377 -0.130792 -0.131166 -0.131485 -0.131796 -0.132104 -0.104778 -0.158816 -0.155499 
-0.137166 -0.131487 -0.131088 -0.130662 -0.130235 -0.129821 -0.129399 -0.129065 -0.128634 
-0.128264 -0.127935 -0.127578 -0.127215 -0.126856 -0.126566 -0.1263 -0.125896 -0.125669 
-0.125427 -0.1253 -0.125106 -0.12484 -0.124532 -0.124215 -0.123949 -0.123751 -0.123621 
-0.123533 -0.123543 -0.123612 -0.12378 -0.124151 -0.125241 -0.126495 -0.128418 -0.130645 
-0.133319 -0.137226 -0.142738 -0.151714 -0.158364 -0.152427 -0.111526 -0.159095 -0.159873 
-0.160618 -0.161713 -0.162856 -0.163925 -0.164749 -0.165461 -0.165933 -0.166074 -0.165955 
-0.165531 -0.164894 -0.164101 -0.163276 -0.162288 -0.161228 -0.160331 -0.158893 -0.15708 
-0.133318 -0.156877 -0.104082 -0.105993 -0.104126 -0.104893 -0.106565 -0.109297 -0.11338 
-0.12217 -0.142103 -0.141374 -0.131039 -0.158128 -0.104339 -0.102227 -0.102436 -0.103464 
-0.106051 -0.110431 -0.117444 -0.163589 -0.136531 -0.131899 -0.106714 -0.103044 -0.102497 
-0.150991 -0.132291 -0.142622 -0.141554 -0.127401 -0.152377 -0.111986 -0.118563 -0.14561 
-0.147165 -0.106918 -0.142905 -0.126878 -0.131257 -0.131034 -0.130924 -0.13087 -0.130764 
-0.130592 -0.130559 -0.130555 -0.130593 -0.130641 -0.130593 -0.130577 -0.130615 -0.130728 
-0.130917 -0.131067 -0.131201 -0.13136 -0.131582 -0.150589 -0.134918 -0.134268 -0.108967 
-0.129804 -0.14394 -0.139636 -0.136152 -0.133282 -0.131435 -0.130242 -0.12898 -0.127888 
-0.127086 -0.126314 -0.125529 -0.124783 -0.124159 -0.123609 -0.123234 -0.123034 -0.122972 
-0.122982 -0.123063 -0.123248 -0.123661 -0.124219 -0.124932 -0.125734 -0.126121 -0.12679 
-0.12747 -0.128113 -0.128788 -0.129352 -0.12979 -0.130107 -0.130431 -0.130711 -0.130945 
-0.131142 -0.131309 -0.131458 -0.150468 -0.108181 -0.151462 -0.109546 -0.131068 -0.130829 
-0.13053 -0.130203 -0.130116 -0.129707 -0.129032 -0.128637 -0.128043 -0.127296 -0.126472 
-0.125644 -0.125213 -0.124259 -0.123561 -0.123328 -0.123179 -0.123026 -0.123081 -0.123093 
-0.123154 -0.123381 -0.123761 -0.124334 -0.124974 -0.125645 -0.126279 -0.127005 -0.127712 
-0.128932 -0.130788 -0.132967 -0.135088 -0.137615 -0.141009 -0.145423 -0.118535 -0.14753 
-0.15518 -0.156508 -0.158131 -0.159472 -0.160629 -0.161752 -0.162638 -0.162991 -0.162882 
-0.162413 -0.161756 -0.160917 -0.159979 -0.158639 -0.157398 -0.156118 -0.155233 -0.146913 
-0.131309 -0.109327 -0.111075 -0.11052 -0.11283 -0.115812 -0.120584 -0.138371 -0.123463 
-0.106691 -0.112856 -0.117471 -0.129801 -0.142952 -0.107404 -0.153843 -0.133563 -0.109589 
-0.123899 -0.142534 -0.137068 -0.11949 -0.125599 -0.107264 -0.112927 -0.149068 -0.110306 
-0.153436 -0.132738 -0.137454 -0.1556 -0.137757 -0.106624 -0.156618 -0.137748 -0.131404 
-0.131722 -0.132258 -0.131775 -0.131964 -0.132076 -0.132147 -0.132316 -0.132421 -0.131879 
-0.131953 -0.131576 -0.13158 -0.131468 -0.13138 -0.131275 -0.132615 -0.114495 -0.130086 
-0.150251 -0.145977 -0.142513 -0.139418 -0.136174 -0.135423 -0.133876 -0.132057 -0.130519 
-0.129321 -0.12793 -0.126282 -0.124722 -0.123412 -0.122285 -0.121471 -0.121085 -0.120829 
-0.120637 -0.120627 -0.12101 -0.121736 -0.122868 -0.124372 -0.125555 -0.126831 -0.127871 
-0.128841 -0.129761 -0.130541 -0.130939 -0.130992 -0.131362 -0.1314 -0.131343 -0.131303 
-0.130333 -0.152766 -0.113885 -0.137726 -0.131158 -0.131113 -0.131367 -0.130066 -0.128997 
-0.127994 -0.126606 -0.124959 -0.123363 -0.121434 -0.120115 -0.121053 -0.120597 -0.120645 
-0.12138 -0.121352 -0.121999 -0.12289 -0.124171 -0.125562 -0.127047 -0.128619 -0.129969 
-0.131247 -0.131742 -0.134466 -0.137008 -0.138965 -0.141449 -0.1446 -0.151055 -0.111066 
-0.133647 -0.131322 -0.141712 -0.142339 -0.152931 -0.155276 -0.155972 -0.157551 -0.158933 
-0.160148 -0.159634 -0.159409 -0.158592 -0.157547 -0.156701 -0.155349 -0.153618 -0.151782 
-0.115657 -0.11507 -0.117579 -0.124063 -0.140757 -0.120193 -0.151028 -0.125949 -0.140817 
-0.114352 -0.126561 -0.112902 -0.122766 -0.131299 -0.128078 -0.148313 -0.136111 -0.153944 
-0.132643 -0.134288 -0.119981 -0.14732 -0.145512 -0.121749 -0.112611 -0.123651 -0.110782 
-0.13452 -0.111777 -0.116996 -0.112137 -0.117962 -0.119606 -0.154925 -0.115283 -0.1322 
-0.132853 -0.133184 -0.133521 -0.133768 -0.133814 -0.134597 -0.133608 -0.132871 -0.132196 
-0.131806 -0.115837 -0.128214 -0.14812 -0.144989 -0.141206 -0.137029 -0.13431 -0.133203 
-0.128737 -0.12354 -0.121762 -0.119567 -0.118999 -0.118509 -0.117933 -0.117685 -0.117805 
-0.118453 -0.121793 -0.12384 -0.125782 -0.127454 -0.128693 -0.129907 -0.132294 -0.132387 
-0.131931 -0.111006 -0.117194 -0.11938 -0.127452 -0.13054 -0.132255 -0.135064 -0.136199 
-0.140423 -0.143382 -0.144493 -0.147779 -0.138708 -0.134389 -0.152918 -0.155621 -0.156506 
-0.156614 -0.156428 -0.154387 -0.153249 -0.152699 -0.150241 -0.134651 -0.13152 -0.138395 
-0.151788 -0.131927 -0.132716 -0.118536 -0.134026 -0.139235 -0.13121 -0.125957 -0.119737 
-0.131839 -0.131325 -0.138353 -0.147629 -0.150224 -0.117982 -0.120842 -0.122992 -0.125359 
-0.136781 -0.114518 -0.114858 -0.136482 -0.154712 -0.135367 -0.116 -0.14806 -0.149971 
-0.14472 -0.114483 -0.135186 -0.116177 -0.136002 -0.132755 -0.142155 -0.115006 -0.133125 
-0.132826 -0.132407 -0.131851 -0.131131 -0.13036 -0.129532 -0.128739 -0.127852 -0.127129 
-0.126555 -0.12611 -0.125888 -0.125928 -0.126167 -0.126592 -0.127178 -0.127884 -0.1287 
-0.129512 -0.130315 -0.13111 -0.131756 -0.132351 -0.13281 -0.133107 -0.133279 -0.20399 
-0.146676 -0.135484 -0.127924 -0.123256 -0.12029 -0.118308 -0.117234 -0.116841 -0.116741 
-0.117117 -0.117835 -0.118672 -0.119704 -0.12099 -0.122322 -0.123613 -0.124898 -0.126039 
-0.127156 -0.128066 -0.128709 -0.129179 -0.129386 -0.129384 -0.129211 -0.128936 -0.128539 
-0.128139 -0.12774 -0.127448 -0.127291 -0.127292 -0.127481 -0.12783 -0.128326 -0.128947 
-0.129628 -0.130363 -0.131064 -0.131721 -0.132302 -0.132766 -0.133056 -0.132774 -0.132272 
-0.13166 -0.130983 -0.130203 -0.129451 -0.128765 -0.128133 -0.127628 -0.127289 -0.127092 
-0.127122 -0.127322 -0.12771 -0.128169 -0.128635 -0.129097 -0.129422 -0.129613 -0.129543 
-0.12928 -0.128744 -0.12797 -0.126983 -0.125815 -0.124444 -0.123026 -0.121559 -0.120173 
-0.118824 -0.117763 -0.116904 -0.116235 -0.11603 -0.116153 -0.116721 -0.117645 -0.119412 
-0.121977 -0.1263 -0.133819 -0.147646 -0.167023 -0.175108 -0.176334 -0.173846 -0.200203 
-0.219027 -0.199279 -0.199298 -0.201282 -0.202233 -0.201773 -0.202758 -0.202219 -0.201985 
-0.201551 -0.201959 -0.201789 -0.201523 -0.201454 -0.200538 -0.199802 -0.20028 -0.200788 
-0.201655 -0.204278 -0.208752 -0.222275 -0.295393 -0.121805 -0.099255 -0.0936171 -0.0937955 
-0.0944822 -0.0951442 -0.095717 -0.0957222 -0.0957561 -0.0954342 -0.0952241 -0.095878 -0.0993642 
-0.12122 -0.302633 -0.116001 -0.0993084 -0.0960307 -0.0956448 -0.0957054 -0.0958024 -0.0957994 
-0.0956283 -0.0950583 -0.0944733 -0.0937975 -0.0935722 -0.0978784 -0.124687 -0.168096 -0.189148 
-0.133114 -0.198973 -0.192868 -0.132326 -0.132718 -0.131427 -0.130855 -0.130295 -0.129725 
-0.129196 -0.128631 -0.128157 -0.12784 -0.127637 -0.127502 -0.127632 -0.127876 -0.128208 
-0.128666 -0.129177 -0.12972 -0.130289 -0.130851 -0.131356 -0.131851 -0.132291 -0.132673 
-0.141771 -0.132588 -0.177817 -0.152192 -0.167131 -0.134813 -0.130034 -0.126742 -0.124568 
-0.123078 -0.122254 -0.121655 -0.121393 -0.121465 -0.121789 -0.12229 -0.122846 -0.123466 
-0.124073 -0.124657 -0.125228 -0.125783 -0.126263 -0.126616 -0.126867 -0.127071 -0.127239 
-0.127398 -0.127461 -0.127487 -0.127522 -0.12761 -0.127726 -0.1279 -0.12817 -0.128507 
-0.128879 -0.129315 -0.129824 -0.130352 -0.130853 -0.13136 -0.131837 -0.132272 -0.119649 
-0.170132 -0.13657 -0.132212 -0.13176 -0.131236 -0.130688 -0.130106 -0.129577 -0.129055 
-0.128575 -0.128192 -0.127872 -0.127657 -0.127551 -0.127527 -0.127559 -0.12762 -0.127684 
-0.127709 -0.127672 -0.127562 -0.127337 -0.127028 -0.126564 -0.125955 -0.125255 -0.124505 
-0.123669 -0.122821 -0.1221 -0.121442 -0.120828 -0.120498 -0.120343 -0.120619 -0.121277 
-0.12208 -0.123393 -0.125474 -0.128198 -0.132776 -0.139118 -0.150246 -0.167489 -0.164206 
-0.162532 -0.16466 -0.165438 -0.164796 -0.165266 -0.16589 -0.166712 -0.167348 -0.167794 
-0.168234 -0.168278 -0.168046 -0.16763 -0.167155 -0.166525 -0.165972 -0.165286 -0.16455 
-0.163822 -0.163215 -0.162804 -0.163578 -0.137528 -0.143129 -0.178906 -0.106661 -0.101338 
-0.0996646 -0.0987477 -0.0985587 -0.0986979 -0.0989506 -0.0993399 -0.100992 -0.103838 -0.109023 
-0.122996 -0.107173 -0.102642 -0.100776 -0.0997066 -0.0992932 -0.0990177 -0.0988735 -0.0991339 
-0.0997286 -0.1017 -0.107149 -0.119888 -0.169816 -0.13193 -0.118471 -0.143238 -0.158539 
-0.154916 -0.141753 -0.15661 -0.150591 -0.160543 -0.130522 -0.131224 -0.130178 -0.129851 
-0.129584 -0.12934 -0.129189 -0.129121 -0.129137 -0.129243 -0.129419 -0.129655 -0.12989 
-0.130203 -0.130527 -0.130844 -0.131183 -0.131532 -0.131874 -0.132225 -0.159901 -0.140054 
-0.129365 -0.153964 -0.146191 -0.132526 -0.129948 -0.127974 -0.126701 -0.125765 -0.125062 
-0.124596 -0.124279 -0.124122 -0.124039 -0.123932 -0.123864 -0.123828 -0.123884 -0.123932 
-0.124105 -0.124354 -0.124648 -0.124973 -0.125365 -0.125832 -0.126316 -0.126804 -0.127295 
-0.127784 -0.128256 -0.128701 -0.129097 -0.129444 -0.129801 -0.130184 -0.130551 -0.130865 
-0.13118 -0.131502 -0.13185 -0.128551 -0.131049 -0.130641 -0.130275 -0.129898 -0.129494 
-0.129084 -0.128682 -0.128278 -0.127917 -0.127582 -0.127227 -0.126873 -0.126512 -0.126123 
-0.125801 -0.125588 -0.125295 -0.125077 -0.124831 -0.124637 -0.124369 -0.124084 -0.123901 
-0.123642 -0.123476 -0.123631 -0.123691 -0.123623 -0.123928 -0.124787 -0.125712 -0.126858 
-0.128249 -0.130522 -0.133579 -0.13796 -0.144006 -0.150889 -0.160063 -0.159762 -0.127693 
-0.141258 -0.140421 -0.160639 -0.161098 -0.162521 -0.163764 -0.164659 -0.165136 -0.165658 
-0.166071 -0.166054 -0.165639 -0.165002 -0.16421 -0.163434 -0.162354 -0.160824 -0.159293 
-0.157643 -0.155993 -0.154346 -0.118637 -0.137221 -0.135822 -0.166152 -0.111625 -0.107859 
-0.105732 -0.104462 -0.103943 -0.10402 -0.104777 -0.106154 -0.109332 -0.114364 -0.111823 
-0.151111 -0.108118 -0.106117 -0.105085 -0.10444 -0.104326 -0.104754 -0.105811 -0.108058 
-0.112 -0.118926 -0.156298 -0.130844 -0.131444 -0.118343 -0.131835 -0.131582 -0.149078 
-0.130367 -0.146884 -0.1543 -0.145369 -0.142483 -0.119979 -0.154638 -0.130997 -0.130797 
-0.130673 -0.130651 -0.130697 -0.130752 -0.130808 -0.130885 -0.130979 -0.130953 -0.131002 
-0.1311 -0.131205 -0.131347 -0.13155 -0.118637 -0.124707 -0.130671 -0.132749 -0.134525 
-0.137155 -0.131033 -0.129719 -0.128421 -0.127326 -0.126271 -0.125292 -0.124439 -0.123555 
-0.12278 -0.122121 -0.121664 -0.121511 -0.121532 -0.12179 -0.122224 -0.122778 -0.123493 
-0.124436 -0.125534 -0.126548 -0.127461 -0.12838 -0.129149 -0.129752 -0.130189 -0.130447 
-0.130728 -0.130983 -0.131111 -0.131216 -0.131316 -0.131444 -0.13018 -0.144499 -0.156962 
-0.124097 -0.158292 -0.135001 -0.130873 -0.13109 -0.130442 -0.130117 -0.129656 -0.129117 
-0.128527 -0.127924 -0.127253 -0.126436 -0.125593 -0.124759 -0.124065 -0.123506 -0.12308 
-0.122893 -0.122778 -0.122804 -0.123013 -0.123127 -0.12352 -0.12384 -0.124164 -0.125085 
-0.12594 -0.126528 -0.127202 -0.128528 -0.129868 -0.131245 -0.132793 -0.134742 -0.138064 
-0.142109 -0.14709 -0.137461 -0.154125 -0.154463 -0.131847 -0.137442 -0.149481 -0.142682 
-0.155778 -0.159197 -0.16121 -0.161303 -0.161942 -0.162723 -0.163118 -0.162703 -0.161906 
-0.161049 -0.160109 -0.15883 -0.157092 -0.154634 -0.152158 -0.124471 -0.130829 -0.131267 
-0.131874 -0.131291 -0.130939 -0.146874 -0.112821 -0.110547 -0.109295 -0.108922 -0.109102 
-0.110666 -0.113196 -0.117356 -0.118623 -0.111892 -0.110366 -0.109526 -0.109306 -0.109731 
-0.110559 -0.112269 -0.115068 -0.119424 -0.147535 -0.157723 -0.115192 -0.114563 -0.13943 
-0.152796 -0.131215 -0.14061 -0.137458 -0.141539 -0.123659 -0.131078 -0.144383 -0.139759 
-0.148572 -0.145296 -0.149496 -0.132363 -0.132207 -0.132548 -0.132183 -0.132436 -0.132133 
-0.131675 -0.131572 -0.131399 -0.131299 -0.123959 -0.151058 -0.136834 -0.132825 -0.130544 
-0.129505 -0.127456 -0.126037 -0.124083 -0.122122 -0.120535 -0.11946 -0.118591 -0.118247 
-0.118262 -0.118513 -0.11925 -0.120405 -0.121765 -0.123454 -0.125332 -0.126818 -0.128207 
-0.129501 -0.130578 -0.131264 -0.131535 -0.131475 -0.13163 -0.131607 -0.131501 -0.131331 
-0.131302 -0.131313 -0.134349 -0.131374 -0.131315 -0.130901 -0.130226 -0.129413 -0.128805 
-0.127865 -0.12653 -0.125148 -0.123681 -0.122196 -0.121143 -0.120564 -0.120077 -0.119886 
-0.120337 -0.120888 -0.121778 -0.122293 -0.124512 -0.127142 -0.128949 -0.129508 -0.13152 
-0.133624 -0.135427 -0.137257 -0.138932 -0.140704 -0.146096 -0.127162 -0.127846 -0.132092 
-0.154226 -0.137672 -0.153305 -0.158164 -0.159011 -0.16023 -0.160313 -0.159004 -0.158277 
-0.157068 -0.155458 -0.154412 -0.150954 -0.147759 -0.15376 -0.155733 -0.157074 -0.122799 
-0.130358 -0.132102 -0.138786 -0.115408 -0.116626 -0.113767 -0.115155 -0.112882 -0.114032 
-0.115893 -0.118999 -0.122559 -0.134711 -0.131926 -0.132688 -0.140466 -0.114471 -0.114179 
-0.114145 -0.114821 -0.115966 -0.117938 -0.12051 -0.132587 -0.132124 -0.134534 -0.148843 
-0.13493 -0.126524 -0.144835 -0.131734 -0.13802 -0.140227 -0.137822 -0.131497 -0.116989 
-0.1229 -0.139184 -0.118287 -0.131904 -0.120459 -0.119383 -0.143925 -0.141907 -0.141322 
-0.134379 -0.126442 -0.133751 -0.132602 -0.131724 -0.133941 -0.154756 -0.131414 -0.132963 
-0.133371 -0.132804 -0.132389 -0.132119 -0.132546 -0.137544 -0.131802 -0.132623 -0.130318 
-0.131999 -0.129435 -0.132957 -0.136342 -0.13923 -0.141444 -0.143063 -0.144997 -0.136114 
-0.149594 -0.136483 -0.148875 -0.129233 -0.154262 -0.134376 -0.155859 -0.155105 -0.152877 
-0.15013 -0.144727 -0.143646 -0.154201 -0.156 -0.134189 -0.133082 -0.152208 -0.139676 
-0.137801 -0.132772 -0.134671 -0.127608 -0.130417 -0.125382 -0.123332 -0.117428 -0.11797 
-0.119736 -0.157041 -0.150483 -0.116745 -0.135371 -0.136938 -0.142663 -0.15231 -0.133444 
-0.146049 -0.146943 -0.152571 -0.134476 -0.148683 -0.109466 1.27333e-06 1.2794e-06 -0.131709 
-0.078675 -0.0723658 -0.0662423 7.87921e-07 8.16909e-07 8.00154e-07 7.92896e-07 8.07038e-07 8.23144e-07 
8.31805e-07 8.27398e-07 8.15603e-07 8.20586e-07 8.08161e-07 8.1461e-07 8.12786e-07 8.19821e-07 8.2233e-07 
8.2463e-07 8.12016e-07 8.19513e-07 8.17042e-07 8.13978e-07 8.24008e-07 8.46359e-07 8.45255e-07 1.2794e-06 
1.27333e-06 8.70618e-07 8.33357e-07 8.39252e-07 7.76247e-07 -0.0647277 8.00293e-07 7.83223e-07 7.91949e-07 
8.06954e-07 7.9894e-07 8.09491e-07 8.06145e-07 8.12403e-07 8.1603e-07 8.16157e-07 8.11916e-07 7.95634e-07 
8.00904e-07 7.86507e-07 7.85579e-07 7.80869e-07 7.8311e-07 8.05085e-07 8.20169e-07 8.71044e-07 1.0765e-06 
-0.133408 -0.133421 -0.133193 -0.132666 -0.131938 -0.131071 -0.130059 -0.128947 -0.127835 
-0.12681 -0.12592 -0.125098 -0.124558 -0.124229 -0.124219 -0.124497 -0.125061 -0.12585 
-0.126773 -0.127959 -0.129129 -0.13022 -0.131245 -0.132121 -0.132792 -0.133242 -0.133403 
-0.133412 -0.189823 -0.152811 -0.128117 -0.120259 -0.115644 -0.11293 -0.111546 -0.110965 
-0.110928 -0.111294 -0.112007 -0.113028 -0.114327 -0.115879 -0.117704 -0.119798 -0.122038 
-0.124216 -0.126192 -0.127945 -0.129458 -0.130571 -0.131348 -0.131765 -0.13182 -0.13153 
-0.130931 -0.130128 -0.129232 -0.128324 -0.127516 -0.126901 -0.126496 -0.12636 -0.126502 
-0.12691 -0.127561 -0.128388 -0.129301 -0.130255 -0.131209 -0.132058 -0.132757 -0.133238 
-0.133395 -0.133371 -0.133415 -0.133403 -0.133217 -0.132768 -0.132098 -0.131215 -0.130233 
-0.129285 -0.128354 -0.127491 -0.12682 -0.126395 -0.126245 -0.126392 -0.1268 -0.127443 
-0.128261 -0.129224 -0.13018 -0.13097 -0.131512 -0.131753 -0.131646 -0.131167 -0.130366 
-0.129161 -0.12761 -0.12576 -0.123704 -0.121501 -0.119355 -0.117351 -0.1155 -0.113948 
-0.1127 -0.111713 -0.111029 -0.110753 -0.11091 -0.111587 -0.113064 -0.11572 -0.120327 
-0.128506 -0.161326 -0.233541 -0.108252 -0.063976 -0.0641835 -0.0700091 -0.0737594 -0.0748151 
-0.0762072 -0.0769065 -0.0769038 -0.0761195 -0.0761099 -0.0734567 -0.0699796 -0.0604917 -0.0673175 
-0.138063 -0.065205 -0.0622037 -0.0691159 -0.0733693 -0.0762483 -0.0781085 -0.0788337 -0.0787876 
-0.078054 -0.0761285 -0.0732188 -0.0694523 -0.064514 -0.0584578 -0.133347 -0.133401 -0.133203 
-0.132787 -0.132105 -0.131253 -0.130243 -0.129138 -0.128039 -0.126894 -0.125793 -0.125023 
-0.124479 -0.124207 -0.12422 -0.124526 -0.125117 -0.12588 -0.12686 -0.127931 -0.129046 
-0.130134 -0.131148 -0.132034 -0.132748 -0.133204 -0.133435 -0.133397 -0.234655 -0.152557 
-0.126949 -0.11997 -0.115492 -0.112878 -0.111509 -0.110852 -0.110748 -0.11106 -0.111764 
-0.11279 -0.114081 -0.115693 -0.117367 -0.119317 -0.121378 -0.123404 -0.1254 -0.127302 
-0.128935 -0.130233 -0.131149 -0.131695 -0.131872 -0.131692 -0.131218 -0.130467 -0.129564 
-0.128667 -0.127808 -0.127099 -0.126625 -0.126413 -0.126494 -0.126868 -0.127461 -0.128246 
-0.129161 -0.130089 -0.131031 -0.131932 -0.132667 -0.133181 -0.133425 -0.133363 -0.133404 
-0.133431 -0.133161 -0.132635 -0.131928 -0.131056 -0.13009 -0.12915 -0.128237 -0.127433 
-0.12682 -0.126416 -0.126298 -0.126485 -0.126949 -0.12764 -0.128497 -0.129461 -0.130354 
-0.131102 -0.131601 -0.131758 -0.131515 -0.130894 -0.129851 -0.1285 -0.12692 -0.124977 
-0.122922 -0.120887 -0.11877 -0.116735 -0.115007 -0.113569 -0.112394 -0.1115 -0.110939 
-0.110704 -0.110909 -0.111653 -0.113137 -0.115938 -0.120707 -0.129432 -0.154234 -0.256818 
-0.0693419 -0.0618528 -0.0644123 -0.0698943 -0.0731642 -0.0760817 -0.0779987 -0.0788254 -0.078964 
-0.0782913 -0.0764873 -0.0736577 -0.0699278 -0.0646525 -0.0550269 -0.0581793 -0.0533201 -0.0668686 
-0.071033 -0.0745956 -0.0752866 -0.0765612 -0.0770267 -0.0766986 -0.075651 -0.0755917 -0.0730063 
-0.0670113 -0.0576142 -0.0619512 -0.133377 -0.133378 -0.0762735 -0.0735372 -0.0925912 -0.0882171 
1.18519e-06 -0.0489602 1.40076e-06 8.63895e-07 -8.94554e-05 8.39576e-07 8.06596e-07 1.11507e-06 0.000954212 
-0.0324033 -0.00274992 8.03373e-07 1.05999e-06 -0.0351513 -0.00549976 -0.0310779 -0.00513555 -0.0288868 
-0.00923411 -0.0267949 -0.0136314 -0.0269084 -0.0100246 -0.0279242 -0.0111106 -0.0257233 -0.0121918 
-0.0268159 -0.0106754 -0.0257489 -0.0111888 -0.0258006 -0.0130045 -0.0229578 -0.0166474 -0.0204722 
-0.0169377 -0.0197236 -0.0198177 -0.0186415 -0.018196 -0.0177513 -0.0200297 -0.0163831 -0.0215281 
-0.0137012 -0.0231761 -0.0109807 -0.0275675 -0.0065581 -0.0296409 -0.00926898 -0.0363966 -0.00694411 
-0.133378 -0.133278 -0.133216 -0.133107 -0.132898 -0.132988 -0.132671 -0.132343 -0.132639 
-0.132048 -0.131653 -0.132102 -0.131302 -0.13084 -0.131446 -0.130455 -0.129919 -0.130713 
-0.129487 -0.128929 -0.129897 -0.128521 -0.127981 -0.129048 -0.127576 -0.127113 -0.12823 
-0.126728 -0.126327 -0.127479 -0.126043 -0.125685 -0.126815 -0.125454 -0.125269 -0.126325 
-0.125132 -0.125063 -0.125995 -0.125049 -0.125125 -0.125855 -0.125226 -0.125437 -0.125953 
-0.125652 -0.125987 -0.126275 -0.126288 -0.126679 -0.126795 -0.127041 -0.127551 -0.127411 
-0.127988 -0.12859 -0.128199 -0.129046 -0.129572 -0.129071 -0.130007 -0.130556 -0.12994 
-0.130951 -0.131414 -0.130778 -0.131754 -0.132154 -0.131509 -0.132443 -0.132717 -0.132138 
-0.132947 -0.133082 -0.132612 -0.133223 -0.133246 -0.132941 -0.133325 -0.133325 -0.133341 
-0.133146 -0.19666 -0.189697 -0.156372 -0.141108 -0.135008 -0.157313 -0.128621 -0.125555 
-0.137943 -0.121977 -0.120012 -0.128797 -0.118072 -0.117029 -0.123397 -0.115696 -0.115169 
-0.120183 -0.114463 -0.114315 -0.118149 -0.113976 -0.114031 -0.117163 -0.113795 -0.114047 
-0.116591 -0.114132 -0.114541 -0.116439 -0.114787 -0.115367 -0.116749 -0.115697 -0.116338 
-0.117319 -0.116825 -0.117707 -0.118148 -0.118313 -0.119247 -0.119158 -0.119941 -0.121076 
-0.120471 -0.121808 -0.122885 -0.121909 -0.123559 -0.124645 -0.123348 -0.125321 -0.126209 
-0.124744 -0.126819 -0.127692 -0.126068 -0.128205 -0.128855 -0.127228 -0.129267 -0.129747 
-0.128182 -0.130061 -0.130375 -0.128926 -0.130564 -0.130682 -0.129442 -0.130748 -0.130702 
-0.129702 -0.13064 -0.130411 -0.129705 -0.130298 -0.129949 -0.129523 -0.129781 -0.129347 
-0.129218 -0.129108 -0.128657 -0.12878 -0.128416 -0.127967 -0.12827 -0.127778 -0.127428 
-0.127807 -0.127278 -0.12701 -0.127446 -0.126944 -0.126804 -0.127206 -0.126826 -0.126829 
-0.127147 -0.126938 -0.127064 -0.127273 -0.127249 -0.127512 -0.127569 -0.127771 -0.128137 
-0.128017 -0.128445 -0.128883 -0.12859 -0.129245 -0.129702 -0.12927 -0.130084 -0.130567 
-0.130021 -0.130932 -0.13139 -0.130779 -0.131705 -0.132085 -0.131473 -0.13237 -0.132684 
-0.132086 -0.132894 -0.133058 -0.132592 -0.133207 -0.133235 -0.132919 -0.0615365 -0.133283 
-0.133067 -0.132905 -0.132691 -0.132406 -0.132592 -0.132107 -0.13173 -0.132095 -0.13138 
-0.130885 -0.131445 -0.130492 -0.130023 -0.130698 -0.129638 -0.129175 -0.129913 -0.128814 
-0.128366 -0.129164 -0.128023 -0.127628 -0.128452 -0.12736 -0.127099 -0.127835 -0.126925 
-0.126776 -0.127385 -0.126687 -0.126686 -0.127109 -0.126699 -0.126841 -0.127015 -0.126939 
-0.127191 -0.127117 -0.127358 -0.127726 -0.127373 -0.127964 -0.128392 -0.127777 -0.128648 
-0.129143 -0.12828 -0.129366 -0.12979 -0.128772 -0.129966 -0.130305 -0.129186 -0.130397 
-0.130583 -0.129473 -0.130606 -0.130653 -0.129608 -0.130556 -0.130409 -0.129563 -0.130227 
-0.129907 -0.129306 -0.129586 -0.129113 -0.128814 -0.128609 -0.127885 -0.127996 -0.127299 
-0.126484 -0.126903 -0.12583 -0.124815 -0.12566 -0.124092 -0.123076 -0.124272 -0.122297 
-0.121139 -0.122751 -0.120455 -0.119491 -0.121277 -0.118814 -0.117795 -0.119899 -0.117226 
-0.116398 -0.118626 -0.115945 -0.115225 -0.117581 -0.114861 -0.114328 -0.116756 -0.114103 
-0.113662 -0.11616 -0.113608 -0.113381 -0.115868 -0.113658 -0.113647 -0.116075 -0.114202 
-0.114439 -0.116909 -0.11528 -0.11583 -0.118325 -0.116993 -0.118074 -0.120334 -0.120111 
-0.121927 -0.123496 -0.125712 -0.129137 -0.129104 -0.13558 -0.142964 -0.139874 -0.163027 
-0.25003 -0.16419 -0.211987 -0.158036 -0.159939 -0.154505 -0.152846 -0.236183 -0.153927 
-0.14641 -0.229148 -0.144395 -0.14672 -0.185067 -0.151796 -0.148054 -0.173891 -0.149899 
-0.146929 -0.170797 -0.145733 -0.145698 -0.180388 -0.147625 -0.147738 -0.180425 -0.149772 
-0.149785 -0.180597 -0.148748 -0.14889 -0.181881 -0.150013 -0.149681 -0.18232 -0.14922 
-0.148681 -0.183143 -0.149088 -0.148887 -0.18402 -0.149121 -0.149428 -0.184667 -0.149308 
-0.149938 -0.184487 -0.1494 -0.149996 -0.183155 -0.148229 -0.148448 -0.181761 -0.149225 
-0.148704 -0.180524 -0.147016 -0.146946 -0.179906 -0.147029 -0.147045 -0.178999 -0.146828 
-0.146539 -0.17824 -0.146889 -0.146514 -0.178197 -0.149486 -0.149017 -0.179548 -0.15142 
-0.150552 -0.183467 -0.156533 -0.162763 -0.189955 -0.239172 -0.227722 -0.0972105 -0.121223 
-0.0877134 -0.0824241 -0.10741 -0.0869698 -0.0859699 -0.0960094 -0.0876554 -0.0864704 -0.0935888 
-0.0887677 -0.0877839 -0.0937364 -0.0894312 -0.0890183 -0.0942792 -0.0898048 -0.0897586 -0.0945827 
-0.0895838 -0.0898332 -0.0948504 -0.0887758 -0.0895179 -0.0946295 -0.0878598 -0.0891629 -0.0942908 
-0.0865757 -0.0884312 -0.0941136 -0.0854567 -0.0879646 -0.0948121 -0.0843095 -0.0896907 -0.0977167 
-0.146686 -0.0996861 -0.114773 -0.2383 -0.247194 -0.0980478 -0.108975 -0.0871932 -0.0827791 
-0.107196 -0.0863799 -0.0830659 -0.0938891 -0.0877589 -0.0856773 -0.0925969 -0.0889158 -0.0874755 
-0.0930502 -0.0894744 -0.0889266 -0.0934115 -0.0898686 -0.0897016 -0.093716 -0.0896114 -0.0898465 
-0.09388 -0.0888456 -0.0894993 -0.0937513 -0.0875281 -0.0886954 -0.0933547 -0.0858585 -0.0871194 
-0.092859 -0.0839792 -0.0857889 -0.0926702 -0.0841265 -0.0856975 -0.0939761 -0.105144 -0.0944701 
-0.103424 -0.13325 -0.167339 -0.192658 -0.177985 -0.188919 -0.18933 -0.155399 -0.144712 
-0.187648 -0.196995 -0.156618 -0.183352 -0.193724 -0.174692 -0.150308 -0.226487 -0.187313 
-0.194137 -0.173688 -0.132628 -0.132382 -0.132155 -0.13185 -0.132151 -0.131602 -0.131267 
-0.131684 -0.130995 -0.130622 -0.13117 -0.13032 -0.129897 -0.130602 -0.129558 -0.12917 
-0.129974 -0.128844 -0.128471 -0.12935 -0.128182 -0.127847 -0.128788 -0.127617 -0.127329 
-0.128321 -0.127155 -0.126941 -0.127927 -0.126839 -0.126694 -0.12762 -0.12668 -0.126643 
-0.127463 -0.126692 -0.126765 -0.127437 -0.126933 -0.127114 -0.127587 -0.127303 -0.127544 
-0.127867 -0.127783 -0.128107 -0.128229 -0.128439 -0.12883 -0.128734 -0.129157 -0.129573 
-0.12936 -0.129903 -0.130313 -0.129989 -0.130634 -0.131009 -0.130595 -0.131282 -0.131612 
-0.131167 -0.131867 -0.132128 -0.131656 -0.132352 -0.132535 -0.132089 -0.132728 -0.13286 
-0.132468 -0.100536 -0.10516 -0.170799 -0.182154 -0.157339 -0.133095 -0.146399 -0.14037 
-0.135248 -0.131548 -0.141666 -0.128742 -0.126919 -0.134808 -0.124817 -0.123549 -0.129967 
-0.12204 -0.121435 -0.126488 -0.120342 -0.119929 -0.123775 -0.119381 -0.11917 -0.122431 
-0.118819 -0.118914 -0.121564 -0.118758 -0.119003 -0.121102 -0.118969 -0.119317 -0.120942 
-0.119444 -0.119898 -0.121067 -0.120095 -0.12069 -0.121399 -0.121024 -0.121693 -0.121932 
-0.122079 -0.12278 -0.122609 -0.123165 -0.123809 -0.123318 -0.12425 -0.124886 -0.124056 
-0.125335 -0.125902 -0.12483 -0.126293 -0.126763 -0.125554 -0.127095 -0.127461 -0.12616 
-0.127755 -0.128027 -0.126673 -0.128262 -0.128417 -0.127098 -0.128602 -0.128639 -0.127431 
-0.128774 -0.128695 -0.127682 -0.128738 -0.128616 -0.127817 -0.128598 -0.128431 -0.127822 
-0.128378 -0.128159 -0.127764 -0.128087 -0.127868 -0.127689 -0.127782 -0.127624 -0.127595 
-0.127575 -0.127466 -0.127547 -0.127447 -0.127418 -0.127571 -0.127444 -0.127498 -0.127676 
-0.127588 -0.127725 -0.127874 -0.127863 -0.128068 -0.12817 -0.128257 -0.128524 -0.128543 
-0.128746 -0.129055 -0.128979 -0.129321 -0.129674 -0.129472 -0.129964 -0.130331 -0.130016 
-0.130642 -0.130988 -0.130588 -0.131259 -0.131548 -0.131128 -0.131815 -0.132068 -0.131599 
-0.132314 -0.132501 -0.132041 -0.132707 -0.132863 -0.132461 -0.132859 -0.151668 -0.168858 
-0.155597 -0.154785 -0.132543 -0.13234 -0.132103 -0.131808 -0.132103 -0.131546 -0.131195 
-0.131604 -0.130905 -0.130516 -0.131045 -0.130213 -0.129831 -0.130444 -0.129555 -0.129195 
-0.129851 -0.128919 -0.128569 -0.129277 -0.12833 -0.128055 -0.128773 -0.127873 -0.127679 
-0.128338 -0.127537 -0.127441 -0.127981 -0.127346 -0.127351 -0.127679 -0.127296 -0.127385 
-0.127515 -0.127372 -0.127536 -0.127449 -0.127542 -0.127778 -0.127456 -0.127811 -0.128064 
-0.127518 -0.128102 -0.128325 -0.127615 -0.128325 -0.128508 -0.127682 -0.12847 -0.128577 
-0.127678 -0.128554 -0.128592 -0.127649 -0.128513 -0.128434 -0.12758 -0.128308 -0.12813 
-0.127394 -0.127944 -0.127621 -0.12709 -0.127332 -0.126825 -0.126606 -0.126478 -0.125884 
-0.125949 -0.125523 -0.124856 -0.125204 -0.12446 -0.123722 -0.124402 -0.123321 -0.122537 
-0.123559 -0.122152 -0.121449 -0.12272 -0.121128 -0.120429 -0.121959 -0.120158 -0.11956 
-0.121301 -0.119341 -0.118864 -0.120755 -0.118727 -0.118352 -0.120346 -0.118375 -0.118141 
-0.120185 -0.118422 -0.118367 -0.120437 -0.118879 -0.119154 -0.121189 -0.11992 -0.120513 
-0.122364 -0.121528 -0.12241 -0.124235 -0.123889 -0.125108 -0.126544 -0.127285 -0.129418 
-0.130075 -0.13285 -0.136948 -0.135481 -0.141803 -0.150026 -0.158177 -0.144658 -0.132892 
-0.174547 -0.17258 -0.173265 -0.189139 -0.171288 -0.176109 -0.17125 -0.172831 -0.169246 
-0.165314 -0.166083 -0.166804 -0.16499 -0.165504 -0.169367 -0.164656 -0.167887 -0.168611 
-0.164628 -0.168735 -0.169059 -0.16574 -0.169101 -0.169507 -0.166869 -0.169955 -0.170265 
-0.167746 -0.170635 -0.17068 -0.168338 -0.171218 -0.171448 -0.168911 -0.171532 -0.172048 
-0.169305 -0.171905 -0.172189 -0.169283 -0.171828 -0.171791 -0.169273 -0.171305 -0.170874 
-0.169032 -0.170452 -0.169926 -0.168574 -0.169516 -0.169209 -0.167962 -0.168822 -0.168364 
-0.167169 -0.168153 -0.167761 -0.166396 -0.167416 -0.16728 -0.165678 -0.16699 -0.167341 
-0.165156 -0.16716 -0.16829 -0.164804 -0.168634 -0.17083 -0.165 -0.170977 -0.189376 
-0.180403 -0.106958 -0.120621 -0.127823 -0.11284 -0.0967308 -0.0965531 -0.0966221 -0.0964002 
-0.0995645 -0.0965433 -0.096431 -0.0991531 -0.0965445 -0.0965857 -0.0989935 -0.0965637 -0.0966697 
-0.0989912 -0.0966907 -0.0969141 -0.0993524 -0.0972745 -0.097358 -0.100116 -0.0993714 -0.0989961 
-0.10198 -0.105469 -0.103142 -0.107323 -0.128616 -0.111886 -0.117974 -0.160053 -0.139336 
-0.150032 -0.129555 -0.137599 -0.156261 -0.109781 -0.126162 -0.0959024 -0.0960677 -0.0956072 
-0.0956129 -0.0986159 -0.095655 -0.095534 -0.0980688 -0.0955158 -0.0955229 -0.0977759 -0.095343 
-0.0954377 -0.0975687 -0.0951996 -0.09542 -0.0976226 -0.0953563 -0.0955552 -0.0980707 -0.0966022 
-0.0965083 -0.099489 -0.1013 -0.0996886 -0.103413 -0.116464 -0.106976 -0.112241 -0.181273 
-0.19221 -0.172768 -0.132749 -0.0978233 -0.0986294 -0.100458 -0.101216 -0.104324 -0.113354 
-0.0970685 -0.0979361 -0.104061 -0.100306 -0.164714 -0.104641 -0.132938 -0.133026 -0.13308 
-0.132732 -0.16199 -0.164175 -0.166848 -0.132798 -0.160135 -0.14486 -0.157752 -0.158173 
-0.163466 -0.132588 -0.132523 -0.135367 -0.151977 -0.127689 -0.147804 -0.164432 -0.131402 
-0.161643 -0.14447 -0.113543 -0.12004 -0.130916 -0.1227 -0.131788 -0.131548 -0.131345 
-0.131096 -0.131462 -0.130898 -0.130611 -0.131081 -0.130389 -0.130092 -0.1307 -0.129889 
-0.129618 -0.130302 -0.129407 -0.129181 -0.129946 -0.128981 -0.128807 -0.129606 -0.128663 
-0.128481 -0.129344 -0.128404 -0.128266 -0.129135 -0.128248 -0.128188 -0.129002 -0.128235 
-0.128221 -0.128983 -0.1283 -0.128397 -0.129039 -0.128492 -0.128603 -0.129141 -0.128733 
-0.128903 -0.129284 -0.129092 -0.129355 -0.129526 -0.129562 -0.12986 -0.129869 -0.130082 
-0.130372 -0.130286 -0.130585 -0.130854 -0.130676 -0.131057 -0.131312 -0.131042 -0.131484 
-0.131713 -0.131389 -0.131903 -0.132093 -0.131733 -0.158152 -0.147445 -0.142976 -0.139652 
-0.136516 -0.144338 -0.134004 -0.132138 -0.138791 -0.130302 -0.128849 -0.134542 -0.127212 
-0.126308 -0.13117 -0.125219 -0.124712 -0.12856 -0.124043 -0.123773 -0.12688 -0.1233 
-0.123214 -0.125838 -0.122861 -0.12287 -0.125102 -0.12261 -0.122776 -0.124555 -0.122668 
-0.122871 -0.124237 -0.122793 -0.123096 -0.124068 -0.123056 -0.123389 -0.12393 -0.123427 
-0.123743 -0.123895 -0.123841 -0.124192 -0.123967 -0.124321 -0.124665 -0.124116 -0.124817 
-0.125118 -0.124307 -0.125278 -0.125524 -0.124541 -0.125688 -0.125902 -0.124796 -0.12605 
-0.126216 -0.125047 -0.12635 -0.126483 -0.125281 -0.126608 -0.126711 -0.125504 -0.126845 
-0.12688 -0.125746 -0.127058 -0.127046 -0.12606 -0.127203 -0.127184 -0.12641 -0.127292 
-0.127288 -0.126704 -0.12737 -0.127364 -0.126951 -0.127472 -0.127501 -0.127228 -0.127617 
-0.127685 -0.127535 -0.127826 -0.127929 -0.127874 -0.128092 -0.128242 -0.128254 -0.128418 
-0.128597 -0.128654 -0.128765 -0.128973 -0.129034 -0.129157 -0.129381 -0.129399 -0.129587 
-0.129839 -0.129782 -0.130059 -0.130316 -0.130168 -0.130548 -0.130811 -0.130578 -0.131028 
-0.131249 -0.130992 -0.131435 -0.13166 -0.131321 -0.131817 -0.132026 -0.131637 -0.132187 
-0.132367 -0.132253 -0.131952 -0.102052 -0.101999 -0.164463 -0.159211 -0.15957 -0.151294 
-0.151604 -0.160196 -0.14411 -0.137274 -0.131665 -0.131403 -0.131203 -0.130911 -0.131294 
-0.130699 -0.130395 -0.130883 -0.130186 -0.129908 -0.130451 -0.129685 -0.129412 -0.130034 
-0.129199 -0.128965 -0.129615 -0.128799 -0.128601 -0.12924 -0.128389 -0.128236 -0.128849 
-0.128054 -0.127945 -0.128429 -0.127785 -0.127725 -0.128085 -0.127548 -0.127535 -0.127734 
-0.127349 -0.127364 -0.127377 -0.127179 -0.127222 -0.127021 -0.12707 -0.127116 -0.1267 
-0.12697 -0.126988 -0.126433 -0.126778 -0.126763 -0.126097 -0.126637 -0.126638 -0.125787 
-0.126506 -0.126443 -0.125556 -0.126376 -0.126256 -0.125375 -0.12616 -0.125968 -0.125219 
-0.12584 -0.125535 -0.12499 -0.125393 -0.125026 -0.124701 -0.124881 -0.124486 -0.124383 
-0.124388 -0.123951 -0.124104 -0.123865 -0.123437 -0.123839 -0.123372 -0.122971 -0.123667 
-0.122952 -0.122593 -0.123565 -0.122616 -0.122301 -0.123527 -0.122351 -0.122088 -0.123552 
-0.122192 -0.122031 -0.123642 -0.122242 -0.122239 -0.123914 -0.122787 -0.123021 -0.124609 
-0.123631 -0.124158 -0.125875 -0.125157 -0.125945 -0.127303 -0.126918 -0.12811 -0.129457 
-0.129391 -0.130871 -0.131934 -0.132846 -0.135003 -0.135027 -0.137807 -0.141193 -0.13967 
-0.152938 -0.159606 -0.162445 -0.162468 -0.162638 -0.152072 -0.106711 -0.110212 -0.162075 
-0.162123 -0.158927 -0.162253 -0.162483 -0.159521 -0.162619 -0.162999 -0.160265 -0.163473 
-0.164209 -0.161149 -0.164677 -0.165195 -0.162315 -0.165627 -0.16606 -0.163497 -0.16636 
-0.166786 -0.164387 -0.167021 -0.167402 -0.165194 -0.167557 -0.167754 -0.165785 -0.167739 
-0.167831 -0.166093 -0.167675 -0.167682 -0.166088 -0.167394 -0.167267 -0.165835 -0.166854 
-0.166614 -0.16531 -0.166146 -0.165833 -0.16461 -0.165401 -0.165005 -0.163796 -0.164468 
-0.164154 -0.162887 -0.163585 -0.163308 -0.161895 -0.162757 -0.162622 -0.160716 -0.161741 
-0.161838 -0.159601 -0.16081 -0.161146 -0.156704 -0.157848 -0.1391 -0.130302 -0.163669 
-0.164712 -0.154199 -0.101639 -0.10157 -0.104464 -0.102737 -0.102901 -0.105269 -0.101806 
-0.101472 -0.103889 -0.102463 -0.101991 -0.104472 -0.104001 -0.103272 -0.105623 -0.107174 
-0.105014 -0.107663 -0.112392 -0.108408 -0.111211 -0.124043 -0.116525 -0.117774 -0.149999 
-0.143542 -0.141366 -0.148879 -0.126079 -0.135894 -0.135777 -0.125782 -0.15846 -0.165894 
-0.101269 -0.102077 -0.0999343 -0.100073 -0.100127 -0.100152 -0.102338 -0.10099 -0.100787 
-0.102952 -0.10333 -0.102473 -0.104808 -0.108366 -0.105705 -0.108291 -0.117618 -0.111983 
-0.113959 -0.168951 -0.170322 -0.160278 -0.160104 -0.137419 -0.143383 -0.132011 -0.132107 
-0.131872 -0.131698 -0.103344 -0.104539 -0.108955 -0.106355 -0.100525 -0.100843 -0.103639 
-0.100105 -0.100375 -0.102748 -0.102345 -0.122083 -0.151211 -0.157626 -0.154772 -0.145111 
-0.132288 -0.132475 -0.146708 -0.139816 -0.139411 -0.145518 -0.132065 -0.131743 -0.156182 
-0.154825 -0.132554 -0.132304 -0.146702 -0.145984 -0.106647 -0.110566 -0.115946 -0.148151 
-0.114947 -0.113156 -0.154474 -0.132096 -0.127751 -0.118888 -0.124052 -0.137705 -0.149878 
-0.144145 -0.148825 -0.144374 -0.150506 -0.131876 -0.132365 -0.132099 -0.153041 -0.102927 
-0.104951 -0.109236 -0.105508 -0.143201 -0.146698 -0.129958 -0.124383 -0.122843 -0.131256 
-0.131094 -0.130971 -0.130773 -0.131143 -0.130697 -0.130555 -0.130973 -0.130499 -0.130365 
-0.130891 -0.130248 -0.130123 -0.13082 -0.130019 -0.129909 -0.130666 -0.129892 -0.129799 
-0.130578 -0.129806 -0.129754 -0.130559 -0.129792 -0.129793 -0.130561 -0.129856 -0.129852 
-0.130624 -0.129874 -0.129888 -0.130613 -0.12992 -0.129966 -0.130571 -0.130031 -0.13014 
-0.130584 -0.130239 -0.130388 -0.130659 -0.130506 -0.130677 -0.130835 -0.130782 -0.130944 
-0.131002 -0.131039 -0.131192 -0.131142 -0.131293 -0.131447 -0.131283 -0.131572 -0.13174 
-0.131471 -0.149457 -0.14611 -0.138791 -0.135885 -0.135209 -0.138108 -0.106658 -0.106625 
-0.128983 -0.133014 -0.131994 -0.142875 -0.13993 -0.147135 -0.138028 -0.136122 -0.141683 
-0.134413 -0.132876 -0.137862 -0.131395 -0.130381 -0.134758 -0.129415 -0.128868 -0.132375 
-0.128225 -0.127847 -0.130858 -0.127177 -0.126901 -0.129622 -0.126324 -0.126116 -0.128442 
-0.125689 -0.125617 -0.127497 -0.125226 -0.125136 -0.126712 -0.124759 -0.12467 -0.125933 
-0.124326 -0.12431 -0.12516 -0.12403 -0.124056 -0.124484 -0.123819 -0.123875 -0.123896 
-0.123714 -0.123802 -0.12343 -0.123716 -0.123834 -0.12314 -0.123808 -0.123943 -0.12301 
-0.123946 -0.124077 -0.12298 -0.124108 -0.124237 -0.123021 -0.124317 -0.12444 -0.123152 
-0.124628 -0.124777 -0.123464 -0.125039 -0.125253 -0.123958 -0.125591 -0.125784 -0.124572 
-0.12616 -0.126315 -0.12533 -0.126476 -0.126652 -0.125903 -0.126938 -0.127131 -0.12643 
-0.127425 -0.127619 -0.127111 -0.127899 -0.128122 -0.127768 -0.128413 -0.128639 -0.128455 
-0.128897 -0.129097 -0.129075 -0.129321 -0.129491 -0.129571 -0.129662 -0.129832 -0.129961 
-0.13001 -0.130181 -0.130269 -0.130355 -0.130539 -0.130562 -0.130679 -0.130863 -0.130821 
-0.130981 -0.131135 -0.131042 -0.131251 -0.131396 -0.131218 -0.131483 -0.131627 -0.131379 
-0.149556 -0.152963 -0.152707 -0.105527 -0.106463 -0.147184 -0.151307 -0.155054 -0.106898 
-0.1072 -0.109119 -0.131078 -0.130865 -0.130737 -0.130538 -0.130954 -0.130361 -0.130182 
-0.130674 -0.129997 -0.129802 -0.130366 -0.12975 -0.129596 -0.130179 -0.129373 -0.129186 
-0.129908 -0.128846 -0.128648 -0.129352 -0.128449 -0.128289 -0.128833 -0.127991 -0.127816 
-0.128338 -0.127453 -0.127267 -0.127671 -0.126839 -0.126664 -0.126869 -0.126255 -0.126104 
-0.126055 -0.125891 -0.125749 -0.125429 -0.1253 -0.125089 -0.124725 -0.12471 -0.124615 
-0.123881 -0.124507 -0.124387 -0.123448 -0.124305 -0.124247 -0.123233 -0.124168 -0.124066 
-0.123101 -0.124102 -0.123954 -0.123061 -0.12398 -0.123811 -0.123079 -0.123855 -0.123678 
-0.123108 -0.123822 -0.123667 -0.123258 -0.12386 -0.12382 -0.123568 -0.124018 -0.124014 
-0.124031 -0.124307 -0.124279 -0.124605 -0.124561 -0.1246 -0.125318 -0.124921 -0.124956 
-0.126004 -0.125338 -0.125412 -0.126629 -0.125777 -0.12594 -0.127297 -0.12655 -0.127065 
-0.128322 -0.128019 -0.128708 -0.129877 -0.129799 -0.130764 -0.131791 -0.131714 -0.132991 
-0.133971 -0.134093 -0.13561 -0.136321 -0.137256 -0.139227 -0.139145 -0.141441 -0.144131 
-0.148166 -0.143062 -0.114951 -0.118521 -0.152616 -0.150001 -0.157434 -0.157876 -0.158595 
-0.1591 -0.155856 -0.15994 -0.160482 -0.157344 -0.161188 -0.161708 -0.158832 -0.16227 
-0.162727 -0.160064 -0.163249 -0.163622 -0.161264 -0.164068 -0.164282 -0.162192 -0.16447 
-0.164524 -0.162884 -0.164473 -0.164408 -0.16295 -0.164185 -0.163976 -0.162666 -0.163635 
-0.163328 -0.162187 -0.162905 -0.162512 -0.161446 -0.162027 -0.16162 -0.160542 -0.160944 
-0.160497 -0.159397 -0.159858 -0.159383 -0.158028 -0.15874 -0.158254 -0.156775 -0.157829 
-0.157062 -0.155703 -0.149271 -0.151905 -0.146815 -0.131395 -0.131196 -0.131198 -0.131903 
-0.10731 -0.106717 -0.108942 -0.107979 -0.108465 -0.110299 -0.108667 -0.107657 -0.109903 
-0.111075 -0.109804 -0.111395 -0.114679 -0.112639 -0.114288 -0.121421 -0.11705 -0.123849 
-0.139848 -0.142918 -0.125167 -0.120448 -0.104506 -0.104549 -0.111591 -0.109425 -0.117538 
-0.113894 -0.115156 -0.120451 -0.133052 -0.12867 -0.14791 -0.142725 -0.145213 -0.105358 
-0.104993 -0.107073 -0.155455 -0.15324 -0.137902 -0.133383 -0.130287 -0.107728 -0.106525 
-0.108522 -0.11128 -0.121502 -0.125449 -0.121337 -0.131739 -0.155284 -0.140512 -0.144377 
-0.146736 -0.131373 -0.131358 -0.153593 -0.132415 -0.135888 -0.139203 -0.131534 -0.115556 
-0.119669 -0.122688 -0.12266 -0.127858 -0.131729 -0.10529 -0.107689 -0.104805 -0.109767 
-0.112176 -0.115726 -0.151593 -0.150575 -0.139621 -0.109165 -0.107185 -0.108922 -0.15668 
-0.154258 -0.156202 -0.147833 -0.145007 -0.154889 -0.131444 -0.126722 -0.126816 -0.118181 
-0.136885 -0.135437 -0.132062 -0.152468 -0.141914 -0.139228 -0.135497 -0.131549 -0.153153 
-0.156777 -0.152947 -0.140034 -0.136368 -0.106657 -0.104372 -0.104677 -0.159586 -0.158744 
-0.155359 -0.159709 -0.140559 -0.140462 -0.137784 -0.131337 -0.131209 -0.131184 -0.131313 
-0.131301 -0.131556 -0.131525 -0.131535 -0.131996 -0.131276 -0.13121 -0.132021 -0.131262 
-0.131261 -0.131885 -0.131309 -0.131311 -0.132025 -0.131359 -0.131369 -0.132109 -0.131465 
-0.131471 -0.132203 -0.13153 -0.131484 -0.132363 -0.131255 -0.131215 -0.132174 -0.131299 
-0.131267 -0.131903 -0.131117 -0.131133 -0.131781 -0.131174 -0.131225 -0.131566 -0.131207 
-0.13124 -0.131522 -0.131234 -0.131269 -0.131415 -0.131247 -0.13131 -0.131335 -0.133292 
-0.134939 -0.113528 -0.117047 -0.110508 -0.130049 -0.132121 -0.131276 -0.150302 -0.147105 
-0.152832 -0.145033 -0.142777 -0.148149 -0.141202 -0.139256 -0.144191 -0.137899 -0.136358 
-0.140959 -0.134691 -0.133799 -0.137783 -0.13342 -0.132838 -0.135818 -0.132042 -0.131438 
-0.134661 -0.1305 -0.12998 -0.132976 -0.129193 -0.128817 -0.131296 -0.128191 -0.127805 
-0.12993 -0.127128 -0.126708 -0.128644 -0.125938 -0.125485 -0.127135 -0.124816 -0.124412 
-0.125432 -0.123834 -0.123474 -0.124022 -0.122978 -0.122727 -0.12282 -0.122378 -0.122217 
-0.121861 -0.122088 -0.122004 -0.121263 -0.121919 -0.121883 -0.120951 -0.121816 -0.121818 
-0.120742 -0.121855 -0.121905 -0.120631 -0.122132 -0.122311 -0.120824 -0.122688 -0.122966 
-0.121381 -0.123521 -0.123903 -0.122321 -0.124616 -0.125054 -0.123654 -0.125288 -0.125819 
-0.126209 -0.124972 -0.126796 -0.127176 -0.12622 -0.127661 -0.128011 -0.12731 -0.128467 
-0.128818 -0.128377 -0.12927 -0.129554 -0.129302 -0.129956 -0.13014 -0.130151 -0.130384 
-0.130495 -0.130744 -0.130558 -0.130715 -0.130948 -0.130909 -0.131033 -0.13117 -0.13107 
-0.131173 -0.131376 -0.131154 -0.13124 -0.131369 -0.131232 -0.131303 -0.132452 -0.130063 
-0.152825 -0.151153 -0.111416 -0.111816 -0.137907 -0.139992 -0.130983 -0.13086 -0.13081 
-0.130655 -0.131133 -0.130603 -0.0667087 -0.0704179 -0.130725 -0.130554 -0.131273 -0.129897 
-0.129538 -0.130687 -0.129347 -0.0715616 -0.0741562 -0.128815 -0.128515 -0.129512 -0.128021 
-0.127603 -0.128502 -0.126947 -0.12654 -0.127281 -0.125755 -0.125291 -0.125795 -0.124553 
-0.124262 -0.124131 -0.123809 -0.074582 -0.076648 -0.122839 -0.122508 -0.122403 -0.121836 
-0.121723 -0.120686 -0.122208 -0.122113 -0.12057 -0.121903 -0.121812 -0.120802 -0.121847 
-0.121873 -0.120623 -0.122222 -0.122254 -0.120996 -0.122236 -0.122258 -0.121388 -0.122607 
-0.122713 -0.12165 -0.123117 -0.123334 -0.122387 -0.123916 -0.124285 -0.12352 -0.124949 
-0.125286 -0.124826 -0.125987 -0.126356 -0.126305 -0.127117 -0.127459 -0.127801 -0.128128 
-0.128505 -0.129296 -0.129134 -0.129469 -0.130611 -0.129731 -0.130322 -0.131507 -0.131708 
-0.13264 -0.133099 -0.133926 -0.135016 -0.135755 -0.135935 -0.137105 -0.13796 -0.138261 
-0.139691 -0.140155 -0.141185 -0.142841 -0.142948 -0.131291 -0.131168 -0.153155 -0.153666 
-0.109159 -0.108926 -0.135841 -0.134195 -0.132024 -0.131173 -0.131084 -0.131242 -0.145364 
-0.143302 -0.144818 -0.145043 -0.154762 -0.155494 -0.15201 -0.156689 -0.157289 -0.154127 
-0.157737 -0.158236 -0.155653 -0.159097 -0.159624 -0.156922 -0.160322 -0.160753 -0.158241 
-0.161396 -0.161545 -0.159525 -0.161276 -0.161276 -0.159952 -0.161106 -0.160882 -0.1595 
-0.160448 -0.160099 -0.159116 -0.159562 -0.159158 -0.158141 -0.158737 -0.158322 -0.157299 
-0.157632 -0.157028 -0.156042 -0.156093 -0.155538 -0.154489 -0.154522 -0.153953 -0.15269 
-0.153083 -0.114278 -0.113217 -0.112344 -0.113143 -0.114402 -0.111631 -0.109573 -0.116669 
-0.115296 -0.116401 -0.125606 -0.122361 -0.141771 -0.143817 -0.141338 -0.120263 -0.118074 
-0.118897 -0.122044 -0.150982 -0.153155 -0.149542 -0.127623 -0.124695 -0.144405 -0.141876 
-0.139293 -0.141365 -0.112586 -0.111807 -0.11496 -0.125421 -0.128011 -0.111157 -0.111006 
-0.113378 -0.113584 -0.120646 -0.123167 -0.131266 -0.131172 -0.131343 -0.156028 -0.130713 
-0.127477 -0.12614 -0.150771 -0.151673 -0.149683 -0.146881 -0.137144 -0.139522 -0.154614 
-0.155331 -0.135498 -0.134351 -0.13282 -0.13341 -0.135595 -0.117243 -0.119744 -0.128304 
-0.129279 -0.131314 -0.128262 -0.131305 -0.106906 -0.150002 -0.147871 -0.0768082 -0.0787526 
-0.144229 -0.147428 -0.148302 -0.139411 -0.146505 -0.144645 -0.123836 -0.122562 -0.11969 
-0.131294 -0.151006 -0.110303 -0.111586 -0.121567 -0.12452 -0.121841 -0.110923 -0.108657 
-0.108797 -0.131972 -0.134025 -0.144777 -0.124785 -0.152398 -0.135672 -0.134144 -0.109561 
-0.111412 -0.110615 -0.115799 -0.114211 -0.115113 -0.13576 -0.139712 -0.109587 -0.11028 
-0.112373 -0.136304 -0.13128 -0.112298 -0.117649 -0.115399 -0.119817 -0.119096 -0.121176 
-0.131306 -0.154551 -0.154234 -0.154679 -0.114035 -0.11242 -0.116629 -0.154513 -0.133458 
-0.132759 -0.131923 -0.132966 -0.132297 -0.132574 -0.13245 -0.132604 -0.1327 -0.132801 
-0.133365 -0.132913 -0.132947 -0.13364 -0.132986 -0.133092 -0.133771 -0.133485 -0.133551 
-0.134246 -0.133034 -0.132729 -0.134254 -0.132709 -0.0779263 -0.0794281 -0.132476 -0.13221 
-0.133269 -0.132172 -0.0782887 -0.0793991 -0.1319 -0.131802 -0.132568 -0.13166 -0.131582 
-0.132001 -0.131363 -0.112967 -0.115247 -0.118014 -0.114232 -0.127357 -0.129027 -0.127016 
-0.130294 -0.126001 -0.148809 -0.147118 -0.145311 -0.149985 -0.143783 -0.142171 -0.14651 
-0.140281 -0.138689 -0.143143 -0.138273 -0.0779638 -0.0785722 -0.135449 -0.134538 -0.133183 
-0.132404 -0.135655 -0.131846 -0.131259 -0.133798 -0.12835 -0.127465 -0.124203 -0.12345 
-0.122668 -0.122001 -0.122648 -0.121021 -0.120497 -0.120622 -0.120321 -0.120028 -0.119202 
-0.119866 -0.119659 -0.118713 -0.119424 -0.119268 -0.11816 -0.119197 -0.119134 -0.117715 
-0.119269 -0.119401 -0.117659 -0.119757 -0.12007 -0.118105 -0.122297 -0.123093 -0.124043 
-0.124724 -0.122859 -0.125621 -0.126309 -0.124817 -0.127134 -0.127677 -0.126573 -0.128293 
-0.128797 -0.128058 -0.129378 -0.129856 -0.129318 -0.131374 -0.131579 -0.131659 -0.131815 
-0.131913 -0.1319 -0.132386 -0.131656 -0.131636 -0.132156 -0.108732 -0.109276 -0.111498 
-0.110878 -0.130135 -0.131275 -0.147735 -0.121517 -0.123056 -0.118902 -0.118885 -0.120303 
-0.120747 -0.126482 -0.127267 -0.128692 -0.129629 -0.128971 -0.13046 -0.131108 -0.131467 
-0.132519 -0.133189 -0.13356 -0.13368 -0.133955 -0.135706 -0.135296 -0.0768486 -0.0773054 
-0.137465 -0.138718 -0.138258 -0.14022 -0.141253 -0.142026 -0.14179 -0.143006 -0.143785 
-0.144573 -0.146186 -0.146164 -0.137447 -0.140347 -0.142259 -0.135606 -0.134611 -0.152717 
-0.152956 -0.154327 -0.155107 -0.151703 -0.156466 -0.157322 -0.154295 -0.157683 -0.15829 
-0.156176 -0.158128 -0.074634 -0.0740719 -0.158053 -0.158018 -0.156491 -0.157875 -0.157453 
-0.156632 -0.156495 -0.155801 -0.155479 -0.155356 -0.154971 -0.15387 -0.15462 -0.154036 
-0.152963 -0.152726 -0.151971 -0.151445 -0.150727 -0.131491 -0.13146 -0.134633 -0.135888 
-0.131432 -0.131407 -0.131408 -0.131712 -0.139632 -0.140403 -0.11646 -0.128814 -0.126781 
-0.138391 -0.136234 -0.151388 -0.152842 -0.131482 -0.118436 -0.117592 -0.131664 -0.131818 
-0.132377 -0.131717 -0.131566 -0.149448 -0.0715839 -0.0702604 -0.118143 -0.133196 -0.132247 
-0.132015 -0.133579 -0.133658 -0.131956 -0.117192 -0.116418 -0.150224 -0.132742 -0.133127 
-0.133651 -0.133483 -0.118911 -0.130435 -0.136563 -0.138169 -0.13735 -0.130267 -0.12955 
-0.126173 -0.125305 -0.121284 -0.120796 -0.120735 -0.131589 -0.0666185 -0.063062 -0.131843 
-0.130906 -0.131698 -0.132497 -0.130503 -0.138151 -0.140381 -0.139588 -0.149106 -0.149565 
-0.146692 -0.152555 -0.150425 -0.119261 -0.120538 -0.133386 -0.124729 -0.122779 -0.0592535 
-0.050044 -0.151488 -0.0670773 -0.0580472 -0.129538 -0.126548 -0.125645 -0.123898 -0.118629 
-0.119515 -0.119284 -0.120088 -0.121443 -0.121916 -0.119267 -0.119956 -0.12004 -0.122928 
-0.123687 -0.12182 -0.124728 -0.125445 -0.126425 -0.124263 -0.134587 -0.136038 -0.137253 
-0.135786 -0.138897 -0.149271 -0.140247 -0.112757 -0.112692 -0.130996 -0.121767 -0.123625 
-0.113568 -0.133644 -0.115786 -0.116678 -0.119106 -0.12051 -0.113335 -0.113004 -0.114608 
-0.114998 -0.149127 -0.127346 -0.130035 -0.12479 -0.117576 -0.115639 -0.137113 -0.138636 
-0.123445 -0.12165 -0.129443 -0.121652 -0.1199 -0.126658 -0.124677 -0.15335 -0.153986 
-0.137413 -0.115043 -0.118893 -0.117483 -0.143793 -0.141129 -0.155128 -0.1177 -0.119637 
-0.155388 -0.154651 -0.135517 -0.11898 -0.117604 -0.117792 -0.11581 -0.127826 -0.134407 
-0.134616 -0.114268 -0.115828 -0.124873 -0.132202 -0.13191 -0.147661 -0.146548 -0.144518 
-0.149002 -0.146429 -0.149111 -0.147208 -0.132147 -0.13486 -0.131636 -0.117821 -0.117588 
-0.116174 -0.11621 -0.11638 -0.116628 -0.130611 -0.131936 -0.116939 -0.133292 -0.133562 
-0.13261 -0.125906 -0.148394 -0.119584 -0.14667 -0.145289 -0.134351 -0.134973 -0.138999 
-0.147451 -0.120935 -0.143067 -0.141915 -0.155702 -0.155408 -0.150437 -0.11418 -0.128544 
-0.130591 -0.116157 -0.114386 -0.116285 -0.13411 -0.134414 -0.135183 -0.134712 -0.129439 
-0.135484 -0.136345 -0.116105 -0.11761 -0.117415 -0.130117 -0.15303 -0.154546 -0.134839 
-0.134838 -0.133795 -0.132478 -0.132222 -0.132315 -0.127008 -0.112581 -0.137812 -0.136462 
-0.114111 -0.112799 -0.13962 -0.140515 -0.143577 -0.140708 -0.133669 -0.132798 -0.116776 
-0.116543 -0.114595 -0.11559 -0.135674 -0.143603 -0.137248 -0.135297 -0.137472 -0.14488 
-0.11292 -0.113599 -0.154125 -0.134361 -0.150861 -0.152131 -0.155576 -0.135143 -0.132408 
-0.132829 -0.150658 -0.151644 -0.136838 -0.135952 -0.148748 -0.146071 -0.136886 -0.137184 
-0.13336 -0.133227 -0.133238 -0.132921 -0.133093 -0.133001 -0.132427 -0.132715 -0.132626 
-0.13176 -0.132144 -0.132136 -0.130948 -0.131403 -0.131515 -0.130019 -0.130564 -0.130761 
-0.129061 -0.129605 -0.129957 -0.128123 -0.128662 -0.129137 -0.127104 -0.127677 -0.128293 
-0.126268 -0.126723 -0.127475 -0.125659 -0.125968 -0.126822 -0.125234 -0.12541 -0.126327 
-0.12505 -0.125122 -0.125972 -0.125153 -0.125071 -0.12589 -0.125483 -0.125275 -0.126028 
-0.126021 -0.125709 -0.126369 -0.126773 -0.12634 -0.126874 -0.127616 -0.12714 -0.127524 
-0.128582 -0.128058 -0.128289 -0.129538 -0.12901 -0.129106 -0.130486 -0.129949 -0.129914 
-0.131344 -0.130888 -0.130719 -0.132079 -0.13167 -0.131455 -0.132664 -0.132378 -0.132064 
-0.133095 -0.132903 -0.132593 -0.133296 -0.133212 -0.132975 -0.133307 -0.133347 -0.133201 
-0.13335 -0.20268 -0.150287 -0.199358 -0.136192 -0.139222 -0.160028 -0.127207 -0.129848 
-0.139794 -0.121226 -0.123067 -0.130746 -0.117917 -0.118914 -0.125453 -0.115845 -0.116411 
-0.121693 -0.114648 -0.11488 -0.119247 -0.114114 -0.114047 -0.117543 -0.11416 -0.113918 
-0.116995 -0.11454 -0.114103 -0.116745 -0.115304 -0.114719 -0.116891 -0.116381 -0.115664 
-0.117442 -0.117573 -0.116799 -0.118234 -0.119042 -0.118097 -0.119177 -0.12068 -0.119683 
-0.120333 -0.122379 -0.121347 -0.121651 -0.123986 -0.123015 -0.122969 -0.125609 -0.124619 
-0.124267 -0.127054 -0.12617 -0.125492 -0.128344 -0.127608 -0.126623 -0.129354 -0.128795 
-0.127638 -0.130032 -0.129671 -0.128417 -0.130457 -0.130262 -0.128971 -0.13056 -0.130555 
-0.129309 -0.130395 -0.130548 -0.12941 -0.130017 -0.1303 -0.129318 -0.129459 -0.129881 
-0.129086 -0.128828 -0.129258 -0.128741 -0.128198 -0.128629 -0.128336 -0.127604 -0.127998 
-0.127932 -0.12717 -0.127459 -0.127578 -0.126922 -0.127092 -0.12735 -0.12689 -0.126924 
-0.127272 -0.127093 -0.126986 -0.127364 -0.127519 -0.127268 -0.127636 -0.128087 -0.12777 
-0.128061 -0.128839 -0.1284 -0.128624 -0.129629 -0.129183 -0.12928 -0.130457 -0.130001 
-0.129993 -0.131267 -0.13081 -0.130716 -0.132015 -0.131598 -0.131405 -0.13261 -0.132308 
-0.132022 -0.133049 -0.13284 -0.13254 -0.156571 -0.133187 -0.133269 -0.133181 -0.13285 
-0.133047 -0.132941 -0.132275 -0.132597 -0.132543 -0.131593 -0.131968 -0.131986 -0.130771 
-0.131255 -0.131336 -0.129911 -0.13038 -0.130601 -0.129076 -0.129535 -0.129823 -0.1283 
-0.128735 -0.129096 -0.127629 -0.12798 -0.128442 -0.127124 -0.127379 -0.127867 -0.126809 
-0.126958 -0.127442 -0.126739 -0.126722 -0.127135 -0.126913 -0.12676 -0.127061 -0.127309 
-0.127021 -0.12718 -0.127888 -0.127509 -0.127482 -0.128573 -0.128122 -0.127915 -0.129282 
-0.12881 -0.128396 -0.12991 -0.129516 -0.128877 -0.130399 -0.130073 -0.129285 -0.130653 
-0.130489 -0.129556 -0.130586 -0.130612 -0.129628 -0.130238 -0.130445 -0.129471 -0.129558 
-0.129964 -0.129073 -0.128544 -0.129165 -0.128417 -0.127345 -0.128046 -0.127535 -0.125895 
-0.126759 -0.126446 -0.124158 -0.12521 -0.125168 -0.122466 -0.123457 -0.12376 -0.120707 
-0.121735 -0.122299 -0.118942 -0.120018 -0.120855 -0.117328 -0.118271 -0.119471 -0.116017 
-0.116805 -0.118259 -0.114941 -0.115596 -0.117291 -0.11408 -0.114616 -0.116519 -0.113629 
-0.113996 -0.116064 -0.113487 -0.113701 -0.116012 -0.113759 -0.113791 -0.11634 -0.114466 
-0.114237 -0.11706 -0.115896 -0.115374 -0.118348 -0.118191 -0.117232 -0.120442 -0.122206 
-0.120489 -0.123781 -0.129106 -0.12633 -0.129623 -0.14275 -0.135893 -0.139513 -0.1711 
-0.153819 -0.159394 -0.187634 -0.165637 -0.175575 -0.162456 -0.161919 -0.171452 -0.154233 
-0.157202 -0.174201 -0.144416 -0.148472 -0.176705 -0.146519 -0.147518 -0.184903 -0.143943 
-0.146756 -0.21842 -0.144932 -0.144717 -0.181885 -0.145875 -0.146286 -0.184094 -0.148014 
-0.14814 -0.185118 -0.150035 -0.149248 -0.185164 -0.149359 -0.149591 -0.185659 -0.148704 
-0.148079 -0.185967 -0.149429 -0.149092 -0.185358 -0.148665 -0.148134 -0.185067 -0.148759 
-0.149216 -0.184272 -0.148401 -0.148504 -0.18458 -0.14869 -0.148805 -0.184215 -0.147986 
-0.148787 -0.184478 -0.14835 -0.148068 -0.183916 -0.146408 -0.146789 -0.183563 -0.146592 
-0.147069 -0.183127 -0.146751 -0.146257 -0.183798 -0.146798 -0.146783 -0.184281 -0.149832 
-0.14838 -0.185442 -0.155911 -0.152779 -0.18715 -0.1616 -0.154082 -0.19116 -0.230538 
-0.240626 -0.249645 -0.122279 -0.0825349 -0.0854193 -0.0860194 -0.105021 -0.0832119 -0.0855159 
-0.095553 -0.0853785 -0.0873787 -0.092373 -0.087431 -0.0888276 -0.0929031 -0.0889498 -0.0896112 
-0.0937162 -0.0897691 -0.0899877 -0.0943389 -0.0901488 -0.0900261 -0.0944994 -0.0899271 -0.0894851 
-0.09473 -0.0892603 -0.0882814 -0.0945496 -0.0877784 -0.0867014 -0.0941902 -0.0868061 -0.0850878 
-0.0940651 -0.086548 -0.0857981 -0.095864 -0.0973539 -0.108729 -0.105665 -0.242041 -0.23856 
-0.103695 -0.0947982 -0.0865274 -0.0882016 -0.103481 -0.0860125 -0.0877319 -0.0958181 -0.0875554 
-0.0888506 -0.0947769 -0.0886505 -0.0894758 -0.0947279 -0.0895021 -0.0898157 -0.0948547 -0.0898509 
-0.0897728 -0.0948305 -0.0897818 -0.0893986 -0.0947388 -0.0892379 -0.0883424 -0.0943418 -0.0885599 
-0.0871965 -0.0937181 -0.0872219 -0.0852204 -0.0930646 -0.0854077 -0.0819544 -0.0925002 -0.0854867 
-0.0794803 -0.0942926 -0.0936901 -0.105206 -0.102152 -0.133273 -0.167042 -0.146187 -0.244506 
-0.166197 -0.133276 -0.133224 -0.18603 -0.168 -0.156534 -0.261583 -0.163049 -0.212055 
-0.157795 -0.155168 -0.253309 -0.133116 -0.169126 -0.132959 -0.132357 -0.132575 -0.132765 
-0.132916 -0.132923 -0.132536 -0.131289 -0.131636 -0.130622 -0.130979 -0.131142 -0.129919 
-0.130313 -0.130583 -0.129255 -0.129622 -0.130012 -0.128554 -0.128963 -0.129454 -0.127906 
-0.128235 -0.128904 -0.127359 -0.127634 -0.128381 -0.126969 -0.127209 -0.127997 -0.126754 
-0.126882 -0.127733 -0.126707 -0.126718 -0.127558 -0.126891 -0.126804 -0.127558 -0.127226 
-0.127053 -0.127743 -0.127686 -0.127429 -0.128031 -0.128267 -0.127952 -0.128428 -0.128925 
-0.128554 -0.128911 -0.129599 -0.129213 -0.129453 -0.13028 -0.129904 -0.130009 -0.130965 
-0.130586 -0.130575 -0.131549 -0.131227 -0.131111 -0.132085 -0.131806 -0.131618 -0.132549 
-0.132321 -0.132074 -0.132889 -0.132738 -0.132488 -0.135254 -0.139116 -0.132675 -0.132823 
-0.210969 -0.172929 -0.144291 -0.15058 -0.14613 -0.156932 -0.1724 -0.178221 -0.159523 
-0.129074 -0.131331 -0.13762 -0.12519 -0.126548 -0.132497 -0.122544 -0.123458 -0.128403 
-0.120986 -0.121514 -0.125663 -0.119987 -0.120173 -0.123775 -0.119511 -0.119515 -0.12266 
-0.119397 -0.119174 -0.12195 -0.119616 -0.119238 -0.121521 -0.120063 -0.11963 -0.121428 
-0.12073 -0.120226 -0.121626 -0.121617 -0.120993 -0.122046 -0.122551 -0.121917 -0.122583 
-0.1235 -0.122893 -0.123171 -0.124438 -0.123849 -0.123789 -0.125306 -0.124791 -0.124384 
-0.126149 -0.125651 -0.124959 -0.126886 -0.126484 -0.125517 -0.127455 -0.12718 -0.126033 
-0.127871 -0.127678 -0.126448 -0.128109 -0.128039 -0.126747 -0.128223 -0.128245 -0.12697 
-0.128233 -0.128326 -0.12715 -0.128182 -0.128313 -0.127311 -0.128027 -0.128199 -0.12742 
-0.127847 -0.12801 -0.127461 -0.127674 -0.127819 -0.127488 -0.127568 -0.127663 -0.127554 
-0.127542 -0.127574 -0.127656 -0.127623 -0.127585 -0.127802 -0.127844 -0.127719 -0.128025 
-0.128177 -0.127985 -0.128334 -0.1286 -0.128349 -0.128692 -0.129122 -0.128816 -0.129098 
-0.129712 -0.129385 -0.129573 -0.130338 -0.129991 -0.130093 -0.130937 -0.130611 -0.130606 
-0.131536 -0.131215 -0.131116 -0.13207 -0.131774 -0.131596 -0.132518 -0.132279 -0.132059 
-0.119075 -0.107568 -0.182161 -0.195637 -0.153944 -0.125697 -0.132231 -0.132486 -0.132415 
-0.131701 -0.132011 -0.132002 -0.131102 -0.131445 -0.131512 -0.130443 -0.130833 -0.130969 
-0.129784 -0.130154 -0.130398 -0.129173 -0.129516 -0.129843 -0.128591 -0.128902 -0.129316 
-0.128098 -0.12835 -0.128813 -0.127739 -0.127917 -0.128379 -0.127502 -0.127596 -0.127995 
-0.12741 -0.12739 -0.127729 -0.127458 -0.127351 -0.12757 -0.127638 -0.127439 -0.127508 
-0.127874 -0.127641 -0.12752 -0.12813 -0.127896 -0.12758 -0.128387 -0.128158 -0.127655 
-0.128557 -0.128394 -0.127711 -0.128629 -0.128537 -0.127714 -0.128532 -0.128572 -0.127648 
-0.128285 -0.12842 -0.127486 -0.12786 -0.128135 -0.127222 -0.127237 -0.127637 -0.126839 
-0.12644 -0.126949 -0.1263 -0.125506 -0.126109 -0.125643 -0.124448 -0.125157 -0.124912 
-0.123326 -0.12406 -0.124106 -0.122178 -0.122931 -0.123251 -0.121131 -0.121841 -0.122441 
-0.120136 -0.120825 -0.121743 -0.119301 -0.119852 -0.121098 -0.118711 -0.119159 -0.120615 
-0.118311 -0.118654 -0.120362 -0.118375 -0.118476 -0.120408 -0.118726 -0.118693 -0.120931 
-0.119436 -0.119174 -0.121533 -0.120575 -0.120124 -0.122632 -0.122505 -0.121623 -0.124258 
-0.125184 -0.123907 -0.126569 -0.129689 -0.127535 -0.130101 -0.137052 -0.132919 -0.135501 
-0.149644 -0.141757 -0.144505 -0.167296 -0.157151 -0.158739 -0.170738 -0.166364 -0.167139 
-0.165691 -0.167297 -0.163433 -0.132737 -0.170575 -0.171254 -0.170357 -0.164121 -0.17133 
-0.171061 -0.165355 -0.169559 -0.169767 -0.165155 -0.169886 -0.170478 -0.166063 -0.170525 
-0.171117 -0.166639 -0.1708 -0.171344 -0.167321 -0.171443 -0.171812 -0.16806 -0.171695 
-0.17252 -0.168545 -0.171949 -0.172509 -0.169077 -0.17185 -0.172444 -0.169317 -0.171738 
-0.17186 -0.169358 -0.171396 -0.17182 -0.168966 -0.171014 -0.171368 -0.168552 -0.170622 
-0.170939 -0.167912 -0.169977 -0.170415 -0.167253 -0.169471 -0.169893 -0.166608 -0.169293 
-0.169121 -0.165901 -0.169195 -0.168886 -0.165169 -0.169438 -0.168712 -0.164404 -0.170495 
-0.168786 -0.163925 -0.172557 -0.170264 -0.164318 -0.155895 -0.132905 -0.132889 -0.161977 
-0.18649 -0.21359 -0.101754 -0.0990918 -0.113383 -0.0971029 -0.0970979 -0.103638 -0.09608 
-0.0964512 -0.10013 -0.0958888 -0.0962633 -0.0989544 -0.0961247 -0.0962735 -0.0986639 -0.0962763 
-0.0964445 -0.0985708 -0.0965912 -0.0966088 -0.0988588 -0.0968665 -0.0966991 -0.0991693 -0.0974236 
-0.0972593 -0.0997715 -0.0987321 -0.0989568 -0.102394 -0.102039 -0.10356 -0.106051 -0.111137 
-0.120506 -0.133178 -0.116132 -0.103552 -0.101363 -0.0987302 -0.0981823 -0.104582 -0.0976085 
-0.0973267 -0.101641 -0.0969361 -0.0968729 -0.100201 -0.0967244 -0.0966817 -0.0994878 -0.0965747 
-0.0964547 -0.0991437 -0.0964341 -0.096089 -0.0989276 -0.0963051 -0.0958911 -0.0989859 -0.0963873 
-0.0958603 -0.0993939 -0.0971511 -0.0967292 -0.100711 -0.0997563 -0.102554 -0.104463 -0.108437 
-0.120039 -0.111557 -0.198358 -0.176466 -0.167067 -0.131892 -0.132172 -0.132127 -0.131688 
-0.117003 -0.108897 -0.127663 -0.134312 -0.159339 -0.164601 -0.133071 -0.132626 -0.132861 
-0.171079 -0.161743 -0.16883 -0.163652 -0.132499 -0.129256 -0.111524 -0.146999 -0.150137 
-0.139691 -0.149707 -0.164906 -0.166647 -0.176172 -0.166681 -0.160692 -0.141754 -0.149398 
-0.174347 -0.159463 -0.13427 -0.168515 -0.158654 -0.130144 -0.130399 -0.131039 -0.131318 
-0.12971 -0.129945 -0.130346 -0.129267 -0.129516 -0.130006 -0.128875 -0.129101 -0.129713 
-0.128589 -0.128749 -0.129456 -0.12841 -0.128521 -0.129262 -0.128304 -0.128393 -0.12915 
-0.128379 -0.128341 -0.129118 -0.128548 -0.128462 -0.129189 -0.128802 -0.128676 -0.129312 
-0.129151 -0.128961 -0.129526 -0.129524 -0.129306 -0.12976 -0.129943 -0.129711 -0.130038 
-0.130389 -0.130128 -0.130371 -0.130829 -0.130572 -0.130692 -0.131259 -0.131021 -0.131018 
-0.131686 -0.131438 -0.131362 -0.132074 -0.131864 -0.131709 -0.132446 -0.132259 -0.132053 
-0.132409 -0.161844 -0.167498 -0.135167 -0.137516 -0.124483 -0.135048 -0.154195 -0.16333 
-0.140792 -0.1443 -0.142651 -0.157998 -0.132303 -0.128587 -0.129605 -0.126545 -0.127211 
-0.131252 -0.125136 -0.125498 -0.128969 -0.124192 -0.124455 -0.127341 -0.123588 -0.123692 
-0.126232 -0.123267 -0.123217 -0.125412 -0.123185 -0.123026 -0.12483 -0.123269 -0.123036 
-0.124439 -0.123462 -0.123205 -0.124213 -0.123718 -0.123443 -0.124105 -0.123965 -0.123702 
-0.124009 -0.124224 -0.123976 -0.123923 -0.124494 -0.124251 -0.123868 -0.124806 -0.124564 
-0.123866 -0.125075 -0.124864 -0.123915 -0.125347 -0.125191 -0.124021 -0.125605 -0.12549 
-0.124229 -0.125861 -0.12576 -0.124491 -0.126113 -0.12602 -0.124811 -0.126399 -0.126302 
-0.125183 -0.126675 -0.126613 -0.125579 -0.126936 -0.12688 -0.126059 -0.127198 -0.127129 
-0.126546 -0.127486 -0.127394 -0.127034 -0.127783 -0.127682 -0.127526 -0.1281 -0.12798 
-0.128002 -0.128447 -0.128293 -0.128473 -0.128802 -0.128632 -0.1289 -0.129154 -0.128978 
-0.129273 -0.129546 -0.129346 -0.12963 -0.129994 -0.129759 -0.129999 -0.130446 -0.130204 
-0.130356 -0.130842 -0.130619 -0.130701 -0.131265 -0.131024 -0.131031 -0.131666 -0.131437 
-0.131336 -0.132064 -0.13185 -0.131675 -0.131555 -0.123846 -0.132214 -0.130865 -0.13114 
-0.130372 -0.130662 -0.13085 -0.129929 -0.130175 -0.130461 -0.129482 -0.129721 -0.13009 
-0.129036 -0.129267 -0.129704 -0.128643 -0.128833 -0.129281 -0.128292 -0.128449 -0.128872 
-0.127983 -0.128082 -0.128468 -0.127748 -0.127793 -0.128077 -0.127566 -0.12757 -0.127732 
-0.127402 -0.127375 -0.127387 -0.127248 -0.127214 -0.12704 -0.127087 -0.127063 -0.12669 
-0.126919 -0.126902 -0.12631 -0.126728 -0.126748 -0.125974 -0.126563 -0.12662 -0.125701 
-0.126302 -0.126418 -0.125449 -0.126035 -0.126196 -0.125198 -0.125678 -0.125918 -0.124969 
-0.125275 -0.125593 -0.124753 -0.12479 -0.12516 -0.12452 -0.124271 -0.12467 -0.124238 
-0.123766 -0.124203 -0.123999 -0.123219 -0.123663 -0.123777 -0.122805 -0.123165 -0.123527 
-0.122548 -0.122892 -0.123553 -0.122256 -0.122591 -0.123647 -0.122074 -0.122256 -0.123587 
-0.122181 -0.122253 -0.12371 -0.122716 -0.122607 -0.124341 -0.12349 -0.123164 -0.125242 
-0.124512 -0.124115 -0.126157 -0.125919 -0.12522 -0.127449 -0.128091 -0.126917 -0.129347 
-0.131009 -0.129625 -0.13183 -0.135558 -0.133224 -0.135474 -0.142007 -0.138553 -0.140583 
-0.150416 -0.144697 -0.147377 -0.156023 -0.163053 -0.163514 -0.163114 -0.161867 -0.159912 
-0.132553 -0.124195 -0.141543 -0.15008 -0.142012 -0.148122 -0.162955 -0.16335 -0.160482 
-0.163672 -0.163507 -0.160876 -0.16476 -0.164465 -0.161831 -0.165726 -0.165492 -0.163172 
-0.166536 -0.16636 -0.164299 -0.167013 -0.166925 -0.164981 -0.167483 -0.167405 -0.165438 
-0.167756 -0.167808 -0.165955 -0.167653 -0.167843 -0.166147 -0.167263 -0.167538 -0.16593 
-0.166673 -0.16702 -0.16542 -0.165997 -0.166345 -0.16472 -0.165283 -0.16562 -0.163935 
-0.16436 -0.164744 -0.163026 -0.163228 -0.163622 -0.161654 -0.16202 -0.162471 -0.160083 
-0.160857 -0.161176 -0.158603 -0.159897 -0.160064 -0.156838 -0.159425 -0.158826 -0.15531 
-0.118791 -0.112536 -0.123667 -0.145088 -0.1378 -0.132131 -0.131324 -0.132873 -0.137879 
-0.134185 -0.148269 -0.153754 -0.173473 -0.174166 -0.109751 -0.106287 -0.105151 -0.104019 
-0.109585 -0.103003 -0.102276 -0.106421 -0.1019 -0.101553 -0.105068 -0.101491 -0.101341 
-0.104092 -0.101556 -0.101526 -0.103942 -0.102012 -0.102083 -0.104317 -0.102922 -0.103587 
-0.105438 -0.105467 -0.106836 -0.107763 -0.109682 -0.111553 -0.111549 -0.11007 -0.106973 
-0.115022 -0.159969 -0.153609 -0.105825 -0.104273 -0.109835 -0.103745 -0.102806 -0.107014 
-0.102596 -0.102121 -0.105545 -0.102017 -0.101678 -0.104716 -0.101802 -0.101545 -0.104354 
-0.101955 -0.101875 -0.104519 -0.102636 -0.102704 -0.10527 -0.104077 -0.104867 -0.106933 
-0.107016 -0.10983 -0.110057 -0.113101 -0.118906 -0.114933 -0.164751 -0.165447 -0.154801 
-0.130585 -0.130839 -0.131041 -0.130691 -0.131334 -0.131601 -0.131253 -0.119219 -0.111932 
-0.114906 -0.156632 -0.131646 -0.131792 -0.132023 -0.1314 -0.131509 -0.131744 -0.153077 
-0.154502 -0.14537 -0.149722 -0.124709 -0.134788 -0.162113 -0.135117 -0.127215 -0.13592 
-0.132035 -0.151719 -0.145244 -0.159757 -0.158203 -0.135212 -0.142442 -0.150405 -0.132081 
-0.146647 -0.146277 -0.152986 -0.139718 -0.150026 -0.163015 -0.1145 -0.120738 -0.125257 
-0.117192 -0.152618 -0.158382 -0.156266 -0.151103 -0.123111 -0.157014 -0.130613 -0.130752 
-0.130079 -0.13018 -0.129931 -0.130006 -0.130738 -0.12989 -0.129927 -0.130658 -0.129907 
-0.129925 -0.130677 -0.130004 -0.129955 -0.130694 -0.130106 -0.130035 -0.130785 -0.130258 
-0.130181 -0.130826 -0.130422 -0.13035 -0.130925 -0.130564 -0.130451 -0.130948 -0.130743 
-0.130612 -0.130983 -0.130953 -0.130822 -0.131059 -0.131177 -0.13103 -0.131155 -0.131427 
-0.131268 -0.13128 -0.131709 -0.13154 -0.131452 -0.131852 -0.118617 -0.114955 -0.121833 
-0.126783 -0.1303 -0.130477 -0.129747 -0.130342 -0.131272 -0.132221 -0.133655 -0.133567 
-0.134835 -0.13585 -0.128423 -0.128848 -0.131894 -0.127399 -0.127722 -0.130376 -0.126503 
-0.126727 -0.129076 -0.125779 -0.125948 -0.127877 -0.125169 -0.125274 -0.126816 -0.12465 
-0.124723 -0.125819 -0.124169 -0.124255 -0.124825 -0.123695 -0.123763 -0.123979 -0.123307 
-0.123339 -0.123144 -0.12301 -0.122987 -0.122436 -0.122817 -0.122778 -0.121878 -0.122833 
-0.122716 -0.121571 -0.122971 -0.122808 -0.121502 -0.123244 -0.123059 -0.121644 -0.123595 
-0.123436 -0.122004 -0.124078 -0.12387 -0.122498 -0.1247 -0.124417 -0.123139 -0.125422 
-0.125124 -0.123973 -0.126213 -0.125903 -0.124988 -0.126961 -0.126657 -0.126025 -0.127654 
-0.127355 -0.126989 -0.128325 -0.128069 -0.127902 -0.12892 -0.128704 -0.128774 -0.129412 
-0.129237 -0.129451 -0.129799 -0.129656 -0.12998 -0.130116 -0.129957 -0.130324 -0.130451 
-0.130276 -0.130576 -0.130768 -0.1306 -0.130843 -0.130987 -0.130842 -0.131035 -0.131196 
-0.131046 -0.131156 -0.131406 -0.131255 -0.13126 -0.131634 -0.131482 -0.131376 -0.133793 
-0.129337 -0.144808 -0.1495 -0.159725 -0.159057 -0.125718 -0.121379 -0.121432 -0.126982 
-0.159969 -0.161655 -0.131901 -0.1393 -0.135895 -0.130581 -0.130741 -0.130789 -0.130859 
-0.131063 -0.130987 -0.129976 -0.130159 -0.130547 -0.129613 -0.129806 -0.130283 -0.129168 
-0.129364 -0.129882 -0.128698 -0.128896 -0.129387 -0.128236 -0.12841 -0.128816 -0.127765 
-0.127922 -0.128226 -0.127251 -0.127417 -0.127581 -0.126667 -0.12684 -0.126847 -0.126065 
-0.126243 -0.126019 -0.125435 -0.125666 -0.125171 -0.124935 -0.125088 -0.124405 -0.124553 
-0.124661 -0.123778 -0.124193 -0.12434 -0.123267 -0.123986 -0.1241 -0.122985 -0.123795 
-0.123939 -0.122842 -0.123722 -0.123828 -0.122758 -0.123674 -0.123828 -0.122917 -0.123598 
-0.123762 -0.12305 -0.123722 -0.123807 -0.123286 -0.123777 -0.123868 -0.123671 -0.123828 
-0.123889 -0.12397 -0.124359 -0.12426 -0.124636 -0.124837 -0.124765 -0.1255 -0.12507 
-0.125129 -0.126222 -0.125588 -0.125449 -0.126771 -0.126643 -0.126227 -0.127865 -0.12782 
-0.12734 -0.129192 -0.129084 -0.128529 -0.130542 -0.130614 -0.129874 -0.131901 -0.132762 
-0.131461 -0.133745 -0.135957 -0.134246 -0.136332 -0.140127 -0.137916 -0.140042 -0.145691 
-0.142614 -0.144331 -0.149268 -0.131494 -0.131693 -0.142487 -0.139407 -0.157217 -0.157014 
-0.157789 -0.157524 -0.155749 -0.131098 -0.136362 -0.138963 -0.141786 -0.151213 -0.148038 
-0.152626 -0.146598 -0.143641 -0.158212 -0.158034 -0.155045 -0.154956 -0.161501 -0.160868 
-0.158121 -0.16296 -0.162489 -0.160223 -0.16323 -0.163002 -0.161295 -0.163827 -0.163558 
-0.161633 -0.164391 -0.164194 -0.162332 -0.164581 -0.164593 -0.162974 -0.164156 -0.164373 
-0.162952 -0.16345 -0.163756 -0.162351 -0.162625 -0.163011 -0.161565 -0.161729 -0.162127 
-0.16069 -0.160593 -0.161112 -0.159501 -0.158999 -0.159738 -0.157986 -0.156961 -0.157738 
-0.155878 -0.154774 -0.155794 -0.153482 -0.126189 -0.121642 -0.144841 -0.130245 -0.130337 
-0.130799 -0.135776 -0.130118 -0.127992 -0.134419 -0.130896 -0.135794 -0.13458 -0.131166 
-0.131367 -0.131188 -0.130416 -0.130543 -0.130955 -0.130881 -0.151865 -0.150417 -0.144368 
-0.110573 -0.109278 -0.108202 -0.107602 -0.111625 -0.106917 -0.106833 -0.109815 -0.106547 
-0.106522 -0.109004 -0.106531 -0.107019 -0.108938 -0.10781 -0.108408 -0.109844 -0.109757 
-0.111367 -0.111645 -0.113501 -0.11576 -0.115264 -0.118669 -0.115079 -0.121583 -0.110243 
-0.108861 -0.10845 -0.10763 -0.111046 -0.107466 -0.106889 -0.109906 -0.107007 -0.106728 
-0.109382 -0.107152 -0.107156 -0.1095 -0.107796 -0.108121 -0.110136 -0.109146 -0.110161 
-0.111396 -0.111625 -0.113625 -0.113652 -0.115817 -0.119352 -0.117168 -0.151123 -0.152276 
-0.146901 -0.145706 -0.162082 -0.159923 -0.113715 -0.11153 -0.113683 -0.116938 -0.113414 
-0.111148 -0.113154 -0.116553 -0.150356 -0.131349 -0.131515 -0.140105 -0.144596 -0.154188 
-0.150677 -0.122136 -0.155261 -0.155801 -0.131422 -0.128486 -0.157631 -0.131036 -0.131222 
-0.131327 -0.138862 -0.136618 -0.138288 -0.132536 -0.155958 -0.135385 -0.131713 -0.139547 
-0.136266 -0.143775 -0.139762 -0.126939 -0.12792 -0.131032 -0.130816 -0.130952 -0.139974 
-0.142568 -0.146805 -0.142307 -0.138465 -0.142634 -0.142245 -0.153549 -0.139889 -0.150785 
-0.120404 -0.119218 -0.151219 -0.147998 -0.145388 -0.151701 -0.142673 -0.147248 -0.149193 
-0.151659 -0.148332 -0.145847 -0.131517 -0.131562 -0.13151 -0.131468 -0.131666 -0.131647 
-0.132367 -0.131532 -0.13148 -0.132336 -0.131663 -0.131663 -0.132311 -0.131528 -0.131581 
-0.132303 -0.131326 -0.131325 -0.131919 -0.131338 -0.131312 -0.131602 -0.13129 -0.131261 
-0.131494 -0.131316 -0.131254 -0.131339 -0.131319 -0.121689 -0.124297 -0.153954 -0.152777 
-0.159141 -0.159135 -0.133941 -0.13479 -0.130609 -0.131252 -0.128926 -0.129492 -0.131698 
-0.127835 -0.128406 -0.130001 -0.126361 -0.126891 -0.128517 -0.125207 -0.125698 -0.126707 
-0.123786 -0.124349 -0.12505 -0.122434 -0.122935 -0.123093 -0.121312 -0.121737 -0.121304 
-0.120526 -0.120826 -0.119951 -0.120038 -0.120181 -0.119012 -0.119884 -0.119972 -0.118429 
-0.12 -0.119963 -0.11818 -0.120332 -0.120214 -0.118308 -0.120993 -0.12079 -0.118815 
-0.121944 -0.12163 -0.119807 -0.123127 -0.12263 -0.121088 -0.124523 -0.123919 -0.122624 
-0.125949 -0.125399 -0.124431 -0.12717 -0.126642 -0.126102 -0.128306 -0.127837 -0.127524 
-0.129317 -0.128902 -0.128862 -0.130153 -0.129843 -0.130043 -0.130726 -0.13051 -0.130924 
-0.131008 -0.130856 -0.131389 -0.131102 -0.130945 -0.131497 -0.131317 -0.13119 -0.131549 
-0.131367 -0.131306 -0.13161 -0.131363 -0.13132 -0.131544 -0.131325 -0.131282 -0.131411 
-0.131276 -0.14821 -0.121855 -0.130743 -0.13089 -0.130986 -0.131079 -0.138049 -0.135794 
-0.130911 -0.131006 -0.131337 -0.131103 -0.131197 -0.131327 -0.130277 -0.130482 -0.131102 
-0.12966 -0.129935 -0.13057 -0.128972 -0.129259 -0.129801 -0.128355 -0.12865 -0.129138 
-0.127559 -0.127899 -0.128351 -0.126451 -0.126887 -0.1272 -0.125344 -0.12581 -0.125866 
-0.12422 -0.124669 -0.124402 -0.123155 -0.123472 -0.122915 -0.122322 -0.122592 -0.121592 
-0.121836 -0.122073 -0.120837 -0.121484 -0.12162 -0.120252 -0.121318 -0.121419 -0.119939 
-0.121567 -0.121546 -0.120098 -0.121962 -0.121853 -0.120632 -0.122474 -0.122427 -0.121334 
-0.122929 -0.122668 -0.121933 -0.124121 -0.12392 -0.12343 -0.124378 -0.124957 -0.126643 
-0.126075 -0.125807 -0.127771 -0.127432 -0.12805 -0.12835 -0.128016 -0.129249 -0.130032 
-0.129364 -0.130478 -0.131744 -0.131096 -0.132555 -0.133349 -0.132669 -0.134534 -0.135111 
-0.134285 -0.136276 -0.136943 -0.135824 -0.138067 -0.139409 -0.137661 -0.139744 -0.144182 
-0.142039 -0.143405 -0.125524 -0.129539 -0.126443 -0.129572 -0.125969 -0.13206 -0.134724 
-0.156723 -0.155596 -0.152771 -0.139993 -0.138164 -0.155802 -0.153811 -0.159997 -0.159738 
-0.157792 -0.160839 -0.16048 -0.158604 -0.161667 -0.161471 -0.15967 -0.161514 -0.16169 
-0.160278 -0.160439 -0.160828 -0.159662 -0.159609 -0.160031 -0.158734 -0.158526 -0.158975 
-0.157773 -0.157162 -0.157763 -0.156291 -0.155756 -0.156564 -0.154922 -0.15285 -0.153995 
-0.152655 -0.150018 -0.151146 -0.149422 -0.153675 -0.15525 -0.157145 -0.156877 -0.155016 
-0.158088 -0.155817 -0.120291 -0.123132 -0.132845 -0.130271 -0.131462 -0.131446 -0.132237 
-0.13576 -0.136677 -0.137812 -0.113839 -0.112817 -0.131202 -0.131295 -0.114784 -0.113683 
-0.112161 -0.111585 -0.115256 -0.112303 -0.112024 -0.114362 -0.110988 -0.111109 -0.113959 
-0.111545 -0.112453 -0.113432 -0.113312 -0.114643 -0.114798 -0.116112 -0.118207 -0.117455 
-0.12337 -0.120603 -0.132227 -0.132865 -0.135786 -0.133764 -0.131963 -0.135616 -0.12962 
-0.135319 -0.133498 -0.14366 -0.14233 -0.112615 -0.111923 -0.11492 -0.112019 -0.111669 
-0.114268 -0.111875 -0.111884 -0.114077 -0.112366 -0.112627 -0.114383 -0.11334 -0.11417 
-0.115374 -0.115158 -0.116517 -0.116919 -0.117881 -0.119918 -0.122244 -0.131644 -0.131605 
-0.132365 -0.131394 -0.13141 -0.132355 -0.152737 -0.132248 -0.136004 -0.135734 -0.147187 
-0.150774 -0.151341 -0.148563 -0.150363 -0.133569 -0.136147 -0.137527 -0.131306 -0.125044 
-0.119177 -0.128192 -0.125444 -0.128329 -0.131149 -0.140976 -0.142906 -0.131357 -0.131347 
-0.134794 -0.138591 -0.141626 -0.13731 -0.138687 -0.142545 -0.131262 -0.131385 -0.139538 
-0.136119 -0.146149 -0.131269 -0.131282 -0.13161 -0.147807 -0.11594 -0.114345 -0.116129 
-0.12346 -0.120716 -0.124763 -0.131527 -0.139512 -0.139388 -0.141983 -0.15091 -0.129964 
-0.138843 -0.154238 -0.115667 -0.117228 -0.116843 -0.120877 -0.132038 -0.131381 -0.131423 
-0.121671 -0.119617 -0.117833 -0.119054 -0.116922 -0.118134 -0.121012 -0.146185 -0.142888 
-0.140997 -0.144482 -0.141044 -0.133674 -0.144943 -0.142978 -0.14453 -0.141397 -0.140113 
-0.135865 -0.134911 -0.128599 -0.125534 -0.132876 -0.133147 -0.132144 -0.132411 -0.133278 
-0.132035 -0.0539291 -0.131555 -0.131645 -0.132139 -0.133286 -0.133158 -0.133941 -0.13318 
-0.132979 -0.131813 -0.13122 -0.15456 -0.155083 -0.125131 -0.126248 -0.122304 -0.123358 
-0.119941 -0.120816 -0.118242 -0.118768 -0.117115 -0.117466 -0.116446 -0.116481 -0.116358 
-0.116323 -0.116469 -0.116357 -0.117036 -0.116809 -0.119836 -0.119248 -0.122002 -0.121123 
-0.130966 -0.1304 -0.132117 -0.131742 -0.13217 -0.132495 -0.132241 -0.133221 -0.132098 
-0.132074 -0.1332 -0.132196 -0.131991 -0.13199 -0.132608 -0.131812 -0.131872 -0.132251 
-0.131879 -0.131938 -0.139849 -0.138983 -0.144037 -0.123759 -0.125622 -0.13102 -0.13136 
-0.131827 -0.131978 -0.132225 -0.132397 -0.133647 -0.131673 -0.131626 -0.13227 -0.131525 
-0.131518 -0.12861 -0.129116 -0.119778 -0.120247 -0.132282 -0.131203 -0.134954 -0.133908 
-0.134594 -0.137406 -0.136444 -0.137755 -0.139402 -0.138445 -0.140471 -0.141065 -0.140098 
-0.14218 -0.142908 -0.142001 -0.143891 -0.130791 -0.124584 -0.118153 -0.131922 -0.129948 
-0.146175 -0.128469 -0.13794 -0.137586 -0.135692 -0.151579 -0.149008 -0.14671 -0.138394 
-0.137536 -0.135338 -0.13685 -0.151412 -0.14987 -0.12805 -0.158583 -0.158057 -0.128653 
-0.130551 -0.156174 -0.155603 -0.133216 -0.13335 -0.134141 -0.156979 -0.15741 -0.156075 
-0.156724 -0.155526 -0.15415 -0.154945 -0.153989 -0.152317 -0.152733 -0.151567 -0.151992 
-0.125483 -0.127276 -0.141685 -0.142459 -0.140266 -0.141254 -0.144198 -0.131415 -0.133232 
-0.132242 -0.127152 -0.129436 -0.154824 -0.153941 -0.13532 -0.133602 -0.131122 -0.129896 
-0.157464 -0.156918 -0.155129 -0.156621 -0.133529 -0.133354 -0.0614761 -0.136268 -0.133581 
-0.132581 -0.132435 -0.153161 -0.150757 -0.154507 -0.133588 -0.133396 -0.134284 -0.13884 
-0.13714 -0.138233 -0.141815 -0.131371 -0.148099 -0.145525 -0.139922 -0.137593 -0.132367 
-0.132231 -0.132929 -0.132594 -0.135435 -0.128003 -0.133411 -0.13343 -0.13274 -0.128822 
-0.132386 -0.117752 -0.147956 -0.147714 -0.150335 -0.124662 -0.123581 -0.128697 -0.129399 
-0.13151 -0.146955 -0.133637 -0.134488 -0.122487 -0.131982 -0.131813 -0.127727 -0.128567 
-0.128896 -0.126988 -0.131879 -0.129922 -0.130348 -0.129611 -0.125183 -0.125971 -0.123473 
-0.124293 -0.130906 -0.130441 -0.11867 -0.118937 -0.118823 -0.118989 -0.117483 -0.11772 
-0.119404 -0.119209 -0.12078 -0.120279 -0.151941 -0.144558 -0.0655284 -0.0654166 -0.158641 
-0.130298 -0.131727 -0.119249 -0.153443 -0.152355 -0.151204 -0.0704468 -0.0711524 -0.133246 
-0.157976 -0.0735885 -0.0742321 -0.15649 -0.0759575 -0.0765537 -0.132409 -0.0781959 -0.0779613 
-0.147548 -0.126458 -0.118451 -0.115872 -0.114775 -0.118515 -0.124391 -0.11542 -0.154536 
-0.123073 -0.121879 -0.120744 -0.139745 -0.115952 -0.11693 -0.117777 -0.119362 -0.135821 
-0.13736 -0.124241 -0.121059 -0.136088 -0.138137 -0.13916 -0.125914 -0.143839 -0.145895 
-0.150749 -0.152848 -0.140749 -0.139527 -0.136323 -0.136129 -0.146769 -0.143726 -0.127071 
-0.153524 -0.13342 -0.132565 -0.140415 -0.132718 -0.132944 -0.133143 -0.137222 -0.117318 
-0.154317 -0.155337 -0.144387 -0.147207 -0.149201 -0.121377 -0.118804 -0.122138 -0.117041 
-0.116315 -0.0790519 -0.0784419 -0.134225 -0.134893 -0.14594 -0.14775 -0.145183 -0.134759 
-0.133681 -0.141647 -0.133581 -0.152641 -0.153849 -0.134527 -0.13449 -0.142607 -0.132304 
-0.11549 -0.155902 -0.155601 -0.135986 -0.133517 -0.133768 -0.135403 -0.135938 -0.137261 
-0.07889 -0.0784596 -0.131058 -0.0782954 -0.077567 -0.134213 -0.134024 -0.149135 -0.150776 
-0.150659 -0.146848 -0.133132 -0.135853 -0.129948 -0.154836 -0.144188 -0.134039 -0.146194 
-0.149043 -0.0774017 -0.075257 -0.148466 -0.151368 -0.154252 -0.153452 -0.149655 -0.13539 
-0.135779 -0.153124 -0.134945 -0.134226 -0.131528 -0.0743788 -0.0720617 -0.146455 -0.143676 
-0.151142 -0.0708679 -0.0674024 -0.0582273 -0.0603899 -0.148805 -0.06485 -0.0583617 -0.133386 
-0.234542 -0.190539 -0.133432 -0.133424 -0.133361 -0.133194 -0.132999 -0.13271 -0.132387 
-0.132003 -0.131627 -0.131123 -0.130634 -0.130158 -0.129686 -0.129216 -0.128751 -0.128298 
-0.127849 -0.127454 -0.127091 -0.126835 -0.126567 -0.126426 -0.126272 -0.126289 -0.126297 
-0.12646 -0.126607 -0.126883 -0.127168 -0.127555 -0.127934 -0.128382 -0.12884 -0.129357 
-0.129842 -0.130275 -0.130679 -0.131025 -0.131367 -0.131546 -0.131718 -0.131762 -0.131742 
-0.131583 -0.131376 -0.131047 -0.130639 -0.13016 -0.129533 -0.128796 -0.128093 -0.127266 
-0.126401 -0.12537 -0.124312 -0.123287 -0.1223 -0.121121 -0.120089 -0.119119 -0.118038 
-0.117014 -0.116071 -0.115246 -0.114459 -0.113741 -0.113087 -0.112561 -0.112027 -0.111588 
-0.111217 -0.110998 -0.110774 -0.11077 -0.110712 -0.110955 -0.111134 -0.111689 -0.112148 
-0.113244 -0.114116 -0.115945 -0.117566 -0.120834 -0.123436 -0.131296 -0.139153 -0.155077 
-0.208599 -0.133392 -0.13341 -0.216859 -0.159411 -0.130902 -0.128633 -0.123026 -0.120537 
-0.117475 -0.115754 -0.113875 -0.113058 -0.112058 -0.11159 -0.111096 -0.110953 -0.110794 
-0.110874 -0.110926 -0.111206 -0.111465 -0.111926 -0.112333 -0.112936 -0.113511 -0.114265 
-0.114966 -0.115727 -0.116601 -0.117556 -0.11849 -0.119502 -0.120647 -0.121689 -0.122771 
-0.123747 -0.124843 -0.125838 -0.126725 -0.127609 -0.128485 -0.129212 -0.129863 -0.130408 
-0.130894 -0.131238 -0.131557 -0.131734 -0.131856 -0.131837 -0.131794 -0.131617 -0.131387 
-0.131082 -0.13073 -0.130284 -0.129843 -0.1294 -0.128945 -0.128505 -0.12805 -0.127652 
-0.127293 -0.127008 -0.126731 -0.12657 -0.126419 -0.126397 -0.126391 -0.126517 -0.126636 
-0.126909 -0.12717 -0.127506 -0.127874 -0.128331 -0.128774 -0.129233 -0.129696 -0.130161 
-0.130652 -0.131116 -0.131583 -0.132002 -0.132392 -0.132691 -0.133013 -0.13321 -0.13338 
-0.13342 -0.133367 -0.133377 -0.133423 -0.133407 -0.133398 -0.133353 -0.133221 -0.133027 
-0.132735 -0.132408 -0.132012 -0.131619 -0.131157 -0.130693 -0.130141 -0.129599 -0.12905 
-0.128484 -0.12794 -0.127391 -0.12681 -0.125895 -0.125416 -0.125063 -0.124748 -0.12451 
-0.124306 -0.124239 -0.124153 -0.124239 -0.124309 -0.124532 -0.124733 -0.125095 -0.125463 
-0.125865 -0.126295 -0.126828 -0.127349 -0.127921 -0.128542 -0.129087 -0.129626 -0.130166 
-0.130725 -0.131182 -0.131659 -0.132069 -0.132479 -0.132756 -0.133031 -0.133231 -0.133368 
-0.133428 -0.126321 -0.0490318 -0.0598138 -0.0628304 -0.0657367 -0.0677222 -0.0704982 -0.0719222 
-0.0736787 -0.0750732 -0.0760187 -0.0764725 -0.0771154 -0.0771584 -0.0774787 -0.0770957 -0.0770437 
-0.0763417 -0.0744122 -0.0734985 -0.07172 -0.0703266 -0.0675182 -0.0654205 -0.0613217 -0.0480009 
-0.041408 -0.0758464 -0.040279 -0.0483322 -0.0655067 -0.0611711 -0.0701737 -0.0679521 -0.0731757 
-0.071495 -0.0755799 -0.0739549 -0.0769253 -0.0761959 -0.0775281 -0.0770898 -0.0773647 -0.0772679 
-0.0763562 -0.0766611 -0.0741709 -0.0754327 -0.0710811 -0.072409 -0.0663939 -0.0686585 -0.0603919 
-0.0620885 -0.0540548 -0.0642531 -0.0768631 -0.0767958 -0.0684522 -0.0733532 -0.0746389 -0.0730851 
-0.0740886 -0.0754243 -0.075041 -0.0673525 -0.0765794 -0.0716913 -0.0537235 -0.0606414 -0.0757394 
-0.0476324 -0.0468629 -0.0761146 -0.0721846 -0.0701766 -0.0763099 -0.0765216 -0.0645146 -0.0699399 
-0.0620903 -0.0647004 -0.0560166 -0.126616 -0.129977 -0.127608 -0.125424 -0.125677 -0.126133 
-0.12633 -0.127996 -0.128286 -0.127979 -0.129421 -0.12921 -0.129128 -0.128884 -0.128692 
-0.121102 -0.121938 -0.120622 -0.120084 -0.119413 -0.0864685 -0.0859964 -0.12982 -0.129215 
-0.129671 -0.127478 -0.127087 -0.127838 -0.130721 -0.130293 -0.130126 -0.135348 -0.134238 
-0.134215 -0.12801 -0.127557 -0.13141 -0.130933 -0.130597 -0.130264 -0.143157 -0.144762 
-0.146347 -0.149379 -0.128842 -0.129106 -0.128472 -0.129722 -0.12919 -0.129414 -0.150949 
-0.154982 -0.149425 -0.153991 -0.125819 -0.126744 -0.126833 -0.155448 -0.157918 -0.157805 
-0.16024 -0.129018 -0.129508 -0.129534 -0.129827 -0.129866 -0.130121 -0.13016 -0.130237 
-0.124564 -0.123932 -0.124217 -0.123542 -0.130044 -0.129671 -0.129775 -0.119746 -0.120986 
-0.120627 -0.12174 -0.117044 -0.118271 -0.144797 -0.142631 -0.142951 -0.1407 -0.130857 
-0.130665 -0.130655 -0.132224 -0.132393 -0.132673 -0.131962 -0.132392 -0.131753 -0.131807 
-0.1305 -0.130322 -0.130707 -0.130562 -0.0960906 -0.0960009 -0.0984214 -0.131923 -0.139023 
-0.139958 -0.141429 -0.142485 -0.133169 -0.133266 -0.133276 -0.133341 -0.145172 -0.142437 
-0.147057 -0.144288 -0.134571 -0.133862 -0.134154 -0.133799 -0.129185 -0.129122 -0.129948 
-0.129877 -0.124879 -0.125381 -0.125025 -0.130514 -0.130197 -0.129418 -0.126567 -0.125614 
-0.129457 -0.128799 -0.129735 -0.129066 -0.132099 -0.132109 -0.131797 -0.126769 -0.126944 
-0.125887 -0.124256 -0.127605 -0.127035 -0.12714 -0.123556 -0.12366 -0.123759 -0.130513 
-0.129509 -0.129565 -0.129078 -0.128823 -0.12863 -0.131122 -0.130986 -0.130866 -0.121795 
-0.122768 -0.123226 -0.124154 -0.120614 -0.118386 -0.121417 -0.128069 -0.127792 -0.128304 
-0.126549 -0.127335 -0.12715 -0.129948 -0.129685 -0.129514 -0.130136 -0.130688 -0.12998 
-0.130565 -0.12853 -0.128048 -0.12828 -0.127798 -0.126446 -0.126855 -0.126864 -0.131814 
-0.132262 -0.13172 -0.0945656 -0.0931887 -0.0974268 -0.152533 -0.150141 -0.151313 -0.148432 
-0.144849 -0.146913 -0.14048 -0.142809 -0.109686 -0.113114 -0.10748 -0.121588 -0.122544 
-0.121987 -0.122901 -0.125062 -0.124462 -0.131267 -0.13147 -0.131386 -0.129591 -0.13046 
-0.129491 -0.132037 -0.132049 -0.132274 -0.131753 -0.131676 -0.131515 -0.131427 -0.153166 
-0.155374 -0.152032 -0.154171 -0.125854 -0.124681 -0.125734 -0.164997 -0.163368 -0.165299 
-0.131813 -0.131842 -0.131035 -0.131294 -0.131374 -0.123994 -0.125047 -0.12652 -0.117757 
-0.119358 -0.117413 -0.163513 -0.172063 -0.17165 -0.193404 -0.12613 -0.126014 -0.124874 
-0.121333 -0.119023 -0.121157 -0.128096 -0.128075 -0.127869 -0.158745 -0.161021 -0.159418 
-0.16811 -0.167547 -0.166343 -0.154611 -0.157132 -0.153741 -0.127338 -0.127176 -0.127507 
-0.12741 -0.124954 -0.125419 -0.125767 -0.126432 -0.12544 -0.126129 -0.138148 -0.1349 
-0.142031 -0.160107 -0.157382 -0.157911 -0.159399 -0.118851 -0.123757 -0.124293 -0.123136 
-0.123681 -0.123506 -0.123577 -0.124327 -0.129026 -0.160128 -0.160419 -0.158571 -0.132905 
-0.131046 -0.134358 -0.128457 -0.13081 -0.131293 -0.130836 -0.147337 -0.149808 -0.151188 
-0.113544 -0.13487 -0.134545 -0.13406 -0.120752 -0.123535 -0.122092 -0.122333 -0.113819 
-0.116541 -0.11362 -0.126486 -0.129397 -0.130353 -0.129208 -0.128854 -0.129147 -0.128649 
-0.117568 -0.114179 -0.117127 -0.16582 -0.16292 -0.16547 -0.15022 -0.17735 -0.151365 
-0.12823 -0.156422 -0.157433 -0.15321 -0.190541 -0.171775 -0.195413 -0.127268 -0.127225 
-0.119018 -0.118457 -0.117612 -0.131647 -0.131491 -0.131488 -0.124464 -0.125352 -0.124958 
-0.126038 -0.123829 -0.122581 -0.12367 -0.122613 -0.130576 -0.130316 -0.130316 -0.123115 
-0.122899 -0.121942 -0.121712 -0.165627 -0.167359 -0.149087 -0.131254 -0.131359 -0.131122 
-0.128812 -0.129231 -0.129042 -0.143191 -0.146904 -0.141624 -0.145029 -0.124976 -0.123943 
-0.125097 -0.15966 -0.159586 -0.156541 -0.0887103 -0.0942163 -0.0952096 -0.150148 -0.181694 
-0.145039 -0.134293 -0.137821 -0.135752 -0.143682 -0.147484 -0.146157 -0.121847 -0.122493 
-0.121566 -0.135121 -0.134935 -0.134084 -0.0954291 -0.0888134 -0.0943313 -0.15797 -0.157379 
-0.156275 -0.107046 -0.107808 -0.0966232 -0.146732 -0.148368 -0.149304 -0.135159 -0.138042 
-0.137123 -0.187619 -0.248399 -0.122215 -0.123839 -0.12363 -0.156122 -0.15753 -0.154968 
-0.129049 -0.129228 -0.129827 -0.185284 -0.169663 -0.195699 -0.178072 -0.185602 -0.180649 
-0.22548 -0.237802 -0.133614 -0.128207 -0.132669 -0.130814 -0.130994 -0.130826 -0.123958 
-0.123924 -0.129259 -0.129515 -0.129652 -0.129887 -0.0947528 -0.0892438 -0.129596 -0.128323 
-0.0902266 -0.136082 -0.139206 -0.127627 -0.127528 -0.127237 -0.14506 -0.148375 -0.18674 
-0.130273 -0.130077 -0.13011 -0.127592 -0.129868 -0.127116 -0.129441 -0.132832 -0.132734 
-0.132986 -0.0883549 -0.164155 -0.16229 -0.1639 -0.113413 -0.109468 -0.113976 -0.11043 
-0.13357 -0.134517 -0.136036 -0.124995 -0.125886 -0.125663 -0.128541 -0.128779 -0.128158 
-0.121915 -0.0955213 -0.0992608 -0.0958304 -0.128598 -0.127431 -0.12861 -0.126869 -0.127221 
-0.126999 -0.125831 -0.127211 -0.127759 -0.130749 -0.13107 -0.13085 -0.148232 -0.192859 
-0.138327 -0.139772 -0.136665 -0.136677 -0.138174 -0.135341 -0.124342 -0.124902 -0.138378 
-0.113806 -0.114408 -0.111732 -0.13062 -0.130874 -0.130872 -0.131243 -0.131423 -0.131364 
-0.127574 -0.127647 -0.127748 -0.133675 -0.134518 -0.135653 -0.157827 -0.159233 -0.156824 
-0.15818 -0.136877 -0.129688 -0.129349 -0.129936 -0.129924 -0.129175 -0.131518 -0.126837 
-0.12761 -0.130296 -0.130341 -0.130613 -0.128141 -0.128443 -0.128537 -0.129286 -0.127799 
-0.141103 -0.137847 -0.117371 -0.114245 -0.117872 -0.12938 -0.128859 -0.129697 -0.129199 
-0.128407 -0.128909 -0.128765 -0.128394 -0.131252 -0.131457 -0.131139 -0.113797 -0.116621 
-0.1152 -0.131694 -0.131867 -0.13164 -0.124304 -0.124189 -0.125068 -0.129103 -0.129713 
-0.1315 -0.132093 -0.123054 -0.12329 -0.129217 -0.129702 -0.129758 -0.130266 -0.131721 
-0.131577 -0.131397 -0.131623 -0.129752 -0.1282 -0.128512 -0.128249 -0.128586 -0.100831 
-0.102516 -0.0968535 -0.0978931 -0.117047 -0.119557 -0.120125 -0.122497 -0.122992 -0.123728 
-0.123557 -0.123778 -0.124242 -0.124047 -0.124642 -0.135454 -0.130266 -0.132499 -0.127706 
-0.127677 -0.128501 -0.124477 -0.125156 -0.127561 -0.132 -0.131504 -0.13202 -0.131516 
-0.134087 -0.134982 -0.132984 -0.127681 -0.127671 -0.127874 -0.127586 -0.127576 -0.127622 
-0.127081 -0.130356 -0.13058 -0.142452 -0.131329 -0.13125 -0.131169 -0.11618 -0.118043 
-0.114552 -0.116689 -0.127472 -0.111524 -0.123785 -0.130665 -0.121961 -0.121589 -0.114024 
-0.113764 -0.115659 -0.128354 -0.12797 -0.128441 -0.122863 -0.121273 -0.118029 -0.128155 
-0.125858 -0.129739 -0.128886 -0.128783 -0.121282 -0.12225 -0.121174 -0.124104 -0.120934 
-0.125557 -0.122415 -0.12742 -0.123843 -0.129841 -0.129569 -0.130164 -0.129913 -0.122152 
-0.120352 -0.123824 -0.122145 -0.127744 -0.12733 -0.125245 -0.105643 -0.10826 -0.096411 
-0.122425 -0.122297 -0.123717 -0.129509 -0.129128 -0.129205 -0.126013 -0.126892 -0.126216 
-0.121091 -0.121161 -0.122259 -0.131567 -0.131452 -0.131566 -0.131441 -0.12445 -0.124383 
-0.119453 -0.118048 -0.119411 -0.131025 -0.131196 -0.130847 -0.131045 -0.128328 -0.128087 
-0.119989 -0.119686 -0.121505 -0.13036 -0.130148 -0.129791 -0.129553 -0.129762 -0.128599 
-0.12962 -0.127604 -0.128551 -0.130559 -0.130394 -0.13025 -0.126804 -0.12089 -0.119694 
-0.120381 -0.127819 -0.137467 -0.13977 -0.135325 -0.13123 -0.130777 -0.131253 -0.127437 
-0.127428 -0.127268 -0.158828 -0.161005 -0.132694 -0.126502 -0.126926 -0.127444 -0.110068 
-0.107912 -0.113162 -0.19555 -0.169247 -0.171548 -0.190059 -0.168329 -0.172143 -0.0937772 
-0.0876487 -0.0944056 -0.12921 -0.129733 -0.129014 -0.123516 -0.131295 -0.130904 -0.131101 
-0.131197 -0.131251 -0.130383 -0.130669 -0.126972 -0.124843 -0.123954 -0.127853 -0.12764 
-0.127357 -0.159046 -0.162931 -0.130582 -0.130883 -0.129032 -0.129445 -0.129224 -0.117955 
-0.118775 -0.158698 -0.160331 -0.159315 -0.161007 -0.123634 -0.12499 -0.123607 -0.131342 
-0.119161 -0.121241 -0.120605 -0.127145 -0.127317 -0.126315 -0.164962 -0.163031 -0.163443 
-0.161546 -0.117566 -0.116691 -0.115781 -0.116299 -0.129209 -0.129321 -0.129985 -0.130097 
-0.130149 -0.129528 -0.152311 -0.15358 -0.154833 -0.130362 -0.132099 -0.131381 -0.133345 
-0.135717 -0.134003 -0.107042 -0.104369 -0.104868 -0.139886 -0.147141 -0.135974 -0.125973 
-0.159643 -0.165136 -0.160187 -0.131432 -0.100206 -0.0969168 -0.0973858 -0.133851 -0.136294 
-0.139306 -0.135959 -0.141836 -0.101451 -0.0990732 -0.0988771 -0.157251 -0.15475 -0.157602 
-0.155128 -0.132326 -0.132471 -0.131583 -0.140441 -0.13902 -0.142132 -0.104253 -0.100839 
-0.132779 -0.132888 -0.132567 -0.126743 -0.127075 -0.126864 -0.156576 -0.126666 -0.125633 
-0.0991411 -0.0991125 -0.0967065 -0.130755 -0.130959 -0.130621 -0.130851 -0.133033 -0.131661 
-0.105327 -0.106102 -0.102681 -0.130619 -0.089149 -0.132628 -0.127944 -0.12869 -0.10914 
-0.112699 -0.106026 -0.110046 -0.0849195 -0.0841058 -0.0948922 -0.122368 -0.121545 -0.12256 
-0.121802 -0.137815 -0.140153 -0.136045 -0.108055 -0.109319 -0.0876026 -0.0944787 -0.0952476 
-0.153968 -0.152123 -0.130937 -0.130792 -0.114818 -0.118621 -0.129981 -0.130158 -0.130378 
-0.130507 -0.133342 -0.131063 -0.0966568 -0.0944251 -0.0950605 -0.0891466 -0.0953075 -0.128556 
-0.128167 -0.128424 -0.127998 -0.157793 -0.157097 -0.144777 -0.145311 -0.146392 -0.146942 
-0.144835 -0.147692 -0.111829 -0.114005 -0.110777 -0.158981 -0.156801 -0.157354 -0.119423 
-0.111681 -0.118491 -0.154839 -0.130714 -0.130952 -0.130579 -0.127587 -0.127122 -0.127821 
-0.129008 -0.128808 -0.125247 -0.132598 -0.142097 -0.139798 -0.138001 -0.143205 -0.123533 
-0.123221 -0.143716 -0.139466 -0.140912 -0.138352 -0.12401 -0.123953 -0.124151 -0.124028 
-0.123549 -0.123531 -0.124021 -0.120672 -0.118426 -0.121004 -0.129402 -0.11334 -0.111302 
-0.151653 -0.158653 -0.176547 -0.12498 -0.125846 -0.12552 -0.126078 -0.126688 -0.126318 
-0.127894 -0.128356 -0.203053 -0.161181 -0.118612 -0.11677 -0.11948 -0.128545 -0.128632 
-0.130587 -0.130859 -0.129507 -0.130814 -0.13144 -0.128864 -0.12865 -0.129079 -0.130344 
-0.13001 -0.129934 -0.131474 -0.131232 -0.12396 -0.11503 -0.0953873 -0.09465 -0.124238 
-0.125394 -0.125143 -0.122275 -0.129402 -0.129523 -0.130077 -0.13118 -0.131195 -0.131083 
-0.128024 -0.128967 -0.130441 -0.123404 -0.123707 -0.123401 -0.123696 -0.131276 -0.131303 
-0.131182 -0.124029 -0.172532 -0.186619 -0.171773 -0.189812 -0.132583 -0.132675 -0.15293 
-0.151652 -0.153709 -0.163179 -0.165121 -0.156181 -0.150347 -0.148913 -0.152423 -0.153696 
-0.140066 -0.141071 -0.144202 -0.125131 -0.12394 -0.12383 -0.123823 -0.128296 -0.130099 
-0.130216 -0.122953 -0.121755 -0.122908 -0.121692 -0.126829 -0.125835 -0.123336 -0.132916 
-0.132803 -0.132692 -0.132613 -0.150776 -0.122668 -0.123581 -0.12407 -0.12364 -0.12323 
-0.130729 -0.130707 -0.100103 -0.12097 -0.120492 -0.135155 -0.136994 -0.136887 -0.148221 
-0.127592 -0.131007 -0.131211 -0.130962 -0.168765 -0.127844 -0.128465 -0.128177 -0.145012 
-0.127182 -0.126593 -0.15677 -0.121521 -0.1225 -0.121227 -0.120285 -0.122485 -0.130895 
-0.131852 -0.163009 -0.162562 -0.164726 -0.164313 -0.138942 -0.137615 -0.14085 -0.13987 
-0.131707 -0.131569 -0.131614 -0.132773 -0.133283 -0.13357 -0.132077 -0.131451 -0.13217 
-0.109622 -0.111641 -0.106232 -0.108661 -0.131854 -0.132483 -0.0941899 -0.141839 -0.145084 
-0.141846 -0.126977 -0.130462 -0.130733 -0.106128 -0.109174 -0.103895 -0.107041 -0.108825 
-0.110497 -0.116766 -0.11476 -0.110922 -0.112539 -0.156915 -0.158371 -0.158892 -0.160559 
-0.12847 -0.128369 -0.11119 -0.123682 -0.127219 -0.151597 -0.15209 -0.155869 -0.158722 
-0.107725 -0.105887 -0.125129 -0.125887 -0.125059 -0.127465 -0.127554 -0.126698 -0.130937 
-0.134935 -0.136488 -0.134219 -0.135121 -0.133286 -0.131571 -0.132244 -0.130917 -0.143398 
-0.141389 -0.134751 -0.136129 -0.136496 -0.121176 -0.122856 -0.123085 -0.136507 -0.138478 
-0.137045 -0.131518 -0.131423 -0.13151 -0.167597 -0.169147 -0.165826 -0.167761 -0.131452 
-0.131707 -0.127857 -0.127505 -0.128029 -0.131074 -0.131194 -0.131127 -0.131232 -0.131255 
-0.127836 -0.128586 -0.130959 -0.13097 -0.130602 -0.148356 -0.149679 -0.146753 -0.129974 
-0.124807 -0.125227 -0.124548 -0.124916 -0.130631 -0.128479 -0.129795 -0.129659 -0.121227 
-0.123051 -0.128551 -0.138892 -0.139186 -0.108249 -0.107686 -0.105831 -0.105167 -0.125319 
-0.125788 -0.124649 -0.125014 -0.128682 -0.128249 -0.128504 -0.12809 -0.0965292 -0.0988729 
-0.095723 -0.0965544 -0.109074 -0.108926 -0.110996 -0.163889 -0.166028 -0.165679 -0.166845 
-0.145227 -0.129101 -0.131152 -0.12049 -0.119433 -0.118704 -0.12403 -0.122279 -0.120266 
-0.131312 -0.13147 -0.131739 -0.155179 -0.154435 -0.153654 -0.0885876 -0.110618 -0.0992215 
-0.12295 -0.131266 -0.131114 -0.120146 -0.120482 -0.121876 -0.122268 -0.124606 -0.143271 
-0.143731 -0.146013 -0.130719 -0.130411 -0.130497 -0.144692 -0.124499 -0.125206 -0.164298 
-0.162923 -0.125014 -0.123954 -0.125135 -0.11294 -0.114416 -0.125977 -0.125671 -0.126565 
-0.126042 -0.125845 -0.125361 -0.126286 -0.12682 -0.132939 -0.123037 -0.123117 -0.12196 
-0.122086 -0.129441 -0.113914 -0.128561 -0.12867 -0.13108 -0.130955 -0.133273 -0.131287 
-0.131291 -0.136192 -0.137947 -0.139231 -0.140959 -0.153876 -0.153609 -0.154802 -0.131312 
-0.130856 -0.130282 -0.130806 -0.127937 -0.128124 -0.12732 -0.107009 -0.106801 -0.104646 
-0.104199 -0.125524 -0.124022 -0.129 -0.126843 -0.160631 -0.163324 -0.121417 -0.118972 
-0.121766 -0.126397 -0.126539 -0.189828 -0.188546 -0.144303 -0.13308 -0.124453 -0.124059 
-0.122807 -0.12279 -0.126125 -0.126336 -0.125469 -0.129836 -0.129872 -0.13061 -0.130694 
-0.127658 -0.124053 -0.123827 -0.130223 -0.13048 -0.130604 -0.0897168 -0.094835 -0.0900084 
-0.125434 -0.124521 -0.124316 -0.137895 -0.136033 -0.123206 -0.12361 -0.213616 -0.180053 
-0.183394 -0.123746 -0.123885 -0.123931 -0.142638 -0.135821 -0.134453 -0.134583 -0.123116 
-0.123824 -0.0949748 -0.0887477 -0.0889774 -0.132919 -0.132677 -0.132784 -0.131433 -0.132363 
-0.131399 -0.129759 -0.130904 -0.12958 -0.128832 -0.131152 -0.131288 -0.113932 -0.116842 
-0.119242 -0.120236 -0.131977 -0.132647 -0.132706 -0.132937 -0.133192 -0.127216 -0.13185 
-0.131553 -0.159796 -0.161595 -0.160503 -0.162354 -0.126804 -0.126483 -0.126203 -0.136816 
-0.135586 -0.224154 -0.161257 -0.181741 -0.125289 -0.125977 -0.128714 -0.168971 -0.17072 
-0.126962 -0.114249 -0.115238 -0.133133 -0.162734 -0.163098 -0.164846 -0.114763 -0.116436 
-0.116444 -0.169154 -0.170863 -0.132832 -0.133361 -0.151902 -0.146631 -0.154003 -0.12587 
-0.115809 -0.127688 -0.126997 -0.162881 -0.15297 -0.155531 -0.131628 -0.132688 -0.134917 
-0.142288 -0.140147 -0.145744 -0.119015 -0.117068 -0.131026 -0.126035 -0.130468 -0.116647 
-0.116554 -0.123895 -0.121486 -0.112613 -0.112384 -0.114285 -0.131307 -0.128168 -0.111108 
-0.107663 -0.127567 -0.12771 -0.122361 -0.119053 -0.119306 -0.134296 -0.114159 -0.0962446 
-0.0963428 -0.0946741 -0.128652 -0.113914 -0.11325 -0.111161 -0.0862514 -0.106235 -0.104131 
-0.106546 -0.131348 -0.132036 -0.13136 -0.123819 -0.123607 -0.123139 -0.109353 -0.128689 
-0.129388 -0.128901 -0.127283 -0.0972891 -0.086034 -0.127519 -0.127803 -0.194336 -0.169718 
-0.17145 -0.16803 -0.122397 -0.120915 -0.127995 -0.128379 -0.128164 -0.128582 -0.126382 
-0.12767 -0.126872 -0.154678 -0.160427 -0.156413 -0.149354 -0.149329 -0.196792 -0.130915 
-0.131341 -0.131343 -0.114502 -0.118457 -0.134949 -0.12441 -0.124098 -0.157739 -0.159573 
-0.148586 -0.134998 -0.133734 -0.135383 -0.133873 -0.153689 -0.154819 -0.154472 -0.126851 
-0.127546 -0.127952 -0.12783 -0.129966 -0.123574 -0.124633 -0.12476 -0.172519 -0.164255 
-0.112874 -0.114816 -0.113952 -0.127569 -0.127744 -0.127748 -0.124099 -0.119029 -0.135161 
-0.133759 -0.132752 -0.147235 -0.125279 -0.12414 -0.124209 -0.1275 -0.12383 -0.126071 
-0.12108 -0.133189 -0.12163 -0.130895 -0.131028 -0.131232 -0.131414 -0.131902 -0.131165 
-0.131047 -0.131506 -0.164577 -0.178394 -0.129221 -0.127913 -0.126727 -0.129719 -0.129161 
-0.128991 -0.130392 -0.127422 -0.127124 -0.127602 -0.12825 -0.121136 -0.122201 -0.130001 
-0.129629 -0.130074 -0.13038 -0.122936 -0.122099 -0.122936 -0.122073 -0.141406 -0.14415 
-0.148093 -0.121605 -0.131284 -0.131353 -0.11568 -0.113306 -0.114794 -0.127069 -0.127378 
-0.127052 -0.129692 -0.131726 -0.13148 -0.127155 -0.128303 -0.146652 -0.188858 -0.195068 
-0.155997 -0.130904 -0.131369 -0.129918 -0.130292 -0.126707 -0.141062 -0.140006 -0.122579 
-0.122974 -0.123261 -0.0859501 -0.0930977 -0.0866753 -0.137722 -0.139865 -0.12621 -0.110421 
-0.112952 -0.110777 -0.146756 -0.143154 -0.120766 -0.0980319 -0.099658 -0.104307 -0.126706 
-0.131166 -0.152642 -0.130327 -0.0965111 -0.096578 -0.101302 -0.131147 -0.119864 -0.119689 
-0.131226 -0.134592 -0.132716 -0.126074 -0.126718 -0.128886 -0.124154 -0.151164 -0.164589 
-0.162552 -0.164202 -0.112309 -0.111182 -0.136931 -0.189884 -0.237034 -0.158493 -0.151097 
-0.152247 -0.111174 -0.15419 -0.154714 -0.151505 -0.153386 -0.156066 -0.154049 -0.155419 
-0.118861 -0.11955 -0.121532 -0.128232 -0.129198 -0.12715 -0.128022 -0.0936256 -0.0878185 
-0.087716 -0.117701 -0.116698 -0.106621 -0.103984 -0.106586 -0.12696 -0.109708 -0.110555 
-0.112359 -0.128932 -0.126275 -0.125614 -0.115007 -0.145896 -0.154044 -0.148062 -0.154167 
-0.155343 -0.157233 -0.131476 -0.131544 -0.131389 -0.116494 -0.149076 -0.139518 -0.137443 
-0.157752 -0.155765 -0.158773 -0.118619 -0.116559 -0.119241 -0.126353 -0.127236 -0.126097 
-0.160928 -0.160349 -0.122127 -0.123684 -0.12359 -0.133156 -0.129125 -0.119473 -0.118583 
-0.112503 -0.107792 -0.115588 -0.155977 -0.125408 -0.180036 -0.114896 -0.116193 -0.13193 
-0.131639 -0.132187 -0.131831 -0.131611 -0.132304 -0.132984 -0.159617 -0.18461 -0.155015 
-0.132703 -0.13287 -0.130522 -0.128422 -0.127894 -0.131349 -0.130353 -0.129737 -0.128614 
-0.129806 -0.114248 -0.116088 -0.116318 -0.123099 -0.122314 -0.121759 -0.133224 -0.1371 
-0.13751 -0.132452 -0.132041 -0.132041 -0.125416 -0.124535 -0.125879 -0.0943736 -0.11986 
-0.121136 -0.123177 -0.121644 -0.15716 -0.158444 -0.156904 -0.118875 -0.161566 -0.163009 
-0.161589 -0.177079 -0.184025 -0.192277 -0.120076 -0.119536 -0.120517 -0.113947 -0.114973 
-0.116516 -0.117521 -0.118859 -0.140225 -0.130825 -0.127613 -0.12808 -0.126673 -0.132899 
-0.132603 -0.133539 -0.125288 -0.124115 -0.124555 -0.13255 -0.132068 -0.136491 -0.138012 
-0.131276 -0.132085 -0.131725 -0.132549 -0.13293 -0.132145 -0.11834 -0.12427 -0.127109 
-0.134256 -0.131288 -0.131298 -0.131319 -0.131301 -0.126221 -0.126439 -0.131309 -0.131397 
-0.131265 -0.1314 -0.130112 -0.130303 -0.13001 -0.166873 -0.138914 -0.118374 -0.115981 
-0.130432 -0.130713 -0.130587 -0.130854 -0.162698 -0.131676 -0.144125 -0.196388 -0.161444 
-0.161029 -0.159224 -0.161387 -0.189274 -0.184365 -0.162354 -0.166117 -0.137887 -0.135741 
-0.137569 -0.127891 -0.127212 -0.127594 -0.132172 -0.131799 -0.132626 -0.13315 -0.133553 
-0.158983 -0.151368 -0.171024 -0.131785 -0.131749 -0.131536 -0.131847 -0.106125 -0.106574 
-0.109013 -0.138035 -0.136133 -0.118376 -0.130306 -0.130138 -0.0897598 -0.0944968 -0.164069 
-0.16442 -0.163884 -0.165713 -0.114599 -0.112719 -0.119562 -0.118327 -0.11857 -0.118483 
-0.11972 -0.118132 -0.124133 -0.125708 -0.119568 -0.110052 -0.112021 -0.112537 -0.131361 
-0.105435 -0.105587 -0.103326 -0.103286 -0.123933 -0.123872 -0.16856 -0.172637 -0.130656 
-0.131439 -0.132067 -0.132422 -0.132122 -0.12668 -0.120034 -0.123167 -0.134397 -0.134632 
-0.126659 -0.126666 -0.125899 -0.130579 -0.127515 -0.128346 -0.129444 -0.129654 -0.14557 
-0.137745 -0.143685 -0.124688 -0.129585 -0.124105 -0.124389 -0.12466 -0.127709 -0.127128 
-0.122829 -0.122775 -0.123718 -0.123849 -0.129074 -0.123223 -0.205815 -0.127935 -0.14993 
-0.15432 -0.159858 -0.142253 -0.144049 -0.113263 -0.115581 -0.11203 -0.162393 -0.115539 
-0.117734 -0.114553 -0.116597 -0.129225 -0.129444 -0.128263 -0.127829 -0.128229 -0.129051 
-0.128305 -0.133375 -0.135589 -0.138235 -0.125585 -0.12658 -0.137428 -0.140068 -0.129377 
-0.129506 -0.196341 -0.189961 -0.122812 -0.148006 -0.118295 -0.11914 -0.169128 -0.17233 
-0.171058 -0.16392 -0.171424 -0.167928 -0.200678 -0.152676 -0.152111 -0.12603 -0.152924 
-0.153464 -0.13133 -0.123386 -0.123338 -0.151014 -0.158365 -0.159142 -0.160259 -0.161053 
-0.157039 -0.165447 -0.140195 -0.138108 -0.140199 -0.152818 -0.151086 -0.147283 -0.128762 
-0.129029 -0.160789 -0.144373 -0.151328 -0.127464 -0.12762 -0.130727 -0.126689 -0.129903 
-0.12959 -0.0895125 -0.127784 -0.127627 -0.138451 -0.12852 -0.12255 -0.124157 -0.122092 
-0.120913 -0.120271 -0.127455 -0.131764 -0.132049 -0.132032 -0.0864942 -0.132641 -0.149826 
-0.196056 -0.129674 -0.130179 -0.127254 -0.127158 -0.127568 -0.126579 -0.126952 -0.127243 
-0.131061 -0.131234 -0.131071 -0.119931 -0.142148 -0.138093 -0.140612 -0.156422 -0.153628 
-0.152394 -0.130041 -0.115502 -0.114431 -0.117482 -0.13125 -0.136026 -0.139744 -0.0988382 
-0.130815 -0.131078 -0.130947 -0.165043 -0.164703 -0.162676 -0.150896 -0.154892 -0.103839 
-0.126822 -0.125457 -0.162366 -0.164976 -0.127555 -0.155891 -0.15639 -0.151405 -0.150398 
-0.129469 -0.149194 -0.143512 -0.164578 -0.164463 -0.16609 -0.125301 -0.126305 -0.125196 
-0.165593 -0.166483 -0.160069 -0.161526 -0.165053 -0.170119 -0.16862 -0.172177 -0.172008 
-0.190166 -0.167329 -0.163328 -0.13183 -0.125818 -0.190915 -0.197369 -0.157471 -0.147522 
-0.12989 -0.130115 -0.130376 -0.129984 -0.135128 -0.132012 -0.0956872 -0.0947264 -0.0967587 
-0.158279 -0.159999 -0.159848 -0.163495 -0.165958 -0.164487 -0.12876 -0.132825 -0.132554 
-0.131179 -0.131016 -0.133903 -0.130682 -0.0951447 -0.096355 -0.0897072 -0.0885673 -0.122038 
-0.119347 -0.133146 -0.131654 -0.131426 -0.125509 -0.126585 -0.167407 -0.169747 -0.165536 
-0.123262 -0.125475 -0.126077 -0.125297 -0.122555 -0.12679 -0.132946 -0.133086 -0.132743 
-0.132893 -0.123376 -0.122521 -0.127553 -0.16105 -0.161422 -0.123894 -0.124113 -0.123499 
-0.102262 -0.103121 -0.0996071 -0.126705 -0.141492 -0.130743 -0.129512 -0.166325 -0.15917 
-0.176394 -0.171927 -0.1305 -0.130666 -0.130849 -0.130588 -0.0860095 -0.151664 -0.153649 
-0.129692 -0.129912 -0.135145 -0.123005 -0.122483 -0.122611 -0.155519 -0.158297 -0.121751 
-0.12122 -0.121401 -0.132223 -0.132931 -0.132114 -0.13282 -0.121671 -0.127359 -0.127926 
-0.127972 -0.129515 -0.129095 -0.100746 -0.103643 -0.100699 -0.127377 -0.124689 -0.124611 
-0.125797 -0.126024 -0.12108 -0.123962 -0.125166 -0.128096 -0.111955 -0.132095 -0.131891 
-0.132065 -0.130279 -0.129814 -0.185461 -0.170753 -0.205961 -0.129307 -0.130114 -0.155832 
-0.154995 -0.122601 -0.127312 -0.151432 -0.149562 -0.152279 -0.157273 -0.123215 -0.146538 
-0.191964 -0.19084 -0.161377 -0.16089 -0.126854 -0.128088 -0.127729 -0.124324 -0.126165 
-0.123089 -0.125104 -0.13943 -0.137762 -0.131548 -0.12949 -0.117531 -0.103914 -0.101157 
-0.149401 -0.151065 -0.121612 -0.131156 -0.130899 -0.130991 -0.133553 -0.12916 -0.122202 
-0.121131 -0.11627 -0.122636 -0.12917 -0.127062 -0.124731 -0.128816 -0.128589 -0.129476 
-0.131316 -0.124391 -0.123886 -0.124797 -0.131253 -0.131528 -0.131274 -0.131559 -0.158381 
-0.167578 -0.165241 -0.123279 -0.122497 -0.123053 -0.132432 -0.130894 -0.130121 -0.127549 
-0.127623 -0.131289 -0.128948 -0.128285 -0.130998 -0.128471 -0.128409 -0.128667 -0.129269 
-0.128926 -0.129343 -0.13105 -0.0957552 -0.0983438 -0.0956702 -0.0983182 -0.167876 -0.169386 
-0.129068 -0.115912 -0.120513 -0.14979 -0.119304 -0.0851179 -0.161633 -0.129775 -0.126929 
-0.130815 -0.162161 -0.170758 -0.13305 -0.125855 -0.128517 -0.12839 -0.127609 -0.12727 
-0.127584 -0.150231 -0.144894 -0.190286 -0.190538 -0.146335 -0.190015 -0.189732 -0.168214 
-0.119229 -0.120346 -0.118758 -0.127564 -0.127227 -0.127517 -0.136531 -0.124024 -0.124215 
-0.127796 -0.165496 -0.123922 -0.125577 -0.130068 -0.13379 -0.133256 -0.13335 -0.154695 
-0.155057 -0.162867 -0.12763 -0.127503 -0.132294 -0.13226 -0.133242 -0.0961164 -0.105141 
-0.111692 -0.106569 -0.132287 -0.15276 -0.127632 -0.127394 -0.12578 -0.128775 -0.14027 
-0.166203 -0.129037 -0.129099 -0.144052 -0.14731 -0.127211 -0.120149 -0.121534 -0.161457 
-0.16593 -0.128559 -0.130234 -0.120053 -0.159942 -0.161585 -0.133289 -0.157874 -0.156818 
-0.149299 -0.145478 -0.122154 -0.125319 -0.122953 -0.171663 -0.103804 -0.127477 -0.132067 
-0.126294 -0.132869 -0.133057 -0.125435 -0.125895 -0.116373 -0.161872 -0.127998 -0.130625 
-0.131844 -0.12426 -0.126306 -0.129438 -0.128696 -0.12764 -0.127086 -0.123455 -0.124421 
-0.123449 -0.130735 -0.127102 -0.127165 -0.127469 -0.126479 -0.127832 -0.123213 -0.123512 
-0.127327 -0.126349 -0.188944 -0.128617 -0.131964 -0.133154 -0.136787 -0.132195 -0.129144 
-0.128857 -0.126859 -0.12664 -0.169801 -0.192008 -0.187954 -0.187965 -0.166818 -0.12827 
-0.127728 -0.127232 -0.135049 -0.125748 -0.126062 -0.126644 -0.170044 -0.116946 -0.129413 
-0.129985 -0.129566 -0.124719 -0.12399 -0.124179 -0.130885 -0.124469 -0.124255 -0.123189 
-0.121454 -0.108973 -0.127674 -0.127664 -0.127652 -0.128579 -0.124591 -0.0987951 -0.129994 
-0.107567 -0.1111 -0.109266 -0.14627 -0.127574 -0.127095 -0.149121 -0.127485 -0.127503 
-0.122821 -0.157854 -0.156259 -0.126111 -0.12554 -0.12599 -0.125607 -0.150715 -0.132073 
-0.128471 -0.11887 -0.117017 -0.117448 -0.136711 -0.14165 -0.144308 -0.150697 -0.149165 
-0.145007 -0.16858 -0.167559 -0.165578 -0.165324 -0.166766 -0.168644 -0.16701 -0.165841 
-0.132111 -0.16797 -0.132403 -0.132163 -0.132167 -0.13192 -0.122935 -0.122205 -0.120272 
-0.11844 -0.147305 -0.145894 -0.105112 -0.102144 -0.106749 -0.157677 -0.132675 -0.1324 
-0.128334 -0.16241 -0.159045 -0.118748 -0.08666 -0.1238 -0.101402 -0.101493 -0.0988972 
-0.131343 -0.111406 -0.104504 -0.107232 -0.101104 -0.100948 -0.103735 -0.105776 -0.103524 
-0.108521 -0.130683 -0.130702 -0.131376 -0.146049 -0.144508 -0.147078 -0.132644 -0.132358 
-0.132329 -0.132283 -0.132578 -0.131278 -0.131372 -0.131546 -0.131477 -0.0902622 -0.0948131 
-0.0893941 -0.131725 -0.131704 -0.128985 -0.130903 -0.124398 -0.141359 -0.127064 -0.130666 
-0.12832 -0.136164 -0.135981 -0.132156 -0.132051 -0.131324 -0.129249 -0.131357 -0.123076 
-0.132438 -0.132366 -0.134524 -0.133351 -0.127675 -0.124915 -0.124704 -0.12037 -0.122652 
-0.120957 -0.121768 -0.119954 -0.158808 -0.114279 -0.114632 -0.13288 -0.11248 -0.114266 
-0.132547 -0.132722 -0.127837 -0.143925 -0.169125 -0.163594 -0.164308 -0.162574 -0.162812 
-0.156314 -0.155774 -0.166041 -0.116617 -0.0874581 -0.12459 -0.124746 -0.128973 -0.125683 
-0.121245 -0.173971 -0.115708 -0.0893464 -0.114032 -0.133198 -0.133595 -0.132458 -0.128042 
-0.126515 -0.125336 -0.123355 -0.123596 -0.12835 -0.126824 -0.125837 -0.131716 -0.131886 
-0.12607 -0.130468 -0.127038 -0.127354 -0.123699 -0.123867 -0.12295 -0.123051 -0.131372 
-0.124808 -0.124457 -0.165604 -0.166968 -0.167387 -0.115172 -0.122184 -0.128088 -0.127918 
-0.126352 -0.118669 -0.127909 -0.130741 -0.131428 -0.134159 -0.126519 -0.127071 -0.126737 
-0.128285 -0.127114 -0.127289 -0.128155 -0.126474 -0.129908 -0.129855 -0.0965155 -0.0963843 
-0.095682 -0.135899 -0.132857 -0.132859 -0.134949 -0.145901 -0.126483 -0.139281 -0.154368 
-0.155133 -0.153009 -0.162065 -0.160066 -0.171011 -0.169533 -0.124153 -0.124958 -0.124259 
-0.169374 -0.172341 -0.163814 -0.166066 -0.15235 -0.14931 -0.149009 -0.149633 -0.0989558 
-0.143652 -0.14278 -0.141031 -0.139992 -0.132349 -0.13233 -0.130808 -0.130134 -0.115248 
-0.113787 -0.11949 -0.117781 -0.104977 -0.109148 -0.103624 -0.127496 -0.129241 -0.129452 
-0.153061 -0.127325 -0.127578 -0.12712 -0.125053 -0.154096 -0.1551 -0.151961 -0.126347 
-0.123792 -0.152208 -0.146848 -0.151022 -0.131015 -0.131286 -0.12123 -0.119874 -0.122701 
-0.122985 -0.122174 -0.129157 -0.129006 -0.128606 -0.122244 -0.13311 -0.135689 -0.121051 
-0.12008 -0.129164 -0.126092 -0.125534 -0.125309 -0.118809 -0.124195 -0.127653 -0.156192 
-0.131423 -0.152787 -0.120617 -0.12428 -0.129025 -0.112012 -0.106618 -0.106784 -0.129021 
-0.129629 -0.130164 -0.147966 -0.164302 -0.163893 -0.166148 -0.126004 -0.125944 -0.11926 
-0.112618 -0.248651 -0.257336 -0.119199 -0.118285 -0.157192 -0.105964 -0.11022 -0.190337 
-0.176605 -0.177657 -0.132991 -0.133192 -0.132175 -0.132201 -0.131932 -0.116811 -0.132093 
-0.132114 -0.131853 -0.141837 -0.1305 -0.130936 -0.131336 -0.132873 -0.129155 -0.129612 
-0.127219 -0.12625 -0.169967 -0.125777 -0.0901085 -0.166686 -0.120798 -0.120555 -0.124276 
-0.131826 -0.131755 -0.131649 -0.1178 -0.118871 -0.131976 -0.127236 -0.129324 -0.1273 
-0.127641 -0.131838 -0.132021 -0.131621 -0.127662 -0.129783 -0.129323 -0.121979 -0.124968 
-0.124936 -0.13065 -0.131417 -0.140311 -0.141886 -0.144484 -0.188179 -0.147091 -0.129069 
-0.163697 -0.128308 -0.141895 -0.156184 -0.157679 -0.158839 -0.136019 -0.130009 -0.1268 
-0.125998 -0.15676 -0.162619 -0.155323 -0.137408 -0.133674 -0.142232 -0.143636 -0.131709 
-0.109088 -0.129908 -0.0995184 -0.131889 -0.130317 -0.133388 -0.115557 -0.114227 -0.116154 
-0.12511 -0.125329 -0.125727 -0.128151 -0.129757 -0.152449 -0.147278 -0.132683 -0.135056 
-0.127353 -0.127364 -0.154002 -0.123912 -0.13818 -0.118914 -0.120252 -0.11856 -0.129896 
-0.12908 -0.171411 -0.128708 -0.129405 -0.165834 -0.119069 -0.12605 -0.129891 -0.130298 
-0.130121 -0.119749 -0.118264 -0.123342 -0.122864 -0.125147 -0.104679 -0.131101 -0.131231 
-0.152011 -0.15361 -0.152075 -0.150649 -0.144133 -0.142869 -0.150237 -0.130909 -0.13055 
-0.12832 -0.151408 -0.130085 -0.15378 -0.108747 -0.108463 -0.130844 -0.116287 -0.118162 
-0.116777 -0.118656 -0.132157 -0.131766 -0.130452 -0.13893 -0.140134 -0.137038 -0.143264 
-0.167805 -0.13136 -0.12138 -0.113924 -0.131614 -0.131662 -0.119892 -0.160518 -0.162586 
-0.127526 -0.125774 -0.123616 -0.131832 -0.147543 -0.202795 -0.143352 -0.150555 -0.147637 
-0.146414 -0.119405 -0.117248 -0.159036 -0.156565 -0.146718 -0.161861 -0.127463 -0.123992 
-0.123093 -0.133236 -0.12355 -0.132492 -0.132694 -0.132507 -0.132283 -0.127637 -0.127627 
-0.127732 -0.126986 -0.130876 -0.127392 -0.128749 -0.127516 -0.1273 -0.126141 -0.130044 
-0.127106 -0.130327 -0.129394 -0.124659 -0.125354 -0.125103 -0.123663 -0.129213 -0.121073 
-0.120207 -0.150355 -0.119303 -0.102816 -0.0821818 -0.10215 -0.105022 -0.0979358 -0.0952952 
-0.127471 -0.128259 -0.126935 -0.122255 -0.125959 -0.103955 -0.127615 -0.124714 -0.125035 
-0.128936 -0.128447 -0.121856 -0.121371 -0.132213 -0.126265 -0.131369 -0.133054 -0.125319 
-0.122413 -0.122978 -0.122566 -0.121863 -0.128574 -0.128329 -0.12879 -0.0903782 -0.0947907 
-0.14891 -0.111651 -0.111373 -0.1598 -0.12574 -0.1019 -0.0935059 -0.115625 -0.121218 
-0.121556 -0.133272 -0.138515 -0.128164 -0.0878097 -0.14457 -0.141348 -0.130499 -0.130299 
-0.130164 -0.129965 -0.125367 -0.124245 -0.138764 -0.158565 -0.128697 -0.0985877 -0.190428 
-0.132043 -0.152396 -0.106196 -0.103454 -0.10714 -0.163078 -0.162889 -0.126521 -0.131271 
-0.130608 -0.121765 -0.124437 -0.124664 -0.127088 -0.126674 -0.100665 -0.0983251 -0.0901127 
-0.151203 -0.133094 -0.106581 -0.104115 -0.152256 -0.160207 -0.143788 -0.196394 -0.147419 
-0.115793 -0.118881 -0.128618 -0.1312 -0.131256 -0.12997 -0.130321 -0.130454 -0.12673 
-0.127473 -0.13246 -0.135353 -0.133311 -0.138785 -0.127333 -0.127377 -0.121224 -0.119295 
-0.125082 -0.122945 -0.130643 -0.0966333 -0.107932 -0.110088 -0.108253 -0.130301 -0.127588 
-0.109342 -0.132259 -0.132048 -0.100519 -0.13492 -0.132054 -0.178905 -0.128079 -0.0988643 
-0.096418 -0.0990892 -0.166769 -0.168043 -0.167889 -0.166032 -0.127883 -0.167476 -0.170563 
-0.0985123 -0.100715 -0.12959 -0.128522 -0.124457 -0.133315 -0.154282 -0.130252 -0.160111 
-0.137806 -0.127532 -0.128488 -0.130614 -0.149523 -0.143381 -0.171855 -0.168205 -0.120917 
-0.106949 -0.155921 -0.119404 -0.148856 -0.196912 -0.148586 -0.117937 -0.189861 -0.13124 
-0.128125 -0.13246 -0.132437 -0.132272 -0.126371 -0.127425 -0.128149 -0.130612 -0.188863 
-0.152833 -0.169418 -0.160195 -0.129856 -0.12905 -0.169743 -0.190397 -0.149752 -0.126805 
-0.129992 -0.132611 -0.165085 -0.101346 -0.128332 -0.131261 -0.120502 -0.131871 -0.140542 
-0.139212 -0.12935 -0.130264 -0.127062 -0.118579 -0.12435 -0.119613 -0.12346 -0.112311 
-0.109935 -0.104158 -0.109604 -0.133005 -0.0839915 -0.146942 -0.144654 -0.143733 -0.128859 
-0.129934 -0.129476 -0.130553 -0.0993615 -0.13999 -0.106949 -0.120674 -0.122226 -0.0857669 
-0.148496 -0.127048 -0.129927 -0.129501 -0.129584 -0.129626 -0.130611 -0.128816 -0.127662 
-0.131071 -0.139876 -0.127605 -0.132577 -0.131138 -0.13955 -0.130015 -0.131884 -0.131929 
-0.123775 -0.104059 -0.126235 -0.12583 -0.128227 -0.128876 -0.137105 -0.136867 -0.141508 
-0.126844 -0.124984 -0.127337 -0.113712 -0.113537 -0.115931 -0.131541 -0.130914 -0.096671 
-0.10075 -0.137369 -0.153584 -0.130418 -0.127445 -0.128119 -0.12989 -0.166046 -0.130566 
-0.12957 -0.1295 -0.130666 -0.124516 -0.0851813 -0.127746 -0.127674 -0.128308 -0.154402 
-0.141811 -0.139801 -0.128554 -0.128991 -0.134841 -0.109499 -0.101913 -0.101767 -0.0881034 
-0.095728 -0.0989402 -0.112765 -0.125574 -0.12875 -0.161679 -0.138031 -0.135867 -0.1343 
-0.136942 -0.127555 -0.127578 -0.12834 -0.130766 -0.131299 -0.131289 -0.138842 -0.128815 
-0.12897 -0.112653 -0.132482 -0.132744 -0.132707 -0.101908 -0.132537 -0.110725 -0.121825 
-0.126779 -0.127179 -0.131437 -0.127527 -0.128581 -0.127951 -0.128105 -0.127819 -0.131428 
-0.121352 -0.119519 -0.119921 -0.128441 -0.115115 -0.118994 -0.118647 -0.11598 -0.0986337 
-0.0939561 -0.0949396 -0.13225 -0.120875 -0.124968 -0.167681 -0.122738 -0.170552 -0.0929723 
-0.132645 -0.117511 -0.12747 -0.172177 -0.132171 -0.134027 -0.171248 -0.099594 -0.168874 
-0.117092 -0.14994 -0.173937 -0.109817 -0.145041 -0.163401 -0.126314 -0.127515 -0.129292 
-0.128811 -0.155863 -0.131323 -0.127437 -0.128317 -0.131184 -0.131038 -0.13033 -0.136765 
-0.129857 -0.129642 -0.11626 -0.128486 -0.129281 -0.132299 -0.132193 -0.132664 -0.16755 
-0.132895 -0.131473 -0.132416 -0.132383 -0.132063 -0.145027 -0.16534 -0.121482 -0.166644 
-0.128404 -0.117911 -0.122882 -0.131228 -0.095508 -0.118618 -0.121299 -0.12252 -0.133902 
-0.129858 -0.128604 -0.109365 -0.113537 -0.0939813 -0.159475 -0.144824 -0.15609 -0.0962204 
-0.133145 -0.131601 -0.132355 -0.125994 -0.126805 -0.126929 -0.12823 -0.128464 -0.128262 
-0.125292 -0.127378 -0.12521 -0.125367 -0.1243 -0.131598 -0.131685 -0.13137 -0.126463 
-0.127708 -0.122579 -0.120398 -0.122935 -0.121923 -0.13182 -0.132035 -0.145266 -0.160595 
-0.164163 -0.101895 -0.10174 -0.0865649 -0.105554 -0.108015 -0.162193 -0.164018 -0.0840528 
-0.136194 -0.127807 -0.133485 -0.101464 -0.101577 -0.117906 -0.118439 -0.119487 -0.150135 
-0.125996 -0.158562 -0.158308 -0.167383 -0.130627 -0.154012 -0.125546 -0.124243 -0.148826 
-0.102485 -0.151069 -0.128087 -0.0893818 -0.238848 -0.159355 -0.137276 -0.140557 -0.14603 
-0.131856 -0.152787 -0.152244 -0.146955 -0.120745 -0.132483 -0.115358 -0.13085 -0.110108 
-0.129813 -0.123426 -0.127877 -0.143078 -0.13831 -0.145455 -0.141541 -0.130712 -0.131832 
-0.115081 -0.130054 -0.133867 -0.086815 -0.12198 -0.119095 -0.123409 -0.131274 -0.114875 
-0.122309 -0.120315 -0.199175 -0.116975 -0.11033 -0.117573 -0.127519 -0.131446 -0.131383 
-0.132326 -0.127919 -0.161715 -0.164305 -0.12037 -0.116849 -0.113834 -0.126276 -0.121109 
-0.118488 -0.160676 -0.161364 -0.157008 -0.124852 -0.131227 -0.131054 -0.131284 -0.13189 
-0.131545 -0.116379 -0.14423 -0.117814 -0.117406 -0.115787 -0.135233 -0.124455 -0.126238 
-0.131153 -0.128873 -0.136221 -0.137496 -0.132386 -0.150759 -0.159933 -0.112419 -0.109971 
-0.160187 -0.10546 -0.126181 -0.126272 -0.0954776 -0.131256 -0.131823 -0.128243 -0.130874 
-0.130842 -0.13202 -0.124175 -0.148841 -0.12307 -0.122542 -0.127439 -0.172277 -0.168644 
-0.0870635 -0.136475 -0.137759 -0.133486 -0.131054 -0.114582 -0.117302 -0.12961 -0.10569 
-0.14978 -0.158284 -0.148336 -0.148596 -0.147589 -0.126401 -0.170243 -0.095956 -0.1328 
-0.131332 -0.125457 -0.132635 -0.131266 -0.127836 -0.0987121 -0.134301 -0.12562 -0.167066 
-0.123438 -0.123734 -0.125405 -0.125275 -0.132736 -0.12383 -0.128578 -0.129631 -0.131523 
-0.151267 -0.149766 -0.109286 -0.120244 -0.137184 -0.116169 -0.135813 -0.135535 -0.148159 
-0.145614 -0.136626 -0.138208 -0.140042 -0.151414 -0.150569 -0.139009 -0.155201 -0.118415 
-0.103332 -0.127987 -0.11266 -0.122899 -0.125667 -0.120386 -0.133224 -0.133886 -0.133866 
-0.132799 -0.129858 -0.143247 -0.155568 -0.154866 -0.131124 -0.119064 -0.142977 -0.11603 
-0.156929 -0.133767 -0.130682 -0.118899 -0.126821 -0.123422 -0.132579 -0.118053 -0.128069 
-0.127642 -0.133355 -0.132634 -0.141785 -0.149028 -0.115287 -0.121184 -0.130274 -0.146423 
-0.144819 -0.133551 -0.141756 -0.128415 -0.155544 -0.153898 -0.0975509 -0.0995346 -0.116493 
-0.115615 -0.158787 -0.180083 -0.130487 -0.136753 -0.128148 -0.121175 -0.133485 -0.133216 
-0.132943 -0.132021 -0.114854 -0.132476 -0.128783 -0.124136 -0.164527 -0.166109 -0.123822 
-0.166744 -0.133138 -0.132033 -0.133352 -0.133253 -0.133088 -0.156708 -0.102905 -0.0991288 
-0.100089 -0.10295 -0.127504 -0.171151 -0.131353 -0.126953 -0.127145 -0.131245 -0.132045 
-0.128354 -0.150863 -0.119164 -0.124915 -0.116654 -0.155732 -0.145918 -0.114858 -0.151282 
-0.150531 -0.15363 -0.0962885 -0.0963947 -0.148955 -0.126868 -0.132065 -0.0931235 -0.12384 
-0.122609 -0.124055 -0.127731 -0.103341 -0.129636 -0.128088 -0.132329 -0.127069 -0.124729 
-0.127479 -0.156042 -0.154799 -0.13013 -0.116819 -0.133426 -0.111643 -0.127774 -0.126825 
-0.118259 -0.0943124 -0.138927 -0.114696 -0.145792 -0.134609 -0.133927 -0.127277 -0.128314 
-0.12853 -0.135406 -0.121726 -0.116594 -0.117576 -0.127322 -0.101573 -0.116473 -0.132798 
-0.129512 -0.129129 -0.127913 -0.149544 -0.124056 -0.16793 -0.155483 -0.206323 -0.14147 
-0.111439 -0.133992 -0.124616 -0.12878 -0.124567 -0.122849 -0.129355 -0.182926 -0.146626 
-0.145658 -0.120152 -0.130737 -0.116636 -0.125223 -0.125084 -0.128834 -0.132919 -0.164318 
-0.149755 -0.107997 -0.161508 -0.115298 -0.130643 -0.131523 -0.118616 -0.130737 -0.181718 
-0.129342 -0.126998 -0.133154 -0.131321 -0.1267 -0.127958 -0.169263 -0.164636 -0.17888 
-0.162951 -0.119355 -0.147904 -0.166486 -0.121691 -0.114426 -0.150277 -0.111258 -0.131391 
-0.131199 -0.150817 -0.148989 -0.109336 
Stress%20xx%20component 1 12442 double
0.584414 0.512215 0.462967 0.601732 6.60196e-05 1.78073e-06 3.61345e-05 1.88364e-05 -0.0490948 
-0.0463154 0.0182063 -0.153534 -0.090206 -0.0524166 -0.0206953 -0.0998937 0.195302 0.201521 
0.188292 0.190294 0.194775 0.202737 0.188906 0.188817 0.188841 0.188059 0.189222 
0.190177 0.190881 0.190719 0.191683 0.190926 0.190489 0.189572 0.187844 0.187512 
0.187762 0.187436 0.189345 0.191864 0.197436 0.210407 0.211228 0.209435 0.217977 
0.217661 0.19669 0.184715 0.179506 0.192622 0.192221 0.190914 0.191253 0.192971 
0.192625 0.192183 0.192672 0.191361 0.191265 0.191671 0.19142 0.189999 0.191278 
0.190429 0.191348 0.193269 0.198104 0.20495 0.210112 0.000236097 7.60971e-05 -0.000915367 
-0.00254107 -0.00452445 -0.00684697 -0.00954437 -0.0123439 -0.0150397 -0.0174568 -0.0195293 -0.0213667 
-0.0224158 -0.0228173 -0.0224592 -0.0214252 -0.0196879 -0.0176148 -0.0150003 -0.0118845 -0.00921641 
-0.00646831 -0.00412046 -0.0021194 -0.000682919 0.000122132 0.000200506 -0.0471638 -0.00251601 -0.00105543 
-0.000558485 -0.000362551 -0.000256528 -0.000177744 -0.000123997 -9.71603e-05 -8.79369e-05 -8.10507e-05 -7.54537e-05 
-3.71749e-05 -5.06782e-05 -2.5536e-05 -1.04869e-05 9.80285e-06 3.21448e-05 5.09444e-05 5.92751e-05 6.72687e-05 
7.61048e-05 6.96105e-05 6.68518e-05 5.49478e-05 4.75447e-05 2.63532e-05 9.49175e-06 -1.07161e-05 -2.64465e-05 
-4.37726e-05 -5.44583e-05 -5.68363e-05 -5.76874e-05 -4.6413e-05 -3.79115e-05 -2.31995e-05 -1.1678e-05 2.40773e-06 
1.59397e-05 2.77341e-05 4.09876e-05 4.21366e-05 2.73563e-05 1.2726e-05 1.45042e-05 5.14442e-05 2.61611e-05 
3.10776e-05 2.33486e-05 1.63394e-05 2.48248e-06 -1.01161e-05 -2.23693e-05 -3.55075e-05 -4.43088e-05 -5.14259e-05 
-5.13914e-05 -5.07632e-05 -4.29863e-05 -2.91838e-05 -9.81138e-06 7.00312e-06 2.73377e-05 4.15713e-05 5.80481e-05 
5.63493e-05 6.27381e-05 6.28218e-05 6.0992e-05 5.06658e-05 3.87324e-05 2.68921e-05 6.89876e-06 -8.10759e-06 
-2.7779e-05 -3.96635e-05 -5.49648e-05 -6.3938e-05 -6.99726e-05 -7.96847e-05 -9.29098e-05 -0.000120336 -0.00015791 
-0.000192932 -0.000321186 -0.000557265 -0.000950093 -0.0049744 -0.147649 0.0659021 0.0250551 0.0271094 
0.0265655 0.0241621 0.0237005 0.0219344 0.0235537 0.0253205 0.0266641 0.0263109 0.0290839 
0.19336 0.0336889 0.0265265 0.0272532 0.0271427 0.0278499 0.0292986 0.0306001 0.0294813 
0.0298362 0.0269558 0.0274195 0.03023 0.0259111 0.00017322 5.8391e-05 -0.000755474 -0.00217531 
-0.00413525 -0.00641067 -0.00914334 -0.0118729 -0.014584 -0.0175251 -0.0198614 -0.0215313 -0.0224786 
-0.0228422 -0.0224258 -0.0213475 -0.0196407 -0.0174242 -0.0149024 -0.0120805 -0.0093571 -0.00665416 
-0.00434387 -0.00228469 -0.000840671 5.86372e-05 0.000282088 -0.161497 -0.00745278 -0.00176174 -0.00104361 
-0.000567573 -0.000329012 -0.000223907 -0.000169487 -0.000109995 -9.36464e-05 -7.5108e-05 -7.07137e-05 -6.49304e-05 
-5.73118e-05 -3.52342e-05 -2.11848e-05 2.13251e-06 2.88496e-05 4.34943e-05 6.15199e-05 7.3565e-05 7.92149e-05 
7.36472e-05 7.48185e-05 7.12587e-05 6.00755e-05 3.76573e-05 2.53309e-05 4.33945e-06 -1.88394e-05 -3.8302e-05 
-5.37252e-05 -5.64833e-05 -6.13916e-05 -5.70119e-05 -4.93878e-05 -3.62971e-05 -2.03575e-05 -5.92013e-06 7.40819e-06 
2.09676e-05 3.21788e-05 3.76978e-05 3.79993e-05 -5.51743e-06 -2.28715e-06 3.14047e-05 2.85579e-05 2.17101e-05 
9.1152e-06 2.22431e-06 -9.08445e-06 -2.03025e-05 -3.14424e-05 -4.43109e-05 -4.76333e-05 -5.37001e-05 -4.84319e-05 
-3.67382e-05 -2.93582e-05 -7.63077e-06 1.29472e-05 2.91429e-05 4.44938e-05 5.56738e-05 6.75674e-05 6.3921e-05 
6.87318e-05 6.28012e-05 5.50925e-05 4.28099e-05 2.82894e-05 1.35699e-05 -8.8514e-06 -2.57964e-05 -4.14367e-05 
-4.89431e-05 -5.37064e-05 -5.94355e-05 -6.56803e-05 -8.71585e-05 -0.000110903 -0.000145914 -0.000220345 -0.00030446 
-0.000506073 -0.000860952 -0.00192122 -0.0037498 -0.0231978 0.244959 0.0321486 0.0271556 0.0265362 
0.0294048 0.0294142 0.0291671 0.0293775 0.0298101 0.0264308 0.0268419 0.0296671 0.0679422 
0.0291081 0.0294487 0.027981 0.0264778 0.0238 0.0240696 0.0238686 0.0235261 0.0240638 
0.0264892 0.0261953 0.0199926 0.015946 -0.000353099 -0.00104737 -0.00223829 -0.00372295 -0.0054975 
-0.00745423 -0.00967129 -0.0117786 -0.0138473 -0.0156607 -0.017132 -0.0182272 -0.0188275 -0.01888 
-0.018331 -0.0172054 -0.0158004 -0.0139447 -0.0117861 -0.00956219 -0.00733447 -0.00533876 -0.00359487 
-0.00215737 -0.00115234 -0.000454399 -0.000107839 0.0293259 0.00728657 0.00346924 0.00179189 0.00114074 
0.00070571 0.000534862 0.000438221 0.000346131 0.00032664 0.000302479 0.000272684 0.000227268 0.000161353 
8.17935e-05 -1.65348e-05 -0.000106401 -0.000193077 -0.000268678 -0.000309183 -0.000325726 -0.000324861 -0.000312916 
-0.000288558 -0.000251378 -0.000177973 -9.46057e-05 -9.45793e-06 7.85434e-05 0.000157871 0.000205804 0.000250954 
0.000269553 0.000258734 0.000211356 0.000152169 9.11169e-05 3.43942e-05 -2.60047e-05 -8.38932e-05 -0.00014183 
-0.00019299 -0.000223755 -0.000199064 -0.000148965 -0.000136201 -0.000105574 -6.50798e-05 -1.57789e-05 3.80392e-05 
9.54355e-05 0.00014206 0.000195199 0.000234341 0.000249932 0.00024318 0.000211062 0.00014232 5.351e-05 
-3.63721e-05 -0.000127716 -0.000210167 -0.000280417 -0.00030529 -0.000315874 -0.000298509 -0.000278505 -0.000251336 
-0.000219421 -0.0001555 -7.67608e-05 1.70231e-05 9.77401e-05 0.000165559 0.000215473 0.000246713 0.000259983 
0.00025885 0.000286881 0.000380353 0.000565829 0.000822463 0.00114718 0.0018437 0.00332278 0.00733201 
0.0237956 0.0845342 0.0829136 0.0858462 0.0920293 0.0993956 0.0937954 0.0955136 0.0962324 
0.0974657 0.0969886 0.0974717 0.0980779 0.0980016 0.0975051 0.0975352 0.0972561 0.0966229 
0.0968142 0.0959525 0.0952152 0.094534 0.0929393 0.0912674 0.0881654 0.0789527 -0.0467082 
-0.0155757 -0.0143133 0.0040218 0.011192 0.0147198 0.0162814 0.0170143 0.0169303 0.0159247 
0.0135677 0.0089297 0.00165996 -0.0153797 -0.00452279 -0.0506373 -0.0151666 -0.012631 0.00339509 
0.0108798 0.0146395 0.0165487 0.0175557 0.0177364 0.0171907 0.0157032 0.0125943 0.00571567 
-0.0111 -0.0247086 0.051085 0.0361741 0.0322577 0.051302 -0.0137655 -0.00177688 -0.00291599 
-0.00420177 -0.0056777 -0.00739807 -0.00923033 -0.010999 -0.0125674 -0.0138343 -0.01491 -0.0156198 
-0.015855 -0.0157048 -0.0149482 -0.0139944 -0.0127398 -0.0110032 -0.0091942 -0.00740639 -0.00571803 
-0.00421418 -0.00293486 -0.00189788 -0.00103119 -0.00993945 0.0511878 0.0198493 0.0111945 0.00709555 
0.00477614 0.0032033 0.0022981 0.0018585 0.00160378 0.00145104 0.00128791 0.00115935 0.000899607 
0.000591748 0.000198325 -0.000182481 -0.000551207 -0.000887221 -0.00111678 -0.00127062 -0.0013422 -0.00134791 
-0.0012541 -0.00106974 -0.000841185 -0.000586985 -0.000264721 0.00010165 0.000451817 0.000734201 0.000951387 
0.00104538 0.00103466 0.000944434 0.000749797 0.000512658 0.000277165 3.44038e-05 -0.0002144 -0.000446121 
-0.000666013 -0.000822743 -0.000877924 0.0264059 0.0505001 -0.000564318 -0.000503421 -0.000375583 -0.000174661 
5.92613e-05 0.000268584 0.000513849 0.000741147 0.000897802 0.00101036 0.00100694 0.000891485 0.00068822 
0.000376473 -7.03292e-06 -0.000388481 -0.000716385 -0.00101034 -0.00116004 -0.00124481 -0.00125394 -0.00120087 
-0.00111657 -0.000937078 -0.000722278 -0.00040091 -2.64465e-05 0.000343689 0.000660648 0.000926517 0.00107435 
0.00117149 0.00127195 0.00148589 0.00186823 0.00244071 0.00340997 0.00491188 0.00747495 0.0120795 
0.0242621 -0.0111306 0.0674208 0.0837254 0.0870061 0.0890805 0.091813 0.0941253 0.0950477 
0.0960526 0.0965171 0.0970072 0.0974596 0.09709 0.0973199 0.0966693 0.0962746 0.095681 
0.0947761 0.0933612 0.0917303 0.0883833 0.0833036 0.0751807 -0.0123415 -0.00512344 0.00276895 
0.0059551 0.00772289 0.00844397 0.00757067 0.00520424 0.000951653 -0.00476608 -0.0105188 -0.000826933 
0.0322048 0.0242245 0.0268108 -0.00724225 0.00308143 0.00692257 0.0090061 0.0101571 0.00985042 
0.0080614 0.00435998 -0.00198486 -0.0104525 -0.00770723 -0.00153022 -0.00314311 -0.00987909 -0.00300482 
-0.000417766 0.0210784 0.0244639 0.0228714 0.0315143 -0.004885 0.0100734 -0.00289669 -0.00404633 
-0.00538123 -0.00693955 -0.00839044 -0.00987927 -0.0111823 -0.0122059 -0.0129656 -0.0133627 -0.0133103 
-0.0128903 -0.0122385 -0.0112925 -0.0100147 -0.00849231 -0.00695157 -0.00550603 -0.00419739 -0.00306166 
-0.00206377 0.0296575 0.0196334 0.0131263 0.0093078 0.00644779 0.00489126 0.00411935 0.00365957 
0.00330693 0.0029166 0.00250811 0.00183368 0.000961797 9.96959e-05 -0.000749663 -0.0015372 -0.00213664 
-0.00249269 -0.00269717 -0.00277963 -0.00272419 -0.00251863 -0.00211738 -0.00151635 -0.000872943 -0.000181075 
0.000603979 0.00127937 0.00181522 0.00216489 0.00229967 0.00215774 0.00180938 0.00133748 0.000822566 
0.000298414 -0.000235398 -0.000756491 -0.00121594 -0.00158882 -0.00177165 -0.000913541 0.00106695 0.043632 
0.0222403 -0.000990525 -0.000635963 -0.000142961 0.00035948 0.000858265 0.00136778 0.00186758 0.00213497 
0.002208 0.0021505 0.00177171 0.0011852 0.000363792 -0.000494754 -0.00120037 -0.00189739 -0.00232672 
-0.0026209 -0.00266891 -0.0026319 -0.00247087 -0.00217537 -0.00173675 -0.00112541 -0.000345343 0.000554613 
0.00131324 0.00198689 0.00244794 0.00274506 0.00301925 0.00357261 0.00431068 0.00558886 0.00739411 
0.00997632 0.0141461 0.0210675 -0.000878012 0.0581122 -0.000844645 -0.00747339 0.0651314 0.069534 
0.0729975 0.0756576 0.0777345 0.079453 0.0803477 0.0812579 0.0819462 0.0819966 0.0818887 
0.0814326 0.0808004 0.0800267 0.0795273 0.0780415 0.0758658 0.0728128 0.0660502 0.0557833 
0.0152567 -0.0149671 0.000419712 -0.00315681 0.000595893 -0.00107309 -0.00362217 -0.00687881 -0.00852075 
-0.00159032 0.0242641 0.025926 0.0109806 0.0126327 -0.00183971 0.00297985 0.00202679 -0.000703353 
-0.00476191 -0.00786864 -0.00440595 -0.00361985 0.0208082 -0.00119462 -0.00498791 0.00103494 0.0025437 
0.0341967 -0.00118124 0.0157102 0.014559 0.0108642 0.0135389 -0.00839563 -0.00275775 0.0196675 
0.024176 -0.00558566 0.00120297 0.0054497 -0.00335714 -0.00490622 -0.00609645 -0.00733902 -0.00868848 
-0.00992022 -0.0107421 -0.0112921 -0.0114416 -0.0111819 -0.0106335 -0.00990737 -0.00888884 -0.00757663 
-0.00613045 -0.00482901 -0.0036996 -0.00275489 -0.00191875 0.0401398 0.0161517 0.0146037 -0.00450041 
0.0124949 0.0258757 0.0185063 0.0133373 0.00983658 0.00803241 0.00709527 0.00629067 0.00560756 
0.00496155 0.00401388 0.00268345 0.00106053 -0.000478378 -0.00197123 -0.00311253 -0.00384266 -0.00426506 
-0.00447948 -0.00450356 -0.00430638 -0.00377382 -0.00296024 -0.00190316 -0.000834921 0.000290527 0.00158606 
0.0026754 0.00348825 0.00395619 0.00391123 0.00343852 0.00267611 0.00183344 0.000911145 -4.03266e-05 
-0.000933782 -0.00173434 -0.00245972 0.0171119 -0.00472159 0.040754 -0.00510227 -0.00080475 9.05359e-05 
0.000996291 0.00172835 0.00283972 0.00371935 0.00356713 0.00386086 0.00354434 0.00267609 0.00134358 
-0.000204747 -0.0013763 -0.00261701 -0.00365577 -0.00409455 -0.00430383 -0.00437877 -0.00417481 -0.00380523 
-0.00324251 -0.0023764 -0.0010898 0.000474242 0.00201759 0.00332465 0.0043319 0.00499962 0.00542589 
0.0061647 0.00752377 0.00946125 0.0119711 0.0155691 0.0206947 0.0284818 -0.003769 -0.00946268 
0.054427 0.0577737 0.0609425 0.0629202 0.064052 0.0657465 0.0674151 0.0677374 0.0671827 
0.0662138 0.0655112 0.0649343 0.0644954 0.0628084 0.0606339 0.0575824 0.0549468 -0.0092473 
-0.00147971 -0.00494818 -0.00622264 -0.00630221 -0.00726357 -0.00701257 -0.00330619 0.0205759 0.00362133 
-0.00262795 -0.00689579 -0.0044203 0.0132784 0.00278994 -0.00378808 0.0113916 0.0148504 -0.00594195 
0.00379207 0.0204362 0.00939855 -0.00443894 0.00339887 -0.00334649 -0.00690703 0.0171694 -0.0066444 
0.0488802 0.0142777 0.0172955 0.00787288 0.0104941 -0.00242406 0.00452344 0.00290813 -0.00406794 
-0.00481997 -0.00577386 -0.00791246 -0.00885597 -0.00965517 -0.0101396 -0.0099404 -0.00921013 -0.00880657 
-0.00756376 -0.00675701 -0.00530499 -0.00394257 -0.00280056 -0.00203923 0.0093624 -0.0074648 0.00938364 
0.0408323 0.0301355 0.0225981 0.0170478 0.0127667 0.0118218 0.0105483 0.00931624 0.00833309 
0.00734162 0.00567994 0.00316785 0.000523929 -0.00183468 -0.00377294 -0.00504632 -0.00568138 -0.00602924 
-0.00617109 -0.0060714 -0.00561144 -0.00467682 -0.00317556 -0.00113878 0.00112844 0.0032305 0.00463369 
0.00557062 0.0059957 0.00570275 0.00458271 0.00312734 0.00202435 0.000512303 -0.000868882 -0.00201934 
0.0110104 0.0235669 -0.00718686 0.000492242 0.000732963 0.00233494 0.00516964 0.00606751 0.00579603 
0.00546704 0.00314958 0.000883136 -0.00215214 -0.0045417 -0.00600082 -0.00569003 -0.00608914 -0.00605961 
-0.00540261 -0.00520011 -0.0041556 -0.00255888 -0.000298668 0.00223035 0.00465456 0.00669971 0.00802937 
0.00873337 0.00874348 0.0109296 0.0134927 0.0164016 0.020789 0.0272647 0.0418691 -0.00609071 
0.0110522 -0.00081939 0.0173777 -0.00968585 0.0450048 0.0493082 0.0478459 0.0495154 0.0516724 
0.055011 0.05143 0.0509194 0.05001 0.0491834 0.0501962 0.0494589 0.0469881 0.0439652 
-0.0076651 -0.00721141 -0.00678485 0.000501828 -0.0060936 -0.00439342 0.0154521 0.00572136 -0.00463661 
-0.00757396 0.00550735 -0.00698991 -0.000257392 -0.00329039 0.00657046 0.0356951 0.0161503 0.0128808 
0.0129393 0.00510881 -0.00484886 0.0224897 0.018375 -0.000621271 -0.00723021 -5.70779e-05 -0.00588344 
0.00661161 -0.00648651 -0.00666691 -0.00698259 -0.00505521 -0.00454303 0.0186163 -0.00679218 0.00691367 
-0.00190364 -0.00663808 -0.00813561 -0.00904952 -0.00933127 -0.00828363 -0.00680514 -0.00455928 -0.00310268 
-0.00164222 -0.00736382 0.00685488 0.0334003 0.0251549 0.0182182 0.0138976 0.0120611 0.0119055 
0.00697979 -0.00116164 -0.00374164 -0.00607113 -0.00676824 -0.00716178 -0.00735332 -0.00729136 -0.00705 
-0.00646518 -0.00272862 0.000378436 0.00315221 0.00608983 0.00700792 0.0079118 0.00417304 0.0012807 
-0.000691674 -0.00614419 -0.00745237 -0.00636749 0.00524459 0.00962012 0.0109858 0.0130415 0.0130201 
0.0166155 0.0207922 0.0245655 0.0323922 0.0165565 0.00156333 0.0344917 0.03814 0.0371821 
0.0349027 0.03712 0.0327191 0.0357747 0.0386082 0.0356332 -0.00124422 -0.00217507 -0.00845825 
0.0203701 -0.00262175 0.00262449 -0.00709931 -0.00353621 0.0155568 0.0102193 0.00269319 -0.00518289 
0.000636037 0.00853725 -0.00783309 0.0193937 0.0336632 -0.00706993 -0.00468761 -0.00184254 0.00187302 
-0.00276409 -0.00728899 -0.00715787 -0.00533716 0.0240292 -0.00815326 -0.00763513 0.0272701 0.0249994 
0.0203286 -0.0074213 -0.00605986 -0.00766635 -0.00892947 -0.000699282 0.0175162 -0.00760947 -0.000336254 
-0.00101902 -0.0021107 -0.00355814 -0.00537932 -0.00734193 -0.00946746 -0.0115011 -0.0137774 -0.0156797 
-0.0171625 -0.018284 -0.0188602 -0.0187685 -0.0181466 -0.0170571 -0.0155316 -0.0137253 -0.0116284 
-0.00953563 -0.00749332 -0.00543681 -0.00378863 -0.00227983 -0.00111606 -0.000402593 -5.37506e-05 0.0206413 
0.00645353 0.00431658 0.00264467 0.00162987 0.000997231 0.000678473 0.000502359 0.000422769 0.000356163 
0.000336829 0.000332692 0.000271521 0.0002032 0.000137587 3.2456e-05 -8.15849e-05 -0.000195339 -0.000293969 
-0.000371386 -0.000404639 -0.000431592 -0.000409001 -0.000392014 -0.000343349 -0.000269608 -0.000170497 -5.78253e-05 
5.4377e-05 0.000155729 0.000248772 0.000304977 0.000314103 0.000307822 0.000259306 0.000196233 0.000121482 
5.66349e-05 -1.17599e-05 -8.22851e-05 -0.000152716 -0.000199024 -0.000209146 -0.000206672 -0.000146392 -0.000130288 
-9.63618e-05 -5.91288e-05 -1.16236e-05 3.97925e-05 8.96574e-05 0.000143471 0.000207188 0.000248523 0.000247734 
0.000228582 0.000188105 0.000128188 4.88946e-05 -3.90372e-05 -0.000127629 -0.000203915 -0.000264213 -0.000308299 
-0.000320489 -0.000312667 -0.000285815 -0.000237241 -0.000193164 -0.000120548 -4.34182e-05 3.61279e-05 0.000114153 
0.000189979 0.000232679 0.000249716 0.000251505 0.000287934 0.000320271 0.000392586 0.000476125 0.000677609 
0.000924524 0.0014615 0.00299679 0.00644595 0.0219247 0.0754608 0.0885197 0.0939138 0.0917296 
0.0912529 0.0967416 0.0948878 0.0953562 0.0962831 0.0968672 0.0965435 0.0976289 0.0978757 
0.097721 0.0974556 0.0974107 0.0969297 0.0962204 0.0961963 0.0953816 0.0945234 0.0935531 
0.0921642 0.0895488 0.0895556 0.086663 -0.0930021 -0.0293461 -0.012279 0.00301425 0.0107275 
0.014687 0.0161987 0.0169395 0.0168345 0.0157706 0.0141912 0.0108171 0.00303785 -0.0132991 
-0.0275634 -0.0698417 -0.0280138 -0.00816732 0.00535541 0.0113151 0.0149031 0.0165643 0.0171995 
0.0171497 0.0164437 0.0141186 0.00994764 0.00239024 -0.0142167 -0.0222478 0.0543089 0.0625277 
-0.000164595 0.0469646 0.0582379 -0.00162031 -0.000756222 -0.00423306 -0.00580216 -0.00737422 -0.0090636 
-0.010665 -0.0123481 -0.0137649 -0.0147628 -0.015401 -0.015727 -0.0153943 -0.0146543 -0.0136234 
-0.0122499 -0.0107231 -0.00909616 -0.00742271 -0.00579304 -0.00437684 -0.00300129 -0.00183998 -0.000938646 
0.0160459 -0.00057626 -0.00884734 0.0284055 0.0546272 0.0101035 0.00648869 0.00436422 0.00314601 
0.00244823 0.0020758 0.00178671 0.00156594 0.00136772 0.00112813 0.000799246 0.000396993 -7.11601e-05 
-0.000549895 -0.000987396 -0.00132982 -0.00155455 -0.00167736 -0.00171795 -0.00168033 -0.00153208 -0.00126182 
-0.000881638 -0.000450672 2.05214e-05 0.000503487 0.000902331 0.00117243 0.0012954 0.00133077 0.00121022 
0.00094526 0.0006514 0.000345096 4.79933e-05 -0.000231101 -0.000510023 -0.000755648 -0.000877395 -0.00621453 
-0.0188871 0.0197854 -0.000567479 -0.000484367 -0.000321058 -0.00014353 8.498e-05 0.000323541 0.000571623 
0.000813425 0.000982929 0.001055 0.00103196 0.0009025 0.000657893 0.000324748 -5.02114e-05 -0.000427922 
-0.000762489 -0.00102664 -0.00119841 -0.00128218 -0.00127709 -0.00119406 -0.00107176 -0.000862382 -0.000584484 
-0.000260345 7.0822e-05 0.000441407 0.000763414 0.000972575 0.00113856 0.00124802 0.00142549 0.00166366 
0.00197261 0.00250725 0.00333642 0.00456643 0.00703282 0.0112882 0.0210358 0.0505874 0.0803945 
0.0627653 0.0894599 0.0909134 0.092097 0.0928555 0.0942462 0.0951542 0.0954439 0.0962137 
0.0968767 0.0973601 0.0969972 0.0967102 0.0957531 0.0945839 0.0943063 0.0928748 0.090791 
0.0874974 0.0826967 0.0764097 0.0671289 0.0261062 0.0297836 -0.00481207 -0.0107088 -0.00385002 
0.00204813 0.0060399 0.00794252 0.00841552 0.00750583 0.00536071 0.001079 -0.00454235 -0.010764 
-0.0053408 -0.00996178 -0.00312378 0.00222161 0.00585621 0.00763044 0.00826691 0.00771791 0.00550613 
0.00185107 -0.00383295 -0.0100521 -0.00469154 -0.00808472 -0.00279053 -0.00920667 0.0313041 0.0241595 
0.0210561 0.0257287 0.0295009 0.0253981 0.00286939 -0.00682154 -0.00423047 -0.00825655 -0.00970269 
-0.0109756 -0.0120676 -0.0128016 -0.0131749 -0.0131349 -0.0126917 -0.0118586 -0.0107849 -0.00960593 
-0.00824098 -0.00685192 -0.00556478 -0.0042961 -0.00312703 -0.00207663 -0.00121267 0.00793777 0.0187443 
0.0130238 -0.00474776 0.0280964 0.00940292 0.00688945 0.00536777 0.00455317 0.00400442 0.00352107 
0.00298541 0.00230131 0.00148367 0.000525498 -0.000531716 -0.0015212 -0.00234726 -0.00296397 -0.00339605 
-0.00354338 -0.00348396 -0.0032537 -0.00285144 -0.00224127 -0.00142943 -0.000439089 0.000598679 0.0015133 
0.00225271 0.00275449 0.00289307 0.0026746 0.00221143 0.00162601 0.000974244 0.000313135 -0.000282561 
-0.000854616 -0.00136707 -0.00187581 0.00862606 -0.000562817 -7.44794e-05 0.000414272 0.000975297 0.00154067 
0.00198642 0.00219344 0.00223196 0.00207115 0.00170869 0.00104655 0.000242795 -0.000604216 -0.00142375 
-0.00203057 -0.00242887 -0.00270042 -0.00275592 -0.00269176 -0.00241175 -0.00201201 -0.00148596 -0.00080657 
-7.39098e-05 0.000730563 0.00155165 0.00221325 0.00254438 0.00288351 0.00337311 0.00386128 0.00452175 
0.00550771 0.00722464 0.0100507 0.0147739 0.0226075 0.0323327 0.0716282 0.0674184 0.0109524 
0.0252884 0.0247142 0.0726793 0.073105 0.0762027 0.0789155 0.0802768 0.0801973 0.0809537 
0.081984 0.0820037 0.0811284 0.0801193 0.0790698 0.0782626 0.0763278 0.0727112 0.0681042 
0.0618389 0.0539264 0.0430707 -0.00518185 0.0228576 0.0130116 -0.0079411 -0.00751937 -0.0057861 
-0.00320019 -0.000577093 0.000725142 0.000412091 -0.00106195 -0.00408267 -0.00706831 -0.00838231 -0.00811736 
0.001274 -0.00593824 -0.00308659 -0.00105528 0.000232955 0.000307447 -0.000876978 -0.00304946 -0.00582429 
-0.0071153 -0.00229045 -0.0155938 -0.00552385 -0.000923392 -0.00345411 -0.00115422 -0.00315443 0.0221118 
0.0115358 0.0228095 0.0472976 0.0137207 0.0163865 -0.00389538 0.0127498 -0.0058553 -0.00967321 
-0.0106791 -0.0112279 -0.0113886 -0.0111057 -0.0104417 -0.00944056 -0.00824345 -0.00712604 -0.00592542 
-0.00474216 -0.00372589 -0.0027492 -0.00189034 -0.00331516 0.00573268 0.00100665 0.00936787 0.0111392 
0.0144623 0.00807954 0.00725031 0.00630331 0.00521727 0.00381472 0.00208226 0.000323375 -0.00154859 
-0.0031712 -0.0043926 -0.00518555 -0.00550988 -0.00556491 -0.00535779 -0.00490416 -0.00416306 -0.00309057 
-0.00156118 0.000180601 0.00196979 0.00339159 0.00445332 0.00492997 0.00479724 0.00410728 0.00306911 
0.00194621 0.000843362 -0.000180608 -0.00114982 -0.00199358 -0.00267435 0.0137891 -0.00013277 0.0572296 
0.00449602 0.00263589 0.01685 0.000118582 -0.000717513 0.00203988 0.00300844 0.00356017 0.00374421 
0.00366185 0.00330313 0.00244171 0.00111742 -0.000356783 -0.00180076 -0.00294279 -0.00376805 -0.00431624 
-0.00450568 -0.00450822 -0.00423913 -0.00365072 -0.00288272 -0.00172266 -0.000568824 0.000611197 0.00218543 
0.00372557 0.00454311 0.0051885 0.00605758 0.00692323 0.00790697 0.00937814 0.0115992 0.0159546 
0.0226843 0.0317427 0.0190656 0.0510597 0.0517004 0.0132192 0.0181011 0.038056 0.00314183 
0.0566835 0.0618911 0.0668446 0.0646382 0.0647524 0.06664 0.0679522 0.0667467 0.064896 
0.0638566 0.0628733 0.0613054 0.0580919 0.0522428 0.0459239 0.00210124 -0.0085364 0.0123646 
0.0160544 -0.00143319 -0.00719622 -0.00861989 -0.00679709 -0.0058969 -0.00490542 -0.00467433 -0.00504266 
-0.00640896 -0.00762928 -0.0061184 -0.00519151 -0.00717979 -0.00607952 -0.00514565 -0.00477111 -0.00513976 
-0.00583809 -0.00652889 -0.00599621 -0.00206382 -0.010762 0.00231767 -0.00610436 -0.00752089 0.0203997 
0.0130181 -0.00365584 0.0198592 0.0115222 0.0194308 0.0008718 -0.0047287 0.0271203 0.00977123 
0.0174506 0.0196134 0.0389554 -0.00864938 -0.0100769 -0.00931558 -0.00864619 -0.00707749 -0.00561989 
-0.00490382 -0.00357205 -0.0027359 -0.00198072 0.00225821 0.0401632 0.0133866 0.0107589 0.00876242 
0.00793121 0.00517385 0.00301222 -0.000166925 -0.00319309 -0.00535364 -0.00654281 -0.00714579 -0.0072714 
-0.00718006 -0.00690157 -0.00629002 -0.00516486 -0.00339823 -0.000850156 0.0018434 0.00481568 0.00585281 
0.00733185 0.00748289 0.00650359 0.00490224 0.00317256 0.00164571 -2.44158e-05 -0.00145059 -0.00268499 
0.00349707 0.000338741 0.0137909 0.00179901 -0.000909458 0.00494103 0.00557438 0.00534588 0.00562698 
0.00488267 0.00304352 0.000713761 -0.00159196 -0.00359219 -0.00501699 -0.00578821 -0.00624682 -0.0064962 
-0.00621933 -0.00562932 -0.00447596 -0.00333735 0.000435391 0.00484846 0.00716577 0.00748258 0.00905925 
0.0104947 0.0119042 0.0139197 0.0164846 0.0197653 0.0302787 0.00522991 0.00893372 0.0140027 
0.0455413 0.00273107 0.0120111 0.0493055 0.0496971 0.0543897 0.0549077 0.0500083 0.0498474 
0.0490107 0.0472846 0.0472935 0.0399965 0.0338833 0.0121304 0.00907716 0.0501376 -0.00156899 
0.0118351 -0.0075151 0.0154559 -0.00771526 -0.00697543 -0.00694951 -0.00756197 -0.00700629 -0.00751204 
-0.00758759 -0.00594449 -0.00153522 0.0118759 0.0117687 0.0116638 -0.00481913 -0.00761981 -0.00740913 
-0.00723446 -0.00716034 -0.00687406 -0.00563395 -0.00279078 -0.00986951 -0.00971432 0.00764273 0.0172757 
0.0132205 0.00689746 0.0260012 -0.00462192 0.016755 0.0178505 0.0155774 -0.00349846 -0.00727126 
0.000936292 0.000963494 -0.00578827 -0.00615364 -0.00339404 -0.0054428 0.0182669 -0.00966274 -0.00683619 
0.00138151 0.00423501 -0.00408784 -0.0018949 -0.00134583 -0.00669928 0.0205134 0.010798 0.00950315 
0.00627194 0.0031536 0.000482279 -0.00181123 0.00227694 -0.00793949 0.00754858 0.00519464 0.00977518 
0.000466669 0.00838598 0.0113296 0.0137702 0.0155465 0.0180526 0.0213934 0.0265117 0.00778409 
0.0192251 -0.00374257 0.0319074 0.00906271 0.0359199 -0.00859243 0.0353038 0.0383274 0.0357168 
0.0337323 0.0230708 0.0194991 0.0201072 0.0346457 -0.00728584 -0.00541624 0.035591 0.0160701 
-0.00875976 -0.00336572 -0.00911798 0.00655124 0.0077801 0.00313326 -0.000347028 -0.00708736 -0.00728181 
-0.00609984 0.0372707 0.0267298 -0.00756533 0.00184068 -0.00524477 0.0179474 0.0220562 -0.000398783 
0.0201893 0.0248917 0.0275006 -0.00318464 0.0255906 -0.00664454 0.577227 0.598439 0.330006 
0.217314 0.197231 0.185669 0.264627 0.227812 0.240881 0.256614 0.258533 0.25991 
0.261204 0.262721 0.264018 0.264301 0.264757 0.264478 0.263421 0.262581 0.26144 
0.260195 0.259812 0.258939 0.259155 0.26058 0.265664 0.27539 0.283289 0.392982 
0.368894 0.235338 0.213773 0.221507 0.264056 0.181867 0.263805 0.266893 0.266097 
0.265151 0.267568 0.267677 0.267431 0.267365 0.266614 0.266308 0.266548 0.267642 
0.264914 0.266114 0.265502 0.265612 0.268107 0.270639 0.277202 0.293648 0.411514 
0.000137895 0.000239232 -0.000288302 -0.0016205 -0.0034446 -0.00561232 -0.00814467 -0.01093 -0.0137066 
-0.0162883 -0.0185739 -0.0206397 -0.0220499 -0.0227945 -0.0227995 -0.022086 -0.0206991 -0.0186856 
-0.0163832 -0.0134657 -0.0105583 -0.00782335 -0.00523863 -0.00303717 -0.0013364 -0.000176647 0.000263546 
0.000135151 0.121742 -0.00525186 -0.00293363 -0.0014864 -0.000738364 -0.000546135 -0.000362467 -0.000302032 
-0.000234429 -0.000171754 -0.00017097 -0.000153328 -0.000137244 -0.000123604 -8.47975e-05 -4.26717e-05 -3.19055e-06 
3.25987e-05 7.97094e-05 0.000102502 0.000124778 0.000132097 0.000131598 0.000137979 0.000116424 9.47422e-05 
7.32077e-05 4.15806e-05 5.8458e-06 -3.09353e-05 -6.47716e-05 -8.1328e-05 -0.000103349 -0.000107131 -0.00010985 
-8.39936e-05 -6.18429e-05 -3.8292e-05 -1.56143e-05 1.01227e-05 3.46058e-05 5.66517e-05 7.49701e-05 8.46992e-05 
7.95889e-05 -6.16039e-05 4.46437e-05 6.79529e-05 4.14666e-05 5.59522e-05 4.47052e-05 2.7135e-05 6.66644e-06 
-1.63898e-05 -3.78809e-05 -5.71532e-05 -7.87883e-05 -9.24605e-05 -9.87165e-05 -0.000100872 -9.25077e-05 -6.19643e-05 
-2.60125e-05 1.18233e-05 5.10721e-05 8.13564e-05 0.000120997 0.000127246 0.00012907 0.00012773 0.000129353 
0.000103297 9.20155e-05 6.17646e-05 3.3213e-05 -1.28355e-05 -5.16584e-05 -7.51599e-05 -0.00010139 -0.000112561 
-0.000127761 -0.000124144 -0.000150707 -0.000187635 -0.00027308 -0.000370372 -0.000486973 -0.000811816 -0.00157098 
-0.00435197 -0.0148935 0.0486106 -0.134627 -0.0569543 0.0246105 0.0331019 0.032961 0.0287107 
0.0280458 0.026583 0.026537 0.0277856 0.0325992 0.0348858 0.0483347 0.119059 0.106133 
-0.071057 0.0219595 0.0388993 0.0337934 0.0329558 0.0342356 0.034112 0.0344147 0.0346462 
0.034901 0.0327603 0.0334475 0.039551 0.0315782 0.025245 9.13746e-05 0.000289198 -0.000215303 
-0.00134579 -0.00307199 -0.00522122 -0.00774846 -0.0105202 -0.0132699 -0.0161369 -0.0188302 -0.02078 
-0.0221752 -0.0228362 -0.0228104 -0.0220613 -0.0206428 -0.0186874 -0.0162407 -0.0135246 -0.0107012 
-0.00794091 -0.00540882 -0.00319658 -0.0014139 -0.000229327 0.000281077 8.73275e-05 0.0404078 -0.0149554 
-0.00673644 -0.00282701 -0.00137687 -0.000917083 -0.000562243 -0.000392151 -0.000241134 -0.000214965 -0.000172443 
-0.000144121 -0.000133035 -0.000123326 -9.93271e-05 -4.40654e-05 -9.76293e-06 3.97695e-05 8.02196e-05 0.000131976 
0.000159369 0.000173938 0.00019223 0.000172631 0.000168069 0.000153652 0.000124505 7.12768e-05 2.21601e-05 
-2.76341e-05 -6.60609e-05 -0.000112942 -0.000134619 -0.000132905 -0.000139068 -0.000109763 -9.31298e-05 -5.33017e-05 
-2.37784e-05 7.7304e-06 3.59608e-05 6.09488e-05 8.22398e-05 7.84909e-05 4.60317e-05 -3.76831e-05 2.70294e-05 
6.03354e-05 5.32879e-05 5.00402e-05 4.17092e-05 2.19127e-05 2.08091e-06 -2.13694e-05 -4.65283e-05 -6.94974e-05 
-9.86416e-05 -0.000106882 -0.00011598 -0.000103979 -7.95218e-05 -6.13599e-05 -2.07353e-05 1.98173e-05 5.71056e-05 
8.5248e-05 0.000118917 0.000122846 0.000146504 0.000138033 0.000121972 0.000115578 9.13088e-05 5.41881e-05 
2.45506e-05 -8.1108e-06 -4.61243e-05 -7.6286e-05 -9.36528e-05 -9.79405e-05 -0.000110457 -0.000132696 -0.000164486 
-0.000200642 -0.000268955 -0.00041154 -0.000583967 -0.000981675 -0.0020335 -0.00347496 -0.00640493 0.131634 
-0.18547 0.114888 0.0478611 0.0330373 0.0325777 0.0346213 0.0348331 0.0344537 0.0345806 
0.0351611 0.0330342 0.0334432 0.0365566 0.0667398 -0.033965 -0.24313 0.0728115 0.0412434 
0.0359705 0.034022 0.0280085 0.0283791 0.0291196 0.0279027 0.0278736 0.0327077 0.0346393 
0.0353966 0.00776867 -0.00919556 4.05056e-05 3.22162e-05 -0.0380792 -0.0433082 -0.0758761 -0.0703062 
0.361707 0.332022 0.232732 0.231311 0.226962 0.211941 0.220287 0.215384 0.21734 
0.2024 0.213755 0.196863 0.204172 0.202609 0.20946 0.202918 0.209871 0.202902 
0.208207 0.203567 0.205316 0.205251 0.210778 0.204895 0.209141 0.207016 0.208257 
0.205286 0.209723 0.206613 0.209775 0.204726 0.209053 0.206047 0.207202 0.20703 
0.20791 0.205347 0.203246 0.20484 0.205779 0.205002 0.204111 0.204491 0.203411 
0.206748 0.205396 0.20911 0.205476 0.217476 0.21044 0.223092 0.233871 0.24117 
3.16394e-05 -0.000119575 -0.000237746 -0.000543558 -0.00104358 -0.000626161 -0.00163072 -0.00243549 -0.00154839 
-0.00317341 -0.00416696 -0.00291059 -0.00505104 -0.00619207 -0.00456009 -0.00716743 -0.00849725 -0.00642826 
-0.00961359 -0.0109803 -0.0085601 -0.012042 -0.0133538 -0.010749 -0.0143999 -0.015608 -0.0128709 
-0.0165232 -0.017528 -0.014815 -0.0182701 -0.0191623 -0.0164988 -0.0197184 -0.0201924 -0.0177946 
-0.0205184 -0.0207074 -0.0186262 -0.0207381 -0.0205578 -0.0189908 -0.0202877 -0.0197732 -0.0187419 
-0.019214 -0.0183764 -0.0179109 -0.0176531 -0.0166398 -0.0165977 -0.0157001 -0.0144264 -0.0149642 
-0.0133509 -0.0118432 -0.0129186 -0.0107301 -0.00942647 -0.0106685 -0.00830175 -0.00695183 -0.00841814 
-0.00595419 -0.00479009 -0.006285 -0.00391858 -0.00293252 -0.00439913 -0.00221697 -0.00150616 -0.00279859 
-0.000968223 -0.000594207 -0.00155882 -0.000252104 -0.000158933 -0.000708637 4.96897e-06 -4.01042e-05 -1.33989e-05 
-0.000243896 0.0652534 0.0282309 0.0113296 0.00456773 0.00304755 0.0131532 0.00221639 0.00165917 
0.00364374 0.00116405 0.00086603 0.00171406 0.000709285 0.000569106 0.000771078 0.000421113 0.000362002 
0.000426214 0.00030416 0.000338142 0.000262625 0.000247504 0.000247639 0.000269689 0.000198801 0.000202283 
0.000204709 0.000169535 0.000197223 0.000186407 0.000158568 0.000186727 0.000186439 0.000153619 0.000181442 
0.000163947 9.53737e-05 0.000131662 0.000161372 8.70056e-05 0.000100199 0.000121827 4.53981e-05 4.75881e-05 
6.97222e-05 -1.40291e-05 -9.73646e-07 1.47659e-05 -6.39473e-05 -5.21269e-05 -4.58599e-05 -0.000111215 -9.50589e-05 
-9.34387e-05 -0.000145112 -0.00013197 -0.000150818 -0.000173303 -0.000154341 -0.000186685 -0.000182995 -0.000161676 
-0.000203298 -0.000178028 -0.000165727 -0.000212923 -0.00017432 -0.000159963 -0.000201634 -0.000162117 -0.000143381 
-0.000200542 -0.00014029 -0.000121161 -0.000181932 -9.31291e-05 -8.97959e-05 -0.000147485 -4.55836e-05 -4.51205e-05 
-9.08484e-05 -1.3085e-06 -2.04347e-06 -3.89143e-05 4.42445e-05 4.49441e-05 1.40315e-05 9.23271e-05 8.1357e-05 
6.2576e-05 0.000118195 0.000106906 0.000113058 0.000141383 0.00013174 0.000139758 0.000149921 0.000139211 
0.000166233 0.000145918 0.000130981 0.000179135 0.000124215 0.000104272 0.000159309 8.97053e-05 7.54981e-05 
0.0001248 5.18252e-05 4.47696e-05 8.30913e-05 1.78229e-05 1.58837e-05 4.65189e-05 -1.44029e-05 -1.47549e-05 
6.7898e-06 -4.68089e-05 -4.62785e-05 -3.24055e-05 -8.16585e-05 -7.57524e-05 -7.05625e-05 -0.000108211 -0.000102271 
-0.000116397 -0.000121967 -0.000122078 -0.000134364 -0.000103135 -8.60244e-05 -0.000163699 -0.231471 -7.38586e-05 
-7.30913e-05 -6.35119e-05 -8.63038e-05 -7.17792e-05 -8.26838e-05 -6.18742e-05 -5.91134e-05 -7.15699e-05 -3.95107e-05 
-3.79388e-05 -4.85393e-05 -1.16792e-05 -1.65131e-05 -2.02473e-05 1.74848e-05 1.0708e-05 1.06574e-05 4.92807e-05 
4.17398e-05 4.99953e-05 7.32247e-05 7.67231e-05 7.50141e-05 0.000104521 0.000106797 0.000116738 0.000130885 
0.000124459 0.000147787 0.000140831 0.000142891 0.000156385 0.000134148 0.000144246 0.000148283 0.000116833 
0.000127428 0.000140002 8.5629e-05 8.92849e-05 9.9511e-05 3.84777e-05 4.8529e-05 4.8883e-05 -1.13379e-05 
1.4156e-06 -9.72561e-06 -7.01508e-05 -4.55728e-05 -6.3213e-05 -0.000117887 -9.24921e-05 -0.000119701 -0.000160548 
-0.000126539 -0.000167565 -0.000177265 -0.000143874 -0.000199769 -0.000181169 -0.000156154 -0.000198683 -0.000168329 
-0.000155543 -0.000192392 -0.000157329 -0.000146543 -0.000175214 -0.000139126 -0.000138082 -0.000162998 -0.000116543 
-0.000129983 -0.000142055 -8.20204e-05 -9.79997e-05 -0.000109739 -3.29824e-05 -6.61326e-05 -6.33045e-05 1.57173e-05 
-1.93523e-05 -1.27882e-05 7.45394e-05 1.33835e-05 4.31748e-05 0.000110221 5.05674e-05 9.23443e-05 0.000145896 
7.12968e-05 0.000121867 0.000165358 8.67354e-05 0.000148663 0.000180787 8.90126e-05 0.000162064 0.000179031 
0.000100877 0.000153257 0.000203012 0.000126245 0.000135764 0.000248494 0.000181704 0.000148843 0.000348485 
0.000270457 0.000234376 0.000475822 0.000401452 0.000370211 0.000656122 0.000595919 0.000495357 0.000989891 
0.00101628 0.000791119 0.00178503 0.0022384 0.00145569 0.00342237 0.00630636 0.00336542 0.005412 
-0.0111388 0.00943283 -0.0398605 0.131016 0.12025 0.125262 0.123274 0.0746721 0.123952 
0.124087 0.0839495 0.118796 0.119331 0.103964 0.0949622 0.103178 0.104479 0.12269 
0.115221 0.0950643 0.116098 0.115909 0.107246 0.113229 0.11433 0.109479 0.112711 
0.114541 0.110364 0.115839 0.116129 0.109266 0.114286 0.114854 0.110272 0.115431 
0.116507 0.111291 0.116143 0.116338 0.110098 0.115725 0.115772 0.110818 0.114409 
0.11406 0.110497 0.113665 0.113569 0.111387 0.114423 0.114442 0.11037 0.112857 
0.113511 0.110394 0.114323 0.114277 0.108778 0.11318 0.113416 0.108811 0.11263 
0.112922 0.107797 0.112918 0.11347 0.106959 0.111835 0.114126 0.105385 0.115116 
0.11906 0.102349 0.116883 0.125584 0.0942665 0.0145816 0.05122 0.000751275 -0.0430206 
0.0122511 0.0105305 -0.0250677 0.015667 0.0132097 -0.00620944 0.018089 0.0163463 0.00790534 
0.0193736 0.0183683 0.0134575 0.019966 0.0194479 0.0162128 0.0199591 0.0197563 0.017225 
0.019682 0.0201 0.0176143 0.0192293 0.0199445 0.0170476 0.0177626 0.0190684 0.0151308 
0.0156736 0.0181745 0.0110822 0.01298 0.0177527 0.00406134 0.0105152 0.0176616 -0.00893775 
-0.0143146 0.0177736 -0.0324236 0.0148822 0.00765602 0.0204475 -0.0420022 0.0121323 0.00939838 
-0.0339351 0.0165371 0.0130306 -0.0064855 0.0185592 0.016677 0.00701846 0.0196216 0.0189662 
0.0133179 0.0202625 0.019629 0.0161921 0.0205864 0.0202456 0.0176982 0.0205474 0.0204584 
0.0184072 0.0201576 0.0202528 0.018283 0.0193606 0.0196525 0.017167 0.0176472 0.0192239 
0.0148212 0.0137325 0.0172947 0.00955821 0.00359696 0.011334 -0.00330404 -0.0489983 0.00191103 
-0.0266901 -0.000100964 0.0733658 -0.0212869 0.059626 0.0183242 -0.0201864 0.0948331 0.026236 
-0.0143124 0.0277397 0.0285192 0.0419545 0.00269816 0.0378282 0.0198911 0.051118 0.0520591 
-0.0426994 0.0176443 -0.00142481 -0.00205804 -0.00259431 -0.00337872 -0.00230905 -0.00398312 -0.00486785 
-0.00351761 -0.00562222 -0.00660247 -0.00491004 -0.00743598 -0.00854841 -0.00652553 -0.00945203 -0.0104895 
-0.00831424 -0.011376 -0.012386 -0.0101465 -0.0131661 -0.0140585 -0.0118537 -0.014705 -0.0154309 
-0.0133214 -0.0159379 -0.0164824 -0.0145196 -0.0168163 -0.0171345 -0.0154162 -0.0172426 -0.0172812 
-0.0159058 -0.0171934 -0.0169365 -0.0159466 -0.0165491 -0.0160184 -0.0154785 -0.0155292 -0.0148356 
-0.0146004 -0.0142087 -0.0133119 -0.013465 -0.0124321 -0.0113708 -0.0119332 -0.0104838 -0.00937719 
-0.0101179 -0.00849354 -0.00739571 -0.00828856 -0.00654701 -0.0055522 -0.00652267 -0.00482783 -0.00394016 
-0.00491595 -0.00330361 -0.00260174 -0.00352242 -0.00207063 -0.00153882 -0.00233501 -0.00111272 -0.000788665 
-0.0014054 -0.00384741 -0.00804874 0.0383562 0.0734723 0.0263111 -0.000314671 0.0158929 0.0106364 
0.00859241 0.00602472 0.0141808 0.00506846 0.00400717 0.00832902 0.00335811 0.00265938 0.00519426 
0.00218178 0.00189719 0.00346807 0.00158767 0.00142549 0.00237693 0.00122539 0.0011516 0.00182544 
0.00103667 0.00102642 0.00150229 0.000924018 0.00093444 0.00133584 0.000824329 0.000841632 0.00121024 
0.000745732 0.000732627 0.00108098 0.000559521 0.000554254 0.000917418 0.000391771 0.000341884 0.000660434 
0.000155989 7.53985e-05 0.000337805 -9.68475e-05 -0.000166302 -2.73881e-05 -0.000333746 -0.0004034 -0.000365374 
-0.000547102 -0.000617573 -0.000693198 -0.000718789 -0.000746283 -0.000956253 -0.000824615 -0.000827923 -0.00112551 
-0.000870552 -0.000859205 -0.00122441 -0.000874211 -0.000850936 -0.00125827 -0.000817965 -0.00078745 -0.00121577 
-0.000717438 -0.000672352 -0.00107997 -0.000583342 -0.00050801 -0.00088849 -0.000408795 -0.000325971 -0.000658949 
-0.000201264 -0.000108359 -0.000395961 3.20099e-05 0.000123654 -7.37353e-05 0.000263126 0.000339547 0.000251037 
0.000458733 0.000503276 0.000539696 0.00059937 0.000628953 0.000771683 0.00067861 0.000679334 0.000915936 
0.000693166 0.000658664 0.000957923 0.000643673 0.000580821 0.000911743 0.000524857 0.000444715 0.000785091 
0.000367968 0.000292692 0.000583989 0.000209022 0.000140792 0.00037167 5.11916e-05 -1.6575e-05 0.000152369 
-0.000110167 -0.00017322 -7.31091e-05 -0.000260721 -0.000317891 -0.000293905 -0.000399672 -0.000458989 -0.000518713 
-0.000516436 -0.000536664 -0.000695201 -0.000565135 -0.000498573 -0.000833925 0.0160979 0.035596 0.0452758 
0.0259252 0.031451 -0.000361209 -0.000366745 -0.000339386 -0.000314736 -0.000503279 -0.000260588 -0.000227025 
-0.000410767 -0.000142454 -9.44365e-05 -0.000254492 1.72373e-06 5.10021e-05 -5.00785e-05 0.000146764 0.000204403 
0.000152061 0.000298245 0.000361694 0.000374996 0.000440636 0.000509298 0.00058084 0.000554853 0.000608125 
0.000747304 0.000639587 0.000682834 0.000877993 0.000656162 0.000672304 0.000940203 0.000598861 0.000595293 
0.000882966 0.000480688 0.000440688 0.000735003 0.000292302 0.000231235 0.000495094 4.80921e-05 -1.17113e-05 
0.000167209 -0.000204331 -0.000255523 -0.000188432 -0.000434409 -0.000474993 -0.0005248 -0.000633286 -0.000660273 
-0.000821647 -0.000756811 -0.000754476 -0.00103213 -0.000811032 -0.000809642 -0.00114255 -0.000824685 -0.000807178 
-0.00118121 -0.000785444 -0.000774286 -0.00115607 -0.000722663 -0.000720506 -0.00108994 -0.00061733 -0.000623267 
-0.000969696 -0.00048154 -0.000476951 -0.000781978 -0.000289079 -0.000264576 -0.000532796 -4.68057e-05 -2.50752e-05 
-0.000200356 0.000208753 0.000196501 0.000141978 0.000429989 0.000396419 0.000460002 0.000610959 0.000544886 
0.00073389 0.000728695 0.000634009 0.000922801 0.000805234 0.000690764 0.00103017 0.000872947 0.000768912 
0.0011023 0.000950211 0.000917634 0.00121104 0.00117941 0.0011889 0.00149524 0.00151124 0.00166494 
0.00187255 0.00208717 0.00230607 0.00253733 0.00292563 0.00336445 0.00368418 0.00424979 0.00528041 
0.00553757 0.00670732 0.00906915 0.00889311 0.0121749 0.0190697 0.0353452 0.0168625 -0.000649206 
0.0678492 0.0683598 0.0172943 -0.0235877 -0.0230423 0.0757751 0.0799071 0.0838837 0.0929734 
0.0782555 0.0924195 0.0926046 0.0859295 0.0975181 0.0912227 0.0892367 0.0976819 0.0983657 
0.0903654 0.0998036 0.100191 0.0928414 0.100647 0.100914 0.0946697 0.101406 0.100946 
0.095647 0.101938 0.102144 0.0962754 0.102238 0.102431 0.0967946 0.102566 0.102147 
0.0972372 0.102599 0.102012 0.0971843 0.102198 0.102035 0.0972293 0.102249 0.101767 
0.0970805 0.101885 0.101548 0.0966428 0.101133 0.101238 0.0961302 0.100096 0.100033 
0.0954377 0.099426 0.099147 0.0942967 0.0977052 0.0978313 0.0929288 0.0958825 0.0950769 
0.0905212 0.0927104 0.0919081 0.0865581 0.0873589 0.086064 0.0804715 0.074459 -0.0288897 
0.0114711 -0.0132505 -0.0134907 0.0121397 -0.0102154 0.00915922 0.00662751 0.0114444 0.0101543 
0.00356168 0.0122669 0.0119694 0.00626175 0.0126431 0.012813 0.0075546 0.0117039 0.012579 
0.00745691 0.00945086 0.0111904 0.0056701 0.0052102 0.00783017 0.00255423 0.00013374 0.00274403 
-0.00285374 -0.00768929 -0.00514536 -0.00931031 -0.00350441 -0.0171076 -0.0103012 0.037718 0.0329437 
0.0336586 0.00803109 0.0218079 0.0289757 -0.0154932 -0.00977256 0.00920134 0.00684757 0.0118009 
0.0104705 0.00468951 0.0130772 0.0125264 0.00790185 0.0136073 0.0136232 0.00960407 0.0130712 
0.0136479 0.0100084 0.0113214 0.0126743 0.00889072 0.00798627 0.0102209 0.00585813 0.00170439 
0.00574473 0.000181002 -0.0087753 -0.00269246 -0.00878774 -0.00823437 -0.0141569 -0.015149 0.0289026 
-0.0200625 -0.0103926 -0.000996177 0.00471763 0.000662016 -0.000911797 -0.00301754 -0.00626259 -0.0122556 
0.00449513 0.00128544 -0.0087388 -0.000847836 0.0652997 -0.00808749 -0.000460146 -0.000268313 -0.000125545 
-0.000716418 0.00726466 0.0189258 0.060121 -0.000300844 0.0322875 0.0263258 0.0188854 0.00951852 
0.0101271 -0.000472658 -0.00129414 0.0195679 0.0271744 0.00929327 0.0271053 0.0264731 0.0139763 
0.0192159 0.0251661 -0.00937615 -0.00607163 0.0147711 0.00279217 -0.00290385 -0.0035625 -0.00413639 
-0.00487754 -0.00347389 -0.00554909 -0.00640039 -0.00470062 -0.00719057 -0.00806847 -0.00613919 -0.00881369 
-0.00965672 -0.00768119 -0.010425 -0.0111728 -0.00917349 -0.0118539 -0.0124603 -0.0106064 -0.0129983 
-0.0134912 -0.0117986 -0.0138691 -0.0142153 -0.0127091 -0.0144171 -0.0145253 -0.0133105 -0.014496 
-0.0144275 -0.0134887 -0.0142096 -0.0138499 -0.0132449 -0.0135069 -0.013072 -0.0126896 -0.0125713 
-0.0119815 -0.0118629 -0.01132 -0.010495 -0.0107173 -0.00971891 -0.00884507 -0.00928459 -0.0080646 
-0.00719543 -0.00771828 -0.00646368 -0.00563593 -0.00620842 -0.00497725 -0.00422163 -0.00481672 -0.00367229 
-0.00301412 -0.00359893 -0.00252349 -0.00198015 -0.00253876 0.0445243 0.0260165 0.0198501 0.0164979 
0.0128218 0.023929 0.0106203 0.00868563 0.016063 0.00744519 0.00605609 0.0108019 0.0050604 
0.004319 0.0074909 0.00378768 0.00339508 0.00537564 0.0030821 0.00289667 0.00427736 0.00268888 
0.00260535 0.00369753 0.00241911 0.00233943 0.0033157 0.00213006 0.00208575 0.00296296 0.00186096 
0.00171361 0.00258349 0.00139427 0.00119702 0.00206654 0.000797744 0.000549689 0.00130416 0.000159765 
-8.14002e-05 0.000461626 -0.000463279 -0.000692431 -0.000368065 -0.0010486 -0.00125391 -0.00115747 -0.00153029 
-0.00165562 -0.00184247 -0.00183387 -0.00190267 -0.00230705 -0.00201679 -0.00203561 -0.00257815 -0.00209508 
-0.00207188 -0.00271785 -0.00206786 -0.00199006 -0.00272954 -0.0019197 -0.00178103 -0.00259689 -0.00162729 
-0.00145752 -0.00229521 -0.00121003 -0.00102578 -0.00178878 -0.000755574 -0.000528345 -0.00116748 -0.000242986 
2.42313e-05 -0.000519596 0.000335093 0.000591097 0.000201591 0.000867384 0.00105944 0.000920745 0.00128638 
0.00142572 0.00150547 0.00158684 0.00162912 0.0019451 0.00171187 0.00167176 0.00218083 0.00164654 
0.00153889 0.00218022 0.00143079 0.00125399 0.00194438 0.00109321 0.000891173 0.00154463 0.000705231 
0.000516148 0.00106597 0.000319944 0.000126782 0.00055959 -7.20419e-05 -0.000267558 4.63268e-05 -0.000473329 
-0.000636008 -0.000468563 -0.0008159 -0.000977156 -0.000960508 -0.00112328 -0.00123235 -0.00137466 -0.00129801 
-0.00135671 -0.00175154 -0.00165529 0.00364879 0.00287036 -0.00803649 0.0121702 0.0463656 0.0313118 
0.0360873 0.0591605 0.0249845 0.0238042 -0.000765712 -0.000682999 -0.000535471 -0.000393597 -0.000794921 
-0.000196545 -2.44641e-05 -0.000372999 0.000182771 0.000351128 0.000113841 0.000535541 0.000727968 0.000607343 
0.000911985 0.00110996 0.00109853 0.00128878 0.00144399 0.00159507 0.0015123 0.00163064 0.00195105 
0.00162242 0.00164761 0.00213606 0.00159073 0.00155237 0.0021386 0.00135905 0.001248 0.00192046 
0.00098193 0.000777782 0.00144607 0.00042002 0.000159567 0.000758679 -0.000208429 -0.000454181 -7.03647e-05 
-0.000781422 -0.000998092 -0.000830151 -0.00130106 -0.00147976 -0.00154666 -0.00167812 -0.00176594 -0.00210264 
-0.00189976 -0.0019556 -0.00245932 -0.00197274 -0.00198631 -0.00262789 -0.00195768 -0.00194209 -0.00262797 
-0.00185252 -0.00182093 -0.00253169 -0.00166531 -0.0015779 -0.00230414 -0.0013496 -0.00125222 -0.00194665 
-0.000930924 -0.000758258 -0.00142057 -0.000382146 -0.000169218 -0.000750247 0.000277547 0.00046554 6.55431e-05 
0.000845483 0.00101387 0.000868348 0.00135711 0.00147424 0.0015945 0.00176613 0.00175017 0.00216372 
0.00199448 0.00195349 0.00250255 0.00216821 0.00218065 0.00275772 0.00246445 0.00258546 0.0031517 
0.00292973 0.00321953 0.00377112 0.00375001 0.00421808 0.00467207 0.00487931 0.00578832 0.00616872 
0.00667964 0.00793002 0.00829398 0.00933379 0.0116179 0.011587 0.0138719 0.0178859 0.0169682 
0.0141189 -0.00722309 0.061358 0.0697318 -0.0137308 0.0150898 -0.00602832 -0.00758358 0.0737306 
0.0754365 0.0621948 0.0781927 0.07907 0.0677544 0.081124 0.0820947 0.071435 0.0833474 
0.0847375 0.0745286 0.08567 0.0863133 0.0769415 0.0869893 0.087614 0.0788248 0.0879038 
0.0883489 0.0800533 0.0884501 0.089078 0.0809224 0.0891594 0.0895416 0.0816753 0.0894361 
0.0893258 0.0820579 0.0892014 0.0894044 0.0820269 0.0891651 0.0888502 0.0817621 0.0885679 
0.0883825 0.0812277 0.0879733 0.0877464 0.0805587 0.0874135 0.0870743 0.0799304 0.0861718 
0.0855248 0.0789629 0.0845189 0.083742 0.0772102 0.0820887 0.0803406 0.0747204 0.0770951 
0.0741828 0.0702362 0.0689299 0.064285 0.0513606 0.0616932 0.022885 0.010294 -0.0123275 
-0.0110481 -0.0112053 0.0045613 0.00432497 -0.000822105 0.00146369 9.28933e-05 -0.0027598 0.00429608 
0.00472063 0.000143621 0.002516 0.00345298 -0.000801528 -0.000819512 0.00101197 -0.00312296 -0.00509243 
-0.00319099 -0.00631507 -0.00750378 -0.00722974 -0.00814711 -0.00164679 -0.00736653 -0.0057511 0.0238659 
0.0270913 0.0273812 0.0285509 0.00403078 0.0167322 0.0178366 0.00394747 0.0260532 0.00534831 
0.0027563 0.000954207 0.00646941 0.00663765 0.00510756 0.00605059 0.00214043 0.00209905 0.00380038 
0.000207545 -0.00263871 -0.000355731 -0.00363299 -0.00729515 -0.00580825 -0.00765717 -0.00336768 -0.00893852 
-0.0075797 -0.00348296 -0.00540113 -0.00210917 0.00225362 0.0235298 0.0233957 -0.00236765 -0.000881484 
-0.000857815 -0.00107508 -0.000880555 -0.00359389 -0.0066078 -0.00482139 0.00520317 0.00407537 -0.000893108 
0.00644733 0.00582353 0.00142591 0.00246205 0.00317357 0.030605 0.0490364 0.0457987 0.0219947 
-0.00155509 -0.00109788 0.0173508 0.01965 0.0178856 0.0141319 0.0169882 0.0160964 0.00916089 
0.015413 -0.000785885 -0.000889062 0.0269321 0.0086859 -0.0064495 -0.007192 -0.00789643 0.00984675 
-0.00557048 -0.00746076 -0.0112776 -0.00159766 0.0077333 -0.0041707 0.00556778 0.0202911 0.0189024 
0.023117 0.0165847 0.0250877 0.0231768 -0.00233188 0.0168362 -0.00117319 0.0199424 -0.00111854 
-0.00324207 -0.00821966 -0.00446312 0.0089247 -0.00160112 0.00927749 0.00276287 0.00443949 -0.00371308 
-0.00435527 -0.00517204 -0.00591618 -0.0041002 -0.00654363 -0.00721338 -0.00549481 -0.00788541 -0.00855334 
-0.00673999 -0.00928951 -0.00988727 -0.00803996 -0.0105414 -0.0110019 -0.0093842 -0.01143 -0.0117696 
-0.0104427 -0.0120699 -0.0122362 -0.0111498 -0.0123355 -0.012288 -0.0115423 -0.0121458 -0.0119772 
-0.0114219 -0.0116717 -0.0114095 -0.01104 -0.0109944 -0.0105797 -0.010379 -0.0100284 -0.00945732 
-0.00945784 -0.00874538 -0.00805073 -0.0082707 -0.00728808 -0.0065662 -0.00684949 -0.00588444 -0.00519439 
-0.00545855 -0.00460905 -0.00396969 -0.00423703 -0.00348427 -0.0029193 -0.00320814 -0.00249681 -0.00199059 
-0.00232646 0.0358628 0.0295098 0.016966 0.0187524 0.0172262 0.0155296 -0.00181192 -0.00174423 
0.0125318 0.0164715 0.0136425 0.023293 0.0190748 0.0326741 0.0163325 0.013631 0.0219749 
0.0116347 0.00967487 0.0158032 0.008384 0.00726392 0.0114274 0.00659549 0.00606568 0.00878647 
0.00569625 0.0053956 0.00741186 0.00503517 0.00483079 0.00654999 0.00450304 0.00429264 0.00581897 
0.00396876 0.00375301 0.00515932 0.0033066 0.0029014 0.00438235 0.00231184 0.00176379 0.0032388 
0.00107164 0.00053405 0.0017717 -0.00014001 -0.000665702 0.000206797 -0.00131785 -0.0017915 -0.00129582 
-0.00230483 -0.00263793 -0.00261325 -0.00298781 -0.00316306 -0.00355118 -0.00338711 -0.00346476 -0.0041232 
-0.00360295 -0.00360616 -0.0044384 -0.00365758 -0.00358577 -0.00455525 -0.00353464 -0.00338451 -0.0044642 
-0.0031764 -0.00291126 -0.00408566 -0.00257941 -0.00219187 -0.00339681 -0.00174576 -0.00133425 -0.00244378 
-0.000874532 -0.000444651 -0.00136706 1.45252e-05 0.000538633 -0.000282274 0.00106667 0.00150938 0.000944293 
0.00196179 0.00230343 0.00212019 0.00265182 0.00286657 0.00305168 0.00307015 0.00312809 0.00369629 
0.00314477 0.00300184 0.00389122 0.00285532 0.00257831 0.00365802 0.00229543 0.00195394 0.00305889 
0.00163903 0.00127102 0.00225649 0.000923332 0.00054769 0.00139126 0.000178965 -0.000193848 0.000467816 
-0.000550166 -0.000888544 -0.000455154 -0.00122073 -0.00151502 -0.00130533 -0.00181683 -0.002047 -0.00206579 
0.02236 0.0138476 0.0423026 -0.00179121 -0.0028565 0.0304867 0.0382816 0.0491125 -0.00219903 
-0.00250849 -0.00523957 -0.000754127 -0.000444131 -7.75655e-05 0.000260103 -0.000317693 0.000625277 0.000972159 
0.000547014 0.00124829 0.00159203 0.00135648 0.00204802 0.00241568 0.00229957 0.00272241 0.00298231 
0.00331945 0.00285584 0.00293999 0.00358035 0.00301297 0.00303715 0.00372807 0.002847 0.00266237 
0.00369432 0.00226611 0.00191249 0.00308065 0.00132212 0.000793596 0.00198954 0.000149542 -0.000403553 
0.000574604 -0.000904861 -0.00132894 -0.000778507 -0.00186658 -0.00229326 -0.00200775 -0.00275753 -0.00300209 
-0.00315541 -0.00318281 -0.00336683 -0.00395537 -0.00346182 -0.0034928 -0.00425471 -0.00352232 -0.0035153 
-0.00438506 -0.00339955 -0.0033302 -0.00431299 -0.00314701 -0.00299403 -0.00400828 -0.00270953 -0.00248461 
-0.00358111 -0.00206765 -0.00170359 -0.0028712 -0.00111106 -0.000621783 -0.00173501 -1.70987e-06 0.000599468 
-0.000351879 0.00128465 0.00174647 0.00117901 0.00231288 0.00271197 0.00259773 0.00319739 0.00342623 
0.00374397 0.00380711 0.00388604 0.00458311 0.00413478 0.00425274 0.00512276 0.0045972 0.00493276 
0.00567078 0.00554306 0.00609822 0.00668798 0.00686244 0.0077752 0.00832519 0.008701 0.00995837 
0.010497 0.0113126 0.0132055 0.013536 0.0152258 0.0181668 0.0177751 0.0209458 0.0257083 
0.0340488 0.0242416 -0.00603961 -0.00331867 -0.0128855 -0.00332777 0.0617141 0.063364 0.0652089 
0.0664696 0.0566481 0.0681433 0.069149 0.0598328 0.0701801 0.070981 0.0623217 0.0715194 
0.0720929 0.0637596 0.0728622 0.0734041 0.0651953 0.0742114 0.0746005 0.0667488 0.0747398 
0.0747582 0.0677824 0.0744961 0.0744209 0.0676195 0.0739821 0.0737024 0.0669117 0.0733815 
0.0730101 0.0661175 0.072756 0.0723486 0.0655091 0.0721046 0.0718426 0.065024 0.0709838 
0.0703035 0.064022 0.0690849 0.0681757 0.0620675 0.0664562 0.0649404 0.0594821 0.0635787 
0.0601209 0.0564872 -0.00314797 -0.0117067 -0.0116029 -0.00125233 -0.0010443 -0.00111903 -0.00164021 
-0.00267075 -0.00202098 -0.00502768 -0.00364182 -0.00436148 -0.00605458 -0.00448397 -0.0036922 -0.00608465 
-0.0061577 -0.00553176 -0.00732336 -0.00659593 -0.00696744 -0.00786519 -0.00250643 -0.00613017 0.00130179 
0.0222133 0.0230302 0.00599231 1.19361e-05 -9.95269e-05 0.000293615 -0.00650176 -0.00642046 -0.00371402 
-0.00670281 -0.00587517 -0.000389762 0.0172466 0.0125274 -0.00168653 0.0107527 -0.00383121 -0.00189677 
-0.00089589 -0.00364707 0.00482641 0.0135642 0.019324 0.0154717 0.0104284 -0.00469058 -0.00363192 
-0.00530681 -0.00685793 0.00113407 0.00644203 8.84137e-05 -0.00155611 0.0525477 0.0214065 0.0209219 
0.0190328 -0.00324949 -0.00292788 0.0470517 0.0148163 0.0120879 0.00993261 -0.00145307 -0.00697081 
-0.00428826 -0.000279666 -0.000409525 0.00608633 -0.00224057 -0.000908339 -0.00448089 -0.00029262 -0.00574139 
-0.00695462 -0.00557947 0.0151119 0.0133135 0.00629628 -0.00612282 -0.00437633 -0.00538058 0.0588938 
0.0522687 0.0567451 0.0190463 -0.00459377 0.0526024 -0.00169088 0.0082713 0.0085398 -0.00549887 
0.0190671 0.0173213 0.0133378 0.0455017 0.0189646 0.0199644 0.0165342 -0.00267585 0.0117135 
0.0112899 0.0478173 0.0116659 0.0135227 -0.0029272 0.000407694 0.000254191 -0.00134971 0.00447781 
0.00794604 0.00347223 0.00769115 0.00170504 0.00725966 -0.00211314 -0.00452398 -0.00506163 -0.0054984 
-0.00605028 -0.00442346 -0.00660268 -0.00721391 -0.00526439 -0.00830444 -0.00885564 -0.00683181 -0.00938872 
-0.00971797 -0.00843898 -0.0101738 -0.0103804 -0.00936032 -0.0106546 -0.0107147 -0.010023 -0.0106281 
-0.0105301 -0.0101792 -0.0101041 -0.0099039 -0.00963351 -0.00965806 -0.00935514 -0.00905749 -0.00867352 
-0.00823842 -0.00821571 -0.00777433 -0.00719909 -0.00718396 -0.00639795 -0.00575892 -0.00603185 -0.00501598 
-0.00443219 -0.00460215 -0.0038106 -0.00327564 -0.00333758 -0.00287215 -0.00240639 -0.00239702 0.0117373 
0.00992289 -0.00697582 -0.00627308 -0.00704441 0.0111399 0.0120012 0.00929927 0.0405758 0.0330922 
0.0481343 0.0284193 0.0241036 0.0354512 0.0209106 0.0177851 0.0262465 0.0154266 0.013324 
0.0198117 0.0114342 0.0102942 0.0148941 0.0100531 0.00944104 0.0121904 0.00888507 0.00842118 
0.011155 0.00783831 0.00748262 0.0098725 0.00699374 0.00666772 0.00876216 0.00618825 0.00566809 
0.00776215 0.00490546 0.0041091 0.00643461 0.00302237 0.00204726 0.00434265 0.000907016 -1.92798e-05 
0.00177766 -0.00107533 -0.00193236 -0.00070196 -0.00282907 -0.00343193 -0.00284949 -0.00405613 -0.00440718 
-0.00448407 -0.00473321 -0.0049137 -0.00550584 -0.00513055 -0.0051901 -0.00601382 -0.00532115 -0.00528392 
-0.00627532 -0.00527775 -0.00514395 -0.00629703 -0.00494154 -0.00464976 -0.00601212 -0.00423764 -0.00378141 
-0.00528268 -0.00310744 -0.0024934 -0.00400931 -0.00160066 -0.000981027 -0.00217819 -0.000333602 0.000647581 
0.00146541 -4.27248e-05 0.00234806 0.00303602 0.00217772 0.00362481 0.00412121 0.00391712 0.00451823 
0.00477564 0.00511683 0.00499957 0.0049213 0.00576001 0.0048564 0.00448884 0.00581586 0.00405707 
0.00354561 0.00519725 0.00296253 0.00242163 0.00392881 0.00199631 0.00138637 0.00258278 0.000766246 
0.000169656 0.00133262 -0.000417514 -0.000950784 -0.000136692 -0.00144423 -0.0019098 0.0135028 0.0124346 
0.0166305 0.0203404 -0.00577004 -0.0057197 0.00525421 -0.000324859 0.000342303 0.000926373 0.00160553 
0.00204145 0.00152349 0.00260897 0.0275006 0.0246118 0.00389719 0.00451168 0.00374126 0.0048351 
0.00475843 0.00558027 0.00502357 0.0247548 0.0243675 0.00479839 0.00471568 0.00591395 0.00447208 
0.00397163 0.00565121 0.00299987 0.00219995 0.00434379 0.00123441 0.00021877 0.00200241 -0.00105791 
-0.00173275 -0.000700775 -0.00246191 0.0240847 0.023919 -0.00353932 -0.00409614 -0.00335588 -0.00482124 
-0.00499537 -0.00536701 -0.00484983 -0.00499652 -0.00583305 -0.00516433 -0.00520524 -0.00598798 -0.00519131 
-0.00509913 -0.0061783 -0.00478347 -0.00459502 -0.00572351 -0.00446223 -0.00419974 -0.00539203 -0.00365445 
-0.00322212 -0.00480036 -0.00248669 -0.00171006 -0.00344651 -0.000744939 0.000219606 -0.00143796 0.00125898 
0.00222462 0.000933144 0.00330985 0.00409239 0.00332938 0.0050238 0.00556252 0.00552189 0.00618173 
0.00648974 0.0074225 0.00692911 0.00707143 0.00834436 0.00709937 0.00750218 0.00870106 0.00852826 
0.00935229 0.00971232 0.010485 0.011708 0.0121508 0.0128079 0.0144022 0.0148293 0.0162165 
0.0185248 0.0184194 0.0212452 0.0245364 0.0238482 -0.00176938 -0.00140846 0.0478214 0.0493799 
-0.00466823 -0.00430613 0.0111096 0.0132658 0.0111308 -0.000857025 -0.000309856 -7.71158e-05 0.0180052 
0.0174377 -0.00864266 -0.00898036 0.0511657 0.05272 0.043984 0.0549088 0.0558712 0.0475658 
0.0551753 0.0557451 0.0488548 0.056501 0.0574692 0.0491593 0.0585139 0.0594006 0.0509073 
0.0610795 0.0612096 0.0534783 0.0594384 0.0591756 0.0533511 0.0589057 0.0583663 0.0513655 
0.058027 0.0575359 0.050743 0.0571379 0.0568649 0.0499259 0.057371 0.057212 0.0501373 
0.0567619 0.0559377 0.0502667 0.0546207 0.0536129 0.0486261 0.0519992 0.0506854 0.0459062 
0.0488898 -0.00696582 -0.00703837 -0.0063437 -0.00636084 -0.00749888 -0.00705343 -0.00529899 -0.006384 
-0.00710944 -0.00756225 0.00256948 -0.00108403 -0.00141739 -0.00814277 -0.00875675 -0.00380913 -0.0058801 
-0.00570982 -0.00195841 0.0166784 0.0119515 0.0382187 0.00898884 0.00496561 -0.00780666 0.000232248 
-0.000822898 -0.00823124 -0.00659619 -0.00638085 -0.00786135 0.00510615 0.00860146 -0.00580205 -0.00550056 
-0.0074738 -0.00744805 -0.00190027 0.00139941 -0.00335268 -0.00408034 -0.00365727 0.00418803 0.0103739 
0.00647373 0.00359 0.0418576 0.0446803 0.0393443 0.0328036 0.017866 0.0184789 0.0101303 
0.00973207 0.0166312 0.0146732 0.0136777 0.00720666 0.00633794 -0.00633111 -0.00453112 0.00756331 
0.00910098 -0.00141771 0.00861029 -0.00250252 -0.00325886 0.0237058 0.0187522 0.0247719 0.0250027 
0.0203081 0.0173192 0.016535 -0.00264668 0.0312649 0.0278666 0.00254309 0.00107306 -0.00226754 
-0.00143164 0.0427481 -0.00603749 -0.00653445 -0.00217855 0.00130133 -0.00250299 -0.00640062 -0.00408449 
-0.00399171 0.0119607 0.013518 0.0198693 0.00274572 0.0130592 0.0079103 0.00898993 -0.00530031 
-0.00666381 -0.00595865 -0.00730707 -0.0066095 -0.00641562 0.00342472 0.0179236 -0.00513426 -0.00558829 
-0.00740941 0.00507394 -0.00266884 -0.00757806 -0.00461125 -0.00621605 -0.00274444 -0.00413408 -0.00239205 
-0.00262215 0.0153759 0.0213387 0.0104775 -0.00654716 -0.00666807 -0.00591607 0.0153524 0.00692584 
0.00868005 0.00707502 0.00553164 -0.00346534 -0.0038732 -0.00731592 -0.00767217 -0.00855018 -0.00882117 
-0.0074058 -0.00933861 -0.00950805 -0.00869917 -0.00963503 -0.00960347 -0.00931501 -0.00901957 -0.00883137 
-0.00874514 -0.00790501 -0.00786099 -0.00745456 -0.0072642 0.024925 0.0248489 -0.00602604 -0.00568309 
-0.00556847 -0.00497208 0.0246634 0.0250203 -0.00419522 -0.00358167 -0.00377561 -0.00278626 -0.00227773 
-0.00232392 -0.00180341 -0.00735322 -0.0070873 -0.00611188 -0.0074496 0.00573164 0.00733879 0.00552176 
0.0100694 0.00342011 0.0367696 0.03214 0.0277974 0.0385438 0.0240667 0.0210351 0.0290999 
0.0175846 0.0156049 0.0216673 0.0148801 0.0248456 0.0253253 0.0122248 0.0116244 0.0106774 
0.0102482 0.0129072 0.0100463 0.00959813 0.0121192 0.00638028 0.00495765 -0.000163218 -0.00147985 
-0.00276053 -0.0037463 -0.00264999 -0.0048098 -0.00550959 -0.00484596 -0.00581855 -0.00614714 -0.00663172 
-0.00636575 -0.00650569 -0.00707394 -0.00666574 -0.00665602 -0.00744334 -0.00669339 -0.00660295 -0.00753835 
-0.00648673 -0.00627263 -0.00741179 -0.00594689 -0.00551707 -0.007031 -0.00299617 -0.00185767 -0.000541041 
0.000835997 -0.00120949 0.00203563 0.00327303 0.0017436 0.0045173 0.00538883 0.00458991 0.00584151 
0.00635014 0.00659411 0.0067508 0.00697365 0.0074402 0.00640887 0.00564905 0.00361482 0.00300034 
0.00174371 0.000814452 0.00291432 -7.16962e-05 -0.000815385 0.000304022 -0.00420534 -0.0044784 -0.00689336 
-0.00641535 0.00777579 0.0077809 0.034301 -0.00321476 -0.00137503 -0.00673491 -0.00674466 -0.00575061 
-0.00523756 0.00363834 0.00508177 0.00689607 0.0081442 0.00727995 0.00891678 0.00950297 0.0105537 
0.0105517 0.0108656 0.0119365 0.0108571 0.0108772 0.0132197 0.0119517 0.0250726 0.0248076 
0.0137797 0.0150375 0.0145964 0.0171767 0.0190436 0.0189703 0.0203469 0.0229315 0.0222744 
0.0263197 0.0301593 0.0285905 0.0167136 0.0178676 0.0176673 0.00182397 0.00431804 0.0412343 
0.040457 0.0409 0.0418803 0.034718 0.0435455 0.0448 0.0366793 0.0441989 0.0458629 
0.038004 0.0441756 0.0245515 0.0242113 0.0428985 0.0427812 0.0363045 0.0438564 0.0433848 
0.0362713 0.0411325 0.0406325 0.0350473 0.0421143 0.042786 0.0346521 0.0441132 0.0437878 
0.0374402 0.0422517 0.0410808 0.0375306 0.039827 0.000721649 0.00146388 0.00210779 -0.00106077 
-0.00150906 -0.00212023 -0.00272566 -0.00143577 -0.0065129 -0.00904186 -0.00585826 0.00841852 0.00606794 
0.015555 0.014952 0.0178514 0.0175253 -0.00309632 -0.00630159 -0.0069965 -0.00336728 -0.003715 
-0.00229602 -0.00239141 -0.0011723 0.036872 0.0246182 0.0238218 -0.00584715 0.00510498 0.0057109 
0.00397406 0.00338451 0.0131799 0.011526 -0.00714774 -0.00743976 0.0383328 -0.0061534 -0.00473185 
-0.00505922 -0.0026435 -0.00690539 0.00977451 0.0130161 0.0148064 0.0137976 0.00879423 0.00786231 
0.00307173 0.00153086 -0.00414002 -0.00404756 -0.00488312 -0.000169209 0.0235754 0.0202816 -0.000486147 
0.00702637 0.00770074 0.00968441 0.00726704 -0.00880949 -0.00882407 -0.005808 0.0175825 0.0193961 
0.0191316 0.0285883 0.0282323 -0.00564878 -0.00448604 0.00304648 0.00261506 2.98551e-06 0.107162 
-0.0249841 0.0391051 0.0321693 0.0802203 0.00747352 0.00417837 0.00289202 0.000467581 -0.00619798 
-0.00638035 -0.00654984 -0.00566043 -0.00432121 -0.00353896 -0.00579632 -0.00620322 -0.00616316 -0.00222691 
-0.000937206 -0.0034023 0.000626354 0.00224726 0.00350571 1.00535e-05 0.0138422 0.0143413 0.00065562 
-0.000374714 -0.00414014 0.0349114 0.0169766 -0.00651769 -0.00648201 0.0100497 -0.00294006 -0.000650554 
-0.006625 0.00111573 -0.00717877 -0.00693003 -0.00606859 -0.00436249 -0.00672027 -0.00657269 -0.00747578 
-0.00712771 0.0335128 0.00469715 0.00855621 0.000665194 -0.00740925 -0.00717833 -0.00194157 -0.00619594 
-0.000894074 -0.0029671 0.0083513 -0.00190131 -0.00380668 0.00388771 0.00139253 0.0217751 0.0179015 
-0.00710808 -0.00727608 -0.00500677 -0.00600083 0.0196196 0.0164907 0.0217348 -0.00668182 -0.00568516 
0.027355 0.0302405 -0.00297796 -0.00663754 -0.00676113 -0.00740922 -0.00742279 0.00595686 -0.00820566 
-0.00839095 -0.00745995 -0.00768121 0.00154007 0.00147456 0.0024705 0.0302579 0.0265819 0.0225264 
0.0311256 0.0239288 0.0262659 0.0223974 0.0111175 0.0138049 0.00446453 -0.00663862 -0.00713891 
-0.00717908 -0.00707716 -0.00694132 -0.00679502 0.00830321 -0.00164974 -0.0064631 0.00131346 -0.000304902 
-0.000319191 0.00425416 0.0274249 -0.00655654 0.02659 0.0218015 -0.00402266 -0.00636577 0.0154179 
0.0295328 -0.00423209 0.0194881 0.0178985 0.0293989 0.0306492 0.0329165 -0.00732983 0.00709637 
0.00975903 -0.0072377 -0.00763317 -0.00730688 -0.00642717 -0.00697589 -0.007253 -0.00478616 0.00874548 
-0.00659124 -0.00867521 -0.00786188 -0.00716427 -0.00730179 0.00932697 0.0262625 0.0285781 -0.00897892 
-0.00929375 -0.00317657 -0.00190943 -0.00132084 0.00010258 0.00449057 -0.00654474 0.0150262 0.0141456 
-0.00734859 -0.00661418 0.0157907 0.0173523 0.0177464 0.0164248 -0.00104056 -0.00267192 -0.00740145 
-0.00733567 -0.00780457 -0.00788028 -0.0086635 0.0191894 -0.00858629 -0.00869553 -0.00555832 0.0181751 
-0.00687974 -0.00712105 0.0304463 -0.000962991 0.0230809 0.0284147 0.0264331 -0.00339223 -0.0011971 
0.00121563 0.0314726 0.0303496 -0.00701606 -0.00422965 0.0222084 0.0199443 -0.00799178 -0.00835378 
4.37993e-05 -0.000215618 -8.55955e-05 -0.000986673 -0.000547112 -0.000581192 -0.0022195 -0.00153052 -0.00148383 
-0.00390521 -0.00294454 -0.00274293 -0.0059415 -0.00481769 -0.00439064 -0.00826514 -0.00692549 -0.00631407 
-0.0106762 -0.00933271 -0.00837316 -0.0130193 -0.0116952 -0.0105042 -0.0155952 -0.014173 -0.0126902 
-0.0176677 -0.0165431 -0.0148411 -0.019237 -0.0184187 -0.0165589 -0.0202691 -0.0198194 -0.0178795 
-0.0207466 -0.0205714 -0.0187873 -0.0204965 -0.0206983 -0.0190123 -0.0196546 -0.0201849 -0.0186476 
-0.0182879 -0.0191022 -0.0177543 -0.0164314 -0.017517 -0.0164332 -0.0142998 -0.0155222 -0.0147167 
-0.011867 -0.0132311 -0.0127345 -0.00944995 -0.0107879 -0.0105998 -0.00710336 -0.00842969 -0.00849006 
-0.00493425 -0.00607924 -0.00642098 -0.0030994 -0.0041132 -0.00454415 -0.0016308 -0.00235287 -0.0029366 
-0.000589783 -0.00105914 -0.00160268 -7.19186e-05 -0.000254419 -0.000677556 -3.22899e-05 7.56808e-05 -0.000166606 
-2.42761e-05 -0.0133742 0.0106932 0.0212607 0.00399049 0.00589374 0.00783923 0.00243119 0.00280346 
0.00274408 0.00138325 0.00148577 0.00181838 0.000973487 0.000988029 0.00116898 0.000626233 0.000605811 
0.000548006 0.000417498 0.000391904 0.000385315 0.000326417 0.000249536 0.000219256 0.000291198 0.000224042 
0.00020391 0.000256479 0.000177366 0.000151789 0.000241015 0.000151478 0.000148363 0.000240843 0.000142844 
0.000177366 0.00016899 9.85874e-05 0.000156742 0.00015496 8.1866e-05 0.000146392 0.000103702 3.86096e-05 
9.6651e-05 4.52665e-05 -1.32477e-05 4.55117e-05 -1.60974e-05 -7.24267e-05 -3.50245e-05 -8.40693e-05 -0.000127551 
-0.000111891 -0.000137873 -0.00017741 -0.000185573 -0.000179273 -0.000212263 -0.000255463 -0.000206195 -0.000226994 
-0.000283463 -0.000225841 -0.000236647 -0.000297511 -0.000220578 -0.000221367 -0.000290488 -0.000213405 -0.000200524 
-0.000280769 -0.000188957 -0.000176643 -0.000260362 -0.000152511 -0.000137486 -0.00021531 -9.25429e-05 -8.10469e-05 
-0.00014709 -3.33045e-05 -1.48686e-05 -8.24959e-05 2.4696e-05 4.38439e-05 -7.37334e-06 7.97328e-05 9.36919e-05 
6.57059e-05 0.000129922 0.000141205 0.00012516 0.000161513 0.000172154 0.000177864 0.000168686 0.000177272 
0.000196757 0.000167944 0.000171197 0.000200687 0.000140731 0.000145415 0.000184305 0.00010928 0.000112429 
0.000150486 6.94338e-05 7.03261e-05 0.000105774 3.36102e-05 2.99521e-05 6.42435e-05 -5.00211e-06 -7.91625e-06 
2.6563e-05 -4.4361e-05 -4.54531e-05 -2.19276e-05 -8.45791e-05 -8.02345e-05 -7.17682e-05 -0.00010849 -0.000108918 
-0.000111701 -0.000113014 -0.000118273 -0.000141094 0.097376 -8.45856e-05 -9.9933e-05 -9.08826e-05 -6.40441e-05 
-8.92713e-05 -0.000135886 -6.30763e-05 -7.39209e-05 -8.67586e-05 -5.21408e-05 -5.47052e-05 -6.68701e-05 -2.96833e-05 
-3.22111e-05 -4.67896e-05 -7.44251e-06 -2.04212e-06 -1.99081e-05 1.88667e-05 2.74625e-05 6.33347e-06 4.98372e-05 
6.0062e-05 3.29259e-05 8.05273e-05 9.43188e-05 6.76621e-05 0.000110548 0.00012941 9.40383e-05 0.000127451 
0.000151707 0.000127843 0.000136741 0.000145636 0.000147956 0.000128395 0.00013541 0.000143732 0.000102125 
0.000110273 0.000119815 7.49187e-05 7.36411e-05 9.32653e-05 3.65307e-05 2.69412e-05 4.50665e-05 -7.74003e-06 
-3.00026e-05 9.25229e-07 -5.03515e-05 -8.4876e-05 -5.65052e-05 -8.99642e-05 -0.000127638 -0.000110769 -0.000116562 
-0.000163099 -0.000157999 -0.000144267 -0.000173575 -0.000197892 -0.000158496 -0.000181443 -0.000201906 -0.000157141 
-0.000174443 -0.000206376 -0.000148019 -0.000157573 -0.000188918 -0.000137893 -0.000129432 -0.000155116 -0.000114852 
-0.000102141 -0.000126725 -7.82022e-05 -5.9921e-05 -9.34431e-05 -4.67544e-05 -7.41186e-06 -4.32087e-05 -1.02301e-05 
4.01357e-05 3.09954e-06 2.83772e-05 8.01269e-05 5.05159e-05 5.84884e-05 0.000123034 0.000100542 7.56257e-05 
0.000156478 0.000138911 8.46083e-05 0.000176065 0.000147256 9.59288e-05 0.000180859 0.000146458 0.00011498 
0.000208191 0.000122804 0.000138758 0.00023609 0.000145232 0.000179834 0.000295468 0.000152698 0.00024806 
0.000382975 0.000179351 0.000384897 0.000509641 0.000235877 0.000583278 0.000733406 0.000299715 0.00102934 
0.00116232 0.000412008 0.00193527 0.00188477 0.000861222 0.00362647 0.00444756 0.00233098 0.0170765 
0.008858 0.00747353 0.0444919 0.108253 0.116406 0.104752 0.118313 0.0749111 0.0930388 
0.109253 0.0916644 0.120441 0.123009 0.10613 0.118036 0.129592 0.104231 0.115793 
0.107478 0.0959563 0.115211 0.117218 0.103429 0.115848 0.115418 0.106768 0.115148 
0.11536 0.106832 0.11268 0.114155 0.10706 0.114749 0.11401 0.109985 0.115815 
0.116401 0.108943 0.114682 0.115341 0.11016 0.115512 0.116159 0.110325 0.115391 
0.115801 0.110333 0.115913 0.116737 0.109178 0.114738 0.115754 0.108525 0.114875 
0.114105 0.109232 0.113019 0.113427 0.107079 0.114474 0.113469 0.108095 0.114436 
0.1133 0.10608 0.114815 0.113787 0.104711 0.117018 0.114696 0.103657 0.117403 
0.115188 0.100168 0.12254 0.115593 0.100231 0.128147 0.124425 0.0969168 0.0621613 
0.0183972 -0.00156009 -0.0431035 0.00160884 0.00864179 0.0146229 -0.0433164 0.0103342 0.0164403 
-0.00532394 0.0165819 0.0187024 0.0067559 0.0187348 0.0195831 0.0130077 0.0193432 0.0200404 
0.0158689 0.0197558 0.0200524 0.0172266 0.019766 0.0196998 0.0175124 0.0196403 0.0190865 
0.0168036 0.0191645 0.0182105 0.0154403 0.0185168 0.0161948 0.0127249 0.0157208 0.0110792 
0.00690785 0.0104034 0.00125298 -0.00551628 -0.000863805 -0.049284 -0.0295303 0.00167556 0.0668989 
-0.0463301 0.00165092 0.00586616 0.0123409 -0.0266329 0.0138331 0.0171778 -0.00190777 0.0167991 
0.0182166 0.00812115 0.0185621 0.0195126 0.0133198 0.0193429 0.019967 0.0162537 0.0197458 
0.0200019 0.01744 0.0199375 0.0198793 0.017763 0.0199827 0.0197585 0.0173538 0.0192045 
0.0179941 0.0156425 0.0180966 0.0156338 0.0121265 0.0170918 0.012484 0.00546923 0.0132343 
0.00623205 -0.00769506 0.0279836 -0.0485083 -0.0371474 -0.000113959 0.0523472 0.0147016 -0.0351756 
0.0560563 -8.37284e-05 -7.82696e-05 0.0689542 0.0462525 0.0550493 -0.0384109 0.024191 0.00508561 
0.0375909 0.0776771 -0.0347175 -0.000283822 0.0367414 -0.000122759 -0.00191801 -0.00136542 -0.000953337 
-0.000551848 -0.000436202 -0.00114021 -0.0048324 -0.00393588 -0.00658134 -0.00561602 -0.00497577 -0.00842593 
-0.00735499 -0.00657021 -0.0102534 -0.00926482 -0.008214 -0.0121653 -0.0110758 -0.00989821 -0.0139417 
-0.0130351 -0.0115676 -0.0153628 -0.0146602 -0.0131429 -0.0164244 -0.0158712 -0.0143748 -0.0170272 
-0.0167624 -0.0152241 -0.0171477 -0.0171903 -0.0157246 -0.0166848 -0.0169831 -0.0157221 -0.0157816 
-0.0163029 -0.0151716 -0.0145264 -0.0152525 -0.0142609 -0.0129486 -0.0138174 -0.0130251 -0.011165 
-0.0121753 -0.0115483 -0.00932508 -0.0103409 -0.00993755 -0.00748347 -0.00847734 -0.00825436 -0.00563884 
-0.00665419 -0.00658345 -0.00410553 -0.00496389 -0.00505319 -0.00268226 -0.00343903 -0.00363731 -0.00152358 
-0.00212111 -0.00237193 -0.000693667 -0.0010875 -0.00133374 0.00885918 0.0120244 -0.000371181 -0.000411075 
-0.0542496 0.0294007 0.0149243 0.0221224 0.0200142 0.0246046 0.0399237 0.0767616 0.0374808 
0.00539401 0.00723406 0.0115551 0.0035812 0.00461935 0.00755505 0.00250371 0.00304203 0.00485119 
0.00188939 0.00214885 0.00332876 0.00147515 0.00157908 0.00245457 0.00126491 0.00132797 0.002018 
0.00112643 0.00112936 0.00172455 0.00101244 0.000986578 0.00150072 0.000866325 0.000864588 0.00131585 
0.000695131 0.000703356 0.00112696 0.000480749 0.000503315 0.00087594 0.00020025 0.000264209 0.000543415 
-9.94257e-05 -3.51687e-05 0.000135169 -0.000407047 -0.000334972 -0.00030854 -0.00067182 -0.00062181 -0.000748512 
-0.000875836 -0.000847292 -0.00112902 -0.000998385 -0.00100967 -0.00139833 -0.00107037 -0.00109113 -0.00156063 
-0.0010767 -0.00112639 -0.00163621 -0.00104345 -0.00109126 -0.0016377 -0.000931541 -0.00100147 -0.00154624 
-0.000747213 -0.000836246 -0.00134309 -0.000503264 -0.000603377 -0.00102294 -0.000218282 -0.000336584 -0.000637048 
8.0835e-05 -3.07855e-05 -0.000211796 0.000373379 0.000273879 0.000239665 0.000610959 0.000540023 0.000664377 
0.00076449 0.00074107 0.000974095 0.000821422 0.000845186 0.00115805 0.000819281 0.000874908 0.0012328 
0.000723529 0.000812639 0.00120278 0.000550254 0.000659602 0.00102388 0.00036425 0.000468983 0.000760076 
0.000176778 0.000268764 0.000486157 -8.00914e-06 7.65746e-05 0.000207687 -0.000188823 -0.000111573 -7.15001e-05 
-0.000365239 -0.000291909 -0.00033676 -0.000497636 -0.000457005 -0.000600677 -0.000542805 -0.000541711 -0.000784594 
-0.00624867 -0.0147446 0.0278437 -0.04227 0.0296235 0.00470332 -0.000361613 -0.000376719 -0.000538865 
-0.000294596 -0.000325098 -0.00049259 -0.000190946 -0.000221877 -0.000373641 -6.52579e-05 -0.000111076 -0.000214069 
8.09031e-05 3.24472e-05 -3.19618e-05 0.00023681 0.000178752 0.000201655 0.000398015 0.000319803 0.00042811 
0.000560298 0.000466991 0.000651194 0.000659447 0.000592795 0.000830355 0.000700345 0.000672481 0.000945533 
0.000672203 0.000663096 0.000976016 0.000574972 0.000585953 0.000905405 0.00040559 0.000445927 0.000731702 
0.00019042 0.000238136 0.000457116 -5.2268e-05 4.0073e-07 0.000130038 -0.000295188 -0.000247734 -0.000219438 
-0.000507469 -0.000468254 -0.000559443 -0.00066698 -0.000648501 -0.000850783 -0.000787696 -0.000760389 -0.00105692 
-0.000832156 -0.000833885 -0.00117925 -0.00082897 -0.000830885 -0.00120996 -0.000780412 -0.000784657 -0.00116814 
-0.000690767 -0.000706011 -0.00106538 -0.000568283 -0.000560289 -0.000911028 -0.000381317 -0.000393771 -0.000682872 
-0.000172111 -0.000185848 -0.000399912 4.71736e-05 4.37032e-05 -9.20944e-05 0.000266163 0.00027948 0.000214669 
0.000464689 0.000490625 0.000538169 0.000583429 0.000660624 0.000795567 0.000670776 0.000781013 0.00096365 
0.000738158 0.000858154 0.0010752 0.000877749 0.000945282 0.00116468 0.00102606 0.00110323 0.00137513 
0.0012869 0.00128664 0.00158577 0.00161732 0.00158338 0.00193445 0.00231867 0.00211326 0.0025861 
0.00334601 0.00282987 0.00345392 0.0053587 0.00415537 0.00504129 0.00875922 0.00640677 0.0079242 
0.0167713 0.0104857 0.014316 0.0435415 0.0242905 0.0331154 0.0730106 0.0896331 0.0888284 
0.0798769 0.0792077 0.0726219 -0.000526291 0.0716495 0.0907353 0.0947099 0.0855016 0.0973765 
0.091978 0.0909461 0.098493 0.0993209 0.0911288 0.0988032 0.0984291 0.0920533 0.0996972 
0.0989129 0.0933085 0.100555 0.0996893 0.094684 0.100932 0.100793 0.0952702 0.101715 
0.100337 0.09582 0.102319 0.101506 0.0965073 0.102282 0.101838 0.0970699 0.102114 
0.102179 0.0971266 0.101475 0.101766 0.0967438 0.100756 0.101431 0.0961358 0.100219 
0.100397 0.0951317 0.0998196 0.0993668 0.0944526 0.0986376 0.0988453 0.0936024 0.0970244 
0.0973734 0.0920178 0.0947989 0.0948846 0.0891458 0.0915564 0.0925688 0.0852829 0.0870409 
0.0884091 0.0797611 0.0824405 0.0819817 0.0726491 0.0221936 0.0191725 0.0245244 0.0281994 
0.0339731 -0.0377174 -0.00844395 -0.00325513 -0.0144164 0.000466755 0.00471038 -0.00944138 0.00653343 
0.00922769 -0.00213957 0.010129 0.011512 0.00336875 0.0118178 0.0123833 0.00657522 0.0126445 
0.0124828 0.00802879 0.0121512 0.011364 0.00765822 0.0107199 0.00935974 0.00601243 0.00798467 
0.00573185 0.00246115 0.0034116 -0.00097418 -0.00344647 -0.00346226 -0.00912211 -0.0110371 -0.0145055 
-0.00527799 0.016855 -0.0144446 -0.00665657 -0.00203017 0.00152192 0.00429594 -0.00782449 0.00662992 
0.0087173 -0.00129897 0.0101467 0.0111997 0.0035177 0.0119118 0.0122967 0.00640124 0.0126472 
0.0124691 0.00768928 0.0124798 0.0117967 0.0077635 0.0111773 0.00957747 0.00627737 0.00848152 
0.00598932 0.00312069 0.00368119 0.00060382 -0.00201805 -0.0045481 -0.0068989 -0.00882255 -0.0150322 
-0.00985312 -0.0118526 -0.051004 0.0312845 -0.0259077 -0.00321697 -0.00249864 -0.00215182 -0.00345345 
-0.0129157 -0.0129816 0.00629274 0.0260643 0.0264596 0.0583887 -0.000328829 -0.000789887 -0.000521759 
0.00821511 0.0346278 0.0154466 0.00210633 -0.000804683 0.016524 -0.0125128 0.0240048 0.0335044 
0.0247518 0.0247911 0.0316007 0.0188379 0.0758967 0.0619726 0.0265778 0.0235187 0.0265642 
-0.0200823 0.0142167 0.0182939 -0.00448902 0.0118314 -0.00791519 -0.00710769 -0.00502713 -0.0042426 
-0.00942024 -0.00867859 -0.00754736 -0.0109661 -0.0101879 -0.00901186 -0.0122781 -0.0116352 -0.0103947 
-0.0133222 -0.0128678 -0.0116069 -0.0140027 -0.0137231 -0.0125556 -0.0143586 -0.014207 -0.0131291 
-0.0141831 -0.0143444 -0.0133062 -0.0136181 -0.0139481 -0.0130544 -0.0126992 -0.01317 -0.0123992 
-0.0114937 -0.0121264 -0.0114097 -0.0101666 -0.010868 -0.0102508 -0.00868488 -0.00944505 -0.00895367 
-0.00715844 -0.00794973 -0.00755052 -0.00570797 -0.00649436 -0.00619429 -0.00435187 -0.00506004 -0.00490914 
-0.00308528 -0.00378519 -0.00368566 -0.00198461 -0.00257873 -0.00257908 -0.00108506 -0.00156637 -0.00162906 
-0.000889671 0.0238816 -0.00245898 0.0121096 0.015319 0.00653586 0.0179554 0.0153783 -0.0133008 
0.018416 0.0234708 0.0223429 0.045423 -0.00126621 0.00612273 0.00730049 0.00459076 0.00529359 
0.00779505 0.0037124 0.004057 0.00586401 0.0031875 0.00341888 0.00474889 0.00281334 0.00296128 
0.00409832 0.00247268 0.00258367 0.00360106 0.00206868 0.00220774 0.00310292 0.00153981 0.00173899 
0.0025247 0.000905928 0.00115997 0.00180147 0.00017619 0.000475617 0.000950552 -0.000592951 -0.000288233 
-4.86897e-05 -0.00129851 -0.00103027 -0.00105857 -0.00187237 -0.00167375 -0.00195881 -0.00227385 -0.00216381 
-0.00268092 -0.00254076 -0.00249637 -0.00319445 -0.00262681 -0.00263474 -0.00348314 -0.00257309 -0.0026225 
-0.00352544 -0.00237882 -0.00249 -0.00338148 -0.00203498 -0.00222244 -0.00306281 -0.00151991 -0.00178328 
-0.00254519 -0.000883046 -0.00118832 -0.00182948 -0.0001443 -0.000482217 -0.000927073 0.000617148 0.000275854 
8.02578e-05 0.00126408 0.00099173 0.00103863 0.00175037 0.00157473 0.00185559 0.00203765 0.00197677 
0.00245479 0.00210249 0.00212751 0.0027806 0.00191344 0.00205858 0.00275431 0.00153598 0.00177175 
0.00241859 0.00108788 0.00134178 0.00191099 0.000608722 0.00086933 0.00131733 0.000138616 0.000371478 
0.000670486 -0.000300124 -9.11113e-05 4.2141e-05 -0.000727614 -0.000520476 -0.00053461 -0.00109004 -0.000916536 
-0.00108745 -0.00135872 -0.00129424 -0.00160626 0.0112617 0.00140052 -0.000911504 -0.000334026 -0.000465511 
2.71684e-05 -0.00013715 -0.000305813 0.000406623 0.000207846 0.000200662 0.00082399 0.000604513 0.000710611 
0.00123704 0.0010124 0.00126172 0.00152746 0.00137059 0.00173373 0.00168511 0.0015867 0.00204649 
0.00167195 0.00165676 0.00217631 0.00151475 0.0015717 0.00211708 0.0011811 0.00133017 0.00185817 
0.000665163 0.000884138 0.00134678 6.49741e-05 0.000313834 0.00063098 -0.000547306 -0.000304488 -0.000166615 
-0.00111696 -0.000906811 -0.00101671 -0.00155577 -0.0013976 -0.00170758 -0.00184273 -0.00173385 -0.00221636 
-0.00201857 -0.00196254 -0.0025536 -0.00204773 -0.00203712 -0.00271432 -0.00197034 -0.00200344 -0.00270407 
-0.00176775 -0.00181944 -0.0025292 -0.00145662 -0.00155603 -0.00219208 -0.00105019 -0.00118868 -0.00174218 
-0.000522819 -0.000722722 -0.00114247 2.4207e-05 -0.000176254 -0.00045054 0.000627786 0.000419982 0.000288533 
0.00118633 0.00103068 0.0010405 0.00158346 0.00154734 0.00179141 0.00183976 0.00184377 0.00229147 
0.00208902 0.0021027 0.0025824 0.00246531 0.00240697 0.00297668 0.00281852 0.00268422 0.00346515 
0.00340911 0.003179 0.00397325 0.00419356 0.00382942 0.00475269 0.0056052 0.00480282 0.00602862 
0.00797956 0.00672085 0.00825553 0.0119292 0.00944493 0.011817 0.0185302 0.0143645 0.0178886 
0.0280953 0.0203933 0.0261468 0.0405241 0.0803947 0.0793542 0.0768487 0.0726357 0.0699946 
0.0152843 0.00445564 0.027135 0.0282716 0.0261895 0.0266924 0.0815254 0.0818213 0.0724854 
0.0825693 0.0824862 0.0731701 0.084771 0.0843642 0.0749913 0.0866601 0.0862015 0.0778015 
0.0875065 0.0874364 0.0797843 0.0880859 0.0875349 0.0803614 0.0887926 0.0881381 0.0806977 
0.0895345 0.0890776 0.0815776 0.0892645 0.0894072 0.0820795 0.0885841 0.0888007 0.0816529 
0.087507 0.088228 0.0807487 0.0865271 0.0872346 0.0797489 0.086034 0.0861182 0.0788368 
0.0842272 0.0849812 0.0775547 0.0811887 0.0825615 0.0748449 0.0774061 0.0790089 0.0708262 
0.0715741 0.0741233 0.065484 0.0646076 0.0677798 0.0584644 0.0536326 0.0588237 0.0495122 
-0.00567808 -0.00872526 0.00165319 0.0255404 0.0247789 0.0163362 0.00843461 0.010383 0.0152454 
0.0108209 0.0284893 0.0377968 -0.0065406 -0.00741937 -0.00690857 -0.0060595 -0.00364281 -0.00165689 
-0.00804115 -8.85622e-05 0.00157267 -0.00538937 0.0029303 0.00386442 -0.00265635 0.00447333 0.00469802 
-0.000606124 0.00450444 0.00398396 4.60119e-05 0.00331273 0.00220047 -0.000939792 0.000862531 -0.00075104 
-0.00333836 -0.00316778 -0.00472894 -0.00647332 -0.00695578 -0.00735424 -0.00874266 -0.00768821 -0.00606364 
-0.00746983 -0.010775 0.0172562 -0.00390947 -0.00182026 -0.00777554 -0.000129674 0.00151791 -0.00511611 
0.00252458 0.00341445 -0.00259608 0.00403722 0.00437565 -0.000839969 0.00437743 0.00414479 -0.000150331 
0.00348778 0.00256154 -0.000739902 0.00125458 -7.19214e-05 -0.00253254 -0.00225252 -0.00369312 -0.0051702 
-0.00655175 -0.00648961 -0.00752085 -0.00812969 -0.00294091 -0.00583497 -0.0159266 -0.00770388 -0.0144219 
-0.00643487 -0.00567035 -0.00485462 -0.00616622 -0.000613928 -0.000722386 -0.000722517 -0.00314382 -0.0085875 
-0.00653029 0.0467157 -0.00102007 -0.000825867 -0.000871558 -0.00367641 -0.00371992 -0.0030044 0.0213368 
0.0174698 0.0250876 0.0343298 0.0058297 0.0186792 -0.00212174 0.0176365 0.00582289 0.0170575 
-0.00117114 0.0223466 0.0261204 0.0630329 0.0538353 0.0176575 0.0200127 0.0133342 -0.00178076 
0.0110411 0.0176882 0.0409329 0.0200822 0.00541858 -0.00444727 -0.00887962 -0.00286878 0.00520161 
-0.00743181 -0.00955195 0.00902808 0.0183573 0.0175475 0.00486403 0.0577128 -0.00702384 -0.00636768 
-0.0107681 -0.0103109 -0.0116389 -0.0113328 -0.0102592 -0.0121015 -0.0119669 -0.0110901 -0.0121949 
-0.0121975 -0.0114033 -0.0118322 -0.0120433 -0.0114085 -0.011123 -0.0114634 -0.0108553 -0.0100957 
-0.0105647 -0.0100371 -0.00893384 -0.00944068 -0.00888797 -0.00769811 -0.00831383 -0.0077157 -0.00641489 
-0.00704148 -0.00651444 -0.00518226 -0.00577962 -0.00530368 -0.00403637 -0.00464995 -0.00421079 -0.00295173 
-0.00353766 -0.00322432 -0.00198626 -0.00252138 -0.00231937 -0.00163271 -0.00316688 -0.00563751 0.00211562 
0.00818186 0.00105032 0.000666816 0.00693051 0.00751215 0.00816217 0.00923318 0.0100727 0.0105135 
0.0123338 0.0125961 0.00604823 0.00640456 0.00859514 0.00539288 0.00568563 0.00754953 0.00464417 
0.00495713 0.00663841 0.00372459 0.00413663 0.00563802 0.00258607 0.00309539 0.00439907 0.00126539 
0.00185086 0.0029076 -0.000156368 0.000500121 0.00117694 -0.00157414 -0.000966191 -0.000615622 -0.00275672 
-0.00228791 -0.0023765 -0.00366389 -0.00333436 -0.00381697 -0.00426156 -0.00405726 -0.0048568 -0.00449098 
-0.00444501 -0.00543562 -0.00448898 -0.00454356 -0.00563756 -0.00426801 -0.00440675 -0.00556975 -0.0038371 
-0.00407437 -0.00524358 -0.00315975 -0.00352174 -0.00462522 -0.0022052 -0.00269227 -0.00368227 -0.000918757 
-0.00154777 -0.00235537 0.000477305 -0.000178854 -0.00068976 0.00182529 0.00123446 0.00106385 0.00288196 
0.00241221 0.00266589 0.00361665 0.00333504 0.00391181 0.00387937 0.00386458 0.00467091 0.00367104 
0.00389028 0.0048731 0.00307919 0.00344783 0.00450267 0.00227197 0.00270683 0.00365446 0.00138545 
0.00184965 0.00255213 0.000516435 0.000968973 0.00145743 -0.000278152 0.000105358 0.000390308 -0.00104395 
-0.000689374 -0.000622967 -0.00171733 -0.00139573 -0.00154972 -0.00230231 -0.00199391 -0.00231683 0.017792 
0.0135025 0.00935462 -0.00380091 0.066539 0.0648873 0.00715345 0.000856767 0.000651967 0.00922904 
0.00786387 -0.00347729 -0.00234658 0.0177438 0.019346 0.000302191 -2.60531e-05 0.000597587 -0.00037812 
-0.000686641 -0.000280328 0.0018563 0.00143165 0.00155501 0.00256211 0.0022108 0.00257205 0.00292848 
0.00274075 0.00327636 0.00302048 0.00295084 0.00363613 0.00290379 0.00295088 0.00369702 0.00250707 
0.00271094 0.00349582 0.00170896 0.00211425 0.00282911 0.000636486 0.00115841 0.00177991 -0.000517567 
1.26799e-05 0.000386429 -0.00165917 -0.0011396 -0.00109195 -0.00250237 -0.00215483 -0.00237643 -0.00312315 
-0.00287001 -0.00340387 -0.00351113 -0.00334812 -0.00409874 -0.00364044 -0.00358864 -0.00449597 -0.00362124 
-0.0036136 -0.00459673 -0.00333655 -0.00345694 -0.00441445 -0.0028367 -0.0030332 -0.00397902 -0.00216275 
-0.00244777 -0.00329967 -0.00124931 -0.00165536 -0.00230876 -0.000253549 -0.000700895 -0.00110839 0.00076701 
0.000230608 -2.49649e-05 0.0019812 0.0014442 0.00138685 0.00301713 0.00262517 0.00289015 0.00355425 
0.00341906 0.00405083 0.00408417 0.00393354 0.00476865 0.0047883 0.00449638 0.00550706 0.00547667 
0.00514999 0.00636283 0.00637484 0.00588528 0.00726877 0.00765679 0.006969 0.00843085 0.00975231 
0.00848933 0.0102195 0.0135627 0.0114242 0.0134147 0.0194705 0.0159229 0.0190535 0.0281043 
0.0225849 0.0266501 0.0341506 -0.00140807 -0.00152815 0.0212928 0.021532 0.0608449 0.0593015 
0.0622411 0.0619662 0.0551055 0.0135036 0.0185517 0.0200524 0.0178612 0.0402233 0.0341265 
0.0454105 -0.000435599 0.0111329 0.0646047 0.0641439 0.054235 0.0538274 0.0702656 0.0688171 
0.0600377 0.0734291 0.0726728 0.0645617 0.0723202 0.0723592 0.065902 0.0727686 0.0723258 
0.0649482 0.074225 0.0736258 0.0658651 0.0748838 0.0748629 0.067465 0.0738003 0.0742745 
0.0674877 0.0723602 0.0729272 0.0659959 0.0713165 0.0718965 0.0646132 0.0703636 0.0708329 
0.0637084 0.0685617 0.0695947 0.0624146 0.0651018 0.0669862 0.060227 0.0597429 0.0621815 
0.0557443 0.0532139 0.0565974 0.0497931 0.0045475 -0.001349 0.0278858 -0.00967103 -0.00912474 
-0.00916576 0.0181908 0.0111229 0.00729071 0.0159862 0.015362 0.0200707 0.0168451 -0.000987552 
-0.00119916 -0.00107972 -0.00840654 -0.00776275 -0.00650762 -0.00788112 -0.012919 -0.00154111 -0.0029085 
-0.00585871 -0.00514534 -0.00380141 -0.00323241 -0.00710808 -0.00232607 -0.00187905 -0.00614561 -0.00156761 
-0.00186605 -0.00540686 -0.00211646 -0.00276489 -0.0053836 -0.00371623 -0.00443691 -0.00649395 -0.00605408 
-0.00655077 -0.00762583 -0.00718439 -0.00602609 -0.00747348 -0.00497536 -0.00700678 -0.00166123 -0.00610806 
-0.00516733 -0.00426069 -0.00350169 -0.00708056 -0.00286924 -0.00231818 -0.00610512 -0.00214768 -0.00201873 
-0.00543221 -0.00238857 -0.00270527 -0.00545763 -0.00342423 -0.00392308 -0.00600937 -0.00504368 -0.00544975 
-0.00666106 -0.00643355 -0.00570214 -0.00676437 -0.00515907 -0.00189939 -0.00441765 -0.00608029 -0.0125382 
-0.0114841 -0.00685165 -0.00284203 0.00388502 -0.00588997 -0.00625838 -0.00702121 -0.00510623 -0.00726275 
-0.00697101 -0.00775523 -0.00663211 0.0387587 -0.00343774 -0.0028952 0.0218277 0.0229697 0.0494883 
0.0409038 0.00183408 0.00775352 0.00751533 -0.00165263 0.0108983 0.000619124 -0.0045821 -0.00393717 
-0.00316674 0.0169074 0.0143613 0.0169947 0.0152158 0.00588226 0.0167945 -0.00248484 0.0125896 
0.0146088 0.020319 0.0198951 0.00514101 0.00713406 -0.00527623 -0.0057626 -0.00514271 0.0197721 
0.0238692 0.0319616 0.0231237 0.0147476 0.0101102 0.00529236 0.0493872 0.00840776 0.0427294 
-0.00336017 -0.00383822 0.0150164 0.0212179 0.0184731 0.0196093 0.0206114 0.018391 0.0176838 
0.0446293 0.0359603 0.0302952 -0.00957245 -0.00914577 -0.0105169 -0.0106286 -0.00986487 -0.0101859 
-0.0097137 -0.00902382 -0.00944173 -0.00904748 -0.00768878 -0.00818857 -0.00789283 -0.00639733 -0.00687048 
-0.00634678 -0.00547096 -0.00600111 -0.00526132 -0.00419211 -0.00472383 -0.0042142 -0.00325307 -0.00373442 
-0.00313472 -0.0023714 -0.00286819 -0.00235951 -0.0020973 0.000326594 0.00366915 0.0484 0.0454247 
0.0573291 0.0584904 0.0107168 0.011465 0.00852061 0.00903965 0.00702691 0.00758498 0.00967643 
0.0057389 0.00658575 0.00837831 0.00359691 0.00458284 0.00649174 0.00155776 0.00263344 0.00415614 
-0.000925327 0.000196284 0.00137604 -0.00319562 -0.00227394 -0.00175713 -0.00480921 -0.00419536 -0.00436064 
-0.00575552 -0.00545009 -0.00612919 -0.00619621 -0.00615277 -0.00715689 -0.00630299 -0.00634118 -0.00752205 
-0.00616764 -0.00631813 -0.00751784 -0.00583032 -0.00607348 -0.0073031 -0.0051738 -0.00554668 -0.00683962 
-0.00406534 -0.00462204 -0.00590996 -0.00240313 -0.00327205 -0.00438579 -0.000215622 -0.00129991 -0.00218613 
0.00199272 0.000925698 0.000459047 0.00419874 0.00325109 0.00329618 0.00518884 0.00462287 0.0054386 
0.00610097 0.0058544 0.00656154 0.00602217 0.00623449 0.00741589 0.00515326 0.00572398 0.00710709 
0.00388832 0.00456698 0.00589432 0.00247116 0.00315859 0.00411529 0.00117602 0.00187938 0.00242723 
-0.000158803 0.000453921 0.000897234 -0.00132508 -0.000774618 -0.000661015 -0.00235546 -0.00189045 -0.00205726 
-0.00279887 0.0359596 -0.000180582 0.00332841 0.00264523 0.000687443 0.000187487 0.0167605 0.0160016 
0.00197806 0.00134404 0.00112168 -0.000370501 -0.000858029 -0.00022168 0.00431275 0.00386513 0.00430309 
0.00468951 0.00453843 0.00525211 0.00454173 0.00452913 0.00543624 0.00448834 0.00460939 0.00560986 
0.00362335 0.00411 0.00528565 0.00202296 0.00282253 0.00396719 0.000128365 0.00101242 0.00187342 
-0.00176654 -0.00089064 -0.000457328 -0.00325988 -0.00263287 -0.00260347 -0.0043784 -0.0039338 -0.00440547 
-0.00501936 -0.00471201 -0.00555863 -0.00530319 -0.00523596 -0.00616366 -0.00549166 -0.00544341 -0.00656519 
-0.00521777 -0.00530153 -0.00653373 -0.00463386 -0.00490823 -0.00601663 -0.00364955 -0.00409346 -0.0050441 
-0.00237221 -0.00312815 -0.00403275 -0.000126293 -0.000864634 -0.00143129 0.000716293 0.00152345 0.00441611 
0.00340667 0.00245153 0.00585336 0.00538326 0.00591896 0.00640095 0.00604334 0.00731642 0.007617 
0.00713666 0.00819517 0.00875511 0.00827192 0.00969615 0.0100197 0.00937234 0.0111567 0.0118707 
0.0108557 0.0128004 0.0143641 0.0128718 0.0150283 0.0180887 0.015469 0.0177665 0.0270932 
0.0230002 0.024791 0.00372163 0.00856291 0.00791937 0.0118508 0.00553943 0.0150725 0.0163937 
0.0536209 0.0509789 0.0434179 0.00168276 0.00773524 0.00778931 0.0124991 0.0568664 0.0568257 
0.0501616 0.0580249 0.0570228 0.0497021 0.0610932 0.060377 0.0521772 0.0607212 0.0613208 
0.0547653 0.0573061 0.058262 0.0525316 0.056659 0.0572309 0.0502145 0.0556419 0.0562834 
0.0498159 0.0540773 0.0548917 0.0485183 0.0523426 0.0539989 0.0476428 0.0456677 0.0487558 
0.0440301 0.0394652 0.0426295 0.0376369 0.0132622 0.00673239 0.00689446 0.00607734 0.0102616 
0.0558443 0.0482844 -0.00386822 -0.000321259 0.0144498 0.013091 -0.00849321 -0.00803576 -0.00813632 
0.0123426 0.0134839 0.0144269 -0.00712595 -0.00692253 -0.00135663 -0.00172308 -0.0063901 -0.00665729 
-0.00605938 -0.00574784 -0.00711898 -0.00615072 -0.00615352 -0.00750462 -0.00563237 -0.00571446 -0.0074463 
-0.00635247 -0.00644268 -0.00762264 -0.00720073 -0.00709836 -0.00784745 -0.00710188 -0.00575868 -0.00696001 
-6.39984e-06 -0.00332427 0.00958361 0.0100043 0.0126294 0.0112669 0.0128122 0.016031 0.00841675 
0.0121757 0.0137167 -0.00749685 0.000160182 -0.00659371 -0.00627063 -0.00813031 -0.00609795 -0.00591403 
-0.00799139 -0.0059206 -0.00590541 -0.00783163 -0.00614295 -0.00613572 -0.00773028 -0.00647676 -0.00622908 
-0.00742683 -0.00626585 -0.00543875 -0.00665214 -0.0045264 -0.00233963 -0.000335783 -0.0105513 -0.0105199 
-0.0100706 -0.0103527 -0.0101279 -0.00988285 0.0476172 -0.00924862 0.00582864 0.00867008 0.0193249 
0.0141384 0.0148533 0.0358986 0.040767 0.0137377 0.0149527 0.0124067 -0.00144017 0.00177758 
-0.00447855 0.00993621 0.00618377 0.00936055 -0.0041745 0.0200979 0.0234042 -0.00588632 -0.00529214 
0.0141962 0.0182949 0.0187295 0.0143052 0.0163557 0.0217626 -0.00318813 0.00272693 0.0172056 
0.0148521 0.0312027 -0.00467587 -0.00413662 -0.00402139 0.0340272 -0.00713499 -0.00728582 -0.0079494 
0.00236186 -0.00101643 0.00392536 0.0119419 0.0164464 0.00645806 -0.000499083 0.0139204 0.0112454 
-0.000864379 0.00973183 -0.00631379 -0.00669292 -0.00566625 -0.00390739 -0.00684539 -0.0072987 -0.00671089 
-0.00142135 -0.0032283 -0.00486726 -0.00526718 -0.00656198 -0.00658584 -0.00362154 0.0178924 0.0193728 
0.0170203 -0.00847392 -0.0078847 0.0100688 -0.0100019 -0.00222062 -0.00885275 -0.00934637 -0.0033687 
0.00144705 0.00489669 0.00784857 0.00343585 -0.00495029 -0.00547975 -0.00347021 -0.00373635 -0.00291467 
-0.00282694 -0.00951601 -0.00206839 -0.00244845 -0.00161618 -0.00724371 -0.00793894 -0.00577871 -0.00758817 
-0.0071167 -0.00536349 -0.0036944 0.0166291 0.0147159 0.00180537 0.00366353 -0.00246738 -0.000702347 
-0.00535593 -0.00423037 -0.00667539 -0.00631813 -0.00722465 -0.00712039 -0.00725065 -0.00730562 -0.00714037 
-0.00720913 -0.0069803 -0.00706156 -0.00670663 -0.00683737 -0.00445162 -0.00526359 -0.00171393 -0.00311438 
0.00901652 0.00904003 0.00775904 0.0086394 0.0102938 0.00549375 0.00652517 0.00822687 0.00319896 
0.00408125 0.00481097 0.00229616 0.000161608 0.00107552 0.00179473 -0.00164268 -0.00086132 -0.000633163 
0.00298699 0.00206804 -0.00897398 -0.00595533 0.0266241 -0.00022412 0.0023828 0.00659679 0.00610898 
0.00524628 0.00406512 0.00650189 0.0118793 0.0142705 0.00109729 0.000366168 0.00126104 -0.00049248 
-0.00114608 0.00660923 0.00683416 -0.00525828 -0.00471156 0.0102611 0.00937635 0.0120089 0.011435 
0.0124341 0.0137595 0.0130612 0.0147906 0.0161815 0.0148507 0.0170362 0.0192436 0.0175214 
0.0194201 0.02343 0.0213624 0.0235749 0.0111315 0.0012562 -0.00598871 0.0108075 0.00894903 
0.0295577 0.00702323 0.00796744 0.00449497 0.0111326 0.0160584 0.0185447 0.0186203 -0.00481901 
-9.84623e-06 -0.000853933 -0.00594716 0.0384815 0.0356481 0.00618035 0.0457645 0.0435228 0.009236 
0.0113413 0.042374 0.0427231 -0.00908725 -0.00859892 -0.00772129 0.0423132 0.0425762 0.0433598 
0.0439355 0.0371527 0.0413087 0.0422006 0.0372376 0.0403297 0.0402672 0.035271 0.0460292 
0.00382846 0.00651773 0.0190108 0.0208111 0.0164455 0.0176572 0.0209872 -0.00307697 0.00812877 
0.00941783 0.00521319 0.00794148 0.0148395 0.0160436 0.0132114 0.0122388 0.0101823 0.00992105 
0.0420847 0.0415822 0.0357408 0.0363519 -0.00914945 -0.00821444 -0.244807 0.01364 -0.00605095 
-0.00641208 -0.00584552 0.0400871 0.0344331 0.0427293 -0.00921935 -0.00949824 -0.00849713 0.0159604 
0.013995 0.0146551 0.0173533 -0.0018163 0.0331962 0.0281498 -0.00890807 -0.00888492 -0.00470763 
-0.00406332 -0.004394 0.01172 0.0141034 0.0068594 0.00357892 0.00185599 0.00402387 0.00725309 
0.0111239 -0.00633569 0.0328982 0.0303673 0.0365407 0.00207564 0.000432659 0.00730173 0.00826551 
-0.00247075 0.0297005 -0.0094789 -0.00908868 -0.00258506 -0.00318902 -0.0026768 0.00577006 0.007551 
0.00907923 0.0046999 -0.000353343 0.00649443 0.00673227 0.00679492 0.00176959 0.00322579 -0.00106439 
0.000292422 0.00920845 0.00936257 -0.00623991 -0.00588845 -0.00644626 -0.00640263 -0.00702344 -0.00693879 
-0.00652637 -0.00661642 -0.00526925 -0.0058617 0.0192499 0.0242223 0.011714 0.0190755 0.0460502 
0.00984614 0.0123194 -0.00473985 0.0362881 0.0309721 0.0304649 0.0242813 0.0250486 0.0122906 
0.043521 0.0246607 0.024377 0.0365687 0.0243657 0.024598 -0.00252974 0.0251581 0.0247169 
0.0282604 0.00482438 -0.00681721 -0.00771067 -0.00733898 -0.00691859 0.00138876 -0.00730921 0.0203128 
0.000206118 -0.00184558 -0.00454691 -0.00722106 -0.00758837 -0.0072281 -0.00697319 -0.00600792 0.00544315 
0.00101513 0.00225221 -0.00464609 -0.00185571 -0.00159373 -0.0063577 0.00469622 0.0176068 0.0181692 
0.0207023 0.0165257 0.0163049 0.0159181 -0.00879303 -0.00830654 0.020142 0.018681 0.00700075 
0.0215727 -0.000457246 0.000101457 0.0173366 -0.00120366 9.74912e-05 -0.00178229 -0.00738563 -0.00756246 
0.0281419 0.0271636 0.0196296 0.0180842 0.0212121 -0.00355026 -0.0067836 -0.00241001 -0.00711081 
-0.00735258 0.0251373 0.0253362 -0.00130612 -0.00423224 0.0264582 0.0279586 0.02376 0.00892889 
0.0109002 0.0175566 0.00601477 0.0312944 0.0328566 0.00416246 0.00668611 0.01784 -0.000611916 
-0.00716405 0.028694 0.0282633 -0.00766664 -0.00343864 -0.00436048 -0.005212 -0.00865567 0.0150413 
0.025331 0.0251084 0.0075754 0.0245371 0.0244272 -0.00498341 -0.00171043 0.0292658 0.0306267 
0.0268094 0.0250491 0.00131364 -0.0067991 0.00835561 0.0274344 0.0212737 0.00253135 0.0223549 
0.0222896 0.0239828 0.0249028 0.0236617 0.0242987 0.0311184 0.0241448 0.0301136 -0.00610707 
-0.00412035 0.0286118 -0.000389452 0.000556809 0.00941291 0.0246232 0.0249512 0.0221838 0.0192272 
0.023369 0.0248882 0.0247953 0.00688696 -0.0388479 0.0264067 0.0280715 0.00811776 1.15247e-05 
0.119851 -0.0408929 -8.46026e-06 4.20922e-05 4.97913e-05 4.77599e-05 4.75878e-05 5.01142e-05 4.29451e-05 
4.13226e-05 2.90378e-05 2.35582e-05 1.53482e-05 6.15549e-06 -2.77622e-06 -1.4002e-05 -2.23924e-05 -3.50179e-05 
-4.29928e-05 -6.03035e-05 -6.75755e-05 -8.56242e-05 -8.21265e-05 -9.35281e-05 -8.83286e-05 -9.952e-05 -9.17357e-05 
-9.57578e-05 -8.38879e-05 -8.10328e-05 -6.80388e-05 -5.98664e-05 -4.08491e-05 -2.8268e-05 -7.25651e-06 9.56558e-06 
2.36918e-05 4.4399e-05 5.38287e-05 7.04507e-05 7.90127e-05 0.000100113 9.70698e-05 0.000100654 9.58775e-05 
0.000111726 0.000109723 0.000110236 0.000107422 0.000106582 9.20014e-05 9.61818e-05 8.32092e-05 8.10824e-05 
6.3461e-05 5.33839e-05 3.80248e-05 2.96212e-05 6.82202e-06 -5.17449e-06 -1.74844e-05 -3.35467e-05 -4.25084e-05 
-5.86344e-05 -6.48685e-05 -7.68414e-05 -8.05599e-05 -8.92571e-05 -9.08512e-05 -9.53681e-05 -9.71618e-05 -0.000114994 
-0.000125997 -0.00014268 -0.000157917 -0.000189961 -0.000214295 -0.000257969 -0.000290819 -0.000361382 -0.000404258 
-0.00053592 -0.000671781 -0.000904024 -0.00120344 -0.00159662 -0.00231398 -0.00501798 -0.0040254 -0.00540224 
0.0405631 -1.45398e-06 1.67625e-05 -0.0398203 -0.0154814 -0.00886548 -0.00294243 -0.00261864 -0.00172134 
-0.00131811 -0.00092991 -0.000773827 -0.000625184 -0.000486265 -0.000401424 -0.000319846 -0.000285714 -0.000233222 
-0.000214432 -0.00018664 -0.000176085 -0.000151007 -0.000148695 -0.000135872 -0.000136372 -0.000129748 -0.000164501 
-4.96584e-05 -4.02844e-05 -9.45498e-05 -7.38032e-05 -6.44126e-05 -3.91421e-05 -3.38027e-05 -3.40769e-07 2.40949e-06 
4.00599e-05 4.10631e-05 7.75765e-05 7.32489e-05 0.000102001 9.54385e-05 0.000124111 0.000114121 0.000134641 
0.000126066 0.000138307 0.000119154 0.000131864 0.000123024 0.000120969 0.000111739 0.000101308 9.14302e-05 
7.68075e-05 5.66319e-05 3.95114e-05 2.81161e-05 4.47338e-06 -3.68539e-06 -3.14895e-05 -3.67841e-05 -6.5342e-05 
-6.85374e-05 -9.16107e-05 -8.74066e-05 -0.000108268 -9.4261e-05 -0.00010979 -0.00010017 -0.000111033 -8.95757e-05 
-8.78525e-05 -7.54066e-05 -6.96621e-05 -4.97286e-05 -3.9327e-05 -2.72144e-05 -1.44643e-05 -4.74175e-06 1.01102e-05 
1.68801e-05 3.43564e-05 3.98208e-05 5.74178e-05 6.04607e-05 7.50956e-05 6.45719e-05 7.87446e-05 5.07796e-05 
1.21148e-05 0.000104541 8.41585e-05 0.000227653 0.000234167 0.000284646 6.50406e-05 -0.000237524 -0.000785444 
-0.00145813 -0.00230977 -0.00327603 -0.00429146 -0.00541433 -0.0066039 -0.00796542 -0.009335 -0.0107027 
-0.0121149 -0.0134866 -0.014836 -0.0163424 -0.0186501 -0.0197585 -0.0207732 -0.0214426 -0.022112 
-0.0225205 -0.0227993 -0.022912 -0.0227962 -0.0225205 -0.0220626 -0.0214539 -0.0206361 -0.0196612 
-0.0187417 -0.0175653 -0.0162897 -0.0149508 -0.013567 -0.0119798 -0.010597 -0.00927397 -0.00789613 
-0.006533 -0.00534374 -0.00419445 -0.00311893 -0.00215063 -0.00135593 -0.000761898 -0.00016894 0.000102196 
0.000281672 -0.0175141 0.0270893 0.0737661 0.0722048 0.0390226 0.029541 0.0353008 0.0324534 
0.034184 0.0379802 0.033489 0.0338361 0.0327737 0.0340547 0.0318822 0.0340042 0.032437 
0.0342512 0.0306648 0.0338935 0.0318022 0.0353458 0.0264832 0.0381525 0.0209012 0.0774761 
0.0366272 0.0335809 0.0576449 0.0704214 0.0346297 0.0875052 0.0343938 0.0347042 0.0331699 
0.0309084 0.0327068 0.0289968 0.032294 0.0332301 0.0325078 0.0335811 0.0330101 0.0334632 
0.0335123 0.0330947 0.0335543 0.0373365 0.0356647 0.0325406 0.0407591 0.0338338 0.0660359 
0.0369948 -0.000891348 -0.0340773 0.0209853 0.0202201 0.0251223 0.024312 0.0231851 0.024185 
0.0225302 0.0227294 0.0226165 0.0210765 0.0208401 0.0246594 0.0372252 0.0367211 0.0206925 
-0.0214347 -0.0116129 0.0209877 0.0246647 0.0247897 0.0222114 0.0216116 0.0293746 0.0244608 
-0.0125483 0.0200129 0.0577763 0.00435338 0.00702661 0.00488225 -0.0197988 -0.0191935 -0.0182456 
-0.0178376 0.00282025 0.00359264 0.00341464 -0.0099729 -0.0103388 -0.0108306 -0.0112523 -0.0116488 
-0.00459404 -0.0034772 -0.00444502 -0.0056952 -0.0058427 0.0147287 0.0161118 -0.00978386 -0.0110672 
-0.0104772 -0.0148183 -0.0156313 -0.013845 0.00318897 0.00247534 0.00292079 -0.00898085 -0.0091864 
-0.00918818 -0.0133093 -0.0144484 0.00967415 0.00804241 0.00928203 0.00766573 0.00253937 -0.00371541 
-0.000118383 -0.00370502 -0.0116817 -0.0108661 -0.0123238 0.00764041 -0.011095 -0.0103819 0.0323771 
0.0436096 0.0240549 0.0366457 -0.00187183 -0.00142626 -0.00120106 0.0555324 0.0633644 0.0630139 
0.0714062 -0.0107876 -0.00953974 -0.00948342 8.81014e-05 1.15711e-05 7.13696e-05 -6.52434e-07 0.00275304 
0.00122398 0.000645397 0.00134886 0.000625814 0.000166718 0.000152227 0.000309777 0.000187633 0.000436502 
0.000590084 0.000855244 0.000541437 0.000701759 0.0240471 0.0214869 0.0205228 0.0180305 -0.000340703 
-0.000183797 -0.00010536 -0.00112373 -8.84606e-05 -0.00130004 -0.00219749 -0.00253633 -0.00149283 -0.000314849 
-0.00688209 -0.0076109 -0.00647951 -0.00714294 0.013559 0.0138125 0.00928572 0.000532195 0.0155818 
0.0167737 0.0174686 0.0190272 -0.00021783 -6.57394e-05 -8.31772e-05 5.37332e-05 0.0230869 0.0194582 
0.0234087 0.0202019 -0.000671576 0.000468681 -0.00342024 -0.00189594 -0.0126219 -0.0128784 -0.0113808 
-0.0117142 0.00136942 0.00228472 0.00211978 -0.000133199 -0.000147599 -0.000221009 -0.00169288 -0.00218613 
0.00762509 0.00693086 0.00774696 0.00709548 -0.00285851 -0.0030014 -0.00367346 -0.00150945 -0.00155402 
-0.00225145 0.000548708 -0.000358893 -0.000654641 -0.000351868 -0.000117744 2.50654e-05 -0.000353711 -0.000186073 
-0.000292935 -0.000262406 0.00193714 0.00132293 0.00146758 -0.00501302 -0.00561241 -0.00575376 -0.00406943 
-0.00368911 -0.00309186 -0.00277583 -0.00121363 -0.00326701 0.000847368 7.69757e-05 0.000111024 0.000168624 
-0.0171674 -0.0154506 -0.0159813 0.00211589 0.00147256 0.00172657 0.00329869 0.00376184 0.00374488 
0.00436636 0.00047337 0.000165551 0.00053946 0.000228241 0.0012164 0.00186755 0.00125076 -0.00548251 
-0.00414615 -0.00471352 0.00771242 0.0118436 0.00449406 0.0351481 0.0297825 0.0349319 0.0289516 
0.0265159 0.0228788 0.0223259 0.0223265 -0.00774615 -0.00872511 -0.00999322 0.000394799 0.000444192 
0.00021329 0.000320203 0.00135322 0.000554846 -0.000769523 -0.000949353 -0.000641226 -0.000245396 -0.000138915 
-0.000201489 -0.000515913 -0.000897705 -0.000555633 -0.00305111 -0.0035274 -0.00368404 -0.00421938 0.0479459 
0.0550725 0.0452783 0.0518106 -0.00195469 -0.00281138 -0.00217394 0.0804969 0.0727097 0.0807992 
-0.000483762 -0.000830199 -5.52913e-05 -4.65721e-05 -6.36508e-05 0.000945705 0.00271135 0.0049104 0.00031108 
0.000877618 0.000232055 0.0612898 0.0757154 0.0827792 0.10602 -0.00220727 -0.00222929 -0.00310174 
0.00169233 0.000966606 0.00140463 4.1576e-05 5.26658e-05 6.4204e-05 0.0623352 0.0702141 0.0629586 
0.0963541 0.0958786 0.0874624 0.0530625 0.0603805 0.0499771 0.0006078 0.00016988 0.000872369 
0.000572104 -0.0014793 -0.000876805 -0.000973589 -0.00112004 -0.00178077 -0.00106822 0.0234541 0.0173721 
0.0259967 0.0706372 0.0500323 0.0496222 0.0569952 0.000934422 -0.00262553 -0.00186397 -0.00305865 
-0.00227704 0.000996353 0.00143253 0.00187529 -0.000208946 0.0580902 0.0581266 0.0505943 0.00967394 
0.00793487 0.0113595 2.30801e-05 -0.00854701 -0.00748439 -0.00795094 0.0337656 0.0397762 0.043303 
0.00019746 -0.0046287 -0.00642159 -0.0050446 4.59852e-05 -0.00369793 -0.00467312 -0.0042996 0.000246965 
0.000316916 0.000205743 0.00210682 -0.000352729 -0.000210965 -0.000307267 0.00203968 0.00287784 0.00215012 
0.000423327 0.000285244 0.000332666 0.0903945 0.0796971 0.0895895 0.126541 0.10711 0.125614 
-0.000912681 0.0548049 0.0598333 0.0467637 0.11366 0.102658 0.113449 0.00254579 0.00177099 
0.000158148 7.77485e-05 0.000106238 -0.00146595 -0.0012965 -0.00189711 0.000248167 0.00169231 0.00122741 
0.00286435 -0.000490386 -0.00267854 -0.00109137 -0.00291355 -8.80837e-05 -9.67663e-06 3.43918e-05 0.00133783 
0.00155206 0.000780028 0.00106606 0.0813142 0.0887294 0.037346 -0.000665659 -0.000490678 -0.000347468 
0.000854595 0.00118116 0.00136239 0.0247109 0.0321238 0.0214442 0.0279585 -0.00265045 -0.00355828 
-0.00267811 0.0685091 0.0664194 0.0579081 0.0198435 0.01812 0.0183226 0.121971 0.111427 
0.114501 0.0115079 0.0158072 0.0134546 0.0252792 0.0341731 0.0300709 -0.00431495 -0.0038276 
-0.00483002 -0.00883179 -0.0082882 -0.00874574 0.0159072 0.0189513 0.0151359 0.0497139 0.0493327 
0.0435229 -0.0290962 -0.0166184 -0.0132351 0.0228277 0.0264774 0.0253297 0.0118845 0.0150235 
0.0137126 0.0665749 0.0676394 -0.00103652 0.0012582 -0.000265462 0.0531788 0.0590305 0.0509663 
-0.000116731 -0.000141164 -8.07909e-05 0.111122 0.0988274 0.109015 0.0302509 0.0666986 0.105331 
-0.042199 0.0445948 0.0179742 0.0113403 0.017154 -0.000265543 -0.000520513 -0.000266133 0.000320984 
-0.000222262 0.000584236 0.000423351 0.000777774 0.000554541 0.0171173 0.019008 -0.000178555 -0.000355554 
0.0192985 0.0133903 0.0179061 0.000696084 0.000711315 0.000283745 0.112343 0.114664 0.112043 
0.000620201 0.000897636 0.000357649 0.00586492 0.0096367 0.00561525 0.00930839 -0.00103718 -0.000979535 
-0.000605154 0.0173082 0.0741207 0.0660957 0.0737341 -0.00637855 -0.00695663 -0.00661435 -0.00620997 
0.0114246 0.0119575 0.0137755 -0.00158551 -0.000939967 -0.00145771 -3.25678e-05 -6.97834e-05 -0.000156839 
-6.40796e-06 0.00728173 0.00344276 0.00962074 -0.000733775 -0.00131763 -0.000757081 0.000140741 0.000270549 
0.000155634 0.00401213 0.00503159 0.00567071 0.000562525 0.0001689 0.000102995 0.113314 0.113364 
0.0158223 0.0183613 0.0140602 0.0135865 0.015226 0.0119479 7.09572e-05 0.00108391 0.0165292 
-0.00728223 -0.00704047 -0.00607835 -0.00635114 -0.00545003 -0.00561498 -0.00414276 -0.00358478 -0.00335131 
0.00173662 0.00249675 0.00204536 0.00863579 0.00636436 0.00812873 0.0423617 0.0505033 0.0360433 
0.0440749 -0.00868534 0.00365028 0.0026575 -0.011897 -0.0116172 -0.0127764 -0.0010671 -0.0165061 
-0.0147255 -0.00747375 -0.00740406 -0.00659806 -0.013792 -0.0138257 -0.0134294 -0.0121322 -0.0148273 
0.0203933 0.0156993 0.000338874 0.000311327 0.000492876 -0.0100666 -0.0113156 -0.00914018 -0.0103918 
0.00457385 0.00572005 0.00471409 -0.000413249 -0.00487078 -0.00450291 -0.00536079 -0.00671012 -0.00630246 
-0.00629708 -0.00305318 -0.00296594 -0.00356629 -0.000367476 0.000378906 0.000803044 0.00628679 0.00673142 
0.00825425 0.00871753 -0.000310847 -0.00140204 0.00699266 0.00682013 0.00891137 0.0086267 -0.003997 
-0.0040417 -0.004274 0.00836821 0.0066972 0.0031425 0.00336446 0.00397856 0.00422566 -0.000439165 
-0.00248863 0.00704376 0.00440321 0.000475997 0.00125915 0.00150765 0.0022443 0.00231572 -0.0017248 
-0.00175671 -0.00119093 -0.000554203 -0.000284727 -0.000376063 0.0119893 0.00556783 0.00705052 -0.000723511 
-0.00086018 -0.000533981 -0.000134742 -0.000187408 8.9377e-05 0.000576569 0.000236425 0.00146292 0.00108883 
0.0106106 0.0114962 0.00957055 0.000153086 0.000329134 9.57356e-05 0.000835517 0.000654046 0.000429595 
-0.00148993 0.000141231 -6.61396e-05 0.00995728 -0.00102844 -0.00127895 -0.000813518 -0.00724543 -0.00734621 
-0.00772169 -0.00730761 -0.000791236 -0.0149329 -0.00296826 3.06097e-05 -0.00268113 -0.00181942 -0.00730958 
-0.00734542 -0.00764489 6.11421e-05 6.89546e-05 9.81162e-05 0.00380726 0.00107178 -0.00329451 0.00560954 
0.00386755 0.00685141 0.000300282 8.15981e-05 -0.00567633 -0.00488985 -0.00574314 0.00297816 0.000843209 
0.00354103 0.00139496 0.00413417 0.000941141 0.000177274 0.000290315 0.000195318 0.000381395 0.0019868 
0.00110938 0.00277509 0.00210069 0.000692575 0.000238695 -0.0202655 -0.0279785 -0.0123383 -0.0127388 
-0.00492363 -0.00499851 -0.00397085 0.000147538 5.67965e-05 0.000239802 -0.00163806 -0.00110325 -0.00130324 
-0.00583218 -0.00586726 -0.00501951 -0.00189832 -0.00233171 -0.00251537 -0.00295145 0.00286718 0.00279834 
-0.00658978 -0.00742125 -0.00665724 -0.00489146 -0.00424501 -0.00567024 -0.00498457 1.57404e-05 6.73899e-05 
-0.00395945 -0.00509293 -0.00320032 0.00485825 0.00528192 0.00403959 0.00434714 0.00535679 -0.000733205 
-0.000241854 -0.00115689 -0.000792625 0.00029452 0.000655161 0.000374872 -0.00131208 0.00039692 0.000120052 
9.51974e-05 7.70118e-05 0.0143577 0.0189798 0.0117452 0.00297932 0.00219349 0.00206589 0.000127608 
0.000487588 0.000173113 0.0569819 0.0645506 0.000760183 -0.0007613 -0.000276727 -0.000330411 -0.00747681 
-0.00907608 -0.00742459 0.111823 0.101698 0.103036 0.113988 0.0975714 0.103187 0.0158641 
0.0181905 0.0136543 0.00444113 0.00566305 0.00463638 -0.00186644 -4.88188e-05 -3.6695e-05 -8.41081e-05 
0.000687507 0.000128111 -0.0071683 -0.00621954 0.000162687 -0.00256065 -0.0034393 0.000130581 8.54187e-05 
9.56665e-05 0.0632393 0.0747112 -0.00657477 -0.00573862 0.000546541 0.000761031 0.000945929 -0.00694422 
-0.00924819 0.0617471 0.0684091 0.0623876 0.0694353 0.00225551 0.0032966 0.00209632 0.00431852 
-0.00572992 -0.00481318 -0.00558189 0.00478538 0.00508606 0.00350911 0.0803529 0.0723782 0.0728881 
0.0652258 -0.00631205 -0.00691645 -0.00715589 -0.00703904 -0.0125711 -0.0120349 -0.0112493 -0.0103496 
-0.00979641 -0.0110285 0.0413318 0.0427887 0.0482967 0.00804998 0.0100914 0.00890561 0.0110249 
0.0134197 0.012107 -0.0027253 -0.000634186 -0.00088066 0.00391213 0.00687627 0.00341533 -0.0184311 
0.0580223 0.0722118 0.0541894 0.00964856 0.00237671 0.00970644 0.00805989 0.0110118 0.0134184 
0.0119088 0.00886169 0.0185817 0.0035226 0.00650492 0.00730302 0.0555315 0.0474879 0.0546803 
0.0468841 -0.00968511 -0.00928675 -0.0101117 0.0163782 0.0157356 0.0175724 -0.00766353 -0.00258183 
-0.000195876 -0.000112024 -0.000165108 0.00013724 0.000207118 0.000119538 0.0490855 -0.00167651 -0.00236725 
0.00631667 0.00753571 0.0116213 0.000158347 0.000391044 0.000569462 0.000882608 0.0113404 0.00956282 
-0.00219965 -0.00422669 0.000413494 -0.0107089 0.0199876 -0.000103016 -0.0144481 -0.0129499 -0.00723489 
-0.00727386 -0.00904899 -0.0101936 0.0115519 0.0134782 -0.00509729 -0.00451322 -0.00519535 -0.00409134 
-0.00470607 0.0159356 0.0193523 0.0133383 -0.0051022 -0.00591147 0.0174075 0.0112232 0.0130043 
0.0415134 0.0393423 -0.0052377 -0.00584409 -0.00554497 -0.00283778 -0.00907842 -0.00831832 -0.00846546 
-0.00781849 0.00991473 0.00806781 0.00933272 0.0159759 0.0141187 0.0198959 0.0182774 -0.011925 
0.000955792 0.00155658 0.000955645 0.0556962 0.0552304 0.0269704 0.0287486 0.0294189 0.031554 
0.0255262 0.0297065 -0.00680705 -0.00661594 -0.0059661 0.0507493 0.0435232 0.0439489 -0.00439253 
-0.0111913 -0.00352015 0.0420269 -0.00651596 -0.00603584 -0.00716428 -0.0147395 -0.0156856 -0.0140875 
-0.0117693 -0.0124097 -0.0202881 0.00941757 0.0214183 0.0174438 0.0138935 0.0217641 0.00278093 
0.00260228 0.0244866 0.015774 0.0167904 0.015008 -0.00153351 -0.00113291 -0.000994137 -0.000642217 
-0.00227645 -0.00270055 -0.00194547 0.00139637 0.000957267 0.00157497 -0.000159868 -0.0071263 -0.00633254 
0.0302039 0.0283642 0.0577193 -0.000453178 0.000248499 0.000633509 0.00157478 0.0017986 0.00107015 
6.19763e-05 -2.47514e-06 -0.000426992 0.0768086 -0.00349244 -0.00497704 -0.00348196 -0.000575867 -0.000621652 
0.00911148 -0.000234106 0.00834125 0.0100566 0.0113506 0.00288183 0.00293012 0.00366249 -0.00739494 
-0.00830292 -0.00844511 -0.000453216 -0.000516562 -0.000640859 -0.0064185 0.0186394 0.0187408 -0.00246048 
-0.00165992 -0.00211329 0.000731601 -0.0116664 -0.0110775 -0.010441 -0.00089136 -0.00136722 -0.000753592 
-0.000903465 -0.000369208 0.000146498 -3.43357e-05 -0.000191046 -0.000149095 -0.000321512 -0.00176387 -0.00144854 
-0.00110207 -0.000491053 -0.00557015 -0.02293 -0.0199646 -0.022856 0.0141749 0.014068 0.0158673 
0.0150131 0.0116032 -0.0111335 -0.0138816 -0.0158903 0.0143118 0.0171412 0.0130794 0.0130076 
0.0174533 0.0115258 0.0152235 0.00193039 -0.000604267 -0.000320183 -0.000575027 0.00845073 0.012195 
0.0105702 -0.00445295 -0.00525271 -0.00442323 -0.00528923 0.00472582 0.00421239 0.00250569 -0.00100876 
-0.00113112 -0.0015545 -0.00156163 0.0199125 0.00115942 0.00171843 -0.000475849 -0.00139837 -0.00209844 
-0.0108862 -0.0105334 0.00289321 -0.00516878 -0.00574687 0.00693014 0.00552743 0.00871654 0.0320144 
0.00568028 -0.00538545 -0.00495149 -0.00596933 0.0969919 -0.0138269 -0.0123409 -0.0131549 0.0212986 
-6.03471e-05 -0.000295646 0.0578518 0.0006867 0.00139474 0.000805079 -0.00766018 -0.01596 0.0178189 
-0.00338207 0.0735396 0.0729968 0.0803041 0.0798881 -0.00492567 -0.00660731 -0.0059617 -0.00693893 
-0.00258886 0.000477702 0.00119493 -0.00314559 -0.00234037 0.000179336 -0.00657789 -0.00792177 -0.00732124 
-0.00568085 -0.00742332 -0.00389147 -0.00453928 -0.00618439 -0.00512218 0.0124221 -0.00881982 -0.0095244 
-0.00993638 -0.000125548 -0.00713367 -0.00638598 -0.0062404 -0.00706555 -0.00352399 -0.00516724 -0.00551078 
-0.00656525 -0.00740156 -0.00747801 -0.00627915 -0.00658673 0.0497921 0.0563553 0.0567595 0.0640773 
-0.0137391 -0.0140794 -0.00742635 -5.29371e-05 9.15417e-05 0.0191078 0.0237846 0.0120913 0.0182671 
-0.00453609 -0.00403095 -0.0205656 -0.0188733 -0.0207596 -0.015865 -0.0155393 -0.0171653 -0.0059716 
0.0142132 0.0121967 0.0119999 0.00970369 -0.00438871 0.00618906 0.00845748 0.00680592 0.0254357 
0.0215137 0.00156726 -0.000444691 0.0021459 0.00149323 0.00229595 0.00249295 -0.00447056 -0.0052945 
-0.0067263 -0.00283733 -0.00243631 -0.00182588 0.0889575 0.097424 0.0815356 0.0891746 -0.00378743 
-0.00307367 0.00598232 0.00448808 0.00523542 -0.00059163 -0.00101206 -0.00426415 -0.00351045 -0.00350649 
-0.0140612 -0.0124536 -0.00017527 -0.0056714 -0.00662741 0.0323516 0.0330422 0.0284141 -0.0109539 
-0.00172485 -0.00110701 -0.00152454 -0.00095019 0.00756607 0.00586517 -0.00980256 -0.0104569 -0.00324733 
-0.00124878 -0.0133866 0.0234704 0.0253578 -0.00417221 -0.00338815 -0.0029316 -0.00236183 0.00159975 
0.00263057 0.000718456 0.00155516 0.0016785 0.00109868 0.00176976 0.00119819 0.0126075 0.00843688 
0.0178426 0.0126461 -0.00509488 -0.00457332 -0.0056321 0.0792614 0.086863 0.0867554 0.0956975 
0.0288641 -0.0131383 -0.000927319 -0.00610384 -0.00659218 -0.00687203 0.00291369 0.00220028 0.00117076 
-0.00499751 -0.00449962 -0.00395403 0.0295847 0.0220706 0.0260256 0.00156494 -0.0304244 -0.0151837 
0.00185103 -0.00487885 -0.00542746 -0.00587839 -0.00547641 -0.00491569 -0.00439143 0.000441431 0.0212533 
0.0228048 0.025834 -0.00015489 -3.83455e-05 -6.2902e-05 0.025516 -0.00222713 -0.00197567 0.0917186 
0.0812022 -0.0029963 -0.00377182 -0.00288006 -0.00743565 -0.00709432 -0.0184115 -0.0191947 -0.0171331 
0.000453299 0.0011295 0.000161913 -0.0176475 -0.0165322 -0.000958124 -0.00439235 -0.00430902 -0.00511926 
-0.00497665 0.000971305 -0.0065062 -0.0119357 -0.0117031 -0.000361489 -0.000299223 -8.82868e-05 -0.00200608 
-0.00148044 0.0127148 0.0142809 0.0158884 0.0174949 0.0166603 0.0121514 0.0109091 -0.000874019 
-0.00794938 -0.00921339 -0.0086047 -0.0144378 -0.0138024 -0.0154617 -0.00264277 -0.0020505 -0.000559937 
-0.000315705 0.00689266 0.00413807 0.01269 0.00848231 0.072817 0.0819049 0.00158429 0.00105711 
0.00191868 -0.000914204 -0.000546509 0.111246 0.11122 0.111117 -0.000437599 -0.00152713 -0.00197731 
0.000316469 -0.0028244 -0.018268 -0.0178175 -0.0197147 -0.0121714 -0.0120053 -0.0112629 -0.0111534 
-0.015332 -0.000114168 -0.000807578 0.00102954 0.00149341 0.00100622 0.0197712 0.0181818 0.0192846 
-0.00247554 -0.00298164 -0.00330638 -0.00823249 -0.00810459 0.000281797 0.000201014 -0.00791332 0.0233999 
0.0526708 -0.00142964 -0.00091282 -0.000956865 0.0233346 0.000764775 0.00343031 0.000128176 0.00418982 
0.00537506 0.016366 0.0191883 0.0187386 -0.00016245 -0.000358815 -0.000134562 -0.0106873 -0.0100071 
-0.010636 0.00995003 0.0108791 0.00855495 -0.0117298 -0.000512979 -0.000340112 0.000245317 0.000309129 
-0.00661735 -0.00604847 0.00310776 0.00243774 0.00397795 -0.000313131 -8.18527e-05 0.000230823 -0.00360461 
-0.00435414 0.0676992 0.0754037 0.0693831 0.0772202 0.000168548 0.000476755 -0.000109753 -0.00412102 
-0.00313622 0.000998814 0.102177 0.0273635 0.00373056 0.00414771 0.00592776 0.0989221 0.0991264 
0.000617614 0.000207798 0.000168837 -0.00116598 0.0796029 0.0811736 0.090068 -0.00731639 -0.00718144 
-0.00749968 0.138087 0.149334 -0.00264383 -0.00347497 -0.0117421 -0.00919106 -0.00935044 -0.019017 
0.000187066 -0.000554537 -0.000796421 -0.00978453 -0.00308554 -0.012151 0.0088859 0.00963935 0.0117908 
0.0156355 0.0190977 0.0173583 0.000842799 0.000331809 -0.000462256 -0.000623398 0.000311835 0.000353834 
0.000255926 0.0030294 0.00161507 -0.00658895 -0.00661097 -0.00740899 -0.00240279 0.00246854 -0.00712687 
-0.00535275 0.000920482 0.00148633 -0.000303923 -0.00443453 -0.00465862 0.0187145 0.000285257 0.0125369 
0.012041 0.0177803 -0.000321648 -0.00670188 -0.00665086 -0.00615569 0.00804041 -0.00200923 0.000153711 
-0.00303127 -0.00958576 -0.00871336 -0.00913447 -8.85238e-05 -0.000123675 -5.09892e-05 -0.00501712 -0.0129188 
-0.011657 0.00762038 0.00529116 -0.0114337 0.00319852 -0.000880633 -0.000919175 0.113417 0.102401 
0.101585 0.0959141 0.00160324 0.000921115 0.00174872 0.00251553 0.00180433 0.00260066 0.00527244 
0.00772098 0.00727865 0.0456836 0.0601697 0.0528794 0.114341 0.114214 0.113283 -0.00666743 
-0.00597831 -0.00535765 0.000333222 0.000458452 0.0119262 -0.00125305 -0.00224819 0.0433192 0.0524401 
0.0359678 -0.00471622 -0.00543784 -0.00624464 -0.00698227 0.0204859 0.0196188 0.0157784 0.000145349 
0.00446332 0.00115946 0.00118979 6.59092e-05 -0.00404121 -0.00315804 -0.00313616 -0.0160566 0.00875048 
-0.00699191 -0.00729272 -0.00728748 0.00172323 0.00189485 0.00252127 -0.00357723 0.00106122 0.0148923 
0.0127344 0.0120596 0.0329992 0.00318209 0.00210642 0.00233514 0.000685127 0.00293481 0.0041667 
-0.00485888 -0.00942564 -0.00521739 -0.000194959 -0.0001119 0.00314266 0.00256986 0.00364601 0.00137372 
0.00200084 0.0018488 0.00891665 -0.00676954 0.00559634 0.00208922 -0.016533 -9.32769e-05 -0.000147108 
-0.000129776 2.34461e-05 0.000170727 0.000115649 0.000196503 -0.0128007 -0.00538489 -0.00436016 1.05792e-05 
4.27637e-05 -5.87499e-07 -2.09051e-05 -0.00420563 -0.00482445 -0.00433712 -0.00499281 0.00672496 0.00875982 
0.113095 -0.00397304 -0.00351165 -0.00274719 -0.00771038 -0.00698461 -0.00783273 0.000189256 0.000668429 
0.000217325 0.000560334 -8.88455e-05 -0.000263071 0.00545864 0.00753082 0.112251 0.107533 0.107042 
0.0563569 -0.00726558 -0.00677263 -0.00845768 -0.00741031 0.000134483 0.0191034 0.0172839 -0.00349256 
-0.00284554 -0.00261378 0.0159526 0.0126654 0.0179007 0.0142159 0.0160886 0.00310886 -0.00549865 
-0.0065494 -0.00608258 0.0214298 0.0185398 -0.00120594 0.000811307 -0.00411606 -0.00812838 0.000136656 
-0.00493188 0.0230142 0.00187512 0.000965489 0.0047537 -0.00247655 0.0124144 -0.00636152 -0.00650459 
0.0107234 0.0144425 0.0131859 -0.000475153 -0.000131163 0.00803979 0.00156525 -0.0059523 0.0799622 
0.0718625 0.0795783 -0.00735354 -0.00663052 0.0189544 -0.0194606 -0.0341556 -0.00722252 0.0155341 
0.00120663 -0.00580075 0.037282 0.0355908 0.025181 0.0295461 0.048723 0.0427352 0.04874 
-0.00526153 -0.0050429 -0.00300684 -0.000831013 -0.000261552 -0.00123704 -0.000823056 0.0163233 0.0194808 
0.01816 -0.00696383 -0.00734496 -0.0016334 0.000301947 -0.00186247 -0.00120361 -0.00599766 -0.0063217 
-0.00664155 -0.000269847 9.22442e-05 -0.000282707 -0.00749362 0.0249187 0.0234476 0.0157407 0.0496975 
0.0523673 0.0596064 -0.0031676 -0.00210968 -0.00276766 -0.00717871 0.00786119 0.0181598 0.015365 
0.0042582 0.00583336 0.00244012 -0.00369595 -0.00554985 -0.00398185 -0.00145746 -0.000864469 -0.00142948 
0.065466 0.0650918 0.00186408 0.00259028 0.00246139 0.0119215 0.00929686 -0.0259635 -0.0121089 
-0.00642983 -0.00373601 -0.00677465 0.00843618 -0.000863166 0.0177483 -0.00574243 -0.00519257 -0.00400409 
-0.00509665 -0.00435413 -0.00547627 -0.00981388 -0.0089586 -0.00698681 0.0668588 0.0192227 0.0100088 
-0.00576685 -0.00769722 -0.000171373 0.00108804 0.000652564 0.00987324 0.00905852 -0.000165854 -0.000248772 
0.014186 0.000142276 0.000204523 0.000222454 -0.00217512 -0.00326243 -0.00305929 -0.00022228 0.0136011 
0.0142326 -0.00186432 -0.00221495 -0.00125854 0.00144933 0.000254892 -0.022505 -0.00751011 -0.00414062 
-0.00269098 -0.00312659 -0.00412625 0.0424502 0.049978 0.0441272 -0.00629087 0.0607534 0.0676056 
0.0609692 0.0393141 0.0803718 0.0978322 -0.00597892 -0.00622373 -0.00565951 0.000148143 -0.00685898 
-0.00660605 -0.00566462 -0.00473115 0.0174813 0.0145307 0.000209681 0.00061504 0.00258959 0.000456262 
0.0022091 0.0023996 -0.00269664 -0.00356903 -0.000768627 -0.00456537 -0.00599178 -0.00854359 -0.00837156 
0.00747037 0.008998 0.00671646 0.0080933 -0.00936376 -0.0100124 -0.00376985 0.00558689 -0.000220999 
-0.0025578 -0.00303458 -0.00265826 -0.00234951 -0.0020265 -0.00113804 -0.000691546 -0.00186732 -0.00158332 
-0.0015769 -0.00175399 -0.00797847 -0.00738551 -0.00824141 0.0382367 0.023756 0.000926494 0.000227727 
0.00242908 0.00311527 0.00189963 0.00249624 0.0671515 -4.59986e-05 0.112767 0.110152 0.0648278 
0.0645254 0.0563384 0.1456 0.0989064 0.0975531 0.0794348 0.0885636 0.00178111 0.00404547 
0.00645203 0.00593769 6.88654e-05 -3.00684e-05 0.001404 0.00234897 -0.00710668 -0.00603022 -0.00671577 
0.00932059 0.0250336 0.026889 -0.000404434 -0.000146966 -0.000330625 0.0102651 -0.00227362 -0.00330918 
-0.00475939 0.014432 0.0126498 -0.00654445 -0.00766865 -0.00836564 0.0192025 0.0174689 0.0838919 
0.0932792 0.0832394 0.091828 -0.0063465 -0.00768005 -0.00657963 -0.00732908 -0.00710573 -0.00677843 
-0.00624969 -0.00699329 0.00466861 0.00759407 -0.0063927 -0.00575259 -0.00654653 -0.00655107 -0.00184608 
-0.00113744 -0.000949828 0.00176442 0.00152547 6.81913e-05 -0.000376885 0.0517961 0.0803791 -0.0114087 
-0.0105512 -0.003113 -0.00225646 -0.00285297 0.00221041 0.000916527 0.00151586 -0.00783458 -0.00869085 
-0.0172863 -0.0172506 -0.0188535 -0.00658481 0.000524722 0.0130206 0.0014439 0.00117081 0.0259076 
0.0235456 0.0238566 -0.000818782 -0.00937847 9.20363e-05 0.000807443 0.00337259 0.00508803 0.00479705 
-0.00244069 -0.00219758 -0.00105708 -0.000633386 -0.0106763 -0.00255265 0.00194416 -0.000190205 0.11469 
0.0126639 0.0141783 0.0055448 0.0173974 -0.00725788 -0.00659033 -0.00770981 0.130166 -0.00725978 
-0.00701725 -0.00723971 -0.00729394 0.00326749 0.00309339 0.00163701 0.0010082 -0.0144855 -0.0132593 
-0.0143309 0.00869973 0.0121077 0.0151122 -0.00218888 -0.00152948 0.0146632 0.0167225 -0.000281414 
-0.000263931 0.113413 0.114297 0.00199395 0.113717 0.000118615 0.000131192 0.0969235 0.10281 
0.103353 0.0768915 0.0868669 0.0904849 0.104176 0.0164063 0.0136976 -0.00148531 0.0316667 
0.0300521 -0.000231194 0.000314897 0.000698631 0.115125 0.0643614 0.066488 0.0718484 0.0744497 
0.0257414 0.030106 -0.00877374 -0.00895584 -0.0089634 0.0414299 0.0336436 0.0279117 0.000384075 
0.000686635 0.0344056 0.0300281 0.0299573 0.00224962 0.00298385 -4.37137e-05 -0.017171 0.00334792 
0.00247556 0.0193866 5.79763e-05 0.000117687 0.00190542 0.00821924 -0.00184616 -0.00160144 -0.00381032 
-0.00509036 -0.00540445 9.20775e-05 -0.00029943 -0.000345688 -9.5369e-05 0.016642 0.0112075 0.11496 
0.113904 -0.00949268 -0.00977022 0.000234727 0.000184161 0.000657705 0.00309795 0.00287212 0.00399188 
-0.00479535 -0.00386236 -0.00450254 0.000581998 0.0226982 0.0158832 0.019158 0.0582861 0.0502532 
0.0464016 0.00131133 -0.00724126 -0.00744113 -0.00629115 -0.00375839 0.0131805 0.0189731 0.00793605 
-0.00582238 -0.00479441 -0.00521743 0.085526 0.0849097 0.0769281 0.131045 0.131275 -0.00448159 
0.00464907 0.00356861 0.0773738 0.0875196 0.000399994 0.0305389 0.0354025 0.0436464 0.0403809 
-0.0102756 0.0256959 0.0274783 0.0748745 0.0745169 0.0820196 -0.00267356 -0.00199662 -0.00270066 
0.0950708 0.0935081 0.0051188 -0.00453827 -0.00290318 -0.00761133 0.0975734 0.103035 0.103342 
0.113986 0.094914 0.0784597 -0.00360881 0.00419684 0.0760683 0.101448 0.118471 0.0260594 
-0.00880243 -0.0080055 -0.00720459 -0.00830964 0.0168632 0.0133025 0.0172762 0.0170606 0.0109595 
0.0443204 0.0533093 0.0529262 0.0828602 0.0936673 0.0850217 0.0070638 0.0126908 0.011093 
-0.00104508 -0.000583972 0.0105921 0.00751703 0.0169797 0.0106223 0.0185427 0.0193465 0.00185479 
0.00122395 0.00979121 -0.00101566 -0.000848996 -0.00251347 -0.00182094 0.0995008 0.0994878 0.092616 
0.00270198 0.00376115 0.00397253 0.00325723 0.00245057 0.00381476 -0.000160761 -0.000187113 -0.000517145 
-0.000438859 -3.79709e-05 -4.64196e-06 0.00049232 0.0598504 0.0607646 -0.000984636 -0.000623043 -0.00168414 
0.00216906 0.000841606 0.0052304 -0.0165837 0.0216417 -0.00633754 0.00664545 0.0211815 0.0365922 
0.0345806 0.0519684 -0.00690362 -0.00625097 -0.00553534 -0.00645052 0.00123355 0.0302561 0.0355378 
-0.00915003 -0.00874217 0.00442994 -4.0319e-05 1.40423e-05 0.000132897 0.0547086 0.0642669 3.59614e-05 
-0.00567715 -0.00553777 -0.00920691 -0.00838777 -0.00967519 -0.00887436 2.52594e-05 -0.000142816 0.00284233 
0.0022652 -4.83066e-05 -3.50184e-05 0.00376788 0.000709039 0.00494464 0.000665608 0.00283608 0.0024285 
0.00355264 0.0033538 0.000116045 0.000716553 0.00344526 0.00458363 -0.0115248 -0.00196901 -0.00206369 
-0.00162616 -0.000182983 -0.000221916 0.108248 0.0912287 0.102656 -0.000218537 -0.000100057 0.0423963 
0.0372005 0.00232801 0.0044271 0.0421096 0.0367025 0.0433983 0.0617721 3.32864e-05 0.112046 
0.112611 0.112937 0.0743265 0.0732621 0.00417496 0.00604635 0.00544585 0.000818368 0.00344641 
-0.000805358 0.0021585 0.0133374 0.010745 -0.000413864 3.51233e-05 0.000125716 -0.000900561 0.0012299 
0.0362045 0.0411211 -0.0235445 -0.000190769 -0.000347892 -0.000237224 -0.00449304 0.00755112 -0.0045178 
-0.00550731 0.000249977 -0.00177277 -3.65812e-05 0.00485839 0.00296643 -7.23753e-05 -3.60773e-05 -4.84692e-05 
-0.00298644 -0.00136153 -0.00100361 -0.0025928 -0.00491331 -0.00374301 -0.00438437 -0.00441908 0.0422469 
0.0614957 0.0655636 -5.12655e-05 -1.09205e-05 -5.84393e-05 0.010025 0.00831779 0.00780431 -0.00106526 
-0.000847863 -0.00619145 0.00628113 0.00573211 0.00770561 0.00217649 0.00554478 0.00686261 6.07462e-05 
0.000102073 0.000224071 -0.000722132 0.0123518 0.00766194 0.0132202 0.00891645 0.089274 0.097516 
0.000311232 0.00049686 0.000628209 0.0387494 0.00062487 0.0129395 0.0707795 0.00991462 0.00549209 
0.0124148 0.076209 0.099906 -0.00011927 -0.000107332 -0.00045535 -0.000390537 -0.00074394 0.000269749 
7.1339e-05 0.113686 0.111095 0.112234 0.112858 0.111916 0.113054 0.111798 0.100873 
-0.0065076 -0.00584271 -0.00656345 0.000147054 0.000403046 0.000338763 0.0148535 -0.0012751 -0.000862889 
0.000171736 -0.00470642 0.00281791 0.00166628 0.00232481 0.0034598 -7.26001e-05 -4.78699e-05 0.0195228 
0.013424 0.0779957 0.000299376 0.000492138 -0.00152977 -0.00119068 -0.000187664 -0.00233094 -0.00368181 
-0.00714527 -0.00620131 -0.00187177 0.0466428 -0.000515452 0.00142653 0.00199756 0.0117377 0.0271219 
0.0943629 -0.0107548 -0.010596 0.0190637 0.0182001 0.0011026 0.000820814 0.00197674 0.0693609 
0.0828519 -0.0124916 -0.00926347 0.00151303 0.0529661 0.0609662 -0.00820761 0.0371298 0.0277165 
0.0200683 0.00629891 -0.0011339 0.00327709 -2.8368e-05 0.103617 -0.00804332 0.00985702 -0.00810394 
0.00362511 -0.00071047 -0.000353834 0.00239051 0.0032724 0.000618146 0.0653363 0.00566115 0.00748121 
0.00829707 0.00316009 0.00386633 0.00761641 0.00679887 0.00553985 0.00476358 -0.00380479 -0.0030425 
-0.00394834 -0.0001545 0.00242342 0.00333399 0.00303802 -0.00185491 0.000225943 -0.00396689 -0.00353402 
-0.00137008 -0.00203059 0.113836 0.000110161 0.002818 0.0168865 0.0215676 0.0162677 3.03215e-05 
0.00154582 0.000297679 0.000695638 0.0956586 0.108815 0.110368 0.10888 0.0946256 -0.000142567 
-0.000226631 -0.000210779 0.0137807 -0.000566188 -0.000177236 -0.000189583 0.0923535 0.000111758 0.00203109 
3.18116e-06 9.05462e-06 -0.000118785 -7.85768e-05 -0.0002898 0.00159214 -0.00323561 -0.00346202 -0.00421771 
-0.00451387 -0.00715093 0.0110474 -0.00100065 -0.00106223 -0.000697797 -0.00305413 0.00456819 0.0131773 
-0.00592827 -0.00652197 -0.0068098 0.114964 -0.0143987 -0.0156145 0.0252065 0.000655653 0.000760248 
0.000883815 0.0604208 0.0536979 0.00398982 -0.00123776 -0.000689324 -0.000596743 0.113876 0.00854357 
7.16198e-05 0.000740404 0.000218988 0.000202555 0.00888863 0.0108444 0.0164134 0.0232577 0.0360756 
0.0270666 0.0975052 0.0887504 0.0811108 0.0807256 0.0875744 0.0961936 0.0880867 0.081481 
0.011477 0.0969483 -0.00196451 -0.00226264 -0.00251604 -0.00285121 0.000605395 0.000377322 0.00119362 
0.000808151 0.0188561 0.0183046 -0.00302179 -0.00278173 -0.0050563 0.0626525 -0.0015839 -0.0021509 
-0.0132479 0.0770767 0.0673114 -0.0070935 0.00828162 -0.0033187 0.00460859 0.00432746 0.00796713 
-0.00302983 -0.00685594 -0.0012184 -0.00366858 0.004288 0.00513269 0.000626723 -0.00165742 0.00152496 
-0.00437965 -0.010273 -0.0097928 -0.00925818 -0.00520301 -0.00789057 -0.0105687 -7.89799e-05 -6.22366e-05 
-0.000118894 -0.000362753 -0.000111835 -0.00431089 -0.00364794 -0.00308299 -0.0036801 0.0193971 0.0182922 
0.0196021 -0.0019999 -0.00154813 0.00576062 0.00667932 0.00338284 0.0197071 0.0015787 0.00771799 
0.00557278 -0.00657553 -0.00549066 -0.00876574 -0.00819976 -0.00971777 3.49015e-05 -0.00489465 -0.00346294 
0.0146254 0.0132849 0.0155463 0.012749 -0.000400989 0.00333511 0.00327263 0.000501427 0.00202595 
2.86476e-05 -0.00333957 -0.00528476 0.0651815 -0.00726088 -0.0074204 0.00923294 -0.00641438 -0.00750747 
-0.00153487 -0.0011275 0.00602998 0.111037 0.100526 0.0827719 0.0742128 0.0665381 0.0671002 
0.036098 0.0364868 0.081972 0.000397856 0.0175295 -0.00227724 -0.00243027 0.00241052 -0.00185898 
-0.0391918 0.0720826 0.000132905 0.0186262 0.000256889 -0.00935871 -0.00879944 -0.00957272 0.009365 
0.00619414 0.00565534 0.00220855 -0.00016582 0.000821267 -0.000818376 -0.00132598 -0.00255322 -0.00254009 
0.00428432 -1.65503e-05 0.000694792 0.000678542 0.00270488 -0.00311004 -0.00401504 -0.00372248 0.00822388 
0.00210178 0.00135516 0.0868301 0.0954853 0.0955552 0.00040351 -0.00415704 -8.31047e-06 9.12595e-05 
-0.000276237 -0.00692754 -0.000304281 -0.00965493 -0.00844791 0.0107166 -0.000147088 0.00506179 0.00470171 
0.0062711 0.000113301 0.000209825 0.00590177 0.00461423 -0.00851616 0.000909338 0.0126782 0.0119853 
0.0177353 0.0128799 0.00943097 0.00952166 0.0114277 0.00888497 -0.00191839 0.0120713 0.0414312 
0.0421741 0.0357242 0.0712804 0.0638219 0.1012 0.102175 -0.0025558 -0.00188709 -0.00272682 
0.0974642 0.103313 0.0791864 0.0869345 0.0148447 0.016969 0.0207198 0.113904 0.00793939 
0.00121659 -0.00187813 0.00150488 -0.00190091 -9.83828e-05 -0.00019355 0.00787997 0.00742299 -0.00725638 
-0.00749072 -0.00648661 -0.00697548 -0.00379479 -0.00748046 -0.00192369 0.000108507 0.00441357 0.00548996 
0.0202271 0.000576636 0.000283312 -0.0156895 -0.0207689 0.0104014 0.00997169 0.0142152 -0.0175216 
-0.00392161 0.0420696 0.0286878 0.0360472 -0.00542187 -0.00328536 0.00202684 7.93277e-05 -0.00374806 
-0.00312463 -0.00350527 0.00642908 0.00522052 0.00501497 -0.00495331 -0.000523126 0.0181864 -0.0017628 
-0.00511804 0.0101488 0.00265062 0.00248178 0.00375145 -0.00505709 0.00209481 0.00398391 0.00783054 
-0.00116293 0.0463437 0.00172928 0.00275313 -0.0117644 -0.00929427 -0.00464318 -0.00434797 0.00342886 
0.00668037 0.00674134 0.0338665 0.0859757 0.084055 0.0530871 0.00326876 0.00424442 -0.00860844 
-0.013008 0.0700891 0.0561657 -0.00610337 -0.00641856 0.0309664 -0.0250211 -0.00566401 -0.0206746 
-0.0116234 -0.00308097 -0.00971473 -0.00955987 -0.0102017 -0.0066264 -0.00773478 -0.00724689 -0.00234479 
-0.00263752 -0.00702469 0.0215677 -0.00703372 -0.00596571 -0.00209522 0.00710158 0.00218511 0.00279282 
-0.00148826 -0.00211808 -0.00582607 -0.00114991 -0.00468518 0.00154484 -0.00576213 -0.0059439 -7.5888e-05 
-0.00173585 -0.00238503 -0.00219974 -0.00604543 -0.00526067 -0.00180889 0.00516376 0.00840951 0.00550979 
0.00580679 -0.00245295 -0.00228152 -0.0030172 -0.0153048 0.0024861 0.00200306 -0.00490093 0.0039631 
0.00284337 -0.0114098 -0.0106731 0.0203977 0.0196278 0.0209031 0.113524 0.112522 -0.0132087 
0.0730441 -0.0143016 0.0225166 0.036281 0.0434439 0.0502876 0.0103898 -0.0108283 -0.0168788 
-0.0186919 0.0376495 0.0259399 0.0100026 0.0194023 0.0151404 0.0202432 0.023631 -0.00108357 
-0.00511702 0.00548285 0.00438066 -0.00324979 0.00718212 0.0106103 -0.00740789 -0.00739842 -0.00749679 
0.00352734 0.0037947 -0.00222859 4.48714e-05 0.00842469 -0.0116644 -0.0112054 0.0104514 0.0110495 
0.00141141 0.0020584 0.012424 0.000752354 0.0268391 -0.00680542 -0.00624597 -0.00686233 -0.0120771 
-0.0132119 0.102015 0.00604616 0.00658779 0.0748749 -0.00662914 -0.0019819 0.00117345 0.00135827 
0.00176835 -0.00634019 -0.00708292 -0.000573784 -0.00170807 -0.0205389 -0.00177002 0.0055084 0.00473031 
0.0425968 0.0455781 0.0240738 0.0194929 0.0198725 0.0185152 0.0174816 0.00610524 0.00654879 
0.00182124 0.0362275 0.00931496 0.0484279 -0.00483043 -0.00406873 -2.11069e-05 0.000131831 0.000201861 
0.000110373 0.0002965 -0.00011982 -0.000370273 0.00097516 0.0164718 0.018486 0.0144816 0.0237535 
0.0891226 -0.0103939 -0.00541288 0.00019255 -0.000764935 -0.00106239 -0.00509053 0.00040037 -0.000739985 
0.000166247 0.00686838 0.00283181 -0.00337197 0.0269259 0.106536 0.114559 0.037747 0.0311735 
0.0296198 -0.00592478 -0.00645265 0.00601539 0.0045479 0.026012 0.0653993 0.000662038 0.00124679 
0.000955525 -7.66436e-05 -0.00398711 -0.00122766 -0.000808973 -0.000537095 -0.000512705 0.00133652 0.000927452 
0.0015212 -0.000912238 -0.000399474 0.000976557 4.09283e-05 -0.00114829 -0.00123316 -0.00202494 -9.46692e-05 
0.00606497 -0.000117723 -0.000187044 -0.00175474 0.00269258 -0.00116743 -0.00235218 0.00695416 5.50471e-05 
4.00712e-05 0.114138 6.91032e-05 -0.00775755 0.000486087 -0.00371582 -0.00916304 -0.00584213 0.00354885 
-0.0157775 -0.0144604 0.000123591 0.00113306 0.00134617 0.000552266 0.000993152 -0.00132196 -0.000766597 
0.00799912 0.00641355 0.000519494 0.000301962 -0.00171419 -0.000104135 -0.00123138 -7.38688e-05 0.00385096 
7.15166e-05 2.06466e-05 0.000183476 0.0018454 0.000358611 0.000441216 0.000630191 0.0195453 0.0186228 
0.113919 -0.00582568 -0.00596409 0.0705622 -0.00021268 0.0019148 0.00508475 -0.0309855 -0.040094 
0.00148753 -4.31491e-05 0.0163519 -0.000187012 0.0183863 -0.00871874 -0.00825721 0.00551602 0.00437621 
0.0058332 0.00458226 -0.00264914 -0.0034951 0.00635346 0.0650194 0.0107956 0.00698271 0.0527651 
0.0157408 0.0466931 -0.00463364 -0.00130982 -0.00542641 0.0679357 0.0672905 0.00428909 -0.00102799 
-0.000145341 2.58525e-05 -0.00110693 -0.000635776 -0.000746062 -0.000691522 0.00568118 0.00891614 0.0194443 
0.114871 -0.000560442 -0.00222472 0.000670925 0.0377022 0.0548311 -0.00746585 0.112576 0.112388 
-0.00615703 -0.00521734 -0.000166987 -0.00371083 -0.00286492 -0.00908647 -0.00855612 -0.00792871 -0.00116963 
-0.000768566 0.00933597 0.0119615 0.00998265 0.0232939 0.00012575 0.000222065 -0.00244329 -0.00483481 
-0.000512517 -0.00432407 -2.82448e-05 0.0123445 -0.00367777 -0.00518462 -0.00378943 -0.00743745 0.00138418 
-0.00516371 -0.000860236 -0.000767806 0.00529474 0.0158751 0.0127298 0.0472395 0.000505455 0.00684028 
0.0113282 0.00602123 0.0878775 0.0967004 0.089415 0.0819819 0.000564627 0.0963189 0.102635 
0.00878448 0.00535427 -0.000276638 -0.000613295 -0.00208202 0.0183957 0.0341124 -1.18821e-05 -0.00169362 
0.0195889 -0.00118901 -0.000816836 -0.000164598 0.113521 0.110761 0.0862084 0.0879433 -0.00401501 
-0.00660042 0.00692954 -0.00659598 0.113972 0.113564 0.114488 -0.00727047 0.114577 0.000530809 
0.000141171 -0.000549849 -0.00087925 -0.000896854 -0.00199494 -0.00123765 -0.0132258 -0.0114661 0.113462 
0.0438771 0.0953339 0.133295 -0.0122625 -0.0133751 0.0979063 0.110432 0.113457 0.000132181 
-0.00835687 -0.00140713 0.0920674 0.00252482 -0.000250404 -0.00144825 0.00107635 -0.0011666 -0.00554154 
-0.00664865 0.00354257 0.00693223 0.000137559 0.00075982 0.00138127 0.000870762 -0.00337446 -0.00705207 
-0.00612188 -0.00614623 -0.0114605 0.0124584 0.00681462 0.0177387 0.0182245 0.0193338 0.00686641 
0.00807064 0.00735714 0.00853666 -0.00324045 0.0171542 -0.00971865 0.000980774 0.00173729 0.0106582 
0.0347393 0.00467966 -0.00841577 -0.00956891 -0.00936302 1.51732e-05 -0.0110856 4.56066e-05 -0.000131832 
-0.00495721 0.00142533 -0.000130253 0.00713389 -0.00426704 0.00668376 0.00722267 0.00589461 0.00449325 
-0.00290679 -0.000847184 -0.000625441 -0.00196058 -0.000246541 -0.000147932 0.0194916 0.0187151 0.024402 
0.00480907 0.00334221 0.00511352 0.000165286 0.000162371 0.000211616 0.0087063 0.000881119 0.00681977 
-0.0011279 0.0105053 0.0341614 -2.04269e-05 0.00523878 0.00577341 0.00743464 0.0105921 -0.000200158 
-0.000336585 -0.000293247 -0.000176583 -0.0031254 0.014919 0.00109698 0.00108167 0.00630258 0.0289685 
0.0124176 0.00484155 0.000789087 0.00114018 0.0030407 -0.00700714 0.00341225 -0.00341547 0.0179006 
0.00647332 0.00284143 -0.00689347 0.00375926 0.00341593 0.0711937 -0.000672942 0.0128905 0.0112046 
0.0136542 0.00372131 -0.0154991 -0.0141242 -0.00923972 -0.00875282 -0.00822995 0.0103195 -0.0124253 
0.00445409 -0.00691527 -0.00105795 -0.000676235 -0.000501846 -0.00847974 -0.00038226 -0.00625127 -0.00213877 
0.00104993 0.00102587 -9.70279e-05 0.00118405 0.00374399 0.00164362 0.00216297 0.00162576 -0.00168197 
0.00132204 0.00076867 0.000761401 1.33854e-05 0.000133406 0.00116515 0.00106101 0.000248811 0.00130975 
0.00487283 0.00914121 -0.0100387 -0.00578583 -0.00244442 0.10378 -0.00459074 0.102644 0.005181 
-0.00560141 -0.00525106 -0.014845 0.101827 0.00894754 0.0106469 0.0496086 0.00211364 0.1018 
0.000639024 0.0390849 0.113276 -0.00534404 0.115799 0.0789439 0.0040075 -0.0157822 0.000390384 
0.00646915 0.0499412 0.0104438 0.000275237 -0.000320836 -0.00401565 -0.00461453 -0.000174727 0.0172421 
-0.0122358 0.00538261 0.000124865 -0.000855595 0.00169674 -0.00122285 -0.0013159 -0.000977321 0.102428 
-7.08404e-05 0.00849645 -0.00225498 -0.00219906 -0.00119532 0.0235694 0.0864614 0.00105862 0.0950583 
-0.000851904 -0.0052735 0.00219368 -0.000247869 -0.00466342 -0.00283606 0.000431217 -0.00480437 0.00355603 
0.00162136 0.000927956 -0.00509004 -0.0074435 0.00839729 0.00703131 0.00570028 0.0149075 0.0133651 
-0.0001819 -0.00401714 -0.00170066 -0.018725 -0.0168991 -0.0165376 0.00291886 0.00302978 0.00220983 
0.00371657 0.00519333 -0.00202094 -0.00211525 -0.00294887 -0.000573831 -7.34158e-05 -0.0101443 0.00427419 
0.000597164 0.00240957 0.00129803 0.00256517 0.000179378 -0.00116874 -0.00125076 0.0291054 0.0651101 
0.0802056 0.0028718 0.00359756 0.0145476 -0.00104308 -0.00345472 0.065685 0.0735813 0.011387 
0.0133954 -0.0147911 0.00519071 0.00456328 0.00406895 0.000199007 0.000172552 0.000637301 0.0346416 
0.00160855 0.0340131 0.0482739 0.0883788 -9.4823e-05 0.0474181 0.00404119 -0.000477645 0.0176018 
0.0013166 0.0189138 0.00165321 -0.00844126 -0.0061113 0.0506267 0.0194572 0.0217382 0.0242993 
0.0134907 0.0374151 0.0202185 0.0200733 -0.00432904 -0.000776882 -0.00716024 -0.000146382 -0.0056403 
0.00214624 -0.00307527 0.00166065 0.0207335 0.0183783 0.0195983 0.0189999 0.00141771 -0.000723826 
-0.00542947 0.000634089 0.0105056 0.0145593 -0.00112903 -0.00470159 -0.00394041 -0.00322682 0.000423239 
-0.00468521 -0.00619802 0.0505513 -0.0074603 -0.00546653 -0.00742423 0.00111807 -0.00257391 -0.00222138 
-0.00298238 0.00515644 0.0737631 0.0890104 -0.00289534 -0.00657302 -0.00811931 0.00525022 -0.00263579 
-0.00276786 0.058018 0.0605451 0.0032274 0.0035481 -0.00441672 -0.00481844 -0.00564843 -0.00163718 
-0.00279662 -0.00694299 0.0267618 -0.00710829 -0.00727322 -0.00757673 0.0120868 0.00318894 0.00445256 
0.00507511 0.0037911 0.0172569 0.0141872 0.000881631 0.0380824 0.0575032 -0.00635129 -0.00569344 
0.0573245 -0.0029078 0.003345 0.00352194 0.0111925 0.00123528 -0.00200191 -0.0128178 -0.00673578 
-0.00735282 0.00527603 -5.12456e-05 0.0372627 -0.00259559 -0.00347378 0.000859026 0.103737 0.0980071 
0.0151998 0.0175587 0.0169804 0.0151186 0.0136679 -0.0072477 -0.00620716 0.00457062 -0.00178237 
0.0164498 0.0564938 -0.00132836 0.019391 0.0185244 0.00443706 0.100521 0.0134619 -0.00760027 
-0.0023936 -9.35412e-05 -0.00148675 0.00399272 0.00546333 0.00839261 0.0111774 -0.000394507 0.0881987 
-0.00206945 -0.00193189 -0.000142349 -0.000490036 0.00977888 -0.00334674 0.00807927 0.00934675 0.00850767 
0.026158 0.0220085 -0.00480632 -0.00633411 -0.00149865 -0.00749252 0.012414 0.0138511 0.0222664 
0.0197185 0.0153697 0.0159664 0.0176935 0.0302058 0.0314982 -0.00203336 0.0341491 -0.00635125 
-0.0377774 0.00589895 -0.00723574 0.000831011 0.0030603 0.000101834 0.0100793 0.00835158 0.00631846 
0.00661568 0.00167941 0.0176545 0.0275366 0.0225196 -0.000568382 9.12778e-05 0.017844 -0.00711339 
0.0375783 -0.0073392 -0.0102561 0.00100839 0.00484669 -0.00361042 0.00370387 -0.00724919 -7.70723e-05 
-0.000217323 -9.7633e-06 -0.000665242 0.0205765 0.0303455 -0.00777007 -0.00582708 0.002866 0.0252196 
0.0216937 0.00202796 -0.00133788 0.00804791 0.0286139 0.0225459 0.00517588 -0.00108747 -0.0103575 
-0.00824494 0.0163344 0.0712159 0.00380555 -0.00847202 0.00456617 0.00122679 0.0135137 -0.000271765 
-0.000706402 -6.5122e-05 -0.00707476 -0.00139152 4.71043e-06 0.000371296 0.0747823 0.0820168 -0.000411199 
0.09768 -0.000316305 -7.9572e-05 2.11531e-05 -0.000116167 -0.000294284 0.0250225 0.000105252 0.00418511 
-0.00067272 -0.00145438 0.000596829 0.100767 -0.00738905 -0.0164808 -0.0159627 -0.0069631 -0.000141915 
-0.000839627 0.0292839 0.000691047 0.00258296 0.000212327 0.0540489 0.019284 0.000185324 0.11448 
0.114261 0.118887 0.0102966 0.00900414 0.0187602 0.000162401 -0.000461003 -0.00407997 -0.00303753 
-0.00389436 0.00160641 0.000985342 0.00109173 -0.00957884 -0.0131454 -0.00210413 -0.000553399 -0.000383389 
0.000690322 0.00897672 0.0530777 -0.000162939 0.000241169 0.0161739 -0.00637018 -0.000804954 0.00397909 
0.000828303 0.0141815 0.0179825 0.000142492 0.0186976 -0.00735905 -0.00839486 0.000139715 -0.0132624 
0.00576943 -0.00254808 -0.00525431 -0.00688757 -0.00642439 0.00494169 0.000772929 -0.00650411 0.00513258 
-0.00952213 0.00719016 0.00353157 0.113826 -0.0035657 0.0894255 0.0546955 0.102065 0.0175787 
-0.00847266 0.00413334 0.00113412 0.00248279 -6.00172e-05 -1.62933e-05 0.00626545 0.102843 0.0317171 
0.0291026 0.000629805 -0.00920987 -0.00698453 -0.00164786 -9.53583e-05 -2.14053e-06 -0.000569841 0.0741706 
0.0226552 -0.00382527 0.0703203 0.000389226 -0.000157279 -0.00142936 0.000606348 -4.32533e-05 0.101783 
0.00673304 0.000127948 0.00669745 -0.00423802 -0.00155824 0.00422671 0.0988644 0.0853604 0.0731696 
0.0721998 0.00132799 0.0317714 0.0879145 0.0020854 0.000185223 0.0406985 -0.00783617 -0.00339936 
-0.00401076 0.114187 0.113505 -0.00664579 
Stress%20xy%20component 1 12442 double
-0.256826 -0.233589 0.225451 0.250127 -5.69574e-05 -1.40732e-05 2.75006e-05 2.39341e-05 0.178352 
0.175433 -0.152201 -0.182806 0.162869 0.183058 -0.16816 -0.202742 -0.127227 -0.0880497 
-0.0729968 -0.0571751 -0.0527087 -0.0483053 -0.0374699 -0.0326887 -0.0274838 -0.0222045 -0.0157592 
-0.00923233 -0.00298925 0.00365501 0.00994138 0.0158309 0.0210166 0.0263606 0.032015 0.038273 
0.0445055 0.0505584 0.0568062 0.0630206 0.071061 0.0813643 0.127442 -0.122878 -0.0877503 
-0.0762215 -0.0723871 -0.0643206 -0.0497244 -0.0470673 -0.0400092 -0.0324558 -0.0258507 -0.0197577 
-0.0128785 -0.00629231 0.000352305 0.0068662 0.0140746 0.021207 0.0282352 0.034919 0.041831 
0.0491389 0.0572172 0.0662846 0.0771089 0.0892848 0.117839 6.80428e-05 8.98883e-06 1.10892e-05 
-1.3329e-05 -2.73325e-05 -4.00282e-05 -5.39231e-05 -6.44979e-05 -7.35258e-05 -6.73431e-05 -2.03287e-05 -2.34131e-05 
3.22392e-05 4.76729e-05 6.24298e-05 6.88034e-05 5.56324e-05 7.53816e-05 3.5795e-05 5.00511e-05 6.74031e-05 
7.15367e-05 6.70495e-05 5.34926e-05 1.46332e-05 1.67403e-05 -7.82919e-05 0.0141933 -0.000871953 -0.000232738 
-0.000119937 -0.000218793 -0.000217646 -0.000196792 -0.000138309 -0.000118529 -0.000117363 -0.000106203 -0.000114735 
-0.000126541 -0.000132215 -0.000156515 -0.000180022 -0.000180418 -0.000163188 -0.000161318 -0.000126101 -0.000105434 
-8.20333e-05 -4.53224e-05 -3.87686e-05 -2.62142e-06 5.07397e-05 7.21901e-05 8.82836e-05 9.55748e-05 9.25472e-05 
9.23548e-05 8.06398e-05 6.47782e-05 3.77747e-05 2.58232e-05 -3.98574e-06 -2.44826e-05 -4.15369e-05 -5.34962e-05 
-6.12412e-05 -6.50325e-05 -6.31763e-05 -3.80757e-05 9.38048e-06 9.18262e-05 -7.03837e-05 1.79904e-05 2.16356e-05 
3.5511e-05 4.2215e-05 5.1633e-05 4.78457e-05 4.33026e-05 2.96316e-05 6.1919e-06 -1.11077e-05 -3.58372e-05 
-6.61724e-05 -8.52985e-05 -8.89684e-05 -9.21636e-05 -9.0535e-05 -8.17744e-05 -6.49145e-05 -2.94884e-05 -1.91119e-05 
1.68604e-06 3.63751e-05 5.45209e-05 5.54697e-05 9.51394e-05 0.00011788 0.000141633 0.000151233 0.000157881 
0.000154194 0.000144472 0.000140613 0.000125387 0.000135829 0.000119212 0.000134747 0.000136743 0.000154134 
0.000177078 0.000140297 0.000222864 0.000324786 0.00506348 0.00264735 0.122546 0.0632557 0.0388686 
0.0251964 0.0156361 0.00757683 -3.1131e-05 -0.00808662 -0.0170864 -0.0318876 -0.0496884 -0.0902154 
-0.17101 0.145292 0.0709223 0.0443048 0.028724 0.0173175 0.00913604 0.000127758 -0.00844358 
-0.0170592 -0.0278161 -0.041762 -0.0686902 -0.12335 3.85607e-05 5.01475e-06 -5.19348e-05 -5.05736e-05 
-5.59679e-05 -5.81843e-05 -6.28601e-05 -6.00603e-05 -5.49323e-05 -4.84389e-05 -7.58158e-05 -3.9119e-05 -6.89494e-05 
-3.98339e-05 -2.54188e-05 -1.26908e-05 4.46028e-05 3.48024e-05 7.40051e-05 6.5655e-05 5.49194e-05 3.5153e-05 
2.07433e-05 -4.84665e-06 4.65266e-06 -3.39489e-05 -6.7278e-05 -0.0162431 -0.00984638 -0.00227364 -0.0010695 
-0.000678371 -0.000427186 -0.000298574 -0.000212744 -0.000189507 -0.000161288 -0.000160138 -0.00016433 -0.000115183 
-0.000179006 -0.000161954 -0.000154632 -0.000144164 -0.000133227 -0.000115814 -8.68703e-05 -5.35362e-05 -1.33743e-05 
1.25808e-05 5.84191e-05 8.70248e-05 9.55923e-05 0.000101265 0.000116868 0.000108875 9.68564e-05 7.50479e-05 
5.13883e-05 2.6541e-05 -1.29325e-05 -2.9506e-05 -5.78989e-05 -5.19865e-05 -5.71856e-05 -5.34911e-05 -4.88636e-05 
-3.8264e-05 -1.14961e-05 9.5887e-06 5.21475e-05 8.91788e-05 -7.09901e-05 -3.88628e-05 -1.36187e-05 6.78113e-06 
1.57485e-05 3.16483e-05 4.10575e-05 4.99437e-05 5.25584e-05 5.80996e-05 5.586e-05 2.38595e-05 1.22678e-05 
-1.51205e-05 -4.6995e-05 -6.71247e-05 -8.97722e-05 -0.000107602 -0.000121554 -0.00010128 -9.78589e-05 -2.68993e-05 
-1.66031e-05 1.4763e-05 4.5585e-05 5.36362e-05 7.43221e-05 9.73247e-05 0.000103513 0.000122899 0.000123395 
0.000122554 0.000117804 0.000112594 0.000109254 0.00013667 0.000182736 0.000247839 0.000311733 0.000440743 
0.000671604 0.00108712 0.0027107 0.00319076 -0.01666 0.188951 0.063675 0.0435363 0.0295554 
0.0174674 0.00935783 0.00122751 -0.0074881 -0.0165395 -0.0279935 -0.0434764 -0.0689344 -0.138534 
0.133633 0.0600164 0.0373595 0.0227352 0.0129624 0.00428175 -0.0033344 -0.0110241 -0.0197554 
-0.0322892 -0.048784 -0.0741681 -0.159497 -0.000237547 -0.000680507 -0.00115047 -0.00163371 -0.00203675 
-0.00224219 -0.0023617 -0.0023538 -0.00220147 -0.00190419 -0.00146966 -0.000932901 -0.000345621 0.000275394 
0.000862306 0.00142196 0.00180666 0.0020806 0.00222588 0.00228658 0.00221922 0.0020139 0.00163792 
0.00118116 0.000712971 0.000333458 3.18068e-05 0.0707372 0.0296308 0.0161156 0.00911876 0.00549653 
0.00300782 0.00144212 0.000231852 -0.000724222 -0.00156079 -0.00233599 -0.00299886 -0.00346217 -0.00397219 
-0.00434889 -0.00441518 -0.00424152 -0.00393287 -0.00346843 -0.00279939 -0.00208151 -0.00131714 -0.000577923 
0.000144296 0.00077704 0.0012609 0.00154475 0.00167764 0.00162606 0.00138851 0.000957384 0.000455397 
-0.000130093 -0.00072042 -0.00123082 -0.00161671 -0.00186871 -0.00203508 -0.00206247 -0.00192736 -0.00170542 
-0.00129986 -0.000816939 -0.000321018 0.000732664 0.00113569 0.00152069 0.00182048 0.0019686 0.0020054 
0.00185602 0.00155786 0.00114661 0.000649385 4.01064e-05 -0.000525668 -0.00104755 -0.00143362 -0.00165663 
-0.00170502 -0.00154598 -0.00116786 -0.000622828 4.14455e-05 0.000762375 0.00143934 0.00210142 0.00281145 
0.00343095 0.00389551 0.00413697 0.0042963 0.00414514 0.00375624 0.00326273 0.00267789 0.00199063 
0.00125723 0.000454567 -0.000521803 -0.00185765 -0.00360476 -0.00579862 -0.00940144 -0.0162198 -0.0299615 
-0.0737993 -0.100488 -0.0846166 -0.0712773 -0.0617077 -0.052871 -0.0437745 -0.0370457 -0.0306863 
-0.024273 -0.0179281 -0.0114703 -0.00489297 0.00108881 0.00770192 0.0131545 0.0192758 0.0253577 
0.0317688 0.0378056 0.0450704 0.051806 0.0593115 0.068534 0.0800781 0.0916819 -0.00102339 
0.0439303 0.0685643 0.0521208 0.0364077 0.0244852 0.0140228 0.00519142 -0.0038802 -0.0135358 
-0.0244224 -0.0379978 -0.0536482 -0.0714603 -0.0351864 0.0141699 0.0413182 0.0718642 0.0537221 
0.0368874 0.0241113 0.0136853 0.00384202 -0.00531591 -0.0141909 -0.0251365 -0.0378972 -0.0546615 
-0.0744037 -0.0630205 -0.0820427 0.0881747 -0.0881603 0.0952961 -0.0396631 -0.0016634 -0.00252323 
-0.00328763 -0.00387388 -0.00422743 -0.0042529 -0.00405143 -0.00363353 -0.00297647 -0.0021186 -0.00112536 
-3.1715e-05 0.0010766 0.00212475 0.00292233 0.00352127 0.00396793 0.00420026 0.00419906 0.00390305 
0.00338433 0.00269455 0.00193216 0.00117574 0.0332111 -0.0742244 0.0410945 0.0258458 0.0168958 
0.0109908 0.00647602 0.0032283 0.00110106 -0.000711692 -0.00233303 -0.00381334 -0.00502725 -0.0060938 
-0.00691679 -0.0073433 -0.00729944 -0.00695638 -0.00628062 -0.00534853 -0.00429225 -0.00309657 -0.00183696 
-0.000568286 0.000562421 0.00149742 0.00213401 0.00251834 0.00255993 0.00229496 0.00176003 0.000943354 
-1.25647e-05 -0.0010369 -0.00195228 -0.0027416 -0.0032862 -0.00364611 -0.00375865 -0.00368514 -0.00340335 
-0.00285448 -0.00208852 -0.00117536 0.0307518 0.072063 0.00178699 0.002553 0.00320615 0.00362699 
0.0037276 0.00356383 0.00315431 0.00256428 0.00177292 0.000832456 -0.000177409 -0.00112211 -0.00188276 
-0.00245564 -0.00265185 -0.00246397 -0.00196942 -0.00115044 -0.000161778 0.00102979 0.00217987 0.00334474 
0.0045397 0.00560874 0.00644641 0.00702196 0.00720915 0.00701129 0.00645014 0.00555865 0.0044628 
0.00315725 0.00179576 0.000129971 -0.00187938 -0.0043985 -0.00770889 -0.0119367 -0.0182062 -0.0282065 
-0.0464704 0.0394656 -0.0696526 -0.0632013 -0.0554909 -0.0496082 -0.0421838 -0.0357204 -0.0288475 
-0.0224648 -0.0165706 -0.00997788 -0.00371761 0.00239312 0.0085653 0.0147867 0.0212886 0.0274173 
0.0338483 0.0402475 0.0471849 0.0542043 0.0612983 0.0694553 -0.0224925 0.0251598 0.0255534 
0.0172563 0.00923673 0.00122165 -0.00701577 -0.0154978 -0.0239597 -0.0310274 -0.0320706 -0.0215745 
-0.0306651 -0.0310814 0.0277925 0.0278478 0.025192 0.0162876 0.00741526 -0.00130275 -0.00937995 
-0.0180408 -0.027069 -0.0352586 -0.0385654 -0.0300898 0.0430848 0.0327884 0.0367302 0.0334156 
0.00078967 -0.0388402 -0.0475932 0.0456278 0.0434461 0.0140294 -0.0155193 -0.00388624 -0.00489617 
-0.00552803 -0.00587645 -0.00588464 -0.00541884 -0.00459272 -0.00356177 -0.00229353 -0.000785876 0.000791973 
0.00234427 0.00355749 0.00455561 0.00530334 0.00573717 0.00585497 0.00562171 0.0050549 0.00421557 
0.00321164 0.042597 0.0303707 0.0208711 0.0142646 0.00878551 0.00487431 0.00209199 -0.000375103 
-0.00264489 -0.00468225 -0.0063688 -0.00783285 -0.00875917 -0.00912645 -0.0089802 -0.00839206 -0.00736006 
-0.00612768 -0.00472549 -0.003208 -0.00169391 -0.000229871 0.00106844 0.00204028 0.00263891 0.00291175 
0.00275408 0.00218359 0.0012974 7.10592e-05 -0.00129503 -0.00260826 -0.00364695 -0.00446277 -0.00502018 
-0.00533219 -0.00535492 -0.00503507 -0.00447138 -0.0036184 -0.00262154 0.0105899 -0.0179585 0.0568456 
-0.0241336 0.00414414 0.00490124 0.00527499 0.00522781 0.00491261 0.00427723 0.00347949 0.00226455 
0.000958825 -0.000274752 -0.00147447 -0.0023813 -0.00289402 -0.00288147 -0.00242623 -0.00154761 -0.000414676 
0.000955791 0.00238516 0.00379409 0.00533227 0.00671767 0.00789712 0.0086674 0.00905367 0.00890389 
0.00825608 0.00707848 0.0055145 0.00378317 0.00177476 -0.00075394 -0.00348483 -0.00699117 -0.011282 
-0.0163749 -0.0232854 -0.0331264 0.0312874 -0.057055 -0.0326219 0.0180124 -0.0527681 -0.0474134 
-0.0418968 -0.0363017 -0.0301659 -0.024242 -0.018678 -0.0127555 -0.00662644 -0.000472773 0.00543605 
0.0116295 0.0175067 0.0234522 0.0294591 0.0351498 0.0408197 0.0467917 0.0517724 0.055319 
-0.0101583 0.00106838 0.00536625 0.0155531 -0.000932062 -0.00684271 -0.0113556 -0.0147652 -0.0148185 
-0.0101484 -0.0183135 0.0186918 0.0113212 0.0349561 0.0141824 -0.00516944 -0.0114966 -0.0178185 
-0.0212048 -0.0212999 -0.0170311 0.0123639 0.0223046 0.00313844 0.0202842 0.00815423 0.00157941 
-0.0479237 0.00208961 -0.0305645 0.0291602 0.0126423 -0.0242499 0.0184158 0.0132354 -0.0204445 
0.0265855 0.0183532 0.0231306 -0.00107363 -0.00641938 -0.00704462 -0.00739663 -0.00726407 -0.00646831 
-0.00519348 -0.00378862 -0.00199153 8.68191e-05 0.00218225 0.00392328 0.00528422 0.00632821 0.00705703 
0.0073915 0.00724958 0.00666432 0.00569004 0.00448476 0.0423566 -0.0174747 0.0158028 0.00300639 
0.00879093 0.030171 0.0220661 0.0154063 0.0100899 0.00630711 0.00332413 0.00036776 -0.00242809 
-0.00478203 -0.00688844 -0.00855615 -0.00959169 -0.00987098 -0.00950193 -0.00857834 -0.00738274 -0.00598227 
-0.00444307 -0.0028682 -0.001316 0.00014095 0.00133977 0.00220759 0.00271415 0.00270605 0.00223842 
0.00130229 -9.00632e-06 -0.00172113 -0.00338142 -0.00476082 -0.00571606 -0.00650287 -0.00696074 -0.00700532 
-0.00664515 -0.00603526 -0.00512508 0.0249885 0.00582939 -0.0452953 0.00612433 0.00654062 0.00685416 
0.00669372 0.00610929 0.00594085 0.00465779 0.00276178 0.00151964 -1.35798e-05 -0.00139806 -0.00236366 
-0.00267217 -0.00250508 -0.00171772 -0.000536058 0.000783792 0.00228935 0.00378906 0.00525806 0.00679695 
0.00818406 0.00920312 0.0098128 0.0097747 0.00901595 0.00769146 0.00585783 0.00363583 0.00116676 
-0.00174932 -0.00515604 -0.00919746 -0.0135764 -0.0190149 -0.0255851 -0.0341942 0.00619379 -0.0119938 
-0.0392304 -0.0349561 -0.0303251 -0.0252818 -0.0202807 -0.0151262 -0.0094609 -0.00349625 0.0022576 
0.00824583 0.0139819 0.019418 0.0247999 0.0298486 0.0344951 0.0392312 0.0436966 0.011484 
0.00563317 -0.000558985 0.00827806 -0.00284732 -0.00418559 -0.00406038 -0.00213985 0.0114524 -0.00739456 
-0.00677985 -0.011826 -0.00936595 -0.0103195 -0.0246363 -0.0105616 -0.01386 -0.00380735 -0.0127594 
0.00495511 0.0162435 0.0202549 0.00412491 0.00273521 0.00193501 0.00978793 -0.0186101 0.00816234 
-0.0429761 0.00553596 -0.00808005 0.0194924 -0.0210914 -0.00249382 0.00078193 -0.0185164 -0.00845032 
-0.00900866 -0.00898697 -0.00704003 -0.00564578 -0.00361763 -0.00112711 0.00172218 0.00436437 0.00577884 
0.0074472 0.00805453 0.00870855 0.00867142 0.00817794 0.00710458 0.0114468 0.00681331 0.00597317 
0.0358868 0.0280693 0.021394 0.0157499 0.0108308 0.00830601 0.00510924 0.00167768 -0.00151021 
-0.00409151 -0.00644443 -0.00828235 -0.0092415 -0.00930337 -0.0086342 -0.00761977 -0.00646488 -0.00511075 
-0.00375644 -0.00245981 -0.00119647 4.51146e-05 0.00115872 0.00203161 0.00183018 0.000956885 -0.000366084 
-0.00215629 -0.00432764 -0.00640418 -0.00762956 -0.00791722 -0.00886698 -0.00880779 -0.00822272 -0.007402 
-0.00736653 -0.0136576 0.00385568 0.0172169 0.00828238 0.00845456 0.00886249 0.00524269 0.00264166 
0.00104808 -0.000982808 -0.00155864 -0.00159447 -0.000144739 0.00139592 0.00218011 0.00347006 0.00477262 
0.00607043 0.00726392 0.00840614 0.00924581 0.00956101 0.00891381 0.00736039 0.00505691 0.00233607 
-0.000446269 -0.00271299 -0.00673085 -0.0109129 -0.014912 -0.0199642 -0.0262302 -0.0314128 -0.0062426 
-0.0137055 0.00832097 -0.0131166 -0.000485832 -0.0280953 -0.0253924 -0.021199 -0.0167656 -0.0114731 
-0.0064172 -0.00120719 0.00475947 0.0109542 0.0160239 0.0206131 0.0250149 0.0285025 0.0320696 
0.00221019 0.00414693 0.0025652 0.00424789 0.0122892 0.00340999 0.0189476 -0.00291371 -0.0148909 
0.00229348 0.00141001 0.00262455 0.000718745 -0.00773359 0.00359717 -0.0334804 0.00574497 0.0105172 
0.0013416 0.0147901 -0.00313114 -0.0171673 0.0178097 -0.00289342 0.00216209 -0.00326025 -0.00420877 
-0.0151489 -0.00792889 0.00339014 -8.85582e-05 -0.00448064 0.0018062 -0.00293517 -0.00572286 -0.0104597 
-0.011282 -0.0083104 -0.00597398 -0.00290958 0.000542262 0.00487644 0.00824608 0.0101635 0.0101369 
0.00965846 0.000289201 -0.00209883 0.0256668 0.0198809 0.0144362 0.00741734 0.00325183 0.00105005 
-0.00486281 -0.00741715 -0.00746423 -0.00576566 -0.00561394 -0.0048303 -0.00394142 -0.00330039 -0.00275706 
-0.00218104 -0.000114935 0.000319702 0.000173426 -0.00161913 -0.00288761 -0.00507347 -0.0109036 -0.0110687 
-0.00999648 -0.00192598 0.00383575 0.00603503 0.0064403 0.00276191 0.000227013 -0.00424342 -0.00678706 
-0.0122091 -0.01651 -0.0198538 -0.0250179 0.00929063 -0.0141268 -0.0177865 -0.0132831 -0.00671116 
0.000940376 0.00763205 0.0133725 0.0176844 0.0210351 0.0232662 0.0134463 -0.00876284 0.00444229 
0.0147749 -0.00976131 0.0118895 0.00507729 -0.0114677 0.0109229 -0.00200974 -0.0068376 -0.00132066 
0.0100298 -0.00831215 -0.00688006 0.0171375 -0.0216188 0.00312824 0.00693983 0.00761369 0.00746361 
-0.0138819 -0.00411183 -0.00469785 0.0108134 0.00769402 -0.00529261 -0.00225644 0.0188906 0.016964 
0.0158376 -0.00352622 -0.00939053 -0.0032824 -0.000535959 0.0115581 0.0133942 -0.00305416 -0.000191667 
-0.000743938 -0.00123732 -0.00165433 -0.00196535 -0.0022469 -0.00241471 -0.00245826 -0.00222928 -0.00189756 
-0.00143934 -0.000906307 -0.00025213 0.000358987 0.000974483 0.00150586 0.00194765 0.00226435 0.00245105 
0.00243186 0.00230688 0.00212332 0.00176215 0.00127824 0.000754807 0.000252818 -4.20296e-05 0.0828125 
0.0327171 0.019891 0.0120209 0.0073398 0.00431204 0.00215544 0.000694405 -0.000396228 -0.0013519 
-0.00216301 -0.00295014 -0.00359961 -0.0040438 -0.00453366 -0.00477499 -0.00474448 -0.0045206 -0.00410074 
-0.00340052 -0.00258747 -0.00177313 -0.000929545 -0.000115048 0.000645102 0.00126332 0.0016738 0.00190479 
0.0018782 0.00160693 0.00121394 0.000644883 2.4675e-05 -0.0006305 -0.00121061 -0.00167149 -0.00198609 
-0.00217087 -0.00227927 -0.00215962 -0.00189187 -0.00140999 -0.000839676 0.000353025 0.000742504 0.00120693 
0.00155672 0.00181379 0.00190897 0.00194865 0.00180616 0.0014878 0.00108707 0.000562232 -4.28153e-05 
-0.000613342 -0.00109224 -0.00150408 -0.00168999 -0.00172373 -0.00150062 -0.00109531 -0.000509779 0.000244121 
0.00100364 0.00175945 0.00245376 0.00303468 0.00355966 0.00393741 0.00406413 0.00405211 0.00391165 
0.00353149 0.00300508 0.00239184 0.00171618 0.00101786 0.000179595 -0.000824108 -0.00199531 -0.00371271 
-0.0059597 -0.00966982 -0.0164074 -0.0330689 -0.0675497 -0.092559 -0.0836904 -0.0723189 -0.0639452 
-0.0550483 -0.0495992 -0.0431324 -0.0367631 -0.0299115 -0.0229088 -0.0164792 -0.0102564 -0.00353399 
0.00221044 0.00850225 0.0148138 0.0216516 0.0283089 0.0349614 0.0416277 0.0489842 0.0565615 
0.0651923 0.074919 0.088555 0.104402 0.0148182 0.0494455 0.0730259 0.0537138 0.0380206 
0.0250998 0.0150084 0.00547513 -0.00359887 -0.0131116 -0.0240239 -0.0370403 -0.0538447 -0.0731803 
-0.0558371 0.00878517 0.0610518 0.0674459 0.0494353 0.0337731 0.0207108 0.0106709 0.00125665 
-0.00732605 -0.0163725 -0.0267334 -0.0392808 -0.0549365 -0.0711664 -0.0377076 0.0661968 0.0863121 
-0.000294116 -0.111333 -0.0939299 -0.00196217 -0.00103882 -0.00325717 -0.0038336 -0.00425998 -0.00439289 
-0.00429549 -0.0037886 -0.00306119 -0.00216143 -0.0011032 5.91854e-05 0.00121196 0.00228699 0.00314985 
0.00383568 0.00428082 0.00443063 0.00437844 0.00404507 0.00348287 0.00279301 0.00197287 0.00112656 
0.0327726 0.00128562 0.0416531 0.0500947 0.0742344 0.0215092 0.0138956 0.00868542 0.00500417 
0.00214032 -5.35185e-05 -0.00192578 -0.00349858 -0.00485353 -0.00603916 -0.00698882 -0.00757725 -0.00782849 
-0.00770392 -0.00715247 -0.00624395 -0.00507134 -0.0037512 -0.00244377 -0.00113349 0.00011771 0.00124083 
0.00207883 0.00261215 0.00278528 0.0025731 0.00197246 0.00110876 5.51741e-05 -0.00104357 -0.00209843 
-0.00294109 -0.00356003 -0.00397093 -0.00413677 -0.00399323 -0.00362259 -0.00296973 -0.00207369 0.0291403 
-0.0300647 0.0244276 0.00200462 0.0026948 0.00320175 0.00357352 0.00373304 0.00357776 0.00321084 
0.00255027 0.00172017 0.000716145 -0.000319617 -0.00126708 -0.00206475 -0.00253133 -0.00266683 -0.00243031 
-0.00184692 -0.000947157 0.000172118 0.00142742 0.00263025 0.00386489 0.00497399 0.00589669 0.0065245 
0.00689839 0.00693923 0.00679784 0.00615898 0.00514507 0.00403516 0.00276295 0.00129833 -0.000445759 
-0.00245079 -0.00482048 -0.00806492 -0.0121677 -0.0188699 -0.0287835 -0.0464158 -0.0757752 -0.0641004 
-0.0683902 -0.0555454 -0.0488353 -0.0412887 -0.0353119 -0.0294878 -0.0236237 -0.0173115 -0.0111961 
-0.00518012 0.00107159 0.00692207 0.0129799 0.0187943 0.02454 0.0306294 0.0369451 0.0430923 
0.0494459 0.0561482 0.0625058 0.0687147 0.0326249 -0.029182 -0.0428783 0.0380656 0.0341252 
0.0264111 0.0178568 0.00956085 0.00134525 -0.00687961 -0.0150301 -0.0234035 -0.0301325 -0.0344518 
-0.0260035 0.0338889 0.0291537 0.0211023 0.0127785 0.00471444 -0.00295817 -0.0109261 -0.0189947 
-0.0273686 -0.0348663 -0.0374828 -0.0288916 0.0450363 -0.00268379 0.0269052 -0.0378518 0.0425597 
-0.0517653 0.0211203 -0.0454273 0.0453818 0.0278419 -0.00598881 -0.00491757 -0.0059746 -0.00555646 
-0.00478736 -0.00362121 -0.00226857 -0.000773887 0.000909115 0.00245808 0.00385443 0.00493037 0.00563382 
0.00603431 0.00609147 0.00581858 0.00519956 0.00435551 0.00335038 0.00227554 -0.0324076 0.0267802 
-0.0171413 -0.0297079 0.0382626 0.0123934 0.00751241 0.00372156 0.000781975 -0.00172282 -0.00395049 
-0.00585602 -0.00747157 -0.00863807 -0.00934704 -0.00948454 -0.00909266 -0.00827965 -0.00704067 -0.00560243 
-0.0040404 -0.00251759 -0.00100143 0.000418427 0.00157625 0.00242572 0.00287233 0.00279984 0.00225357 
0.00124745 -0.000110851 -0.00156703 -0.00290822 -0.00401494 -0.00492298 -0.00556561 -0.00586022 -0.00579038 
-0.00535789 -0.00457009 -0.00344404 0.00981483 0.00491267 0.00526492 0.00533022 0.00506034 0.00439709 
0.00337509 0.00215858 0.000777622 -0.000559993 -0.00166921 -0.00252034 -0.00292921 -0.00284511 -0.00224477 
-0.00130909 -5.47213e-05 0.00146313 0.00299541 0.00448609 0.00591111 0.00719226 0.00820278 0.00872682 
0.00877228 0.00862104 0.00795481 0.00662334 0.00499129 0.00317815 0.000937978 -0.00145197 -0.00419981 
-0.00734374 -0.0114411 -0.017076 -0.0249794 -0.036289 -0.0488435 -0.0485134 -0.0541707 0.0160114 
-0.0199618 -0.0292635 -0.042232 -0.0364001 -0.0309006 -0.0257346 -0.0198768 -0.0142436 -0.00855873 
-0.00255413 0.00361293 0.00937209 0.0151138 0.0207508 0.0260164 0.0317243 0.037261 0.0422165 
0.0468207 0.0508336 0.0529215 0.012039 0.0245139 0.018486 -0.00362568 0.0195955 0.0185549 
0.0154854 0.0104244 0.0046935 -0.0011729 -0.00677535 -0.0117868 -0.0141331 -0.0140987 0.0149692 
0.0341174 0.0138776 0.00989308 0.00501243 -0.000336783 -0.00582493 -0.0113795 -0.0161176 -0.0193694 
-0.0197219 -0.0168093 0.00661403 -0.00561921 0.00421274 0.0168903 0.00330861 -0.00401226 -0.028013 
-0.0108822 0.0243294 -0.0517077 -0.0344219 0.0302714 -0.0142425 0.027838 -0.00756726 -0.00544603 
-0.00377374 -0.00192883 0.000121026 0.00217938 0.00407528 0.00571308 0.00687209 0.00745104 0.00762316 
0.00742598 0.00682614 0.00586938 0.00465299 0.00786479 -0.00797684 0.006978 0.00591131 0.00958107 
0.0147003 0.00243535 -0.000567322 -0.00329749 -0.00571109 -0.00769821 -0.00913149 -0.00974087 -0.00971588 
-0.0090742 -0.007997 -0.00664815 -0.00521683 -0.0038178 -0.00242239 -0.00100014 0.000300229 0.00133878 
0.00209083 0.00235832 0.00188354 0.000898586 -0.000667417 -0.00247559 -0.00420935 -0.00558297 -0.00644453 
-0.00718585 -0.00764598 -0.00754968 -0.00710283 -0.00627396 -0.00516385 0.0113435 -0.0239709 -0.0303818 
0.00778987 -0.0125041 0.0176374 0.00694417 0.00656984 0.00661534 0.00572882 0.00436443 0.00272894 
0.00101363 -0.000447696 -0.0016498 -0.00248649 -0.00267992 -0.00223574 -0.00136601 -0.000203052 0.00133493 
0.00286193 0.00441622 0.00596287 0.00746242 0.00878065 0.00957334 0.00966456 0.00954047 0.00890994 
0.00731455 0.00531795 0.00296143 9.07878e-05 -0.0028295 -0.00598172 -0.009628 -0.0137575 -0.0198326 
-0.0275864 -0.0376814 0.00943682 -0.0451871 -0.0345636 -0.003341 -0.0221605 0.0390101 0.024924 
-0.041198 -0.0257282 -0.0216231 -0.0165176 -0.0111494 -0.00544315 0.000461573 0.00630011 0.0115757 
0.0169459 0.0217239 0.0264904 0.0309705 0.0342174 0.0370296 0.0013052 -0.0066434 0.0034579 
-0.0137805 0.00574909 -0.00737675 0.0143906 0.00856759 0.00804047 0.00554117 0.00271588 -0.00084168 
-0.00311304 -0.00376076 -0.00238938 0.00271416 0.004053 0.00213334 -0.000309193 -0.00333977 -0.0062035 
-0.0086003 -0.00986049 -0.00963836 -0.00806504 -0.00805866 0.012207 0.0084387 0.00431923 -0.0123535 
-0.0240391 -0.00638254 0.0209659 0.020783 0.0142512 -0.00125679 -0.00718717 0.0288243 -0.0242677 
0.0215425 -0.0193497 -0.0353348 -0.00578288 0.00140648 0.00410085 0.00600244 0.00795652 0.00908376 
0.00896334 0.0089463 0.00826737 0.00714518 -0.00202896 -0.0274367 0.00840319 0.0013546 -0.00220016 
-0.00418865 -0.00678889 -0.00767307 -0.00817854 -0.00791444 -0.00708304 -0.00607843 -0.00503344 -0.00427824 
-0.00352771 -0.00273337 -0.00181221 -0.000752701 0.000164953 0.000735626 0.00089936 -0.0006139 -0.00145281 
-0.00386245 -0.00623902 -0.00805957 -0.00898578 -0.00898597 -0.00944692 -0.00928334 -0.00873622 -0.00768932 
0.0086929 0.00859657 0.00281364 0.00888518 0.00811024 0.00743802 0.00555081 0.00336254 0.00203809 
0.000452997 -0.00102591 -0.00174096 -0.00157133 -0.000711235 0.000316707 0.00146487 0.00272689 0.00392639 
0.00526489 0.00666914 0.00802245 0.00875215 0.00953039 0.00721656 0.00451565 0.0024372 -0.000939462 
-0.00461065 -0.00804673 -0.0118294 -0.0157808 -0.0200103 -0.0275584 0.0050301 -0.00531963 -0.0113183 
-0.0244008 0.0186217 0.0167786 -0.0135066 -0.00755399 -0.00226525 0.00298849 0.00785337 0.0131781 
0.0180962 0.0218522 0.0255101 0.0269825 0.0281554 -0.0133492 0.00209551 -0.0195883 0.00596986 
0.00800968 -0.007476 0.0118409 -0.00238683 0.0034592 0.00471715 0.00363427 0.00249082 0.00191533 
0.00234852 0.00423951 -0.00445147 0.00475537 0.000517718 0.0117933 0.0146033 -0.00250486 -0.00316241 
-0.00386785 -0.00440915 -0.00440697 -0.00360959 -0.00261058 -0.00118059 -0.00348119 0.015254 -0.0189369 
-0.0166832 0.00423601 0.0214342 -0.00908074 -0.00851202 0.0152139 0.00801612 -0.00870792 -0.00257738 
0.00274624 -0.0190382 0.00266948 -0.00857894 0.001633 -0.00348976 0.0155451 0.00235426 -0.0116443 
0.0141455 -0.00422164 0.0110195 0.0110371 0.00953428 -0.00839294 -0.00405758 -0.00876203 -0.0120406 
-0.0130025 -0.0119265 -0.0109673 -0.0102465 0.0114265 0.00644444 0.00953871 0.0115046 -0.00216521 
0.0102682 0.00444294 -0.00107471 -0.00642196 -0.0106627 -0.0139649 -0.0174905 -0.0220063 -0.0181037 
0.0172369 0.0129798 -0.0218512 -0.00471987 -0.0155282 -0.00449011 0.00950939 0.01495 0.0183879 
0.0214198 0.0172732 0.0148513 0.00892982 -0.00907511 0.0075764 -0.0095743 -0.0197789 0.0106019 
-0.00286461 -0.0106277 0.00174572 0.00208264 0.00605938 0.000448537 -0.000118634 0.00311138 0.00479526 
0.00637972 0.000440629 -0.0171132 0.0039186 -0.0155185 -0.011354 -0.0143504 -0.0148665 -0.0123703 
-0.0165464 -0.0181092 0.0151027 -0.0119796 0.0174347 -0.01897 -0.251924 0.247302 -0.179836 
-0.0997065 -0.0806109 -0.0665194 -0.0532048 -0.0503709 -0.0411389 -0.034341 -0.0291721 -0.0243811 
-0.0185055 -0.0115642 -0.00555995 0.00103873 0.0077952 0.0138272 0.0189912 0.0237501 0.0291263 
0.0348595 0.0412294 0.0470271 0.0528529 0.0586941 0.0651456 0.0748826 0.0880456 0.180589 
-0.193073 -0.0964666 -0.0823081 -0.0730634 -0.069833 -0.0567196 -0.0510866 -0.0447169 -0.0375811 
-0.0294564 -0.0232123 -0.0170898 -0.00986259 -0.00369273 0.00283255 0.00960025 0.0175545 0.0245723 
0.0316695 0.0384345 0.0455667 0.053451 0.0620667 0.0723471 0.084056 0.100898 0.171181 
4.92473e-05 4.69375e-05 -5.23183e-06 -8.48255e-06 -2.78701e-05 -4.28728e-05 -5.69437e-05 -6.83733e-05 -7.70317e-05 
-7.25644e-05 -3.82012e-05 -2.00661e-05 -2.43589e-06 3.79939e-05 5.3564e-05 6.81344e-05 5.90683e-05 6.83486e-05 
6.51348e-05 5.07339e-05 6.31645e-05 7.57982e-05 7.58021e-05 6.47127e-05 3.53732e-05 -5.71544e-06 -4.12155e-05 
-7.03567e-05 0.116528 0.00482534 -0.000947555 -0.000295085 -0.000236551 -0.000271406 -0.000253774 -0.000179102 
-0.000140777 -0.000137775 -0.000124699 -0.000121809 -0.000121945 -0.000152305 -0.000153084 -0.000188079 -0.000197638 
-0.00019074 -0.000177769 -0.000160072 -0.000126556 -9.82383e-05 -6.4708e-05 -4.09189e-05 -2.04953e-05 3.20696e-05 
7.31222e-05 9.38984e-05 0.000104994 0.000108938 0.000102807 9.364e-05 7.66104e-05 5.26849e-05 3.12619e-05 
8.60738e-06 -1.90503e-05 -3.89706e-05 -5.35182e-05 -6.36164e-05 -6.92809e-05 -6.79315e-05 -5.36374e-05 -1.57806e-05 
6.33705e-05 4.70572e-05 -5.91748e-05 -1.58284e-05 -5.98301e-07 3.11095e-05 4.21457e-05 5.40987e-05 5.5865e-05 
5.28061e-05 4.37637e-05 2.73752e-05 4.70901e-06 -1.81864e-05 -4.80852e-05 -7.87938e-05 -9.28727e-05 -0.000100849 
-0.000101229 -0.00010219 -8.8072e-05 -6.20207e-05 -3.6202e-05 -1.78917e-05 8.39989e-06 4.58941e-05 5.97357e-05 
7.75438e-05 0.000116066 0.000149333 0.000165368 0.000180936 0.000175018 0.000177706 0.000165092 0.00015759 
0.000150874 0.000155875 0.000151454 0.000166288 0.000181742 0.000216642 0.000218382 0.000274168 0.000516295 
0.00160186 0.00650002 -0.111181 0.00211763 0.20505 0.0870165 0.0490232 0.0312894 0.02019 
0.0111466 0.00334577 -0.00348389 -0.0117859 -0.0252823 -0.040503 -0.0699697 -0.138893 -0.282167 
0.0191905 0.187594 0.100298 0.0569374 0.0363901 0.021935 0.0136104 0.00509359 -0.00473541 
-0.0129286 -0.0216871 -0.0343997 -0.0549853 -0.0991906 -0.153518 2.69679e-05 1.91768e-05 -2.03087e-05 
-5.9332e-05 -6.07877e-05 -6.26423e-05 -6.93206e-05 -6.94049e-05 -6.53195e-05 -5.80768e-05 -7.86722e-05 -6.10909e-05 
-4.60323e-05 -5.68088e-05 -3.06999e-05 -1.64252e-05 2.22338e-05 3.84744e-05 5.54564e-05 7.40961e-05 6.4267e-05 
5.15305e-05 3.36372e-05 1.29609e-05 -4.57934e-06 -1.55612e-05 -4.86315e-05 -4.60713e-05 0.117465 -0.021055 
-0.0055526 -0.00188105 -0.000962401 -0.000603789 -0.00041957 -0.000298761 -0.000220075 -0.000195923 -0.000178465 
-0.000176674 -0.000173685 -0.000142627 -0.000191386 -0.000173589 -0.000169612 -0.000156226 -0.00014561 -0.000112212 
-8.18409e-05 -3.97779e-05 -1.17852e-06 3.85955e-05 8.08825e-05 9.94021e-05 0.000107963 0.00012613 0.000124811 
0.000114494 9.84419e-05 7.03671e-05 4.34241e-05 6.68515e-06 -2.44225e-05 -4.96789e-05 -5.99784e-05 -6.09608e-05 
-6.1458e-05 -5.80436e-05 -5.11319e-05 -3.30731e-05 -5.64828e-06 2.78158e-05 7.83699e-05 5.22343e-05 -4.7724e-05 
-5.20892e-05 -2.74957e-05 1.80601e-07 1.50361e-05 3.06975e-05 4.26007e-05 5.18131e-05 5.83231e-05 6.12172e-05 
6.3269e-05 4.15423e-05 2.32722e-05 2.85323e-06 -3.51901e-05 -5.80067e-05 -8.49963e-05 -0.000110134 -0.000122021 
-0.000124668 -0.000108159 -7.33585e-05 -2.83491e-05 -2.21451e-06 3.85339e-05 5.65012e-05 7.94445e-05 0.000106815 
0.000122692 0.000131284 0.000148722 0.000149037 0.000143533 0.000137187 0.000135313 0.000147204 0.000183745 
0.000240634 0.000314403 0.000422466 0.000609233 0.00100353 0.00188013 0.00367373 -0.00619183 -0.106154 
-0.0237668 0.27444 0.0996496 0.0554973 0.036534 0.022663 0.0132238 0.00506012 -0.00316576 
-0.0120933 -0.0213862 -0.0353497 -0.0554354 -0.105247 -0.22402 -0.00988327 0.16428 0.0847173 
0.0476178 0.0293926 0.0177198 0.00833103 0.00021666 -0.00739397 -0.0152453 -0.0267132 -0.0407808 
-0.0605035 -0.120618 -0.19696 -3.11562e-05 1.77309e-05 0.169836 -0.173197 -0.17639 0.176423 
-0.188172 0.179424 -0.125294 -0.0962097 -0.0886582 -0.0811168 -0.0714276 -0.0748445 -0.0641018 
-0.0618433 -0.0601097 -0.0557951 -0.0474145 -0.0438268 -0.0421842 -0.0396279 -0.0366855 -0.0334032 
-0.0303395 -0.0270781 -0.0239679 -0.0209952 -0.0177092 -0.0144283 -0.0111788 -0.00783668 -0.00460314 
-0.00137344 0.00194943 0.00520131 0.00834282 0.0114537 0.0146612 0.0178219 0.0208985 0.0239436 
0.0271066 0.0302683 0.0334813 0.0366151 0.0399691 0.0433431 0.0467596 0.0500999 0.053754 
0.05734 0.0612062 0.0651223 0.0697367 0.074471 0.0802253 0.0859947 0.0929803 0.115756 
6.25603e-05 -7.95758e-05 -0.000139406 -0.00031935 -0.000354266 -0.000462965 -0.000562858 -0.000594941 -0.000928998 
-0.000826108 -0.000849193 -0.00139888 -0.00103481 -0.00105344 -0.00183971 -0.00114044 -0.00115617 -0.00215028 
-0.00120783 -0.00121439 -0.00232059 -0.00121072 -0.00120993 -0.0023705 -0.00113797 -0.00113036 -0.00228998 
-0.000997896 -0.000959352 -0.0020534 -0.000769583 -0.000736636 -0.00169263 -0.00050606 -0.000442777 -0.00120097 
-0.000183432 -0.00014422 -0.000643057 0.000134178 0.000171749 -3.11381e-05 0.000438783 0.000470869 0.000575625 
0.000722956 0.000753002 0.00114745 0.000921738 0.000940804 0.00162374 0.0010691 0.00107143 0.00195732 
0.00113609 0.00115652 0.00216826 0.00117022 0.00117709 0.00227086 0.00114337 0.00113763 0.00226921 
0.00104105 0.00102612 0.00212898 0.000854406 0.0008309 0.00183967 0.000617502 0.000581548 0.00141553 
0.000373393 0.000328566 0.000948723 0.00019504 9.39107e-05 0.000516189 -3.75599e-05 -2.39798e-05 -3.32863e-05 
0.000168304 0.0869664 0.0421554 0.0318718 0.0145052 0.0137164 0.0472224 0.00795122 0.00753157 
0.0221238 0.00458624 0.00427754 0.0123734 0.00269229 0.00252568 0.00717698 0.00144756 0.00133639 
0.00415252 0.000631962 0.000568359 0.00214376 5.00115e-05 1.86107e-06 0.000813269 -0.000415329 -0.000462299 
-0.000277012 -0.000835544 -0.000871656 -0.00115973 -0.0012175 -0.0012597 -0.00196699 -0.00156153 -0.00161699 
-0.00268524 -0.00178656 -0.00183066 -0.00324247 -0.00204512 -0.00207777 -0.00375886 -0.00225143 -0.00227627 
-0.00419156 -0.00229799 -0.00229728 -0.00441895 -0.00221487 -0.00219319 -0.00435941 -0.00205471 -0.00203288 
-0.00411594 -0.00183057 -0.00178147 -0.00372806 -0.00147443 -0.0014326 -0.00315008 -0.00110168 -0.00105715 
-0.00245045 -0.000710503 -0.000656468 -0.00170454 -0.000320627 -0.000284798 -0.000945161 4.11709e-05 9.09911e-05 
-0.00020976 0.000377972 0.000434303 0.000472696 0.000648198 0.000678244 0.00103872 0.000800378 0.000820377 
0.00142535 0.000879025 0.000883632 0.00163731 0.00086518 0.000853428 0.00167792 0.000744337 0.000729218 
0.0015266 0.000527335 0.000500524 0.00118848 0.000273991 0.000240407 0.000718957 -2.44291e-05 -6.64201e-05 
0.000169495 -0.000334861 -0.000365662 -0.000425262 -0.000596375 -0.000633886 -0.000980107 -0.000804821 -0.000832473 
-0.00143322 -0.000942603 -0.000962185 -0.00175339 -0.00103534 -0.00104606 -0.00196356 -0.00105657 -0.00105859 
-0.00206168 -0.00099321 -0.000987518 -0.00200796 -0.000883665 -0.000870658 -0.0018274 -0.000684769 -0.00064902 
-0.00151568 -0.000425851 -0.000373948 -0.00106396 -0.000165086 -9.74694e-05 -0.000561956 -0.0268211 5.46459e-05 
0.000351858 0.000378217 0.000561507 0.00059062 0.000932 0.000763736 0.000785387 0.00133852 0.000923645 
0.000939579 0.00168433 0.00100728 0.00100862 0.00191198 0.00103342 0.00102573 0.00200252 0.000963383 
0.0009429 0.00194495 0.000808495 0.0007755 0.00171992 0.000594605 0.000561067 0.0013581 0.000341575 
0.000298346 0.000901043 3.84169e-05 -1.27434e-05 0.00034038 -0.000267285 -0.000308081 -0.000249543 -0.000545155 
-0.000573643 -0.00080013 -0.000746455 -0.000769978 -0.00126053 -0.000866214 -0.000874135 -0.00157241 -0.000904366 
-0.000893896 -0.00170842 -0.000831586 -0.000805989 -0.00165368 -0.000645844 -0.000598852 -0.0013827 -0.000361695 
-0.000321559 -0.000916181 -2.55422e-05 3.03897e-05 -0.000303276 0.000346761 0.000412941 0.000393665 0.000710695 
0.000763507 0.00110392 0.00105504 0.00110047 0.0017786 0.00140825 0.00147256 0.00247027 0.00174884 
0.00179216 0.00314313 0.00200037 0.00203619 0.00369318 0.00213762 0.00215359 0.00405548 0.00224443 
0.00224013 0.00425964 0.00217505 0.00215597 0.00425973 0.00198654 0.00194926 0.00399051 0.00173801 
0.00169786 0.00354718 0.00145362 0.00140111 0.00300312 0.00110389 0.00106272 0.00236371 0.000746207 
0.000680398 0.00165228 0.000338815 0.000281944 0.000893052 -0.000118226 -0.000200647 1.60506e-05 -0.000741255 
-0.000837666 -0.00111913 -0.00156057 -0.00168769 -0.002654 -0.00260032 -0.00282351 -0.00460719 -0.00429386 
-0.00459272 -0.00743734 -0.00756161 -0.00817665 -0.0124907 -0.014167 -0.0141069 -0.022893 -0.0270112 
-0.0337181 -0.0458531 -0.0642935 -0.106276 -0.093798 -0.0863148 -0.0819851 -0.089973 -0.0761298 
-0.0696641 -0.079437 -0.0687403 -0.0603266 -0.0649604 -0.0618345 -0.0484776 -0.0567623 -0.0464977 
-0.0410347 -0.0494139 -0.0439551 -0.033772 -0.0400065 -0.0377969 -0.0270077 -0.0335222 -0.0312229 
-0.0202223 -0.0273647 -0.0245282 -0.0139277 -0.0205471 -0.0180273 -0.00717747 -0.0143341 -0.0116001 
-0.000697932 -0.0077901 -0.00534614 0.00554141 -0.00145847 0.0010617 0.0119412 0.00474405 0.00682418 
0.0180357 0.0106053 0.0132279 0.0243443 0.0163848 0.0197415 0.0306905 0.0224557 0.0261964 
0.0373281 0.02844 0.0325884 0.0436173 0.035013 0.0395017 0.050644 0.04143 0.0463444 
0.0579022 0.0483191 0.0538289 0.0656408 0.0554864 0.0625775 0.0753077 0.0634743 0.0735947 
0.0875271 0.0736797 0.0862404 0.100592 0.0847589 0.033557 -0.0383964 0.100237 0.104021 
0.0693844 0.0971039 0.0642267 0.0477063 0.0588169 0.0597278 0.0326591 0.0386116 0.0441232 
0.0208531 0.0258658 0.0303822 0.0112848 0.0150014 0.0192466 0.00287252 0.00642042 0.00955613 
-0.00588233 -0.00216837 0.000687504 -0.0150846 -0.0112468 -0.00861317 -0.0267342 -0.0211483 -0.0189219 
-0.0414516 -0.0344931 -0.03122 -0.0625987 -0.0503173 -0.0459235 -0.101817 -0.072714 -0.0627789 
-0.102902 -0.0972167 -0.0641193 0.0438036 -0.0283301 0.0961577 0.108183 0.0716028 0.098983 
0.0688214 0.0495189 0.0613522 0.0626504 0.0332652 0.0402535 0.0450708 0.0210956 0.0259699 
0.0305121 0.0114938 0.0152322 0.0189167 0.00222418 0.0059376 0.00878639 -0.00642373 -0.00295271 
-0.000707496 -0.0152438 -0.0114292 -0.00969892 -0.0264193 -0.0213133 -0.0195713 -0.0399198 -0.0336375 
-0.0314024 -0.0611399 -0.0494173 -0.0460982 -0.0949551 -0.074127 -0.064601 -0.130254 -0.102412 
-0.0746753 -4.51929e-05 0.0983564 -0.0674866 -0.116694 0.111098 0.0693166 -0.110365 0.052962 
-0.0589341 -0.115412 -0.0477056 0.117351 0.0761946 0.0479183 -0.0589304 -0.0979228 0.0900443 
-0.0259275 -0.0683846 -0.00116101 -0.00142143 -0.0018218 -0.0020865 -0.00209753 -0.00245284 -0.00267759 
-0.00291251 -0.00295056 -0.0030717 -0.00358795 -0.00323402 -0.00330838 -0.00406696 -0.00331232 -0.00331361 
-0.00425303 -0.00321336 -0.00313028 -0.00416914 -0.00293602 -0.00274742 -0.003859 -0.00245443 -0.00219339 
-0.00331952 -0.00181382 -0.00149822 -0.00256232 -0.00105263 -0.000692565 -0.0016303 -0.000208422 0.000166004 
-0.000585333 0.000660263 0.00100888 0.00052348 0.00148066 0.00180167 0.00160494 0.00215681 0.00239244 
0.00253551 0.00266645 0.00282335 0.00323232 0.00302574 0.00311361 0.00376274 0.00321785 0.00325833 
0.00409977 0.00325569 0.00322144 0.00421576 0.00307917 0.00296067 0.00406565 0.0027162 0.00251086 
0.00366027 0.00219087 0.00193609 0.00304649 0.00158294 0.00130716 0.00231384 0.000960771 0.000741687 
0.00154987 0.0435602 0.0483044 -0.0735598 -0.0857691 -0.0516944 -0.00026702 0.0362751 0.0283082 
0.0214319 0.0171064 0.0328343 0.0133656 0.0110178 0.0211413 0.00846446 0.00681036 0.0137704 
0.00489249 0.00387745 0.00860565 0.00241737 0.00165346 0.00471441 0.000725944 9.42816e-05 0.00214448 
-0.000674141 -0.00121448 0.000163595 -0.00191147 -0.00241589 -0.00154724 -0.00304644 -0.0034695 -0.00309958 
-0.00399001 -0.00433968 -0.00443895 -0.00478619 -0.00510814 -0.0055885 -0.00545223 -0.00569607 -0.0065386 
-0.00586444 -0.00593675 -0.00716563 -0.00588481 -0.00581363 -0.00734994 -0.00564118 -0.00547108 -0.00715581 
-0.00516012 -0.00488388 -0.00664279 -0.0044556 -0.00407653 -0.00582555 -0.00359595 -0.00318363 -0.00482533 
-0.00263993 -0.00219084 -0.00369523 -0.00162081 -0.00118189 -0.00246224 -0.000612066 -0.000174471 -0.00119275 
0.000325457 0.000705762 1.33257e-05 0.00111687 0.00141539 0.00105087 0.00169319 0.00187773 0.00183705 
0.00204225 0.0021319 0.00234977 0.00213662 0.002108 0.00256674 0.00198672 0.00185265 0.00245092 
0.00160732 0.00136623 0.0020423 0.000995389 0.000697943 0.00136453 0.000263487 -8.07259e-05 0.000468782 
-0.00054228 -0.000889702 -0.000528166 -0.00130121 -0.00160553 -0.00150339 -0.00195747 -0.00219499 -0.00236083 
-0.00243309 -0.00259144 -0.00302981 -0.00274823 -0.00285334 -0.00348081 -0.00289668 -0.00291971 -0.00371714 
-0.00288298 -0.00281144 -0.00373799 -0.00268257 -0.00255265 -0.00355649 -0.00230484 -0.00206992 -0.00314182 
-0.00171755 -0.00144572 -0.00247738 -0.00102625 -0.000727914 -0.00162835 0.0329159 0.050735 0.0742016 
0.0516334 0.0553068 0.00124931 0.00147953 0.00183723 0.0020526 0.00217982 0.00236067 0.00252741 
0.00289571 0.00272426 0.00280681 0.00343861 0.00285114 0.00286521 0.00370058 0.00278488 0.00269863 
0.00366146 0.00251197 0.00233398 0.00338137 0.00207221 0.00182296 0.00287489 0.00146831 0.0011723 
0.00218065 0.000755982 0.000403982 0.00130939 -5.74349e-05 -0.000381113 0.000324882 -0.000811505 -0.0011098 
-0.000663111 -0.00145645 -0.00168225 -0.00152388 -0.0019444 -0.0020806 -0.00220413 -0.00216199 -0.00218777 
-0.0025933 -0.00209652 -0.00199989 -0.00259614 -0.00177175 -0.00155366 -0.00224648 -0.00117832 -0.000864747 
-0.00159058 -0.000402723 -2.85128e-05 -0.00067374 0.000519673 0.000926484 0.000422136 0.00145417 0.00184318 
0.00160279 0.0023735 0.00275882 0.00276892 0.00330526 0.00371785 0.00395637 0.00420168 0.00455193 
0.00510203 0.00494187 0.00520731 0.006059 0.00547204 0.00561492 0.00677878 0.00570065 0.00577155 
0.00716501 0.00567596 0.00558581 0.00715969 0.00532762 0.00510403 0.00677483 0.00470329 0.00441042 
0.00605011 0.0039032 0.0035547 0.00504434 0.00295665 0.0025511 0.00384308 0.00192956 0.00149668 
0.00250736 0.000739937 0.000252454 0.00101269 -0.000623532 -0.00124218 -0.000834154 -0.00236802 -0.00322892 
-0.00305794 -0.00466239 -0.00574532 -0.00599219 -0.00765756 -0.009016 -0.00970166 -0.0118217 -0.0141014 
-0.0148743 -0.0185265 -0.0227635 -0.022826 -0.0308908 -0.0400627 -0.0592006 -0.0368968 -0.000681434 
-0.0805462 0.079549 0.0709055 0.0264426 0.00321832 -0.0777357 -0.0707452 -0.0654582 -0.0669934 
-0.0663262 -0.0587633 -0.05585 -0.0590071 -0.0497748 -0.0515769 -0.0521897 -0.0414144 -0.0449646 
-0.0455092 -0.034421 -0.0383768 -0.038801 -0.0271959 -0.0318019 -0.032134 -0.0202206 -0.0254104 
-0.0256852 -0.0146316 -0.0193487 -0.019452 -0.00800869 -0.0125361 -0.0132551 -0.00139819 -0.00652246 
-0.00685911 0.00465938 -5.21036e-05 -0.000533632 0.0111231 0.00578792 0.00549274 0.0172839 0.01242 
0.0117547 0.0239753 0.0190386 0.0180154 0.0301423 0.0253486 0.0243843 0.0370273 0.031836 
0.0305752 0.0430396 0.0388344 0.0370886 0.0504314 0.0458483 0.0436702 0.0576379 0.0536249 
0.0507079 0.0654201 0.0621275 0.0578846 0.0747758 0.0723199 0.0654028 0.0826955 -0.00739106 
-0.0583687 0.0474962 0.0347138 0.0250708 0.030165 0.0249615 0.0310842 0.015439 0.0209718 
0.02139 0.00704851 0.011678 0.0132509 -0.00166472 0.00327859 0.00526064 -0.0106015 -0.0053699 
-0.00288241 -0.0203635 -0.0145079 -0.0112463 -0.0312523 -0.024453 -0.0197126 -0.042303 -0.034819 
-0.027387 -0.0500145 -0.04441 -0.0319652 -0.0336954 -0.0489577 -0.0281577 -0.0525091 -0.0357066 
-0.0501017 -0.0397353 0.0370988 0.0512134 0.0533123 0.0411837 0.0248259 0.031402 0.0150484 
0.0205607 0.020675 0.00562808 0.0108528 0.0118003 -0.00336415 0.00154174 0.00304162 -0.0118466 
-0.00710265 -0.00534967 -0.0216346 -0.0159266 -0.0137111 -0.0324074 -0.0260325 -0.022602 -0.0445368 
-0.0367517 -0.0313444 -0.0540324 -0.0472293 -0.037564 -0.042814 -0.0515577 -0.0353034 0.0695374 
0.0358427 0.0102702 -0.000948203 0.0346955 0.042115 0.0293105 0.0459385 0.0533757 0.0338744 
0.0355457 0.0437068 0.0353518 0.0292623 0.0713699 0.0335122 0.000553694 0.000387578 0.000375544 
0.00098861 -0.0361062 -0.0543254 -0.0723101 0.000775419 -0.0635945 -0.0397381 0.0591161 0.0483287 
-0.0512734 0.00128871 -0.00142581 -0.0233767 -0.0356876 -0.0286728 0.0352711 0.0564517 0.024998 
0.0498123 0.0377143 0.0260174 0.0208108 -0.0228197 -0.0217451 -0.0032106 -0.00359504 -0.0040942 
-0.00439629 -0.00439502 -0.00469601 -0.00488209 -0.00522863 -0.00504998 -0.00507201 -0.00572565 -0.00507398 
-0.00497386 -0.00589894 -0.00474749 -0.00452197 -0.00567609 -0.00412881 -0.00377129 -0.00502786 -0.00329462 
-0.00281792 -0.00409707 -0.00222863 -0.0016859 -0.00294171 -0.000987608 -0.000383803 -0.00155081 0.000350386 
0.000960983 -4.179e-07 0.00168494 0.00225443 0.00157715 0.00282503 0.00326029 0.00296286 0.00372842 
0.0040515 0.00407402 0.00440869 0.00464874 0.0049485 0.00485278 0.00497746 0.00554294 0.00503198 
0.00503219 0.00581426 0.00491757 0.00476504 0.00575799 0.00448914 0.00422102 0.00535423 0.00381067 
0.00345387 0.00464869 0.00296557 0.00256619 0.00371854 -0.0591612 0.0422241 0.0342311 0.0284552 
0.0234272 0.0360775 0.0190623 0.0158096 0.0254348 0.0127678 0.0101888 0.0174518 0.00768045 
0.00591487 0.0114104 0.00413945 0.00289352 0.00675904 0.00163433 0.000591606 0.0034465 -0.000518218 
-0.00144587 0.000826761 -0.00247417 -0.00332951 -0.00153731 -0.00424641 -0.00492885 -0.00369031 -0.00569486 
-0.00632085 -0.00554764 -0.00697128 -0.0074542 -0.00713662 -0.00784368 -0.0081124 -0.00834039 -0.0082426 
-0.00826655 -0.00898223 -0.00815824 -0.00800335 -0.00909193 -0.00770532 -0.00736007 -0.00871976 -0.00684823 
-0.00637143 -0.00789792 -0.00576403 -0.00521525 -0.00675322 -0.00453073 -0.0039055 -0.00543206 -0.00317192 
-0.00250855 -0.00396744 -0.00177981 -0.00110743 -0.0024459 -0.000406081 0.00019893 -0.000949807 0.000816838 
0.00132199 0.000438183 0.00177466 0.00211886 0.00157787 0.00239128 0.00260405 0.00236356 0.00272388 
0.00275944 0.00280094 0.00268065 0.00253692 0.00286571 0.00225837 0.00197523 0.00249239 0.00155058 
0.00111477 0.00175686 0.000527418 1.92108e-05 0.000694423 -0.000628645 -0.00117811 -0.000609569 -0.00180058 
-0.00228822 -0.00195979 -0.00278302 -0.00320529 -0.0031414 -0.00359064 -0.00388416 -0.00407078 -0.00415001 
-0.00433681 -0.00476292 -0.00449314 -0.00454462 -0.00519791 -0.00456674 -0.00452053 -0.00535988 -0.00437032 
-0.00421384 -0.00521215 -0.00395405 -0.00365461 -0.00476872 -0.0032482 -0.00284147 -0.00405753 -0.00236419 
-0.00187868 -0.00214512 -0.00312741 0.0100271 0.0137368 -0.0194872 -0.0298417 0.0633193 0.0492502 
0.04945 0.0634829 -0.0353884 -0.028324 0.00334657 0.00368275 0.00405161 0.00427144 0.00454248 
0.00444696 0.00450234 0.00511589 0.00447573 0.00438977 0.0052786 0.00424335 0.00402764 0.00508776 
0.00372688 0.00340715 0.00461343 0.00303301 0.00260625 0.0039004 0.00203322 0.00152357 0.00288198 
0.000894341 0.000359733 0.00161361 -0.000225393 -0.000730796 0.000334912 -0.00129591 -0.00170082 -0.000899577 
-0.00213293 -0.00243692 -0.00196476 -0.00267424 -0.0027838 -0.00268708 -0.00276611 -0.00266858 -0.00293719 
-0.00244199 -0.00218232 -0.0026851 -0.00176729 -0.00133386 -0.00202096 -0.000780866 -0.000271954 -0.00100647 
0.000388968 0.00101298 0.000252277 0.00170286 0.00230226 0.00166734 0.00298031 0.00359341 0.00309229 
0.00432924 0.00495713 0.00457576 0.0056245 0.00618969 0.0060494 0.00675989 0.00719245 0.00734333 
0.00756198 0.00785367 0.00832904 0.00804471 0.00813955 0.00889826 0.00807636 0.00796392 0.00902336 
0.00764925 0.00734311 0.00862613 0.0067902 0.00630253 0.00770195 0.00556897 0.00498079 0.0063291 
0.0041615 0.00345428 0.00467963 0.00249097 0.0017509 0.00281113 0.000583424 -0.000365182 0.000573057 
-0.00158473 -0.00272643 -0.00208001 -0.00436655 -0.00579868 -0.00514126 -0.00774281 -0.00966344 -0.00905312 
-0.0120007 -0.0143099 -0.0137482 -0.017568 -0.0209989 -0.0196533 -0.0256508 -0.0310944 -0.0279307 
0.0407229 0.0346304 -0.0624743 -0.0603538 -0.0347675 -0.0419546 0.0255617 0.0250412 -0.0575414 
-0.0542376 -0.0551413 -0.0512855 -0.0480386 -0.0500387 -0.0452366 -0.0416401 -0.0446708 -0.0389422 
-0.035634 -0.0390889 -0.0326229 -0.0292238 -0.0332483 -0.0263929 -0.0231432 -0.0272394 -0.0204617 
-0.017295 -0.0214798 -0.014538 -0.0111418 -0.0157337 -0.0082397 -0.00493466 -0.00971383 -0.00198475 
0.00122267 -0.00355511 0.00399191 0.00727133 0.00247876 0.0102195 0.0134471 0.00853439 0.0162029 
0.0195404 0.0145778 0.0223532 0.0255864 0.0204965 0.0284263 0.0316973 0.026456 0.0344437 
0.037813 0.0323166 0.0405324 0.0440682 0.0380097 0.0469618 0.0505291 0.0438234 0.0529797 
0.0565284 0.0493635 0.0584086 0.0620889 0.0564983 0.0536691 -0.0199085 -0.0149656 0.01802 
-0.0145475 0.0185669 0.00334255 0.00713783 0.00800272 0.0167483 0.0203626 0.0132386 -0.00387641 
3.35593e-05 0.00224465 -0.0110413 -0.00707704 -0.00391251 -0.017462 -0.0137169 -0.00924111 -0.0222628 
-0.0197289 -0.013329 -0.0224964 -0.0231796 -0.0149239 -0.0160764 -0.0211521 -0.0126624 -0.0287764 
-0.0247459 0.023557 0.0304128 0.0186519 0.0193175 0.014469 0.0124584 0.0417152 0.0390087 
0.0153649 0.0194925 -0.00725795 -0.0033451 -0.0147343 -0.0106026 -0.00837523 -0.0223885 -0.0182227 
-0.0147539 -0.0279809 -0.0245948 -0.0197264 -0.0292806 -0.0288626 -0.0216162 -0.0229262 -0.0278325 
-0.0194453 0.0257967 -0.00136059 -0.00430134 0.0248954 0.0267283 0.0329027 -0.00258217 0.00245872 
0.00285702 0.0036552 0.023171 0.0263485 0.0194047 0.0178833 0.0078593 0.012099 0.0111572 
0.000191503 0.00439461 0.00483906 -0.00182428 -0.0156053 -0.0475572 -0.0586813 -0.0528249 -0.0380396 
0.00202693 0.00161923 -0.0377686 -0.0279545 0.0259187 0.0359315 0.021046 0.0168795 -0.0216894 
-0.0309935 0.00142997 0.00194419 -0.0401768 0.0315429 0.0262836 0.0268311 0.0165717 -0.0338426 
0.0157766 0.0229522 -0.017264 0.00265254 -0.00939318 0.0189204 0.0176117 -0.0140454 -0.0280644 
-0.0198069 -0.0224704 0.0227766 0.0327936 -0.00324852 -0.0192561 0.00261549 0.0321045 0.0219845 
0.0254152 0.0186156 0.0163174 0.0269103 0.0264413 -0.00575291 -0.00544243 0.012465 -0.00566789 
-0.0059973 -0.00628744 -0.00646019 -0.00676131 -0.00663278 -0.0066411 -0.00723608 -0.00657488 -0.00633588 
-0.0073657 -0.00594341 -0.00552635 -0.00689616 -0.00490612 -0.00436398 -0.00586595 -0.0036908 -0.00301968 
-0.00451936 -0.00216666 -0.00136469 -0.00290772 -0.000370075 0.000467844 -0.000957011 0.00145505 0.00228166 
0.00113928 0.00311389 0.003751 0.00307777 0.00440414 0.00492893 0.00462739 0.00543224 0.00582225 
0.00583021 0.00617618 0.00640066 0.00671768 0.00656122 0.00662683 0.00724963 0.00655806 0.0064384 
0.00734667 0.00615066 0.00586339 0.00697778 0.00537936 0.00496024 0.00618982 0.00435968 0.00385359 
0.00509413 0.0427193 0.0366143 -0.0240354 -0.0207467 0.0189512 0.0222918 0.00115871 0.00409096 
0.0107619 0.0152093 0.0122399 0.0304461 0.0255435 0.0361044 0.0216317 0.0181369 0.0260048 
0.0149204 0.0120269 0.0186713 0.00950057 0.00740733 0.0126914 0.00562609 0.00412921 0.00815797 
0.0027313 0.00139915 0.0047856 1.37506e-05 -0.00121336 0.0018185 -0.00252299 -0.00363325 -0.00105609 
-0.00473334 -0.00564441 -0.00362928 -0.00662166 -0.00743208 -0.00586836 -0.00819461 -0.00873762 -0.00777198 
-0.00919127 -0.00942337 -0.00913229 -0.00952725 -0.00949167 -0.00977547 -0.0092813 -0.00899689 -0.00972784 
-0.00851433 -0.00801012 -0.00906247 -0.00739183 -0.00679255 -0.0079893 -0.00607279 -0.00538441 -0.00668424 
-0.00459821 -0.00384634 -0.00521033 -0.00304448 -0.00229206 -0.00365032 -0.00150452 -0.000771606 -0.00208251 
-3.71033e-05 0.000615519 -0.000575537 0.0012167 0.00171605 0.000760868 0.00213614 0.00245152 0.00180155 
0.00267657 0.00281733 0.00248045 0.00283028 0.00274403 0.00273633 0.00250975 0.00222109 0.00250403 
0.00176051 0.00130444 0.00179711 0.000667109 3.09795e-05 0.000665958 -0.000791313 -0.00150029 -0.000853747 
-0.00230906 -0.00298138 -0.00255134 -0.00366779 -0.0041933 -0.00408171 -0.00467477 -0.00508188 -0.00526147 
-0.00547812 -0.00575213 -0.00613227 -0.00599724 -0.00614087 -0.00675502 -0.00618108 -0.00617472 -0.00700784 
-0.00601179 -0.00583672 -0.00684734 -0.00555076 -0.00524914 -0.00635681 -0.00481249 -0.00437086 -0.00559708 
0.0262946 0.0293007 0.0492518 0.0071338 0.00979914 -0.0392843 -0.0467339 -0.0510712 0.00582543 
0.00820272 0.00457674 0.00572127 0.0059159 0.00605485 0.00604669 0.00672634 0.00595573 0.00580462 
0.00679482 0.00550997 0.00518964 0.00642086 0.00510341 0.00470116 0.00605116 0.00405389 0.0034215 
0.00533798 0.0025146 0.00185168 0.00369138 0.00122382 0.00059975 0.00214868 -0.000149518 -0.000769163 
0.000743594 -0.00142995 -0.0019016 -0.000737479 -0.0023738 -0.00263536 -0.00194751 -0.00278244 -0.00278452 
-0.00258077 -0.00266969 -0.00244695 -0.00263112 -0.00209327 -0.00162772 -0.00213886 -0.00104738 -0.000478951 
-0.00117213 0.000209239 0.000892197 0.000106429 0.00162397 0.00234202 0.00153378 0.00309112 0.00380265 
0.00304106 0.00453196 0.00531278 0.00452662 0.00606471 0.00676562 0.00604399 0.00745859 0.00804357 
0.00752203 0.00855218 0.00894153 0.00872869 0.00925964 0.00945705 0.00956276 0.00945657 0.00935965 
0.0098368 0.00898801 0.00861257 0.00946658 0.00801801 0.00736539 0.0083878 0.00650709 0.00566919 
0.00679723 0.00460306 0.00369734 0.00476176 0.00250625 0.00144303 0.00243939 7.65851e-05 -0.00127627 
-0.000262214 -0.00288614 -0.00438811 -0.00342397 -0.00630857 -0.00817703 -0.00709818 -0.0102435 -0.0125395 
-0.0113122 -0.0151237 -0.0178583 -0.0162162 -0.0210579 -0.0246403 -0.0221614 -0.0287633 -0.0338232 
-0.0394509 -0.029707 0.0119227 0.00964153 -0.00654815 -0.0214099 -0.043207 -0.040605 -0.0383512 
-0.0357367 -0.0371248 -0.033256 -0.0303397 -0.0326758 -0.0277329 -0.0248324 -0.0278551 -0.0222253 
-0.0195117 -0.0228104 -0.0168863 -0.0139646 -0.0177361 -0.0110883 -0.00804602 -0.0123122 -0.00506976 
-0.00200707 -0.00650271 0.000896483 0.00383065 -0.000618836 0.00685553 0.00992452 0.00525649 0.0128133 
0.0157187 0.0111542 0.0184728 0.0214119 0.0167341 0.0241382 0.027101 0.0221415 0.0297194 
0.0324761 0.0273942 0.0349364 0.0376769 0.0322096 0.0402065 0.0430206 0.0368882 0.0453929 
0.0477242 0.0414815 0.0211243 0.00704699 0.000170009 0.00488849 0.00526907 0.00611067 0.00318233 
-0.00354105 -0.000881851 0.00125198 0.00968948 0.0117868 0.00728791 -0.00705792 -0.00503806 -0.00178155 
-0.00923951 -0.0080186 -0.00366477 -0.0090823 -0.00945417 -0.00427339 -0.00633262 -0.00843882 -0.00127768 
0.0151752 0.0189101 -0.0115156 -0.0119335 -0.00906025 -0.00613615 -0.0162921 -0.0167132 -0.0130997 
-0.0153202 -0.0107092 -0.00812767 -0.0168273 -0.0129699 -0.0280021 -0.0280937 -0.0196187 -0.0140861 
-0.0112449 -0.00873958 -0.0150502 -0.0190272 -0.0107512 -0.00696293 -0.00205585 -0.0168327 -0.0155497 
-0.0118079 -0.0124626 0.00885449 0.00890241 0.00542555 0.00381303 -0.0492956 0.0140461 0.0208117 
0.0209684 -0.00501987 -0.00577501 0.0485448 -0.0138738 0.0182267 0.024098 0.00431946 0.011233 
0.00881848 0.00340151 0.00818872 0.00712041 -0.00376256 0.00485064 0.0038776 0.00185238 0.0148181 
0.0138912 0.00801882 -0.0167387 -0.0208258 0.0221619 0.00704476 0.0113135 0.0129591 -0.0453207 
-0.0411603 -0.0477895 -0.0197188 0.0184231 0.0473862 0.00507165 0.00657795 -0.00848509 -0.00317848 
0.0120616 0.00832106 0.00861144 -0.0441843 -0.0145115 -0.0125914 -0.00604052 -0.00451243 0.0229439 
0.0265977 0.043133 -0.0252 -0.0195283 -0.00467977 -0.00375213 -0.000623264 0.00585162 -0.00785557 
-0.00713751 0.0169787 -0.0235506 -0.0212065 -0.0199302 0.00566601 -0.00774226 -0.00792263 -0.0081989 
-0.00812722 -0.0087539 -0.00811143 -0.00770018 -0.0090338 -0.00674966 -0.00610914 -0.00803673 -0.00542848 
-0.00469505 -0.00637931 -0.0037189 -0.00278367 -0.0046657 -0.00158152 -0.000499666 -0.0023935 0.000896489 
0.00197033 0.000321033 0.00325895 0.0041526 0.0030865 0.00484053 0.00553595 0.0050975 0.00634033 
0.00688504 0.00663722 0.00717932 0.00755792 0.00777542 0.0078832 0.00805109 0.00841409 0.00803894 
0.00794643 0.00873864 0.00772375 0.00742139 0.00844863 0.00688665 0.00640636 0.0076544 0.0134864 
0.0157776 0.0121708 0.00557907 0.0126876 0.00736761 0.0106646 0.00870098 0.0390724 0.0331103 
0.0398672 0.0292519 0.025071 0.0318844 0.0218324 0.0184326 0.0246209 0.0156732 0.0129335 
0.0184937 0.0105013 0.0085477 0.0132806 0.00733649 0.00577678 0.00955538 0.00422158 0.0026766 
0.00667955 0.00101835 -0.00044668 0.00338366 -0.00197544 -0.00320822 6.7459e-05 -0.0044494 -0.00556661 
-0.00281615 -0.00667854 -0.00758325 -0.00531515 -0.00842728 -0.00900578 -0.00742909 -0.00943366 -0.00960658 
-0.00882835 -0.00960449 -0.00945093 -0.00931858 -0.00909203 -0.00866446 -0.00900759 -0.00810498 -0.00755182 
-0.00814505 -0.00691962 -0.00626646 -0.0070454 -0.00554158 -0.00481667 -0.00577724 -0.00408165 -0.00334314 
-0.00441826 -0.0026326 -0.00191042 -0.00309232 -0.00121793 -0.000541197 -0.00181661 0.000131279 0.00069659 
-0.000561546 0.00126534 0.00170638 0.000620475 0.00211762 0.00239232 0.00163521 0.00236585 0.00229576 
0.00204309 0.00198421 0.0016179 0.00113807 0.00143746 0.000480562 -0.000186797 0.000324294 -0.00105134 
-0.00193516 -0.00123861 -0.00299187 -0.00383951 -0.00323003 -0.00485889 -0.00553686 -0.00537281 -0.00618262 
-0.00663279 -0.00705281 -0.00682112 -0.00720654 -0.00779126 -0.00768715 -0.00789186 -0.00840891 -0.0079028 
-0.00789752 -0.00887281 -0.00763007 -0.00743089 -0.00853831 -0.00703645 -0.00672009 -0.0122112 -0.00887079 
-0.0133104 -0.0161127 0.00357754 0.00482746 0.0190696 0.0197502 0.00755918 0.00749374 0.00754512 
0.00726719 0.00839166 0.00721463 -0.0793346 -0.059558 0.00732088 0.00670317 0.00871086 0.00498276 
0.00396155 0.00706343 0.00334371 -0.0465191 -0.0377774 0.00209084 0.0013105 0.00391905 0.000482163 
-0.000234215 0.00184018 -0.00117147 -0.00164633 -5.252e-05 -0.00195811 -0.00214361 -0.00130299 -0.00210611 
-0.00204859 -0.00168033 -0.00160375 -0.0300062 -0.0232258 -0.000942292 -0.000342802 -0.000933637 0.000455554 
0.00105166 0.000603731 0.00145713 0.00221086 0.0018068 0.00289756 0.00361246 0.00282545 0.00431441 
0.00502934 0.00411781 0.00566752 0.00643133 0.00544929 0.00708163 0.0077261 0.0066666 0.00832672 
0.00881603 0.00784283 0.00923731 0.00952163 0.00884968 0.00968222 0.0096554 0.00942679 0.00935476 
0.00894745 0.00931974 0.00821981 0.00751166 0.00819532 0.00641644 0.00544131 0.00625966 0.00413906 
0.00300455 0.0036761 0.00163671 0.000386978 0.000955 -0.000727046 -0.00225194 -0.00156476 -0.00418413 
-0.00599445 -0.00470912 -0.00802273 -0.0101052 -0.00878145 -0.0120572 -0.0143111 -0.0128478 -0.0167902 
-0.0196163 -0.017344 -0.0227308 -0.0261041 -0.0229806 0.00637592 0.00682342 -0.0351803 -0.0332601 
-0.00828509 -0.00667054 -0.0174047 -0.0154834 -0.0105731 0.00743068 0.00759989 0.00831973 -0.0162662 
-0.0164309 0.00502338 -0.00563237 -0.0314766 -0.0293765 -0.0298269 -0.0278075 -0.0253805 -0.0268381 
-0.0231713 -0.020825 -0.0233093 -0.0184689 -0.0159891 -0.0190846 -0.0132505 -0.0105108 -0.0141646 
-0.00792331 -0.00494676 -0.00896349 -0.00233401 0.000479611 -0.00383902 0.00355609 0.00648272 0.00176993 
0.00962032 0.0124079 0.00790934 0.0150622 0.0176839 0.0135604 0.0200686 0.0226523 0.0183725 
0.0250078 0.0274081 0.022879 0.0293191 0.0314587 0.0268145 0.033444 0.0355962 0.0303454 
0.0377314 -0.000826164 -0.000365905 0.00529206 0.00604676 0.00403408 0.00931866 0.0130884 -0.0005672 
-0.000806394 0.00233904 0.00147639 0.00113858 0.0177236 0.0118552 0.00641007 0.00064801 -0.000290204 
0.00300039 0.00391079 0.0218597 0.0193856 -0.0387705 -0.00649577 -0.00508055 -0.0138497 -0.0196755 
-0.0173344 -0.00808198 -7.6088e-05 0.000812761 0.0022185 0.00314158 0.0050203 0.00113543 0.00275734 
0.00327482 0.002421 0.00339594 0.00285739 -0.00706884 -0.00739955 -0.00810845 0.0099534 -5.58211e-05 
0.00127891 0.00413502 -0.0380958 -0.0365105 -0.0325728 -0.0339892 0.00839366 0.0110161 0.0147188 
0.00605839 0.00629013 0.00353863 0.0033673 0.0132241 0.0172166 0.00166245 0.000286869 0.00358077 
0.00379037 -0.00782962 -0.00499482 -0.0062485 -0.00028992 -0.0158389 -0.0174589 -0.0168958 -0.0124794 
0.0171487 0.0210763 0.0186933 0.01537 -0.0297606 -0.0296311 -0.00267871 -0.00527193 -0.00597358 
0.00773143 0.0340417 0.00409608 0.00501867 0.000384925 -0.000268373 -0.0031906 -0.0052699 -0.00540245 
-0.00351801 -0.000291534 -0.00245553 -0.015309 0.000922892 0.0149905 -0.0177713 -0.0144901 -0.00945461 
-0.007153 -0.0102801 0.00387119 0.00591691 0.0063386 0.0162504 -0.010809 0.00102851 0.00262748 
0.00108081 -0.0170497 -0.00693101 0.00762878 -0.00687942 -0.00809293 -0.00362709 0.00403364 0.00114723 
-0.0075882 -0.00807177 -0.00874497 -0.00105586 -0.00857495 -0.0091825 -0.00512816 0.003555 -0.0128421 
-0.0119402 0.0100847 0.0118506 -0.0101434 -0.010161 -0.00767407 -0.00695875 -0.00581869 -0.0047618 
-0.00722203 -0.00327788 -0.00198924 -0.00447982 -0.000326875 0.00115202 -0.00119232 0.00320384 0.0046096 
0.0026775 0.00629838 0.0069691 0.00672812 0.0078058 -0.00799955 -0.00381732 0.0088286 0.00907758 
0.0093071 0.00940245 0.000517857 0.0043205 0.00941964 0.00938753 0.0101719 0.00916415 0.00890393 
0.00991716 0.00826678 0.00426742 0.00339487 -0.00143917 0.00131905 0.00128854 0.00346339 0.000266193 
0.00161443 -0.00284139 0.0301795 0.0269402 0.0235692 0.0288046 0.0206617 0.0178355 0.0226273 
0.0150376 0.0126681 0.0171076 0.0114343 0.0084961 0.012405 0.00623986 0.00449339 0.00247646 
0.000847795 0.00531827 -0.000275724 -0.00158177 0.00216366 -0.00566816 -0.006646 -0.00833494 -0.00841632 
-0.0083356 -0.00801665 -0.00746449 -0.0072971 -0.00682012 -0.00666854 -0.00663258 -0.00610224 -0.00569308 
-0.00564703 -0.00502172 -0.00520714 -0.00450903 -0.00391129 -0.00436952 -0.00348372 -0.00293165 -0.00360177 
-0.00256394 -0.00203502 -0.00302124 -0.00159769 -0.00108357 -0.00247967 0.000546516 0.000981773 0.00121747 
0.00109097 0.000154713 0.000974812 0.000535985 0.000271335 -0.000300613 -0.000956588 -0.000622466 -0.00163148 
-0.00253481 -0.0022555 -0.00359869 -0.00470011 -0.00394746 -0.00840907 -0.00897508 -0.00938688 -0.0098486 
-0.0100317 -0.00990649 -0.0110607 -0.00941254 -0.00910034 -0.0105376 -0.00210005 -0.000154615 -0.000992092 
-0.00308978 0.00568143 0.00818278 -0.0289491 6.0681e-05 -0.00044135 0.00376621 0.00429216 0.00672415 
0.00724391 0.00769352 0.0068868 0.00513717 0.00394866 0.00459305 0.00263958 0.00126132 0.00149013 
-0.000907403 -0.00229833 -0.00196624 -0.00362207 -0.004697 -0.00551467 -0.00675496 0.0166096 0.0215317 
-0.00945702 -0.0115081 -0.00952048 -0.0137643 -0.0157881 -0.0143129 -0.0174641 -0.0199466 -0.0181329 
-0.0226195 -0.0256911 -0.0224081 0.0076084 0.0123906 0.0136769 -0.0160892 -0.0146942 -0.0235858 
-0.0216358 -0.0193265 -0.0172233 -0.0198515 -0.0149634 -0.0124193 -0.015514 -0.00902842 -0.00656282 
-0.0100693 -0.004016 0.0272888 0.0335882 -5.9366e-05 0.00284286 -0.00301238 0.0062529 0.00927928 
0.00434483 0.0121402 0.014548 0.0104923 0.0168632 0.0191104 0.0156242 0.0208672 0.0229607 
0.0194274 0.0242623 0.0258098 0.0222277 0.0271672 0.00915736 0.00927491 0.0143393 0.0150455 
-0.00850558 -0.00808405 -0.00826275 -0.00939216 0.00818297 0.0021632 0.0055786 -0.00438667 -0.00231736 
-0.00885218 -0.00606967 0.0167303 0.0129631 -0.00862569 0.00442846 0.0041436 -0.00911903 -0.00939489 
-0.0104914 -0.00927059 0.0090327 -0.028083 0.041186 0.0511698 0.00264917 -0.012858 -0.0107514 
0.010487 0.013237 0.00177391 -0.000377438 0.00388002 0.00369675 -0.0265735 -0.00870266 -0.0101666 
-0.00986023 -0.0114294 0.00554299 -0.000554414 0.00804019 0.00920009 0.009621 -0.00310798 -0.00431567 
-0.00758893 -0.00809619 -5.59047e-05 -0.000698663 -0.000553977 0.00914792 0.0653723 0.0864488 0.00989535 
-0.00730568 -0.00938106 -0.0108816 -0.0062526 -0.00116362 -0.0040395 -0.0106909 0.0181063 0.0162529 
0.0175101 -0.0155636 -0.0176408 0.00163252 0.000847121 -0.0126593 -0.00125486 -0.00123587 0.156847 
0.254755 -0.0246719 -0.110194 -0.15686 0.00427474 0.000225282 -8.58309e-05 -0.000438424 0.00228886 
0.00266817 0.00323982 0.00649341 0.0077371 0.00811906 0.00481265 0.00564403 0.00613372 0.00845035 
0.00855875 0.00732652 0.0085318 0.00819883 0.00700144 0.00761035 0.00322498 0.00519574 -0.0162223 
-0.0142409 -0.0143809 0.0245028 0.0126341 -0.00506353 -0.00425557 -0.00802305 -0.00525193 -0.00545262 
-0.00691991 0.0128931 0.00357495 0.00353253 -0.00175721 0.00530689 -0.00617111 -0.00554319 -0.00441006 
-0.00524658 -0.023398 -0.0059577 -0.00349697 -0.0071582 0.003465 0.00370217 0.0140222 0.0114525 
0.0059842 0.00563837 0.00311766 -0.0015233 -0.00220407 0.00560394 0.00592941 0.0112657 0.00894143 
0.00798816 0.00330656 -0.00280922 -0.0034807 -0.0149806 -0.0125163 0.00265549 -0.00290783 -0.0044105 
-0.00477562 -0.0101444 0.0123839 0.0023077 0.00279162 0.00445705 0.00323255 0.00511647 -0.00564118 
-0.0040798 -7.99776e-05 -0.000988251 -0.00510848 0.0108871 0.0101451 0.0216339 0.0194469 0.016884 
0.0208136 0.0173391 0.0179267 0.0165792 -0.000464475 -0.00366252 -0.00931793 -0.00401925 -0.00407385 
-0.00364327 -0.00344184 -0.00359558 -0.0034318 -0.00669861 -0.00990159 -0.00376787 -0.0125068 -0.0126067 
-0.0112326 -0.00139243 -0.0188755 0.00495883 -0.0190749 -0.0167467 0.0109016 0.00948079 -0.00988357 
-0.0209089 -0.0053952 0.0151451 0.0134652 0.00426725 0.00752525 0.0200191 -0.00101343 -0.00351402 
-0.00188266 -0.00345185 -0.0038191 -0.00367363 -0.00884378 -0.00761545 -0.00731577 -0.0105605 -0.00499752 
0.00766977 0.0046999 -0.00277496 -0.00444345 -0.00412988 -0.00622758 0.0140006 0.0105869 -0.0018032 
5.98499e-05 0.011711 0.0108521 0.0105465 0.0108476 -0.00454661 -0.00376615 0.00823852 0.00612658 
-0.0017144 -0.00286313 0.0104851 0.0114435 0.0154348 0.0120619 0.0124643 0.010928 -0.00389194 
-0.00355219 -0.00328736 -0.00313113 -0.00298426 0.0145946 0.00177868 0.00236709 -0.0107627 0.0154118 
-0.00244095 -0.00177066 -0.0132258 -0.0128545 0.016004 0.0153702 -0.000873153 -0.0126114 -0.0106734 
0.0118087 0.0185014 0.0173203 -0.0083579 -0.0115601 0.016977 0.0164133 -0.00602642 -0.00337326 
5.25991e-05 -0.000111175 -4.51328e-05 -0.000414212 -0.000341472 -0.000474422 -0.000654849 -0.000625735 -0.000999111 
-0.000859304 -0.000832696 -0.00145708 -0.00101411 -0.000999495 -0.00182273 -0.00115809 -0.00114789 -0.00211583 
-0.00123996 -0.00124174 -0.00234854 -0.00125918 -0.00126829 -0.00244872 -0.00113199 -0.00115547 -0.00235843 
-0.000965815 -0.000984488 -0.00207939 -0.000718216 -0.000756149 -0.0016819 -0.000454876 -0.000484944 -0.001182 
-0.00011668 -0.000171402 -0.000586294 0.000198981 0.000155555 4.59253e-05 0.000511718 0.000470527 0.000663898 
0.000797254 0.00073565 0.00124377 0.00101377 0.000989834 0.0017312 0.00118825 0.00115242 0.00211363 
0.00127595 0.00126573 0.00236613 0.001249 0.00125448 0.00245111 0.0011706 0.001189 0.00237872 
0.001079 0.00109943 0.00222422 0.000877789 0.000910835 0.00195328 0.000634211 0.000660132 0.0015237 
0.000342638 0.000403874 0.00101469 7.32033e-05 0.000120754 0.000507325 -2.02314e-05 -5.76269e-05 7.58215e-05 
-6.12597e-05 0.0645764 0.0317649 0.0389724 0.0156722 0.0141035 0.0506752 0.00934135 0.00935708 
0.0259467 0.0054768 0.00569177 0.015495 0.0033536 0.00348483 0.00950465 0.00191942 0.0020364 
0.00569146 0.00093426 0.00103746 0.00316685 0.000200661 0.000273045 0.00132404 -0.000317112 -0.000261454 
0.00012254 -0.000781179 -0.000718825 -0.000904789 -0.00118809 -0.00113258 -0.00178152 -0.00158052 -0.0015383 
-0.0025776 -0.00193781 -0.00184624 -0.00330005 -0.00212106 -0.00210376 -0.00384225 -0.00237032 -0.0023557 
-0.004311 -0.00248536 -0.00248291 -0.00467695 -0.00245891 -0.00247051 -0.00477971 -0.00233327 -0.00236122 
-0.00464968 -0.00209636 -0.00214256 -0.00432002 -0.00172319 -0.00178187 -0.00375995 -0.00129051 -0.00135675 
-0.00299632 -0.000867235 -0.000928646 -0.00217917 -0.000412079 -0.000486477 -0.00134439 1.01913e-05 -5.20925e-05 
-0.000513223 0.000393 0.000348024 0.000279096 0.000705812 0.00067025 0.000970045 0.000921041 0.000889587 
0.00148604 0.0010268 0.00102154 0.00180989 0.000996292 0.0010081 0.0019088 0.000838949 0.000869317 
0.00176236 0.000632238 0.000674098 0.0014236 0.0003336 0.000381812 0.000934756 -4.46913e-06 5.42152e-05 
0.000332316 -0.000338439 -0.00029491 -0.000308779 -0.000642119 -0.000597096 -0.000932441 -0.0008661 -0.00084736 
-0.00145606 -0.00102588 -0.00100888 -0.00184395 -0.00111533 -0.0011117 -0.00209202 -0.0011691 -0.00117453 
-0.00223714 -0.001101 -0.00111765 -0.00222935 -0.000953078 -0.000985374 -0.0020364 -0.000699466 -0.000732046 
-0.00165731 -0.000395751 -0.000443132 -0.00112271 0.11408 0.000174215 0.000119989 0.000116986 0.000390485 
0.000352008 0.000547449 0.000627861 0.000594466 0.000980788 0.000801165 0.000781904 0.00139495 0.000934042 
0.00091665 0.00169862 0.000975827 0.000970444 0.00187815 0.000994182 0.000997597 0.00194482 0.000911717 
0.000927169 0.00189292 0.000749933 0.000769241 0.0016604 0.000545412 0.000576569 0.00130365 0.000260583 
0.000316217 0.000835051 -5.41202e-05 -1.13571e-05 0.000260903 -0.000349073 -0.000302551 -0.00033739 -0.000600731 
-0.000554722 -0.000868391 -0.000808064 -0.000778219 -0.00132238 -0.000899743 -0.000883062 -0.00162328 -0.000915129 
-0.000913234 -0.00173592 -0.000795387 -0.000808928 -0.00164161 -0.000572536 -0.000614349 -0.00132359 -0.000268877 
-0.000311464 -0.000820378 0.000145483 5.25988e-05 -0.000150932 0.000528448 0.000474455 0.000622813 0.00092361 
0.00085751 0.00138481 0.00128785 0.00122345 0.00211822 0.00157494 0.00153594 0.00276754 0.0018489 
0.00181045 0.00332197 0.0020428 0.0020124 0.00378387 0.00209446 0.00208831 0.00404054 0.00208514 
0.00208456 0.00409759 0.00200736 0.00203021 0.00402253 0.001817 0.00185275 0.00376472 0.00154547 
0.00158814 0.00330221 0.00122511 0.00127076 0.00272663 0.000872407 0.000925527 0.00208094 0.000528558 
0.000574868 0.00139917 0.000123171 0.000171394 0.000633898 -0.000369898 -0.000314909 -0.000271162 -0.000965846 
-0.000888644 -0.00136364 -0.00179829 -0.00170751 -0.00276986 -0.00292504 -0.00280416 -0.00473196 -0.00473918 
-0.00456454 -0.00762499 -0.00756303 -0.00792135 -0.0128372 -0.0164859 -0.0152979 -0.0235008 -0.0444128 
-0.0305049 -0.0482487 -0.079867 -0.0899758 -0.104735 -0.0782472 -0.0858486 -0.0880124 -0.0624378 
-0.0731505 -0.077581 -0.0572058 -0.0630657 -0.0694421 -0.050792 -0.0558594 -0.0618613 -0.0447352 
-0.054011 -0.0519738 -0.0359611 -0.045781 -0.0476917 -0.0298018 -0.0401102 -0.0406714 -0.0232854 
-0.0339641 -0.0339767 -0.0162428 -0.0273103 -0.0267949 -0.00989025 -0.0207545 -0.0200255 -0.00354344 
-0.0144253 -0.0138556 0.00307046 -0.00802016 -0.00739346 0.00905004 -0.00190848 -0.00109187 0.0152858 
0.00443706 0.00506155 0.0213591 0.0106597 0.0114318 0.0277953 0.0170921 0.0181737 0.0340135 
0.0231547 0.0249644 0.0408068 0.0296026 0.031513 0.0471382 0.0360448 0.0383716 0.0541543 
0.0430277 0.0453348 0.0612771 0.0499591 0.0527939 0.0690906 0.0576303 0.0608114 0.0785627 
0.0663314 0.0699727 0.0911022 0.0770854 0.0811665 0.106039 0.0913832 0.0958705 0.101093 
-0.0265429 0.0480841 0.107108 0.0979947 0.0998014 0.0704036 0.0698853 0.0603982 0.0490511 
0.0629759 0.040259 0.0340505 0.0457979 0.0267895 0.0216488 0.0314611 0.0160938 0.0125502 
0.0200047 0.0072469 0.00371684 0.0102173 -0.00134511 -0.00527189 0.000927456 -0.010601 -0.014609 
-0.00835492 -0.0207183 -0.0260924 -0.0185469 -0.0334027 -0.0401725 -0.0304607 -0.0499909 -0.0616477 
-0.0452778 -0.074047 -0.0974831 -0.0631219 -0.101981 -0.116548 -0.0710776 -0.0214101 0.057826 
0.123876 0.0980778 0.0900618 0.0679615 0.0702945 0.0562223 0.0457863 0.0584751 0.0365937 
0.0298853 0.0413651 0.0226423 0.0176129 0.0269948 0.0120383 0.00796573 0.0155466 0.00281401 
-0.000618156 0.00589116 -0.00537552 -0.00877517 -0.0030615 -0.0137742 -0.0176849 -0.0118566 -0.0235389 
-0.0281581 -0.0215451 -0.0352877 -0.0419252 -0.0330103 -0.0505349 -0.0620867 -0.0471574 -0.0719479 
-0.0992052 -0.0633647 -0.0966361 -0.10818 -0.0707348 -1.61889e-05 0.105804 0.0467561 0.0758871 
0.118494 -9.32463e-05 -0.000136629 -0.100411 -0.0837712 -0.138178 -0.0774926 0.0491743 0.0718694 
-0.0598715 -0.119374 -0.0765375 -0.000247112 -0.0566612 -0.000554869 -0.00162773 -0.00133601 -0.00090176 
-0.000611871 -0.000634184 -0.00149393 -0.00263289 -0.00245149 -0.00305438 -0.00290412 -0.00355866 -0.00334632 
-0.00326019 -0.00405697 -0.00343068 -0.00341237 -0.00434499 -0.0032642 -0.00339323 -0.00436075 -0.00284021 
-0.00302873 -0.00405951 -0.00224344 -0.00251004 -0.00343795 -0.00151229 -0.00184126 -0.00262584 -0.000655319 
-0.00104605 -0.00164621 0.000228218 -0.000138789 -0.000527209 0.00111553 0.000742305 0.000632481 0.00192257 
0.00159701 0.00175414 0.00256682 0.00231025 0.00272786 0.00306831 0.00287915 0.00350495 0.00338629 
0.00327739 0.00407163 0.00344723 0.00344558 0.00437267 0.0033512 0.00341693 0.0044195 0.0030776 
0.0031923 0.00422513 0.00261049 0.0028062 0.00377223 0.00201794 0.00229044 0.00315066 0.00134724 
0.00163465 0.0023859 0.000674868 0.000957719 0.00155107 0.0221208 0.0269244 0.00102093 0.000804182 
0.0342022 0.0638171 0.0349185 0.0427899 0.0408918 0.0529286 0.0759953 0.0820321 0.0621897 
0.0140432 0.0170528 0.0266164 0.00882097 0.0107551 0.0174956 0.00521988 0.00659403 0.0111378 
0.0027076 0.00363779 0.00675186 0.000723862 0.00145892 0.0034951 -0.000850425 -0.000218448 0.00100088 
-0.00216856 -0.00164449 -0.00102323 -0.00332894 -0.00283648 -0.00273694 -0.00431664 -0.00390814 -0.00420003 
-0.00513496 -0.00482741 -0.00547271 -0.00583172 -0.00554064 -0.00654389 -0.00623249 -0.00607972 -0.00731113 
-0.00633224 -0.00633308 -0.00773533 -0.00614891 -0.00626908 -0.00779321 -0.00564516 -0.00588084 -0.00744958 
-0.00482159 -0.00521644 -0.00671405 -0.00381314 -0.00427228 -0.00566678 -0.0027346 -0.00320308 -0.00441451 
-0.00165189 -0.00213173 -0.00309454 -0.00057887 -0.00105352 -0.00178203 0.000436217 -8.32504e-06 -0.000496229 
0.00130572 0.000944782 0.000697208 0.00191878 0.00167728 0.00168271 0.0022902 0.00215437 0.00237153 
0.00235565 0.00236416 0.0027257 0.00211013 0.00226092 0.0027062 0.00159111 0.00182778 0.00229434 
0.000860021 0.00119196 0.00155365 1.95901e-05 0.000375072 0.000586323 -0.000860233 -0.000478428 -0.000496886 
-0.00167924 -0.00134146 -0.0015821 -0.00233046 -0.00206206 -0.00253593 -0.00279418 -0.002611 -0.00326758 
-0.00308403 -0.0029814 -0.00378436 -0.0032143 -0.00316412 -0.00407001 -0.00307518 -0.00314522 -0.00407787 
-0.00274691 -0.00290225 -0.00382235 -0.00217377 -0.00244478 -0.00331132 -0.00143602 -0.00175952 -0.00253111 
0.0399344 0.0531666 -0.0696661 -0.0111739 0.0409959 0.0347816 0.00161611 0.00135301 0.00164677 
0.00213917 0.00193847 0.00236028 0.00251412 0.00236997 0.0029666 0.00274925 0.00268862 0.00340579 
0.00284274 0.00282525 0.00367534 0.00269272 0.00276826 0.00367116 0.00234521 0.00252724 0.00341078 
0.00180806 0.00204968 0.00289789 0.00112404 0.0014332 0.00214695 0.000309183 0.000661175 0.00123052 
-0.000496135 -0.000160369 0.000191394 -0.00120934 -0.000923717 -0.000808423 -0.00181156 -0.00156873 -0.00169405 
-0.00213071 -0.00201323 -0.00233358 -0.00220592 -0.00218398 -0.00263726 -0.00196904 -0.00208854 -0.00258604 
-0.00146669 -0.00169312 -0.00217208 -0.000718067 -0.00105011 -0.00142446 0.000232221 -0.000201816 -0.00040716 
0.00124071 0.000807751 0.000790761 0.00222776 0.00179118 0.0020299 0.003192 0.00278894 0.0032596 
0.00404103 0.00369874 0.0044402 0.00475697 0.0044565 0.00546695 0.00525077 0.00502982 0.00624865 
0.00549445 0.00541086 0.00675885 0.00549734 0.00550201 0.00696559 0.00535835 0.00545441 0.00692393 
0.00483613 0.00507229 0.00652942 0.00406103 0.00436745 0.00569363 0.00320383 0.00355661 0.00462726 
0.00221994 0.00261732 0.00343347 0.00112366 0.00155842 0.00207627 -0.000148128 0.000362594 0.000454098 
-0.00169229 -0.00108073 -0.00137296 -0.00345889 -0.00276963 -0.00357447 -0.00600484 -0.0049538 -0.00636319 
-0.00923192 -0.00787112 -0.00998644 -0.0145307 -0.0122592 -0.0152942 -0.0231274 -0.0191003 -0.0236004 
-0.0399309 -0.0306913 -0.037022 -0.0749937 -0.05437 -0.0606206 -0.0838509 -0.0635733 -0.0676452 
-0.0708347 -0.0764436 -0.066351 -0.000944549 -0.080532 -0.0567502 -0.0560169 -0.0599459 -0.0476805 
-0.0513204 -0.051931 -0.0437358 -0.039287 -0.0447385 -0.0379622 -0.0336798 -0.0385725 -0.0322904 
-0.0276162 -0.0325926 -0.0265458 -0.0213714 -0.0266261 -0.0198523 -0.015097 -0.0204647 -0.0136879 
-0.00876049 -0.0144497 -0.00750145 -0.0027649 -0.00831673 -0.0013001 0.00392564 -0.00218936 0.00472068 
0.0097278 0.00392465 0.0106562 0.0159112 0.00986549 0.0164671 0.0215727 0.0158955 0.0226265 
0.0274872 0.021735 0.0284701 0.0337271 0.027545 0.0352045 0.0399718 0.0338497 0.0417096 
0.0462863 0.0400865 0.0485034 0.0529104 0.0463459 0.0558908 0.0596663 0.0530123 0.0633376 
0.0667969 0.0596641 0.0727633 0.0741957 0.0663458 0.0542439 0.0402069 -0.0344338 -0.0552779 
-0.069475 -0.0259597 0.0538611 0.0468526 0.0350675 0.0441235 0.036224 0.0363208 0.0325144 
0.0258136 0.0303222 0.0218582 0.0163813 0.0221751 0.0125643 0.00755082 0.013719 0.00376641 
-0.00124183 0.00546536 -0.00495101 -0.0101028 -0.00274892 -0.013818 -0.01958 -0.0109569 -0.023696 
-0.0300389 -0.0193073 -0.0340905 -0.0415719 -0.0270097 -0.0443283 -0.0511423 -0.0328628 -0.0491495 
-0.0355597 -0.0256672 -0.031531 0.0490024 0.04196 0.0387733 0.0316786 0.0318655 0.0273199 
0.0209895 0.0251382 0.0168129 0.0116804 0.0169163 0.00779382 0.00286946 0.008715 -0.000788012 
-0.00531114 0.000859146 -0.00913312 -0.0138822 -0.00695425 -0.0178297 -0.0231335 -0.0149796 -0.0273347 
-0.0335619 -0.0232069 -0.0376003 -0.0450961 -0.0311782 -0.0476696 -0.0533926 -0.0365074 -0.0529765 
-0.0416514 -0.0349543 0.0320514 0.0665757 0.00747925 -0.00219638 -0.00194976 -0.00233121 -0.00298218 
0.0404019 0.0473907 0.024143 -0.0436178 -0.0637732 -0.072543 0.000338564 0.00120945 0.000732377 
0.0459283 0.0546083 -0.0648752 -0.0490058 -0.00156072 0.0295517 0.0315372 -0.0436054 0.0384984 
0.0233748 0.0316695 -0.0608998 -0.0500969 0.0847525 0.0720967 0.0593004 0.0378343 -0.0359406 
-0.000434328 0.0512197 -0.0311682 0.0321398 0.0357944 -0.00520107 -0.00513048 -0.00438517 -0.00408435 
-0.00513214 -0.00518855 -0.00600713 -0.00466467 -0.00493201 -0.00579174 -0.00391112 -0.0042981 -0.00519215 
-0.00287517 -0.00336442 -0.00422564 -0.00166474 -0.00224106 -0.00296381 -0.000329182 -0.000961082 -0.00153317 
0.0010834 0.000456358 6.36936e-05 0.0023925 0.00180989 0.00168761 0.00351715 0.00304876 0.0031728 
0.00439748 0.00402744 0.00440909 0.00496681 0.0047282 0.00530268 0.00524768 0.00515723 0.00585667 
0.00524102 0.00526612 0.00608782 0.00493473 0.00510337 0.00597083 0.00433902 0.00462613 0.00552314 
0.00356875 0.00392452 0.00478767 0.00265887 0.00307818 0.00385713 0.00169992 0.00213169 0.00281003 
0.00176906 -0.0412665 -0.0358086 0.0202547 0.0244412 -0.0230725 -0.0261756 -0.0432619 -0.0302463 
0.0299162 0.0358504 0.032126 0.0597371 -0.00202557 0.00856917 0.0106858 0.00470714 0.00633121 
0.00984878 0.00172976 0.00297444 0.00554865 -0.00067674 0.000391892 0.00220744 -0.0027156 -0.00181596 
-0.000502163 -0.00449512 -0.00372554 -0.00286366 -0.00602815 -0.00535884 -0.00493319 -0.00729479 -0.00675686 
-0.00669854 -0.00816458 -0.00782263 -0.0080911 -0.00864814 -0.00849162 -0.00903033 -0.00863727 -0.00868359 
-0.00945321 -0.00815681 -0.00842306 -0.00931982 -0.00729362 -0.00774708 -0.00870722 -0.00607748 -0.00667312 
-0.00767785 -0.00469461 -0.00537272 -0.006332 -0.00324928 -0.00392242 -0.0048242 -0.0018198 -0.00249725 
-0.00327692 -0.000431118 -0.00107637 -0.00175369 0.000846644 0.000266591 -0.000282531 0.00185956 0.00141648 
0.00101345 0.00254791 0.00225962 0.00202467 0.00285125 0.00275819 0.00268254 0.00269785 0.00281501 
0.00287303 0.00212028 0.0024323 0.00255679 0.00117859 0.00163363 0.00177566 -2.47332e-05 0.000532542 
0.000582005 -0.00130206 -0.000722062 -0.000841598 -0.0025041 -0.00195222 -0.00225026 -0.00348136 -0.00304222 
-0.00348033 -0.00424169 -0.0039219 -0.00449098 -0.004767 -0.00455657 -0.00526523 -0.00500069 -0.00491718 
-0.00573312 -0.00489545 -0.00497109 -0.00584521 -0.00448696 -0.00468315 -0.00559126 -0.00376591 -0.00410722 
-0.00497895 -0.00275955 -0.00323388 -0.00402826 0.0170621 0.0175562 0.00214676 0.00424902 0.0040531 
0.00450027 0.00441736 0.00511358 0.00445724 0.00453349 0.00531186 0.00413185 0.00432521 0.00521477 
0.00346432 0.00381262 0.00475104 0.00252787 0.00296505 0.00390655 0.00142581 0.00194665 0.00277576 
0.000218956 0.000770903 0.0014715 -0.000924356 -0.000417842 9.73948e-05 -0.00188168 -0.00145282 -0.00113811 
-0.00253481 -0.00227842 -0.00213587 -0.0028028 -0.00272432 -0.00277121 -0.00263857 -0.00275719 -0.00293397 
-0.0020518 -0.0023533 -0.0025792 -0.0011288 -0.00159755 -0.00181357 6.75125e-05 -0.000517072 -0.000705188 
0.00145724 0.000799208 0.000691923 0.00282746 0.00219754 0.00222815 0.00420199 0.00354748 0.0037463 
0.00546178 0.00487865 0.00521686 0.0065612 0.00607056 0.00658224 0.00739019 0.00704924 0.00774122 
0.00782967 0.00762769 0.00851148 0.00785541 0.00782946 0.00878906 0.00767471 0.00779177 0.00875621 
0.00705312 0.00741099 0.00834459 0.00589628 0.00644159 0.00733304 0.00449462 0.00510391 0.00585302 
0.00293757 0.00363383 0.00412651 0.00110707 0.00191708 0.00209033 -0.000971554 2.17225e-05 -0.00023021 
-0.00338265 -0.0022726 -0.00275223 -0.00614053 -0.00486302 -0.00571362 -0.00983078 -0.00803158 -0.00933754 
-0.0147611 -0.0124962 -0.0141377 -0.0221473 -0.0184584 -0.0208147 -0.0330089 -0.0274501 -0.0303205 
-0.0480431 -0.0381791 -0.0421286 -0.0580567 -0.0489051 -0.0522507 -0.0554594 -0.0589465 -0.051253 
0.0239607 0.0217358 -0.0251933 -0.0319238 -0.0334081 -0.0399968 -0.0419775 -0.0456145 -0.0453687 
-0.0361789 -0.0392667 -0.0392819 -0.0304581 -0.0334001 -0.0336814 -0.0248152 -0.0279439 -0.02833 
-0.0187634 -0.0220174 -0.0228125 -0.0129463 -0.0161256 -0.0170685 -0.00698323 -0.0101961 -0.0114086 
-0.000907638 -0.00412314 -0.00557344 0.0051718 0.00204247 0.000533396 0.0110614 0.0078696 0.00650405 
0.0169398 0.0137956 0.0122673 0.0226665 0.0196316 0.0179628 0.0283686 0.0251703 0.023403 
0.0343517 0.0311509 0.0288906 0.0403109 0.0371291 0.0345153 0.0459822 0.0428377 0.0397568 
0.0516321 0.0484206 0.0445911 0.0568385 0.0539361 0.0488568 0.0610222 0.0582843 0.0520553 
0.0187998 0.0227931 0.0107077 0.0350157 0.028621 0.0195212 0.0135008 0.0164366 0.0224292 
0.0153274 0.0429095 0.0518662 -0.0188618 0.0139098 0.0278525 0.0273037 0.0259432 0.0227212 
0.0192855 0.0207339 0.0169132 0.017108 0.014022 0.0101039 0.0130499 0.00705992 0.00313771 
0.007589 -2.01261e-05 -0.00393346 0.00176941 -0.0069531 -0.0107854 -0.00399086 -0.0135542 -0.0174005 
-0.0093393 -0.0191541 -0.0216621 -0.0130914 -0.022552 -0.0234024 -0.0146474 0.023446 0.0223012 
0.0137523 0.0375697 0.0417142 0.0209994 0.0177204 0.0146077 0.0152377 0.0115294 0.0119352 
0.0087629 0.00501395 0.00744253 0.00208117 -0.00154857 0.00232415 -0.00451571 -0.00828515 -0.00311852 
-0.011349 -0.0150897 -0.00866529 -0.0177679 -0.0215266 -0.0138183 -0.0236583 -0.0266447 -0.0178801 
-0.0276369 -0.0278329 -0.0197762 -0.0274082 -0.0231169 -0.0186112 -0.00927366 0.0221749 -0.0133279 
-0.00494324 -0.00472988 -0.00528354 -0.00581592 0.00371412 0.00344544 0.00458111 0.0224857 0.0279458 
0.0185837 -0.0585783 0.00377381 0.00300532 0.002648 -0.00447193 -0.00364351 -0.00334686 -0.0353823 
-0.0318205 -0.0244159 0.0451701 -0.0167984 -0.0221766 -0.0196361 0.014732 -0.0175128 -0.0202224 
0.00279764 0.0322817 0.0234231 -0.0583909 -0.0592277 -0.014645 -0.0322629 -0.0414193 -0.00270098 
0.0338381 0.0372457 -0.0507046 0.0279162 -0.0344164 0.0140778 -0.0249356 -0.0198502 -0.0117845 
-0.0143985 0.0216943 0.0276317 0.0349964 0.0267916 0.0161212 -0.0532251 -0.00677536 -0.00678281 
-0.00451056 -0.00512063 -0.00300572 -0.00371216 -0.00462946 -0.00133342 -0.0021153 -0.00287081 0.000524978 
-0.000362216 -0.000919805 0.00234515 0.00153182 0.00116037 0.00397233 0.00324331 0.00314743 0.00532619 
0.00476656 0.00491957 0.00625808 0.0058853 0.00631896 0.00674486 0.00654122 0.00720013 0.0068566 
0.00683156 0.00756779 0.00662523 0.00676199 0.00754668 0.00601765 0.00632635 0.00713915 0.00511768 
0.00553824 0.00635763 0.00400801 0.00450821 0.00526476 0.00333373 0.0120584 0.0137344 -0.0124157 
-0.0125317 0.00601941 0.00615493 0.003267 0.0048432 0.00659229 0.00861079 0.0076987 0.0110825 
0.0136763 0.0120634 0.000268181 0.00161172 0.00414027 -0.00237075 -0.0011663 0.000912923 -0.00468426 
-0.00365103 -0.00195722 -0.00669949 -0.00581985 -0.00453731 -0.00823623 -0.0076003 -0.00674698 -0.00925181 
-0.00888623 -0.00846735 -0.00964877 -0.00956856 -0.00948406 -0.00944847 -0.00963798 -0.00977687 -0.00871432 
-0.00911881 -0.00943472 -0.00757752 -0.00818424 -0.00855736 -0.00617556 -0.00688391 -0.00733344 -0.00466438 
-0.00542185 -0.00593274 -0.0031951 -0.00393126 -0.00451736 -0.00172614 -0.00246421 -0.00312046 -0.00028966 
-0.000979668 -0.00170747 0.000947478 0.000386038 -0.000338519 0.00190144 0.00147792 0.00083724 0.00250487 
0.00227845 0.00175107 0.00258589 0.00262599 0.00227355 0.00207171 0.00236025 0.00217039 0.00108297 
0.00159892 0.00142335 -0.000384943 0.00032646 0.000146772 -0.00200613 -0.00125429 -0.00156147 -0.00353207 
-0.00285808 -0.00335688 -0.00477103 -0.00422854 -0.00492769 -0.00567256 -0.00522165 -0.00603495 -0.00636144 
-0.00604822 -0.00683926 -0.00674146 -0.00661405 -0.00744743 -0.00666603 -0.00671585 -0.00762116 -0.00623173 
-0.00645657 -0.00734544 -0.00542085 -0.00582601 -0.00670463 -0.00429713 -0.00487953 -0.00573317 0.017592 
0.0137289 -0.0298857 -0.026324 -0.0307637 -0.0333523 0.011896 0.0120303 0.00776605 0.0092839 
-0.0217247 -0.00839082 -0.00308859 0.0241407 0.0209074 0.00613299 0.00609933 0.0069853 0.00592014 
0.00573354 0.00677185 0.00549824 0.00583022 0.00681148 0.00453507 0.00504751 0.00619884 0.00324508 
0.00386315 0.00506957 0.0017425 0.00244992 0.00355508 0.000225303 0.000916191 0.00186735 -0.00105939 
-0.000486296 0.000272226 -0.00209024 -0.00164168 -0.0010774 -0.0027033 -0.00248328 -0.00211445 -0.00276235 
-0.00279643 -0.00262771 -0.00224641 -0.002565 -0.00250781 -0.00133665 -0.00181262 -0.001839 -0.00013175 
-0.000754516 -0.000807188 0.00138967 0.000632634 0.00055177 0.00292698 0.00216513 0.00209797 0.00446224 
0.00371669 0.00363351 0.00594521 0.00522239 0.00519885 0.00734634 0.00669109 0.00672251 0.00849592 
0.00799556 0.00816148 0.00919181 0.00888987 0.00922731 0.00923261 0.00917522 0.00963611 0.0090651 
0.009179 0.00965547 0.00843023 0.00885301 0.00925517 0.00697811 0.00771873 0.00816622 0.00515792 
0.00600406 0.00635527 0.00305588 0.00401058 0.00417976 0.000510955 0.00173331 0.00155647 -0.00218102 
-0.000869719 -0.00134983 -0.00511493 -0.00368201 -0.00436856 -0.00852885 -0.00688959 -0.00774359 -0.0127103 
-0.0104983 -0.0116473 -0.0185826 -0.0156116 -0.0166831 -0.0264084 -0.0222965 -0.0235578 -0.0370988 
-0.0313155 -0.0324001 -0.0440806 0.00443421 0.00397883 0.0170228 0.014844 -0.0470196 -0.0496838 
-0.0357199 -0.0384445 -0.0325664 -0.00716703 -0.0112121 -0.0253393 -0.02845 0.0446939 0.0388049 
0.0446707 0.0286611 0.0281973 -0.0417706 -0.0448186 -0.0432163 -0.0378245 -0.0257687 -0.0282721 
-0.0281329 -0.0207465 -0.0236656 -0.023686 -0.0154001 -0.0181793 -0.0190878 -0.00987856 -0.0126548 
-0.0138587 -0.00398962 -0.0069752 -0.00831975 0.00203932 -0.00103955 -0.00250039 0.0078314 0.00495667 
0.00338995 0.0133351 0.0104916 0.00895915 0.0188347 0.0160626 0.0142933 0.0238272 0.0212523 
0.0193873 0.0290897 0.0263116 0.0241263 0.0340569 0.0314512 0.0287886 0.0381535 0.0359182 
0.0327065 0.0418154 0.0398226 0.0357336 0.0056682 0.00638848 0.0330072 -0.00569206 -0.00610319 
-0.00606569 0.011852 0.00665176 0.00208389 0.00637478 -0.0155812 -0.0208464 -0.0177351 0.00533129 
0.00497937 0.00617413 -0.00645959 -0.00667187 -0.007502 -0.00704433 0.0109574 0.0235465 0.0205223 
0.0133025 0.0121476 0.011535 0.0093909 0.00846191 0.00790054 0.00529995 0.00687252 0.00356608 
0.0008763 0.0041711 -0.00109283 -0.00366656 0.000926456 -0.0050599 -0.00716973 -0.00202615 -0.00780605 
-0.00860191 -0.00357903 -0.00828919 -0.00783486 -0.00320746 0.00720442 0.00876643 0.00188434 0.00862225 
0.00706082 0.00576816 0.00367428 0.00312123 0.00216852 -0.0002128 0.000911759 -0.00201064 -0.00447942 
-0.00185554 -0.00619392 -0.00863665 -0.00483906 -0.0101328 -0.0121373 -0.00747943 -0.0131254 -0.0142897 
-0.00933888 -0.0145824 -0.0143372 -0.00986297 -0.0138432 -0.0123792 -0.00892983 -0.0181387 -0.00195122 
0.00312311 -0.0171074 0.00567916 0.0198468 0.013551 0.0136301 0.00861671 0.00827974 0.00928485 
0.00916656 0.00426605 0.00359058 -0.0444391 -0.00505009 -0.00459822 -0.0157298 -0.0202983 -0.0484383 
-0.041508 -0.00785393 -0.02738 -0.019047 0.0052141 -0.0105133 -2.87954e-05 -0.00600325 -0.00565596 
-0.00578134 0.0177281 0.0167085 0.0199224 0.0144457 0.0205996 -0.00773312 -0.0037354 0.0251214 
0.0194752 0.0188369 0.0120272 -0.00621096 -0.00173957 -0.00739824 -0.00659281 -0.00641016 0.0236972 
0.0281105 0.0336534 0.0246762 -0.0236032 -0.0285928 -0.0250053 0.0430867 0.0234895 0.0381334 
-0.00183799 -0.00737456 0.0243257 0.0231679 0.0183168 -0.0267369 -0.0160959 -0.0232699 -0.02235 
-0.0400777 -0.0365952 -0.0315068 -0.00474491 -0.00561237 0.00179296 0.000753566 0.0040624 0.00308559 
0.00275438 0.00585019 0.00502436 0.0050585 0.00739607 0.00680211 0.00697569 0.00824597 0.00796077 
0.00858106 0.00828342 0.00817933 0.00902568 0.00819009 0.00829036 0.00899018 0.00754592 0.00784545 
0.00863041 0.00651906 0.00698859 0.0077101 0.00580767 -0.0049197 -0.00493498 -0.0290289 -0.0308657 
-0.0181442 -0.0206132 0.0053832 0.00715571 -0.00107777 0.000369167 -0.00396936 -0.00273013 -0.000470055 
-0.00606554 -0.00500316 -0.00321715 -0.00797758 -0.00723231 -0.00556101 -0.00876873 -0.00848482 -0.00726629 
-0.00901805 -0.0090195 -0.00798333 -0.00857597 -0.00887895 -0.00813547 -0.00761057 -0.00813775 -0.0075292 
-0.0064422 -0.00705956 -0.00658119 -0.00522642 -0.00585514 -0.00552193 -0.00408321 -0.0047157 -0.00464638 
-0.00300505 -0.00362917 -0.00390189 -0.00187815 -0.00251056 -0.00313248 -0.000748078 -0.00133775 -0.00228657 
0.000306733 -0.000173506 -0.00128845 0.00115098 0.000788643 -0.000279421 0.00158423 0.00143089 0.000499459 
0.00137953 0.00162493 0.00088018 0.000164093 0.000682258 0.000188412 -0.00105495 -0.000269603 -0.0010453 
-0.0031416 -0.00220168 -0.00260475 -0.00517706 -0.00429975 -0.00505642 -0.00675499 -0.00611558 -0.00720379 
-0.00766848 -0.00728092 -0.00856009 -0.00806154 -0.0077051 -0.00901392 -0.00852591 -0.00833642 -0.00923545 
-0.00840744 -0.00849622 -0.00940003 -0.00792569 -0.00817548 -0.00903185 -0.00698934 -0.00741475 -0.00822819 
-0.00634047 0.0330777 -0.00707323 0.00721346 0.00760563 0.00779345 0.00776094 0.00844983 0.00588574 
0.00775428 0.00790754 0.00875643 0.00753086 0.00733174 0.0083702 0.00588506 0.00654555 0.00811221 
0.00411132 0.0049527 0.00652415 0.00218235 0.00304995 0.00444008 0.000785443 0.00151675 0.00269709 
-0.000617163 9.00124e-07 0.00125774 -0.00177097 -0.00132083 -0.000330643 -0.00219953 -0.00210623 -0.00144026 
-0.00187697 -0.00211186 -0.00170485 -0.00103684 -0.00146834 -0.00119643 3.44734e-05 -0.000513433 -0.000226267 
0.00138866 0.000654648 0.000890913 0.00275789 0.00205095 0.00211239 0.00415981 0.0034547 0.00333309 
0.00563821 0.00489732 0.00457976 0.00709041 0.00635071 0.00597008 0.00839413 0.00774117 0.00738657 
0.00924771 0.00881664 0.00837565 0.00964388 0.00954031 0.00929628 0.00952417 0.00916448 0.00724694 
0.00816424 0.00854092 0.0049431 0.00596198 0.00592851 0.00269099 0.00387585 0.00344807 -0.000436363 
0.0010821 0.000788893 -0.00373397 -0.00219768 -0.00276977 -0.00703491 -0.00540499 -0.00632107 -0.0107753 
-0.00891498 -0.00989012 -0.0148514 -0.0126609 -0.0137093 -0.0199822 -0.0168219 -0.0177783 -0.0277872 
-0.0238471 -0.023773 0.00202539 0.000933014 -0.00672542 -0.0093041 -0.00347799 -0.0125061 -0.0164435 
-0.0251618 -0.0272833 -0.0260391 0.0213678 0.0200383 0.0149336 0.0220236 -0.0123662 -0.0149671 
-0.0166342 -0.00651051 -0.00928131 -0.0105674 -0.000943222 -0.00386518 -0.00488892 0.00463972 0.0017566 
0.00036124 0.00967329 0.00709464 0.00541419 0.0150115 0.0123955 0.0105415 0.0198378 0.0175339 
0.0157016 0.0241247 0.0218939 0.0200525 0.0282101 0.0260778 0.0237164 0.0305097 0.0291432 
0.0263391 0.0324703 0.0313565 0.0277163 -0.0186445 -0.0127192 -0.0045067 0.0069621 -0.0060486 
-0.022559 -0.0221142 0.00199098 0.00253849 0.0126802 0.00964637 -0.00643957 -0.00703917 -0.00667655 
0.00887541 0.0107581 0.0100738 0.000554968 -9.64288e-05 0.00685275 0.00644601 0.00583664 0.00579312 
0.00630366 0.00518949 0.00420823 0.00435135 0.00322769 0.00407846 0.0025422 0.000982096 0.00314695 
0.000437553 -0.000468486 0.0021573 -0.000472965 -0.000536166 0.00207611 0.000268686 0.00111241 0.00322421 
-0.00159672 -0.000966269 0.00203691 0.00357893 0.00657881 0.0030646 -0.00150584 -0.00569381 0.00294458 
0.0163518 0.014395 0.0145158 0.0196598 -0.000397561 -0.00138236 -0.0024205 -0.00196843 -0.00318855 
-0.00284203 -0.00378691 -0.00494114 -0.0035338 -0.00540309 -0.00630416 -0.00418009 -0.00654007 -0.0069187 
-0.00447144 -0.00671206 -0.00641845 -0.00407544 -0.00602417 -0.00529442 -0.00222759 -0.000509015 -0.00158183 
0.00014068 -0.00269698 -0.00362938 -0.00237161 -0.0384584 -0.00463252 0.0172624 0.017815 -0.0192683 
-0.0210617 -0.0167901 -0.0276815 -0.0313669 -0.0140302 -0.0192573 -0.0207288 0.00763469 0.00569906 
-0.00314917 0.00769342 0.00599876 0.00599557 -0.00679681 0.0181861 0.0213625 -0.00822851 -0.00830874 
-0.00397519 -0.0104044 -0.0138371 0.0123678 0.0150058 0.0182656 -0.00704401 0.00882689 0.010895 
0.00546622 0.0286617 -0.00814842 -0.00795355 -0.00891804 -0.0313035 0.000602658 0.000693774 -0.00242336 
0.0051754 0.00520644 0.00336462 0.0100033 0.0134454 -0.0218818 -0.0211787 0.0195297 -0.00809943 
0.0170976 0.0097892 0.00560402 0.00311641 0.00545424 0.00514725 -0.00806404 -0.00759035 -0.00795512 
0.00223127 0.00451702 0.00500694 -0.000520188 0.000329675 -0.00301264 -0.00399472 0.0182409 0.0150037 
0.0120027 0.00772015 0.00883751 0.0137483 -0.00237699 -0.0176634 -0.0100632 -0.00493112 -0.015972 
0.0161509 0.014935 -0.000476979 -0.00150537 0.00999203 0.00941571 0.00998575 0.0100929 0.0111411 
0.00993112 -0.241176 0.00889815 0.00924307 0.0102818 0.00781697 0.0067452 0.00939106 -0.0070591 
-0.00787685 -0.00888656 -0.00745244 -0.00860493 -0.00108033 -0.00624474 -0.00600985 -0.00622202 -0.00638559 
-0.00538045 -0.00577991 -0.00449229 -0.00487867 -0.00383803 -0.00422313 -0.00357204 -0.00377031 -0.00345344 
-0.00370887 -0.00338294 -0.0036288 -0.00316189 -0.00347965 -0.00167205 -0.00205547 -0.000892074 -0.00117014 
-0.00743765 -0.00623011 -0.00990721 -0.0090781 -0.0104701 -0.0109272 -0.010544 -0.0126039 -0.0104334 
-0.0104874 -0.0124875 -0.0106107 -0.0101073 -0.0102291 -0.01147 -0.00951051 -0.00982852 -0.010613 
0.0100716 0.0101201 0.00464211 0.0102939 0.0246718 0.00790101 0.00745377 0.00752241 0.00845544 
0.009498 0.0100027 0.0105914 0.000288325 0.00338107 0.00954982 0.00939552 0.0108575 0.00909188 
0.00882341 0.00243694 0.0031931 0.00146223 0.00099801 -0.00103121 0.000770276 -0.00545421 -0.00358133 
-0.0036969 -0.00932922 -0.00765291 -0.00862244 -0.0128661 -0.0110366 -0.0122638 -0.0167039 -0.0146872 
-0.0155983 -0.0210761 -0.0189469 -0.0195803 0.000579267 -0.00447951 -0.00254442 -0.000758681 -0.00313894 
0.0246149 -0.0032964 -0.0208736 -0.0189642 -0.0176378 0.0170928 0.0192509 0.0167201 0.0136226 
0.0158214 0.013866 0.0100018 -0.0232128 -0.0244847 -0.0050342 -0.000902036 -0.00358879 -0.00502689 
-0.00781339 -0.0145686 -0.0174655 -0.00394513 -0.00516865 -0.0065264 0.011252 0.00875784 0.0164856 
0.0140833 0.0122705 0.0200278 0.0182673 0.0166715 0.0234666 0.0218053 0.0200086 -0.0351445 
-0.00136886 -0.00279577 0.0146501 0.0163075 0.0117519 0.0133696 0.0159483 -0.00821281 0.0124828 
0.0106411 0.00613131 0.00402577 0.00564538 0.0126648 0.00465007 0.00205453 0.00803001 0.00614457 
-0.00826954 -0.0111484 -0.0124908 -0.00426317 -0.00275036 0.00574666 0.0392804 0.00630169 -0.00898839 
-0.00850492 -0.00907338 -0.0219574 -0.0209719 -0.0197465 0.00303483 0.00155717 0.00482058 0.0093125 
0.00768781 0.0095226 0.0130288 0.00819481 -0.024928 -0.0245729 -0.000439837 0.00184489 -0.00958707 
-0.00984453 -0.0101301 -0.000379814 -0.00461092 -0.00257567 0.013052 0.0128099 0.0115304 -0.00460429 
0.000148057 -0.00295385 0.0243497 0.0215538 0.0240688 -0.00054086 -0.000670009 -0.00298431 -0.00431642 
-0.00874206 -0.0220677 0.000160064 -0.00144035 0.00740527 -0.00969004 -0.00948622 0.00125193 0.00329373 
0.00497002 0.000502485 0.00992665 0.00466287 0.00584335 0.00403134 -0.000681894 -0.00027718 -0.000833923 
-0.000934607 0.00172646 0.00261892 0.00230606 0.00190844 0.00288085 0.00227597 0.00371331 0.0032687 
0.0057233 0.00508929 0.00726598 0.00653942 0.013579 0.0191667 -0.0958648 -0.0698515 0.00167395 
-0.00667665 -0.0100726 0.0021311 -0.0177609 -0.0162239 -0.0182588 -0.0568245 -0.0452247 -0.0126185 
0.00415895 -0.0372402 -0.0300838 0.00509096 -0.0244578 -0.0183405 -0.0105067 -0.0140753 -0.00967859 
0.0194501 0.00115193 0.00395998 0.00372118 0.003113 0.00455243 8.8487e-05 0.00305416 0.00250457 
0.00118682 0.000751608 0.00662471 -0.00697587 0.00328977 0.0036132 0.00432113 0.00534047 -0.0169076 
-0.0171202 0.00155393 0.00757416 -0.0139354 -0.0152013 -0.0114408 0.00230965 -0.0165386 -0.0167424 
-0.0170405 -0.0138511 -0.0122171 -0.0102987 -0.000338195 0.00397918 0.0163282 0.0149836 0.00313751 
-0.00985583 0.0124705 0.0112964 -0.0115398 -0.0112136 -0.011654 -0.011539 -0.00737375 0.00433011 
-0.01192 -0.0065893 -0.0155546 -0.0174124 -0.0160853 0.000464117 0.00558953 -1.49261e-05 0.00327633 
0.00343192 -0.00595543 -0.0017375 0.01264 0.0118587 -0.0197602 -0.019787 -0.0178069 -0.0151411 
-0.0141782 0.0127323 0.0132601 0.0165702 0.0149472 -0.0144491 -0.0152747 -0.0137939 0.0107343 
0.00382554 -0.00176392 0.00448036 0.00710339 -0.0112593 -0.0107392 0.0101402 -0.0037401 -0.00747872 
0.00239533 0.00684675 0.00778864 0.011036 0.0153797 -0.0101377 -0.0122996 0.0191811 0.0180065 
0.0164378 0.0174988 -0.0122015 -0.00770115 0.00529773 0.00901977 -0.0160893 -0.013713 0.0163597 
0.0169826 0.0202334 0.0257053 -0.0170057 -0.0160316 0.0123593 0.0122786 -0.0190978 -0.00973824 
-0.0118582 -0.0148743 -0.0137445 -0.0137521 0.00872703 0.0326179 0.0408227 -0.0169977 -0.015234 
0.0160591 0.0513549 0.0652464 -0.138301 -0.185117 -0.0178072 0.0926174 0.137656 -2.1181e-05 
-0.112671 -0.0102111 -6.281e-05 -2.1051e-05 -1.47593e-05 -1.40797e-05 3.5655e-06 7.03548e-06 1.78394e-05 
1.82892e-05 2.51689e-05 2.94467e-05 3.83887e-05 3.40368e-05 4.1427e-05 3.72487e-05 4.44763e-05 3.6594e-05 
4.11352e-05 3.00172e-05 3.31545e-05 2.71441e-05 2.46688e-05 1.53379e-05 -3.40421e-06 -1.06904e-05 -2.23693e-05 
-2.55305e-05 -4.41247e-05 -4.01403e-05 -6.15509e-05 -5.46192e-05 -7.0371e-05 -6.31378e-05 -8.29852e-05 -7.51647e-05 
-8.97438e-05 -7.66588e-05 -8.93395e-05 -7.21787e-05 -6.34917e-05 -5.71261e-05 -5.68443e-05 -4.96972e-05 -1.6027e-05 
-1.89014e-06 5.66897e-06 1.13832e-05 2.74008e-05 2.53206e-05 3.9374e-05 5.41561e-05 6.03533e-05 6.76907e-05 
8.36937e-05 8.99395e-05 0.000106699 0.000101009 0.000115901 0.000112019 0.000128156 0.000116913 0.000130202 
0.000116556 0.000124978 0.000112931 0.000122134 0.000105876 0.000112079 0.000105224 0.000118419 9.95353e-05 
0.000123686 0.000119383 0.00015518 0.000147931 0.000187808 0.000189565 0.00022816 0.000233621 0.00030358 
0.000287644 0.000400017 0.000460682 0.000682735 0.000835087 0.00154529 0.00322972 0.00498869 -0.00110668 
0.106617 4.07217e-05 7.97322e-05 -0.00775597 -0.00554001 -0.0058301 -0.00191508 -0.00129155 -0.000670081 
-0.000573065 -0.000388114 -0.000437906 -0.000291507 -0.000318885 -0.000234249 -0.000244122 -0.00017694 -0.000161347 
-0.000139619 -0.000146641 -0.000122372 -0.000135517 -0.000118485 -0.000129084 -0.000116893 -0.00013539 -0.00010735 
-9.34905e-05 -0.000109157 -0.000146563 -0.000123707 -0.000151909 -0.000134703 -0.000160684 -0.000139035 -0.000151644 
-0.000135825 -0.000138585 -0.000122328 -0.000127226 -0.000109952 -9.94364e-05 -7.91401e-05 -7.41219e-05 -5.2505e-05 
-4.37691e-05 -3.10512e-05 -1.476e-05 5.26434e-06 9.65527e-06 1.92739e-05 3.99664e-05 3.87441e-05 6.96813e-05 
6.39965e-05 8.2628e-05 8.46217e-05 9.58732e-05 8.65961e-05 9.49784e-05 8.44727e-05 8.90329e-05 7.29536e-05 
7.82278e-05 6.27487e-05 6.20461e-05 4.67888e-05 4.285e-05 2.17491e-05 1.11076e-05 2.55825e-06 -1.89285e-06 
-1.59222e-05 -3.00357e-05 -2.52186e-05 -3.68368e-05 -3.664e-05 -4.7425e-05 -4.20269e-05 -5.14435e-05 -4.54218e-05 
-5.32408e-05 -4.48456e-05 -5.07192e-05 -3.59301e-05 -3.60138e-05 -2.53884e-05 -1.38517e-05 6.17255e-06 2.6424e-05 
4.8592e-05 2.75814e-05 -2.9203e-05 -5.8375e-05 4.69244e-05 2.12232e-05 4.22059e-06 -2.10312e-05 -2.25759e-05 
-1.8313e-05 -3.16715e-05 -3.13765e-05 -3.91055e-05 -3.69901e-05 -4.67717e-05 -4.54111e-05 -5.5987e-05 -4.95295e-05 
-5.9224e-05 -5.095e-05 -6.27003e-05 -5.15947e-05 -3.6414e-05 -4.74527e-05 -3.53108e-05 -2.84435e-05 -1.36771e-06 
-1.65759e-05 -1.11346e-05 3.54816e-06 1.02232e-05 1.77752e-05 1.96853e-05 2.43975e-05 1.66494e-05 4.34939e-05 
4.71189e-05 5.01859e-05 2.80413e-05 3.79455e-05 3.55396e-05 4.33667e-05 3.81253e-05 5.62046e-05 4.64571e-05 
5.07419e-05 4.13635e-05 4.20093e-05 2.72271e-05 2.29586e-05 1.87482e-05 7.99892e-06 -8.38777e-06 -1.80293e-06 
-1.7444e-05 -5.31553e-05 -0.0565312 -0.0186815 0.0107356 -0.00223872 0.00781608 -0.000371291 0.0038812 
-0.001027 0.00136947 -0.000313388 0.00174236 -3.83434e-05 0.00191291 0.000212456 -0.00156222 0.000366835 
-0.000975502 0.00425984 -0.00100094 0.00470533 -0.00325811 0.00988993 -0.0159458 0.0183934 0.0187159 
0.0843636 0.000595239 -0.0612656 -0.00692695 -0.00942407 0.0429888 -0.00320588 0.00635195 -0.000787896 
0.00427502 -0.000230239 0.00382959 -0.000433953 0.00167632 -0.000712224 0.00139835 -0.00091417 0.00109926 
-0.00110817 0.000899102 -0.00216355 0.000263347 -0.00246362 0.00283663 -0.00324519 0.00634467 0.00961859 
0.0328761 0.0390399 0.175128 -0.000567766 0.00115364 0.00237321 0.000599362 0.00107794 0.0010328 
0.00128064 -0.000669719 -0.000583456 0.00365834 0.0012285 0.00124511 -0.0331259 0.0145563 0.00119447 
0.0339738 -0.0292499 0.00114437 0.00086553 0.000472936 -0.000422707 -0.000817915 -0.00449495 0.00127265 
0.0234987 0.00297862 0.00152875 -0.0038436 -0.00665664 -0.00556922 -0.000492342 -0.000703269 -0.000915856 
-0.00118407 -0.000271793 0.00050922 -0.000218391 -0.00427666 -0.00334295 -0.00416126 -0.00325306 -0.00239784 
-0.00723556 -0.0076024 -0.00554561 -0.00639447 -0.00457507 0.0483494 0.0393568 -0.00547522 -0.00458783 
-0.00511421 0.00200947 0.00104656 0.0021601 0.00729926 0.00629718 0.00583696 0.000617997 0.00112291 
-0.000675584 0.00113895 0.00108076 -0.00857959 -0.00728426 -0.00687196 -0.00567263 0.0238955 0.0194702 
0.0271594 0.0220669 0.00390537 0.00411255 0.00309954 -0.00450364 0.00455224 0.00478656 0.0476734 
0.0547789 0.0454679 0.053389 0.00179445 0.00162448 0.00204548 -0.0402015 -0.0407949 -0.0441824 
-0.0448244 0.00117199 0.00234676 0.0011623 0.00285801 0.00195559 0.00372526 0.00281045 0.0102135 
0.00929162 0.00914773 0.00884332 0.00874625 -0.00389743 -0.00290535 -0.00379926 -0.00398488 -0.00545441 
-0.00507631 -0.00589392 -0.00259102 -0.00312448 0.0185227 0.0175676 0.0158502 0.0147789 0.00510088 
0.00440837 0.00526513 0.0104802 0.0109125 0.0112966 0.00986435 0.010567 0.00959199 0.00979845 
-0.00592168 -0.00593332 -0.00667885 -0.00667403 2.08018e-05 -0.00446978 -0.00212169 0.0101283 0.0113299 
0.0131415 0.0129081 0.0145681 0.000153481 -7.08476e-06 7.42492e-05 -4.77707e-05 -0.0172904 -0.0151741 
-0.0174532 -0.0156899 -0.0131209 -0.0131786 -0.0117184 -0.0120217 -0.00296545 -0.00227658 -0.00370868 
-0.00299922 0.00926773 0.00886755 0.00892655 0.000433118 0.000650387 0.00100234 0.00114512 0.00131024 
0.00335328 0.00475779 0.00238377 0.00371567 0.00145894 0.000803568 0.00169803 -0.0027631 -0.0021327 
-0.0028189 0.00965028 0.00254362 0.0026071 0.00274834 -0.00752969 -0.00845068 -0.00838441 0.000312808 
0.000703616 0.000378501 0.00342584 0.00301927 0.00257799 0.00369182 0.00299018 0.00396474 -0.00042899 
-0.000731498 -0.00119267 -0.0015411 -0.0055749 -0.00877233 -0.00772586 -0.000833843 -0.000824951 -0.00163962 
-0.00144352 -0.00218976 -0.00180803 -0.00531795 -0.00468705 -0.00429996 -0.00562704 -0.00701129 -0.00516867 
-0.00661159 -0.00221697 -0.00144682 -0.00195494 -0.00121844 -0.0024082 -0.0020234 -0.00241341 -0.00882263 
-0.00979825 -0.00903366 0.0447185 0.0371838 0.0360435 -0.0187877 -0.0183339 -0.0207822 -0.0196949 
0.0242124 0.0253303 0.0161927 0.0181927 0.0255458 0.0241743 0.0352616 -0.00571475 -0.00720539 
-0.00592002 -0.00742516 0.00916817 0.00952382 0.00455876 0.00417499 0.00370645 -0.000563596 -0.000373614 
-0.000856188 0.00227805 0.00255825 0.00189553 -0.00326185 -0.00288949 -0.00364814 -0.00326515 0.0331321 
0.0366222 0.0344829 0.0381617 -0.00142344 -0.000909713 -0.000862635 0.0163056 0.0145361 0.0133795 
0.00262115 0.00293318 0.00181361 0.000907027 0.00168498 -0.000857616 0.00213538 -0.000356043 -0.00294824 
-0.00339648 -0.00260472 0.0701863 0.0793716 0.0751989 0.0835358 -0.00141209 -0.00208299 -0.00210444 
-0.00210118 -0.00227886 -0.00287039 -0.00166488 -0.000841096 -0.00157121 0.0281823 0.0279885 0.0256533 
0.0200152 0.022982 0.0210879 -0.0421572 -0.0463752 -0.0440412 -0.000827097 -0.000822458 -0.00118677 
-0.00117721 0.00639032 0.00574145 0.00528137 0.00419333 0.00522138 0.00474815 0.0222843 0.0137306 
0.0202783 -0.0479617 -0.0181945 -0.0151383 -0.0166459 -0.00179164 0.00766637 0.00753505 0.00846719 
0.00831187 0.00841153 0.00808186 0.008441 -0.00135298 -0.0139467 -0.0113122 -0.012508 0.0112284 
0.0105706 0.0139049 0.000983276 0.00658722 0.00745206 0.00698382 0.0323538 0.0373966 0.0364371 
0.000106778 -0.0107542 -0.00887586 -0.00991808 -0.002234 -0.000362925 0.000502171 -0.000104 -0.000413186 
-0.000676165 -0.000159497 -0.00167202 -0.00075029 -0.000493353 -0.00112702 0.00282972 0.00328819 0.00221434 
-0.00193772 -0.000756718 -0.00134381 -0.0491211 -0.0483002 -0.0521539 -0.0526443 -0.0536932 -0.0573573 
-0.00136632 0.0529713 0.0512809 0.0464276 0.0171754 0.0152439 0.0138926 -0.00151624 -0.00199711 
0.00363438 0.00192608 0.00181701 -0.00409714 -0.00451098 -0.00484605 -0.00865935 -0.00843141 -0.00745837 
-0.00718667 0.0086111 0.00816093 0.00940402 0.00895923 -0.00388043 -0.00300695 -0.00393815 -0.00740469 
-0.00689723 -0.00650331 -0.0060338 0.0104976 0.0121136 0.0318418 -0.00431426 -0.00350512 -0.00365779 
-0.00283786 -0.00368818 -0.00329729 0.0244303 0.0281287 0.0212117 0.0247327 0.0041345 0.00411347 
0.00339052 -0.0506563 -0.0534203 -0.0488648 -0.0125265 -0.0151895 -0.0107266 -0.0530251 -0.0475961 
-0.0402156 -0.0155675 -0.0194194 -0.0183122 -0.0307195 -0.0349639 -0.0359114 0.0081984 0.00808377 
0.00762346 -0.00262928 -0.00489047 -0.00368395 -0.018645 -0.0208128 -0.0242148 0.0146362 0.0170687 
0.0154253 0.0668404 0.0505872 0.0709423 0.0166914 0.0181186 0.0171773 -0.0105948 -0.0133024 
-0.0113737 -0.128955 -0.0318388 -0.00112907 -0.000966332 0.000483459 -0.0278097 -0.0303398 -0.0292975 
-0.00151757 -0.00132941 -0.000761483 -0.0398516 -0.0412372 -0.0437901 -0.0691222 -0.0871302 -0.105244 
0.00858683 0.0391789 -0.0204557 -0.0165767 -0.0245477 -0.004661 -0.00536436 -0.00556441 -0.00920572 
-0.00926861 -0.00341669 -0.00363407 -0.00428038 -0.00449084 -0.0206201 -0.0165047 -0.00103097 -0.00232375 
0.00977587 -0.0162687 -0.0195789 -0.000480703 -1.84771e-05 -5.79129e-05 -0.0284812 -0.0392971 -0.0336054 
-0.00545751 -0.00528611 -0.00464322 0.00429407 -1.71802e-05 0.00189411 -0.00210666 -0.00071672 -0.000969511 
-0.000489724 0.0314714 -0.0090089 -0.0103133 -0.0118143 0.0130613 0.0185539 0.00912485 0.0142553 
0.0023472 0.00404001 0.00558306 -0.00237039 -0.00263211 -0.00233973 0.00177747 0.00170872 0.00219208 
0.00218789 -0.0331646 -0.0271704 -0.0269181 0.000608977 0.000336741 0.000189008 0.000225483 0.00054238 
0.000374078 -0.00531287 -0.00521592 -0.00401329 0.00692966 0.00771132 0.00689108 0.0203504 0.0203848 
0.0152452 0.0180146 0.0150977 0.012701 0.0129979 0.0101997 0.00949104 0.00852615 0.0181544 
0.00428746 0.00444412 0.0055108 -0.00489172 -0.00556583 -0.00467018 -0.00489699 -0.00444801 -0.0050248 
0.00171353 0.00125323 0.00125319 0.0134452 0.0149669 0.0175089 0.00443714 0.00629214 0.000696434 
0.00259766 -0.00162897 0.0045128 0.00392087 0.00232798 0.00316823 0.0023972 0.00892362 -0.00167388 
-0.00245466 0.00324281 0.00225606 0.00310987 -0.00300922 -0.00223982 -0.00283407 -0.00358468 -0.0021324 
-0.0199919 -0.0167654 0.00107425 0.000605068 0.00178907 0.00419657 0.00320517 0.00430226 0.00331286 
0.00103211 0.00235346 0.00183631 -0.00173481 0.00275937 0.0018851 0.00206384 -0.00779937 -0.00475078 
-0.00766945 0.00349329 0.00273951 0.00308919 -0.00159614 -0.000798683 -0.00162199 0.0035625 0.00501072 
0.00462519 0.00613667 0.000345911 -0.000866222 0.00351891 0.00436043 0.0052253 0.00611986 0.000919698 
0.00255014 0.00342966 0.00880054 0.00818922 -8.29468e-05 -0.000921999 -0.000355753 -0.00122606 0.0272115 
0.0311534 0.0293295 0.0336834 0.000485954 0.000991942 0.00194799 0.00164417 0.00275116 -0.00927405 
-0.00957057 -0.00948867 -0.00729857 -0.00584731 -0.00570513 -0.0219511 -0.0150708 -0.0185453 -0.00190262 
-0.00149893 -0.00147365 -0.00435548 -0.00420418 0.000714151 -0.0101345 -0.0090348 -0.0102569 -0.00912264 
0.00710848 0.00893606 0.0079457 0.00148337 0.00192839 0.00160085 0.0018471 0.00212438 0.00169416 
-0.00148622 -0.00472248 -0.00473736 0.0274246 -0.00491802 -0.00569053 -0.00518837 -0.00353543 -0.00411152 
-0.00309096 -0.00373211 -0.0359532 -0.050651 -0.0242229 -0.00561191 1.33297e-06 0.0012349 -0.000223827 
-0.00114297 -0.00226153 0.000901273 0.000807288 0.00167709 -0.016087 -0.0121211 -0.0169958 0.00883311 
0.0075739 0.0114699 0.00248617 0.00182922 -0.00583028 -0.00556401 -0.00515681 0.00759408 0.00495801 
0.0093984 0.00644765 -0.0118539 -0.00762024 0.0036481 0.00356469 0.00446899 0.00439154 0.00391119 
0.00357942 0.00347354 0.00311239 -0.000853419 -0.000380401 -0.000422952 -0.0726483 -0.0517934 -0.0722982 
-0.00262794 -0.00334621 -0.00269617 0.00274976 0.00190125 0.00269922 -0.00189993 -0.00208841 -0.00232616 
-0.00378521 -0.0044681 -0.00410308 0.00456447 0.00516376 0.00442037 0.00501551 -0.00522609 -0.00607524 
-0.0036018 -0.00374036 -0.0040394 0.00540995 0.00511911 0.00482223 0.00455002 0.0017602 0.00173751 
0.00171605 -0.00322732 -0.00548854 -0.00598602 -0.00531517 -0.00450224 -0.00379942 -0.00428499 -0.000350235 
-0.000234023 5.934e-06 0.000137776 0.00608336 0.00600012 0.00527158 -0.00169094 0.00517588 0.00381695 
0.00401671 0.000844778 -0.0241125 -0.0256724 -0.02006 0.00858011 0.00751038 0.00867439 -0.00125421 
-0.00145126 -0.00106305 -0.0199305 -0.0184186 0.0115218 -0.00434477 -0.00341996 -0.00308463 0.0259979 
0.0355127 0.0251908 -0.0305341 -0.0309337 0.0126384 0.0108877 0.0107763 0.00911762 0.0247835 
0.0261555 0.0305882 0.00305978 0.00428411 0.00245703 -0.0015585 -0.00097003 -0.00111291 -0.0020382 
-0.00822461 -0.00816306 -0.00505871 -0.00575048 -0.000285187 0.0049034 0.00486151 0.00131553 0.000729371 
0.000609664 -0.0557283 -0.0581534 -0.00403109 -0.00384613 0.00317645 0.00404586 0.0037442 -0.0300983 
-0.041733 -0.0280206 -0.030643 -0.0254618 -0.0280611 0.00606061 0.0062294 0.00683115 0.00881117 
0.00183121 9.63212e-05 0.000864209 0.00723337 0.00675687 0.00805951 -0.0164592 -0.0175992 -0.0146799 
-0.0158215 0.00306331 0.00343621 0.00388355 0.00356381 0.00302121 0.00369731 0.00389539 0.00510489 
0.00561097 0.00473263 0.0244158 0.0231676 0.025238 0.00099672 -0.000808684 -0.000713492 -0.00255631 
-0.00533619 -0.00267006 -0.00369453 -0.00400777 -0.00680045 -0.0227563 -0.0310118 -0.0135396 -0.00078158 
0.0609369 0.0692156 0.0630303 0.000620873 -0.0195187 -0.0195206 -0.0241884 -0.00387696 -0.00658287 
-0.0285289 -0.0232773 -0.0327086 0.0104137 0.0144873 0.0100354 -0.0255953 -0.0248871 -0.0233986 
-0.0228106 0.00290556 0.00422562 0.003251 -0.0117848 -0.00982995 -0.0136405 0.0340292 0.0447293 
-0.000830058 -0.000456455 -0.0010753 -0.000233364 -0.000564016 -0.000359462 -0.0203942 -0.000676862 -0.000232845 
-0.0109614 -0.0069431 -0.00990147 -0.0064274 -0.00732682 -0.00639602 -0.00729682 0.0012408 -7.58934e-05 
0.0119759 0.0142012 0.0175332 -0.00377562 -0.00422626 -0.000631709 -0.00258984 -0.00332016 -0.0229981 
-0.022225 -0.0330132 -0.0332796 0.0711989 0.0596366 0.0609025 -0.00697834 -0.00711399 -0.00767279 
-0.00777248 0.0203332 0.0215225 0.0169211 0.0091802 0.0109411 -0.033801 -0.0373272 -0.0304207 
-0.0204335 -0.0230357 -0.00631861 -0.00650532 0.0167481 0.0151054 -0.00573302 -0.0059163 -0.00639426 
-0.00660931 -0.0167285 -0.0147765 0.0229029 0.022447 0.0286747 0.00420908 0.00718702 -0.00125837 
0.0017457 0.0020062 0.00128208 0.0234445 0.0257482 -0.0239812 -0.0268603 -0.0235559 -0.0261917 
0.020619 0.0207645 0.00857564 0.00580671 0.00818573 -0.00950221 -0.0133471 -0.0104942 0.0275558 
0.0333462 0.0214144 -0.0185358 0.0067292 0.00749432 0.00669956 0.00244262 0.00186959 0.00270934 
0.00419748 0.00383391 0.000401777 0.013354 0.0185766 0.0154951 -0.0259174 -0.0346466 -0.00116293 
-0.00222908 0.0214328 0.0107723 0.0119675 0.00903615 -0.00870916 -0.00899989 -0.00804119 -0.00830882 
-0.00883455 -0.00840981 -0.00829641 0.000681051 0.000596887 -0.000177597 0.00104397 -0.0013566 0.000994114 
0.0527776 0.05828 0.0869989 0.00217174 0.00249436 0.00208035 0.00183591 0.00202742 0.00229782 
-0.0021489 -0.00169032 0.0745132 0.117014 0.00701906 0.00744166 0.0039601 0.0013753 0.00104144 
0.0023039 -0.00382963 -0.00343581 -0.00200692 -0.000357984 0.00248182 0.00176983 0.00275347 -0.00223971 
-0.00114783 -0.00232771 -0.00873909 -0.00788065 -0.00920092 0.0059044 -0.00205273 -0.00624951 0.00175916 
0.00229721 0.00188744 -0.00691806 -0.0041836 -0.00468186 -0.00499012 0.0073142 0.00683421 0.00654929 
-0.00183413 -0.00153857 0.00525586 0.00793619 0.00889325 0.00704035 0.00796633 0.00641552 0.005687 
0.00615052 -0.00964762 0.0422767 0.0278469 0.0057821 -0.0181532 -0.0069541 -0.00364712 -0.0139724 
-0.0169876 -0.0135199 0.0201387 -0.0109396 0.00377583 -0.0209372 -0.018655 -0.0241367 -0.018775 
-0.0264113 -0.0268088 -0.0324169 -0.00049765 0.00784145 0.00694924 0.00886782 0.00461433 0.0085006 
0.00696052 0.0033172 0.0031723 0.00409537 0.00390727 -0.0078704 -0.0060056 -0.00461975 0.000380186 
0.00073461 0.00057761 0.000975519 -0.0166607 0.00716757 0.00749594 0.00962078 0.00966593 0.00938709 
0.00313985 0.003996 0.0230715 -0.00735301 -0.00680705 -0.0165204 -0.018451 -0.0193723 0.0553884 
0.00516508 -0.00731154 -0.00799459 -0.00746976 0.0138873 -0.00220647 -0.0031227 -0.00293803 -0.0382608 
0.00282605 0.00286841 -0.0326274 0.00629423 0.00661366 0.00584289 0.0384978 0.0498969 0.0368867 
0.00951517 -0.0201826 -0.0229107 -0.0192782 -0.0220481 -0.0128449 -0.00924055 -0.013247 -0.00899316 
0.00928248 0.00929172 0.00943834 0.0106236 0.0114496 0.0127484 0.00828729 0.00714285 0.00769022 
-0.00809935 -0.00378752 -0.0115759 -0.00706198 0.00854582 0.00960236 0.0353985 -0.0062221 -0.00370905 
0.000961395 0.00172144 -0.00113385 -0.00213582 -0.028328 -0.0205473 -0.0275541 -0.0203141 -0.015915 
-0.0156869 -0.0039487 -0.00278905 -0.0113463 -0.0108892 0.0193492 0.0211501 0.0187175 0.020587 
0.00232863 0.00175446 -0.0205714 0.00209097 -0.000593544 0.0282252 0.0339158 0.0306845 0.0390817 
-0.0145209 -0.0186772 -0.0002213 -0.000295233 -8.58282e-05 0.000570832 0.00114041 0.000681829 -0.0010504 
-0.0170106 -0.0190646 -0.0151525 -0.0160247 0.010562 0.0091632 0.0104923 0.00737112 -0.0269827 
-0.0230641 -0.0147489 -0.0148007 -0.0168346 -0.0036265 -0.00404202 -0.00308517 0.0118665 0.0123878 
0.00878008 -0.00872559 -0.0082127 -0.00873143 0.00917057 0.00774108 0.00740921 0.00598366 -0.00856736 
-0.00921845 -0.00154568 -0.000236088 -0.000934458 0.00490323 0.00531995 -0.00672194 -0.00639041 -0.00704653 
-0.00275218 -0.00369902 -0.00290569 -0.00291835 -0.00303812 -0.0233798 -0.0217456 -0.0209429 -0.00438396 
-0.00678255 -0.00623045 -0.00725863 -0.00668627 0.00290575 0.00205071 0.00545607 0.00512856 -0.00364316 
-0.00590058 0.00290178 -0.0267929 -0.0311432 0.0115543 0.00941557 0.0155314 0.0130801 -0.00903488 
-0.00867736 -0.00962531 -0.009319 -0.00236052 -0.00157266 -0.00181397 -0.00104668 -0.00107878 0.00128297 
0.000803553 0.00319278 0.00105148 0.00288042 0.00258458 -0.0249932 -0.0241352 -0.0270161 -0.026168 
0.0284459 0.00163714 -0.00598673 0.00500496 0.00515882 0.00449183 0.00243907 0.00227236 0.00295175 
-0.000984648 -0.00179752 -0.000851694 0.00853753 0.00825663 0.0115943 -0.0962688 -0.0693617 -0.0719466 
-0.00620743 -0.00265182 -0.0019961 -0.0014902 -0.00091755 -0.00047386 0.000161037 -0.00944505 -0.0169999 
-0.0186042 -0.0191936 0.00359573 0.00365478 0.00276741 -0.0208767 -0.0019687 -0.0019619 -0.0452785 
-0.045328 -0.00134501 -0.00116436 -0.000621042 -0.00395881 -0.000713959 0.000754901 0.0006932 0.00145587 
-0.00259121 -0.00202753 -0.00218449 0.000906249 0.00165461 -0.000368649 0.00257621 0.00180482 0.00250237 
0.00176076 -0.00400984 -0.010804 0.00114297 0.00232349 0.00748524 0.00671908 -5.4543e-05 0.00711968 
0.00761061 -0.00946967 -0.0101221 -0.0124397 -0.0130912 0.00964508 0.0135571 0.00644242 0.00821022 
-0.00697972 -0.00600269 -0.00654597 0.00261036 0.00302622 0.00219119 0.00791646 0.00560603 0.0104915 
0.00785275 0.0104923 0.00647676 0.0122874 0.00800895 -0.0420372 -0.0419858 -0.0012766 -0.00106775 
-0.000360884 -0.00263314 -0.00285372 0.0433421 0.046861 0.0445865 0.000305376 -0.00204171 -0.00182505 
0.00177257 -0.001151 0.000916734 0.00119337 0.000535691 -0.00135657 -0.00214103 -0.00195361 0.00218307 
-0.00164357 0.00974372 0.00972421 0.00586742 0.00666366 0.00683269 -0.00191355 -0.00375505 -0.0055211 
0.000732393 0.000861511 0.000271108 0.00542764 0.00559807 0.00792891 0.0088312 -0.0652028 -0.0668725 
-0.0875113 0.00910916 0.00913989 0.00867842 -0.0230531 0.0154962 0.0145351 0.0137698 0.0145603 
0.0202026 0.019663 0.0155966 0.0212791 0.000545973 0.00102801 0.000735507 -0.000482047 -0.00115055 
-0.00154239 -0.00604772 -0.00816233 -0.00495233 -0.0039244 0.00403698 0.00320103 1.23787e-05 -4.32396e-05 
-0.00581422 -0.00630083 0.0102884 0.0116218 0.0117019 0.000572485 0.000188575 0.00023705 -0.00941986 
-0.00876758 0.033434 0.036214 0.0307706 0.0333893 0.00285272 0.0027286 0.00278066 -0.0126816 
-0.0128573 0.0469153 0.108028 0.0725245 0.00350319 0.00501472 0.00619303 -0.0438308 -0.048256 
0.00275182 -0.000702504 -0.00125268 -0.0117954 0.0481047 0.0451603 0.0483436 -0.000153841 -0.00114903 
-0.00236277 -0.0936965 -0.107911 -0.0109562 -0.0110117 0.00946222 0.0128124 0.0204026 1.62821e-05 
-0.00151355 -0.00219834 -0.00240761 -0.0325072 -0.0309122 -0.0151048 -0.00184351 -0.00365596 -0.00570087 
0.0295446 0.0267627 0.0362932 -0.00294067 -0.00222679 -0.00451287 0.00276634 -0.00558895 -0.0014337 
-0.00099596 -0.00191912 -0.00115229 -0.00260216 -0.00354701 -0.00334251 0.00648334 -3.17019e-05 0.0105291 
0.0160463 -0.000716217 -0.000854305 0.00730773 0.00808843 0.013081 -0.0189067 0.000297273 0.00909468 
0.0133749 0.0122085 -0.00192767 -0.00615983 -0.00597435 -0.00832679 0.0708939 0.00341572 0.00654152 
0.00553714 0.00490934 0.00588807 0.00574311 -0.00447044 -0.00599248 -0.00454777 0.00578597 0.00336398 
0.0042166 0.00382802 0.00567386 0.0693716 0.0916822 -0.0028705 -0.0024093 -0.0234664 -0.0247131 
-0.0220851 -0.0231287 0.00606275 0.00533922 4.45524e-05 -0.000749166 -0.000608753 -0.00143677 -0.00184671 
-0.00385094 -0.00414535 -0.0533809 -0.0619266 -0.0542378 0.00921488 0.00716058 0.00800751 -0.00740566 
-0.00817376 -0.00826747 -0.00102511 -0.00278462 -0.0136831 -0.00774638 -0.0077915 -0.00712382 -0.00697456 
-0.0295218 0.0109538 0.00960426 0.00909602 0.00794817 -0.00933506 -0.00348923 -0.00799816 -8.21565e-05 
0.0120416 -0.000532884 9.65001e-06 -0.0029557 -0.00344726 -0.00361667 -0.00285339 -0.034681 -0.0501196 
0.00252931 0.00324938 0.00323118 -0.00156489 -0.00101385 -0.000953247 0.00262454 -0.000488323 0.00427314 
0.00193454 0.000473587 -0.0304147 -0.00716986 -0.00761207 -0.00687977 0.000332089 -0.000146929 0.000223183 
-0.000361748 -0.0020248 -0.00110374 -0.00638408 -0.00726724 -0.00843963 -0.00892057 -0.00991255 -0.00823728 
-0.00801711 -0.00916016 -0.0420832 -0.0317982 0.00303154 -0.00041355 0.00101814 0.000870354 0.00144822 
0.00159826 0.00448787 0.000870094 0.000522577 0.00111302 0.00223861 0.00696054 0.00735498 -0.00215287 
-0.00209639 -0.00116669 -0.00216472 0.00560593 0.00599985 0.00482756 0.00523946 -0.0247338 -0.0293957 
-0.0094989 0.00779685 0.00544447 0.00577324 0.00228168 -0.000562629 0.00196238 -0.000277679 -6.90534e-05 
2.4829e-06 0.00424221 0.00153602 0.00236376 -0.00114821 -0.0031829 0.0651036 0.0713592 0.0667186 
0.0343546 -0.0073101 -0.00789516 0.00331244 0.00427597 -7.05407e-05 -0.0162844 -0.0142396 0.00857087 
0.00901845 0.00896656 -0.0408328 -0.0384239 -0.0342548 -0.00873736 -0.0114141 -0.00793713 -0.00624897 
-0.00532733 -0.00742158 -0.0168029 -0.0144826 0.00449445 0.0424602 0.0455648 0.0344457 5.79013e-05 
-0.00356043 -0.0142614 0.00635905 -0.0448973 -0.0374405 -0.0349876 -0.00935627 -0.00572695 -0.00513606 
0.00164733 -0.00377163 -0.00165797 -0.00276389 -0.00291386 0.00402042 0.000576403 -0.0195157 0.0191409 
0.0200564 0.0220913 0.00644334 0.00606146 0.0130738 -0.0197885 0.0118859 0.0356277 0.0410322 
0.0324446 0.00108875 0.0163282 0.0141216 -0.0154223 -0.0144411 0.0212447 0.0213779 0.0234308 
0.000412898 0.00379107 0.00465409 0.00157438 0.00121813 0.00239984 0.00204852 -0.0258136 -0.0224592 
-0.0274466 0.00411207 0.00238507 0.00369598 0.00191975 0.000992735 0.00298305 -0.00196419 -0.00297745 
-0.000311931 0.0015923 -0.00277322 -0.00265792 0.0156865 -0.037889 -0.0497088 -0.039408 0.0312736 
0.0297593 0.0326853 0.008574 0.00884228 0.00821364 -0.00355988 -0.0346335 -0.0226079 -0.0213324 
-0.00549824 -0.0129081 -0.015033 -0.00638197 -0.00709721 -0.00360408 -0.00400721 -0.00341261 -0.00465978 
-0.0209357 -0.0234738 0.00468414 0.00437183 0.00524219 0.037152 0.0251299 0.0530743 0.0412946 
-0.0156073 -0.0050636 -0.00509184 -0.0193166 -0.00259759 -0.0675602 -0.0145494 -0.00965431 0.00953116 
0.00881917 0.00962567 0.00888205 0.004208 0.00518448 0.00806932 -0.0332922 -0.0423139 -0.0289351 
0.00909949 0.00706746 0.000355665 -0.00202558 -0.00126819 -0.0015657 -0.00306264 0.000910405 0.00192388 
-0.0148981 0.000888107 0.00147106 0.00184616 0.00110308 0.000637972 -1.04024e-05 -0.000142625 0.0100817 
0.0113602 -0.0107259 -0.00998992 -0.0101249 0.00130472 0.00128444 -0.0451184 -0.107573 -0.00187304 
-0.00139669 0.00122663 0.000177081 0.0101705 0.0120612 0.0130264 -0.0020072 -3.38274e-05 0.00136069 
0.00265594 -0.0744168 -0.0863933 -0.0962218 0.00637715 0.00617876 0.00682573 0.000681424 -0.00891486 
-0.00328075 -0.00809475 -0.00244386 -0.0288757 -0.0121469 -0.000962235 -0.00159775 0.00139712 -0.0117066 
-0.0114984 -0.0130253 8.904e-05 -0.000447394 -0.0070226 -0.00977329 -0.00877676 -0.00417089 -0.00479542 
-0.00819766 -0.0101216 -0.00923803 -0.0112243 -0.00320167 -0.00232915 -0.023156 -0.0231247 -0.00274527 
0.0122053 -0.00704398 -0.00634141 -0.00753631 -0.00682661 0.00251487 0.00274282 -0.0061442 -0.00528702 
-0.00724261 -0.00806099 -0.00512492 -0.00423404 -0.00430748 -0.0569091 -0.0383163 0.00121766 0.00113327 
-0.00649052 -0.00717651 -0.00683981 -0.00754291 -0.00744653 0.000800365 -0.0339516 -0.037159 0.015475 
0.0181768 0.0164696 -0.0865295 -0.0899046 -0.0834746 -0.0517847 -0.0554782 0.0178547 0.0167296 
0.0195653 0.0041397 -0.00277652 -0.00265025 0.0107013 0.00991617 -0.00787267 -0.00895089 -0.0083109 
0.0494372 0.0452668 0.0697234 -0.00237563 -0.00179443 -0.002625 -0.000605393 -0.0110067 -0.0132509 
-0.00961871 0.00967305 0.00834037 -0.00414831 0.00592022 0.00587472 0.0119583 0.0145114 -0.0360602 
-0.0385947 -0.0391927 -0.041633 -0.0187754 -0.0272503 -0.00463357 -0.00451274 -0.00491372 -0.00235637 
-0.00200607 -0.00274872 -0.0077793 -0.0120671 -0.00256684 -0.0106212 -0.0089332 -0.00492154 0.00815104 
-0.00409456 -0.00146132 -0.00550132 -0.00267931 0.00927452 -0.00746744 -0.0747577 -0.0800335 0.00115494 
0.00180289 -0.000818479 -0.00060161 -0.00139103 0.0105803 0.00422461 0.00603737 0.00624306 0.00338683 
-0.00017317 0.000188654 0.000319466 0.00412091 0.00145766 0.0276544 0.00433342 0.00468466 0.0385847 
0.0282192 0.0342164 -0.00209584 0.00331123 -0.00958947 -0.00943133 0.00219089 0.00433574 0.00292109 
-0.00856616 -0.00763601 -0.00872464 -0.00772637 0.00232101 -0.00923325 -0.0731957 -0.00176775 -0.0120496 
0.0287184 0.0490912 0.0169961 0.0367537 0.0107619 0.00962274 0.0166673 0.108888 0.00359717 
0.00315306 0.00372633 0.00343227 -0.0031453 -0.00383364 0.00146431 0.000778525 -0.000334221 -0.000776311 
-0.00096187 0.019152 0.0213363 0.0259713 -0.00422549 -0.00340915 0.00769459 0.010846 0.000880165 
0.000503243 -0.0109334 -0.0075779 -0.00556956 -0.00325491 -0.00206593 -0.00372645 -0.010664 -0.00945269 
-0.0122334 0.0658589 0.0710216 0.0665037 0.0770504 0.0154002 0.0178154 0.00221618 0.0162356 
0.0142476 0.00845198 -0.00832634 -0.00814764 0.0770549 0.0382113 0.0358538 0.0414997 0.0390058 
-0.0414715 -0.058637 0.00348512 0.000752563 -0.00184644 -0.0500441 -0.04841 -0.0417641 -0.00246237 
-0.00315623 -0.0541149 -0.0296053 -0.037861 -0.00149807 -0.000913426 0.00604056 -0.000658122 0.0052217 
0.00458795 -0.0109418 -0.000794988 -0.00146162 -0.0187497 -0.0162364 -0.0185941 0.00804147 0.00851491 
0.00738934 0.00662227 -0.000719295 0.00211526 0.00185932 0.00136172 0.0383664 -0.000451234 -0.00547577 
-0.00424229 -0.0050768 -0.00560984 0.000604126 0.00031045 0.000731212 -0.000968793 -0.00126161 -0.000277606 
-0.00522333 -0.00563292 -0.00595397 0.00454344 0.0285832 0.023725 0.0285444 0.0451902 0.0402704 
0.0414176 0.00558014 -0.000659272 -0.00402567 0.000126551 0.00779571 0.0196764 0.0242288 -0.00280119 
0.00666116 0.0073267 0.00652314 -0.0300466 -0.0330342 -0.0305026 -0.0658621 -0.0738765 -0.0303367 
-0.00627299 -0.00632712 -0.0547743 -0.0593771 -0.00175875 0.00400941 0.0053621 -0.0390081 -0.0404146 
-0.00485337 -0.0299807 -0.0257446 3.1333e-06 0.00292275 0.00156872 0.00192339 0.00189967 0.00268768 
-0.0324432 -0.0354304 -0.0245799 -0.011907 -0.0285461 -0.0113799 0.00463198 0.00667057 0.0030015 
0.00509865 -0.0292259 -0.0279271 -0.0016416 0.00218849 0.0884921 0.0978333 0.0877713 -0.0430927 
0.00507322 0.00513187 0.0051061 0.00428834 0.00751173 0.00464169 -0.00842114 -0.013333 -0.0144949 
-0.000362694 0.000864744 0.00387662 0.0388586 0.0385268 0.036004 0.00492128 -0.0126946 -0.0112758 
-0.00686373 -0.00621484 0.00986794 0.00693046 0.0170504 0.0185092 0.0191776 0.013695 0.000565414 
0.000318575 0.0173929 -0.00370579 -0.00404509 0.000449366 -8.88931e-05 0.0442234 0.0408544 0.0417504 
-0.000680348 -0.00111607 -0.00247371 -0.00790398 -0.00607614 -0.00993697 -0.000546486 -0.000312748 -0.000958356 
-0.000662242 -0.00246069 -0.00225576 0.00241335 -0.00876569 -0.00594734 -0.00974688 -0.00947956 -0.00946502 
-0.010941 -0.013787 -0.0152361 -0.000984375 -0.0265738 0.00216994 -0.0121005 0.0502151 0.0532478 
0.0671307 0.0804654 0.00596166 0.00583996 0.00570947 0.00499545 -0.0926553 -0.0174115 -0.016579 
-0.00430953 -0.00512996 -0.0154688 -0.00602101 -0.00457388 -0.00603822 0.0470763 0.0491915 -0.00453016 
-0.00244155 -0.00175332 -0.00470647 -0.00586221 -0.00353718 -0.00468091 -0.00247327 -0.00175919 0.000614538 
0.000595852 0.000814142 0.000995943 -0.0151037 -0.0114554 -0.0112368 -0.000453706 0.00711014 0.00782279 
0.00747792 0.008122 -0.00441794 -0.00901706 -0.00930808 -0.0120659 -0.0349683 0.00258556 0.00327753 
0.002736 -0.000640503 -0.00093746 -0.0631698 -0.062498 -0.0666842 0.00125272 0.000670577 -0.0160832 
-0.0144291 0.00557816 0.00984404 0.0294321 0.0263663 0.0277074 0.0430419 -0.00754419 0.0260122 
0.0266814 0.0236256 -0.0363129 -0.0390666 -0.00747613 -0.00580713 -0.00657749 -0.00566668 -0.00546421 
-0.00380183 -0.0037379 0.0291605 0.0251211 0.00295027 0.00197394 -0.00180867 -0.0172197 -0.0235579 
-0.0262142 -0.0293446 -0.09751 0.00251098 0.00426512 0.00341509 -0.0104678 -0.0044687 0.00674594 
0.00636343 -0.000183874 0.000277754 -0.000888261 0.00688044 0.00574302 -0.00162916 -0.00170727 -0.000821831 
-0.0077009 0.00202893 0.00136176 0.00144328 0.00813517 0.00880205 0.0080272 0.00883439 -0.0584923 
-0.0726624 -0.0689244 0.00408907 0.00416366 0.00562505 0.00154641 0.00057325 -0.000993659 0.00136072 
0.00177198 0.0080652 -0.00482694 -0.00329643 -0.00557754 0.00156549 0.00157162 0.00277921 -0.00201395 
-0.00192165 -0.00280289 0.00571278 -0.0171871 -0.0144113 -0.0130348 -0.0101269 0.00318344 0.00173276 
-0.0026401 -0.00189881 -0.00473405 0.0300916 -0.00367006 0.0580649 -0.0255461 0.0108351 0.00664063 
0.00781214 -0.0335453 -0.0351151 -0.000365579 -0.00199945 0.0016729 0.00189107 0.00208996 0.00276461 
0.00265134 0.0349994 0.038186 0.0364493 0.0299133 0.0318588 0.0333381 0.0396023 0.0374282 
0.00233387 0.00143385 0.00229267 -0.00259093 -0.00268156 -0.00248479 -0.00634613 0.00842078 0.00757241 
-0.00209656 0.00449945 -0.00767049 0.00737087 0.0139725 0.0179399 0.000107551 -4.62667e-05 0.00308478 
-0.000413876 0.0306024 -0.00195036 -0.00225713 0.00204329 0.00218104 0.00014214 0.0603613 0.0251774 
0.0188116 0.0264166 0.00194981 -0.0329658 0.0023562 -0.00202701 -0.00129396 -0.0292835 -0.0345889 
0.0354722 -0.00120247 -0.00240124 -0.0149792 -0.017387 -0.00244405 -0.00420805 -0.00470094 -0.0607746 
-0.063735 0.00366618 0.00597501 -0.00254945 -0.0017308 -0.00286284 0.00587681 0.0600387 0.0529282 
0.0412816 0.0311749 -0.00171678 -0.00117671 -0.00591627 -0.0058648 -0.0370769 -0.00904292 0.00674255 
-0.00795644 0.000716242 0.000364768 -0.00880598 -0.00809029 0.00210934 0.0127794 -0.00977641 -0.0113761 
-0.0137984 0.00101011 -0.00725538 -0.00412254 -0.00529268 -0.00602497 -0.00704339 -0.00578199 -0.00514983 
-0.00501072 0.000115598 0.00157133 0.000907289 0.0010762 0.000577439 0.00208996 0.000215259 0.00080148 
-0.000232713 -6.08649e-05 -0.0139743 -0.00179535 -0.0101384 0.016653 0.0233931 0.0180676 0.000986689 
-0.00286089 -0.00290353 -0.00266292 0.055061 0.0578638 0.0540681 0.0619315 0.0583686 0.00140734 
0.00262234 0.00291336 -0.00396649 0.00466137 0.00348337 0.00321738 0.0626171 0.00168202 -0.00860106 
0.00097074 0.00101977 0.00390522 0.00401911 0.00545786 0.00768191 0.000392553 0.00114596 0.00106381 
-0.00781257 -0.0286548 0.0145555 -0.00104409 -0.000553398 -0.000749381 -0.000299453 -0.0229312 0.010123 
-0.0133803 -0.00889262 -0.0144773 -0.0465085 -0.00115017 -0.00111123 -0.0173351 -0.00196604 -0.00157081 
0.00751405 0.0303911 0.0278863 0.00656076 -0.00576943 -0.00474641 -0.00516027 0.0281734 -0.00754738 
-0.000995294 0.00331597 0.00252598 0.00282328 -0.0231648 -0.0308605 -0.0368283 -0.0465069 -0.0412442 
-0.0356373 -0.00757311 -0.00910677 -0.010653 -0.0135079 -0.018227 -0.0170367 -0.0151878 -0.00760066 
0.000259805 -0.0138672 -0.00145673 -0.00216132 -0.00186382 -0.0025968 0.00774696 0.00689227 0.00226137 
0.0023233 -0.0191571 -0.0168257 -0.0194514 -0.0272212 -0.0219357 0.0406964 -0.00060411 -0.00119249 
-0.00335058 0.0515084 0.0468139 -0.00526633 -0.0748508 -0.000953262 0.00310403 0.00689655 0.00528037 
-0.00578222 0.00224782 0.00911765 0.00781741 0.00654731 0.00311143 0.00337165 0.000884616 0.000600719 
-0.00825538 -0.00462899 -0.0053117 -0.00553276 -0.0185276 -0.0118188 -0.00989925 0.000548573 0.000626479 
0.00116949 0.00158103 0.000937708 0.00425416 0.0047041 0.00428087 0.00387541 0.00345747 0.00538199 
0.006626 0.00391341 0.00388585 0.0124394 0.0153589 -0.00315495 -0.0303 0.00222229 -0.00841537 
-0.00717768 -0.00816937 -0.0103115 -0.00570706 -0.00658058 -0.00467859 -0.00109976 0.00100025 0.00781434 
0.0131524 0.0118855 0.0166574 0.0137271 -0.00243875 -0.00325328 -0.00428691 0.00492418 -0.0034197 
0.0020784 0.00639248 0.00553423 -0.0357062 -0.00399325 -0.00427163 -0.0176075 -0.00407868 -0.00368447 
0.001325 0.000976364 0.00159602 0.0576314 -0.0373251 0.0419261 0.0058657 0.00727662 0.00427255 
-0.00786708 -0.0111494 0.00452153 -0.000540576 0.0332454 0.00630629 0.00561498 -0.00276026 0.00457995 
0.104886 0.1195 0.00139579 -0.0148762 -0.000231437 0.00238368 0.00445313 0.0029339 0.00651427 
0.00286405 0.00468075 0.00399665 0.00549348 0.00217178 -0.00387012 -0.00518621 0.00377964 0.003009 
-0.00432159 -0.00104552 -0.0027131 -0.00247823 0.00411546 0.00633496 0.00636546 0.00711836 0.0142172 
-0.00857492 -0.00908843 0.0267996 0.029079 0.025903 0.00137645 -0.00830089 0.00221869 0.00219372 
-0.00376543 0.00537377 -0.00268573 0.00548961 0.00655658 -0.00843606 -0.00213203 0.00328867 0.00446734 
0.0029945 0.00048519 0.000798309 -0.0028247 -0.00318428 0.00229107 0.00497927 0.00720358 0.0117458 
0.00969859 -0.0124701 -0.00941769 -0.00637278 -0.00738687 0.0326527 0.000560861 0.0243493 0.0196713 
0.0178748 0.0179975 0.0225745 0.023235 0.0279426 0.0248217 -0.00716494 -0.00618964 -0.00655985 
-0.00449226 -0.00301464 0.024743 0.0239217 0.0262684 0.0230587 0.0249221 0.0140653 0.00937883 
-0.0242659 -0.0189615 -0.0213306 -0.0171502 -0.000746904 -0.00135461 -0.00281362 -0.00132469 0.00229139 
0.00229982 -0.00588389 -0.00426033 0.0235042 0.0170059 0.0199654 -0.000647839 -0.00295736 -0.00341596 
0.011968 0.00263784 0.00255751 -0.00189018 0.000100585 0.0181117 0.0235194 0.0210782 -0.000940875 
-0.00191662 0.0471043 0.0403222 0.0475395 0.00742356 0.00749229 0.00330482 -0.00233707 -0.00824192 
-0.00879029 -0.00825419 -0.00301776 -0.00232824 -0.00143203 -0.00482515 -0.000309904 0.0200038 -0.00281748 
-0.00104689 -0.0063684 0.000890231 0.000506624 0.0186215 0.0203369 0.0119864 0.000248339 0.0110541 
-0.00847115 -0.045323 -0.00349938 -0.00619674 -0.00419469 -0.0171461 -0.0248578 -0.0241718 -0.00247774 
-0.00413155 -0.00528463 0.0269062 0.0552138 0.0586231 0.0733183 -0.000261374 0.000986734 0.0275785 
0.0332485 0.0385826 -0.0463166 0.00512885 0.00336195 0.0438318 0.0707738 -0.00518519 0.0296294 
0.00675775 0.0422355 0.00100536 -0.000354428 0.000152187 -0.00824385 -0.00725487 0.00360517 0.0023327 
0.00196413 -0.00783105 -0.0295554 0.0011152 0.00110548 0.00574823 0.0188167 -0.00332607 -0.00438527 
-0.000849508 -0.000697341 0.0167507 0.00255954 -0.108848 0.0339873 0.00183668 0.00246296 -0.00976188 
-0.00352805 -0.00365315 -0.00426892 -0.00292496 -0.002467 -0.00303076 0.0061723 -0.0021098 -0.00306458 
-0.00451271 -0.00331425 -0.00265704 -0.00394429 0.00167254 -0.00486644 -0.00382932 0.00110344 -0.00250331 
-0.00100732 0.000101992 0.000721841 0.0130477 0.0151568 0.0200391 -0.0271283 -0.0226826 -0.00153074 
0.0115929 0.0010257 0.0252869 0.00855138 0.00777612 0.00938794 0.0236642 0.00455151 0.00104704 
0.000614601 -0.0568083 -0.0642293 -0.00616984 -0.020354 -0.0243744 0.0325668 0.0341594 -0.00934406 
0.00436734 0.0148505 0.0186459 -0.00209928 -0.00401372 0.00322571 0.00317085 0.00210839 0.00347297 
0.0053825 0.00432434 -0.00348968 0.000844087 0.0036206 -0.00441749 0.00185909 0.0116069 0.0161333 
0.00219662 0.00176885 -0.0427246 0.00132632 0.0321343 0.00346493 0.00371557 0.00389798 0.00151702 
0.00084951 0.0216513 -0.000852136 -0.0022981 -0.066239 0.00292737 0.00319859 -0.00502835 -0.00602031 
-0.00570656 0.005823 0.00494462 0.00508082 0.00668684 0.000228679 -0.0169789 -0.0078501 -0.00830959 
-0.0277339 -0.0262334 0.0149353 0.0159754 0.0153351 0.0140044 0.0180037 -0.00724609 -0.0063413 
-0.00118284 0.0213022 0.00203126 -0.0312146 0.00216003 0.00079179 0.000931395 -0.00156841 -0.00324385 
-0.00174903 -0.00350463 -0.0104669 -0.00962367 -0.00625514 -0.0153393 -0.0178153 -0.0147281 -0.0210123 
-0.0060919 -0.00274452 -0.00653121 -0.000444468 0.00340226 0.00372585 0.00128646 0.0122726 0.0205661 
0.0012931 -0.00637961 -0.00477148 0.00223767 0.0309394 -0.0578529 -0.0550926 0.025074 0.0225022 
0.0234823 -0.00153528 -0.00323584 0.0228011 0.015827 0.0340235 -0.0131252 0.000764363 -0.00866411 
-0.00783958 -0.000154469 -0.00423819 -0.00155894 -0.00111123 -0.00143327 -0.00175367 0.00163104 0.00142832 
0.00118101 0.00234266 0.00591796 -0.00218928 0.000954112 0.000889705 0.00180165 0.00259574 -0.000649481 
0.00181419 -0.000539324 -0.00112775 0.00212629 0.00828526 0.00238959 0.00161701 0.00129246 0.00408105 
0.00212179 0.0212406 0.00200555 0.0513814 0.097318 -0.0449225 -0.0509417 -0.0623839 -0.0534145 
1.40094e-05 0.000403599 0.000364167 -0.0050959 -0.0095615 0.00501686 -0.000243653 0.00687318 0.00615686 
-0.00383537 -0.00219371 0.00660928 0.00543634 -0.00228744 0.00183303 0.00490791 0.000338277 -0.00466766 
0.00557369 0.00706095 0.00696523 -0.00216917 0.00230396 0.00204224 0.00289665 0.000727386 0.00259521 
0.0148958 0.00454492 0.00340955 0.0444532 -0.00399564 0.0136461 0.0528547 -0.0562325 -0.105712 
0.010536 -8.94079e-05 0.0233562 -0.00208124 0.0245058 0.00627691 0.00751641 0.00641735 0.00604036 
0.00543029 0.00509384 0.00121023 0.00187776 -0.0212426 -0.0385061 -0.00792852 -0.0184837 0.0851811 
0.0231353 -0.0373505 0.0178679 0.0237201 0.0193922 -0.00152913 -0.00447086 0.00727171 -0.00764752 
-0.0002418 0.00416152 0.00730623 0.00647444 0.00347522 0.00390002 -0.00409313 -0.00614977 -0.00762861 
-0.0186089 0.000330251 -0.00102681 -0.00105226 0.0459228 -0.00434441 0.0130872 -0.0171355 -0.0159078 
0.00598942 0.00227412 -0.0014084 0.00673678 0.0069614 0.00569634 0.00632737 0.00653397 0.00359731 
0.00298833 0.00377626 0.00676097 0.00552204 0.0260924 0.000658969 0.00107474 -0.000283676 -0.000261535 
-0.00541317 -0.000449829 0.00188981 -0.00553165 -0.00494124 -0.00380212 -0.00651881 -0.00324153 -0.00133498 
0.00391654 -0.00208179 -0.00252794 -0.00795149 0.00539929 0.00250477 -0.0952723 0.00180284 0.0133533 
0.016333 0.0175357 0.0180665 0.0168171 -0.00293958 -0.00459139 0.0014505 -0.0198032 -0.0184957 
0.00168424 -0.000598335 0.00014016 -0.00113791 0.00694658 -0.0436135 -0.0551662 0.00193509 -0.0013821 
0.0104713 0.00060062 0.000623678 0.00013635 0.0571671 0.0509594 -0.0766056 -0.0709346 0.00059981 
0.0241717 0.00157876 -0.00302984 0.00305074 0.00156633 0.000752581 -0.00340786 -0.00112005 0.00843379 
0.00151653 0.00153485 0.00167359 0.00203833 0.00126071 0.00122653 0.00289852 -0.000924618 -0.0202905 
-0.0484092 -0.0595858 -0.0792562 -0.000359475 1.06713e-05 0.0478639 0.0502873 0.0491895 0.000250264 
0.00118407 -0.00119162 0.0450156 -0.018451 0.0020754 -0.00657119 0.00423892 0.00322138 0.0134106 
0.00911171 0.00357524 0.00564209 -0.00038258 0.0027849 0.00828325 0.00367823 -0.00719887 0.00311498 
0.00508979 0.0500192 0.0502375 0.0185145 -0.0745813 0.0195661 0.0165537 0.0162017 -0.00364319 
-0.00309233 -0.0023812 -0.00181565 -0.0477067 -0.0109703 -0.037977 0.0047858 0.00533635 -0.0613027 
0.0404249 0.00052361 -0.00331465 -0.00238134 -0.00332723 -0.00103706 -0.00289752 -0.000959098 0.00156 
-0.00439195 0.0204355 0.00263701 0.0115677 0.00704235 0.0228559 0.00141355 -0.00969628 -0.00994062 
0.00708249 -0.014516 0.00429395 0.00392283 0.00226768 0.00125574 -0.0148736 -0.0106007 -0.0191871 
-0.000396135 9.03911e-05 -0.00166806 0.000525293 0.000293366 0.00072012 0.00208942 0.00761483 0.03101 
0.0295934 0.020455 0.04773 0.000990528 0.00204413 0.000616247 -0.000200789 0.0444421 -8.38422e-05 
1.33987e-05 -0.00035776 -0.000253235 -0.00436865 -0.0503959 0.000490875 0.00100921 -0.0048719 -0.0113296 
0.0303545 0.0245345 0.00255408 0.00339462 0.0132591 -0.0167057 -0.00702015 0.0334301 -0.0262377 
-0.0453832 -0.0346952 0.0092223 -0.00101102 -0.001659 0.0253838 -0.0162573 0.00608199 0.00494531 
0.00791685 -0.000464444 -0.00111213 -0.00166843 -0.00598452 -0.00622711 -0.00682497 -0.0226411 -0.00380614 
-0.00211093 -0.00208203 0.00160581 0.000967735 0.00104338 -0.0533382 0.00124404 -0.000114489 0.00100858 
0.00250726 0.00249675 -0.00191028 -0.00178106 0.00127275 0.000281365 0.000261637 -0.00026691 0.00514188 
-0.00490469 -0.00394705 -0.00432836 -0.000879952 0.00122924 -0.000801323 -4.00171e-05 0.000312091 0.0408318 
0.0514564 0.0429593 0.00156225 0.00567577 -0.00143861 -0.0558898 -0.00115343 0.0187805 -0.0545514 
-0.00927207 0.00508623 -0.00205158 -0.0159365 -0.00477325 -0.00569014 0.074208 0.0259519 0.0311312 
0.00253946 0.0406255 -0.0499854 0.0138819 -0.0709937 0.027715 -0.000238787 -0.000565493 0.00337478 
-0.00148485 0.0541535 0.00885682 -0.00067674 -0.00196412 0.00592433 0.00623997 0.000528449 0.00756124 
0.000524985 -0.014639 0.00155078 -0.000329514 0.003958 -0.00204099 -0.00234765 0.00115425 -0.0506098 
0.000395655 0.00864651 0.000677107 0.00122822 0.00270387 0.0376931 0.0300292 -0.00549153 0.0321509 
-0.000785987 -0.0040828 -0.00477206 -0.00278213 -0.0639527 0.0107158 0.00637775 -0.00188045 -0.0163856 
-0.0128322 -0.00245264 0.0121281 0.00229269 -0.046459 0.030833 -0.0158593 -0.0468473 0.00420637 
0.000204922 -0.00242503 -0.00181267 -0.000616339 -0.00103949 -0.00148137 0.000377216 0.00115237 0.000870742 
-0.00215911 -0.000674566 -0.00558378 -0.0049052 -0.00584357 -0.00323961 -0.00098612 -0.00369691 0.00147231 
0.00114148 0.00133158 0.0015446 0.000295048 0.00552627 -0.00329365 -0.00282843 -0.0305485 0.0589705 
0.0618699 0.0136612 0.00995434 -0.0505206 -0.00634229 -0.00294003 0.00992498 0.00880902 -0.0612276 
0.018539 0.00219893 0.0130881 -6.86239e-05 -0.00398849 0.00312424 0.00337783 0.00416617 0.0222907 
-0.0074358 -0.0588412 -0.0592345 -0.0122576 -0.00297713 0.0270133 0.00332343 0.0067593 -0.0222455 
0.0165638 -0.0263499 0.000861603 0.0991531 0.0823469 -0.00438306 -0.0231476 -0.0151311 -0.0236025 
-0.0106743 0.019756 -0.0326059 -0.0237556 -0.000622025 -0.00156397 -0.00461907 0.00270492 -0.00257982 
0.00515813 -0.00782542 0.000593486 -0.0168738 -0.010173 -0.0198951 -0.0137812 -0.00708217 -0.00290619 
0.0129583 0.00513427 -0.0115133 0.0477694 0.00276783 0.00347964 0.000299772 0.00626326 0.00105777 
-0.00630855 0.00306695 -0.0740385 0.00386313 -0.00114397 0.00444301 0.00205365 -0.00513315 -0.00570071 
-0.0102358 0.000764883 0.0539498 0.0516802 -0.00789344 -0.014791 -0.01453 -0.0104101 -0.0122664 
-0.0124938 0.00803549 0.00560206 0.00610068 0.00202442 -0.00780299 -0.00710644 0.00815781 0.00324625 
-0.0045204 -0.00354682 0.0295251 -0.00464047 -0.00418602 -0.0028212 0.0123813 0.00134467 0.0010015 
0.00814146 0.0021374 -0.019798 -0.0218253 -0.0110132 -0.0248157 0.0135576 0.00632503 0.00712766 
0.0112285 -0.00931662 0.00613416 0.00737095 -0.0225012 0.00857091 -0.00949976 -0.00228573 0.00735777 
0.00724144 0.0101998 -0.00216143 -0.0343682 -0.0091872 -0.00882635 0.00237137 0.0003696 -0.00131739 
-0.0407442 -0.00811092 -0.00833672 -0.014415 -0.0109154 0.00558549 0.000544146 0.00412625 -0.0090049 
0.0202141 -0.0223241 -0.0272256 0.0171975 0.0177161 0.00556789 0.0343387 -0.00830492 -0.00703955 
0.00766075 0.00196318 -0.000960817 -0.00844624 0.000622091 0.00604692 0.0163503 0.00253181 0.0150958 
0.00937403 0.00867308 0.00371085 0.00497697 -0.0126213 0.00565005 0.00297453 0.000772702 -0.0103679 
0.0160033 0.0167611 -0.000709059 0.00431652 0.0149821 0.00366499 -0.00740462 0.00460107 0.0170271 
0.0159969 0.00613086 0.00864362 0.0116398 0.0175822 0.0187531 0.0161756 0.0114256 0.00237745 
0.111765 0.00596289 -0.0091797 -0.0024381 0.00467732 -0.0042175 -0.0128325 -0.0137211 -0.0140005 
-0.0117546 0.00524434 -0.0157786 -0.00151325 0.00198234 -0.00709861 -0.00205239 0.0144805 -0.00355517 
-0.00317498 -0.00722875 0.00470257 0.00365629 -0.00202719 -0.00650191 -0.0114087 -0.00304419 -0.00217638 
-0.00256665 -3.24036e-05 -0.0111553 -0.0179059 0.0200353 -0.00283568 -0.00310453 -0.00607824 0.0181636 
0.0164321 0.0130488 0.0186512 -0.00632348 -0.00532699 -0.00914226 -0.0306704 -0.0418129 -0.0303358 
-0.023694 -0.0365287 -0.129882 0.00665308 0.00280437 -0.000534711 -0.00428774 0.00216131 0.000175497 
0.000544573 0.000750491 -0.00456884 0.00156349 -0.000884027 0.00670432 -0.00304302 -0.00151487 0.00930681 
0.0509396 -0.000221736 -0.000845161 4.30741e-05 -3.77995e-05 -0.000280725 -0.0527748 0.020197 0.0216951 
-0.0312465 -0.0243987 0.00109363 -0.0285181 -0.00749901 0.00151572 0.0018366 0.0077527 -0.0015619 
0.0011145 -0.0477138 0.00373207 -0.00797492 0.00217483 -0.0500761 0.0193126 -0.00110856 -0.0248367 
0.0748113 0.0897504 0.0209792 0.0257652 -0.039641 5.26748e-05 -0.00210678 0.105001 0.00132203 
0.000671804 -0.00819641 0.00027462 -0.00857434 0.00499406 -0.00119372 0.00161248 -0.00263446 0.00519374 
0.000336954 -0.0275 -0.036796 0.000699315 -0.00182312 -0.0157724 0.000570675 0.002533 0.00014389 
0.00176996 -0.0320599 0.0101129 0.00105337 0.0163923 -0.00694823 -0.00523093 -0.000580071 0.00333676 
-0.00183795 0.0132501 0.00460327 -0.0034147 -0.0015476 -0.00624389 -0.022358 0.00495892 -0.0119227 
-0.00122777 -0.00338734 0.000334709 0.0662964 0.00339173 4.10037e-05 -0.0347467 0.0896947 0.0126196 
-0.0172019 -0.0137144 0.000615111 -0.00211055 0.00202863 0.00208821 -0.00921155 -0.0785049 0.0344364 
0.0350212 -0.00480448 0.00604104 -0.00343135 0.00582029 -0.00234438 0.000874362 -0.000616711 -0.00600641 
-0.0162692 -0.00126674 0.0570534 -0.00157085 -3.97726e-05 0.00439583 0.00265707 -0.00210791 -0.0736446 
-7.09502e-05 -0.000509854 -0.0185602 -0.00409071 -0.00120698 0.000243276 -0.0675189 0.0327746 0.0839447 
0.0172258 -0.00159406 -0.0408144 -0.0210085 0.00430165 -0.000866046 -0.0333239 -0.014739 -0.00821824 
-0.00745215 -0.031932 0.0417938 -0.0165385 
Stress%20xz%20component 1 12442 double
7.19237e-08 -0.0147778 -0.0249974 9.60166e-08 7.23862e-06 -9.21324e-07 -1.03538e-05 5.3532e-06 0.039194 
-0.018467 -0.0275826 0.0124988 -0.0142876 0.0360539 0.0169653 -0.0379623 -0.000188832 0.003396 
0.000265103 -0.00497493 -0.00311956 -0.000285856 -0.00111939 -0.00144386 -0.0017611 -0.00107779 -0.000634749 
-0.00137637 -0.000968544 -0.00126488 -0.00175202 -0.00137371 -0.000508059 -9.47329e-05 5.78356e-05 0.000525618 
0.000464839 0.00106808 0.00168664 0.00221469 0.00172123 0.00149162 0.00724934 0.000107609 -0.00275037 
-0.000540822 -0.00193982 -0.0032655 -0.000806475 -0.0020454 -0.00227314 -0.00186584 -0.00130239 -0.00139822 
-0.00100242 -0.00117948 -0.00162397 -0.00162268 -0.00100902 -0.000291195 -6.08985e-05 0.000619562 0.000473513 
0.00111646 0.00179602 0.00230039 0.00312225 0.00381018 -0.001899 -1.49283e-05 -4.87451e-07 1.00934e-05 
1.20239e-05 1.77183e-05 1.846e-05 1.81736e-05 1.48744e-05 1.31963e-05 1.70883e-05 1.18178e-05 2.65501e-06 
1.20796e-05 5.63971e-06 3.47801e-07 -3.65303e-06 -1.24922e-05 -1.45446e-05 -1.18888e-05 -1.47664e-05 -1.81862e-05 
-1.87467e-05 -1.26114e-05 -9.21178e-06 -6.80851e-06 1.2719e-05 1.00778e-05 -0.00379406 -0.00069754 -0.000231214 
-0.000154814 -7.93338e-05 -5.93353e-05 -3.67444e-05 -2.58719e-05 -1.92315e-05 -1.67496e-05 -1.45491e-05 -1.09762e-05 
-1.28962e-05 -1.15938e-05 -7.3741e-06 -2.41228e-06 8.90701e-08 7.04662e-06 1.11014e-05 1.3894e-05 1.6808e-05 
1.67201e-05 2.02831e-05 1.80626e-05 1.36511e-05 1.13533e-05 9.97986e-06 4.29102e-06 9.93463e-08 -4.95293e-06 
-8.36296e-06 -1.06027e-05 -1.32599e-05 -1.25436e-05 -1.23675e-05 -8.57761e-06 -6.8885e-06 -4.14754e-06 -1.52797e-06 
1.06789e-06 3.68005e-06 4.85979e-06 7.65351e-06 1.27903e-05 6.18312e-06 -2.18152e-06 -7.88865e-06 -6.73401e-06 
-5.47032e-06 -3.41441e-06 -8.02649e-07 1.53753e-06 4.15515e-06 6.33338e-06 7.4157e-06 9.3237e-06 1.07674e-05 
8.9662e-06 9.12359e-06 6.6376e-06 3.25899e-06 -1.09339e-06 -6.51237e-06 -9.64357e-06 -1.34324e-05 -1.40026e-05 
-1.73229e-05 -1.43153e-05 -1.70363e-05 -1.59789e-05 -1.08278e-05 -8.08977e-06 -4.71175e-06 -3.0448e-07 6.01643e-06 
8.44596e-06 1.1348e-05 1.34139e-05 1.48943e-05 1.69265e-05 1.65488e-05 2.22151e-05 2.76418e-05 3.75219e-05 
5.03049e-05 7.29446e-05 0.000117519 0.000250453 0.000841782 0.00738202 -0.0115818 -0.00246946 -0.00288503 
-0.0029685 -0.00249789 -0.00231859 -0.00151648 -0.00226108 -0.00309383 -0.00291435 -0.0026338 -0.0025928 
-0.00677108 0.000137196 0.00387795 0.00326066 0.00277645 0.0037639 0.00339894 0.00307289 0.00349106 
0.003686 0.00331666 0.00301469 0.00308736 0.00869166 1.46244e-05 6.8651e-06 1.79317e-06 -8.7348e-06 
-1.24672e-05 -1.13401e-05 -1.57059e-05 -1.70137e-05 -1.87614e-05 -1.31228e-05 -1.52378e-05 -9.5825e-06 -4.9291e-07 
4.95651e-06 1.05402e-05 1.43174e-05 6.04908e-06 1.60131e-05 -3.25351e-06 2.48539e-06 1.62561e-05 1.70002e-05 
1.55293e-05 1.1128e-05 2.3533e-06 -8.04476e-06 -1.81876e-05 0.0194212 0.00074685 0.000298049 0.000151483 
6.49183e-05 4.41926e-05 3.30661e-05 3.07369e-05 1.10134e-05 1.33506e-05 9.98068e-06 1.02612e-05 9.58206e-06 
6.23743e-06 3.62512e-06 2.66971e-06 -1.39762e-06 -4.59078e-06 -6.80641e-06 -1.0248e-05 -1.11218e-05 -1.13676e-05 
-1.14817e-05 -9.53309e-06 -1.08476e-05 -1.01594e-05 -6.18646e-06 -2.09298e-06 -1.57984e-07 3.3638e-06 5.74049e-06 
7.94463e-06 8.67608e-06 9.38097e-06 8.20618e-06 6.60858e-06 5.29076e-06 1.82598e-06 4.20618e-07 -1.59608e-06 
-3.91266e-06 -5.30734e-06 -7.12171e-06 -9.03225e-06 2.32475e-06 -8.49084e-06 6.17454e-06 7.25751e-06 5.26779e-06 
4.00777e-06 8.95551e-07 -1.61517e-06 -4.04149e-06 -5.60979e-06 -6.41472e-06 -6.95963e-06 -1.11731e-05 -1.19874e-05 
-9.74627e-06 -7.66316e-06 -3.09813e-06 1.1101e-06 6.38546e-06 7.80234e-06 1.17672e-05 1.20705e-05 1.41369e-05 
1.5219e-05 1.22653e-05 1.32244e-05 1.06775e-05 7.89332e-06 2.39909e-06 -6.05286e-07 -4.8806e-06 -9.36747e-06 
-1.25547e-05 -1.41815e-05 -1.47755e-05 -1.7463e-05 -1.9651e-05 -2.39947e-05 -2.38817e-05 -4.07399e-05 -5.91225e-05 
-7.26654e-05 -0.000102411 -0.000347352 -0.000743846 -0.00485179 0.0166959 0.0048203 0.00331988 0.00262409 
0.00307423 0.00325884 0.00339695 0.00336772 0.00349462 0.00317879 0.00338619 0.0051582 0.00939646 
-0.00383455 -0.00349715 -0.0030486 -0.00284189 -0.00238152 -0.0026193 -0.00262797 -0.00237847 -0.00228945 
-0.0029005 -0.00268548 -0.00323348 -0.00182452 -1.19009e-06 -2.93543e-06 -3.12458e-06 6.30815e-07 -4.28349e-06 
-3.83398e-06 -4.38828e-06 -4.65641e-06 -2.92478e-06 -1.88904e-06 -4.52014e-06 -4.23934e-06 -8.88146e-06 -3.65412e-06 
-1.82703e-06 -3.15266e-06 4.59064e-06 2.74337e-07 3.40571e-06 -1.14123e-06 3.20246e-06 -2.37981e-06 6.39737e-07 
1.03153e-06 -2.43172e-06 -2.86095e-06 -4.78684e-06 -0.00128147 -3.86507e-05 -2.29344e-05 1.46249e-05 3.29287e-05 
1.79746e-05 2.17722e-06 3.84581e-06 7.96511e-06 5.10099e-06 2.91946e-06 -3.76646e-07 6.31075e-07 -2.37324e-06 
-3.37831e-06 -1.60205e-06 -4.93149e-06 -6.02147e-06 -6.56481e-06 -8.037e-06 -8.40798e-06 -7.41566e-06 -6.29896e-06 
-6.1523e-06 -4.97312e-06 -3.52408e-06 -7.97028e-07 1.35385e-06 2.84958e-06 5.17985e-06 6.26563e-06 6.00556e-06 
5.53089e-06 5.18157e-06 3.57329e-06 2.51041e-06 5.63714e-07 -9.20013e-07 -2.29754e-06 -2.45987e-06 -2.39527e-06 
-2.60037e-06 1.21965e-06 2.77831e-06 -2.49087e-06 -1.71569e-06 -7.98705e-07 -1.09923e-06 3.11611e-07 1.23933e-06 
-2.56024e-07 -1.29117e-06 -3.05783e-06 -2.0722e-06 4.43477e-07 1.25847e-06 7.29001e-07 5.15796e-07 3.44993e-07 
-4.9434e-07 -1.50974e-06 -1.0434e-08 -6.73388e-07 -3.13183e-07 -4.3289e-07 3.60923e-08 -1.62591e-07 4.3865e-07 
9.30678e-07 1.18237e-07 3.43106e-07 1.93597e-06 1.24512e-06 1.79857e-06 2.10392e-06 2.62681e-06 3.89625e-06 
6.10638e-06 2.47257e-06 2.80201e-06 -3.68925e-06 6.85184e-06 1.71579e-06 -2.04299e-05 -0.000143052 -8.16593e-05 
7.84357e-05 -0.00201802 -0.000522273 0.00126411 0.00171909 0.00035104 -0.000633726 6.58144e-05 0.000346004 
2.28219e-05 -3.47321e-05 0.000259131 -8.73268e-05 0.000115661 0.000428191 0.000392779 5.3826e-05 -6.30759e-05 
-0.000264696 -0.000339582 -0.000316341 -0.000586746 -0.000920126 -0.00112685 -0.000504984 0.00290758 -0.0013765 
0.00344498 -0.000621993 0.000231946 0.000280081 0.000317604 0.000312733 0.000255724 0.000295692 0.000287349 
0.000321592 0.0002112 5.08049e-05 -0.000694332 0.00199788 -0.000992661 0.002416 4.14574e-05 -0.000350916 
-0.000345767 -0.000301033 -0.000330439 -0.000369126 -0.000346415 -0.000348931 -0.000392167 -0.000278277 -0.000264643 
-5.51388e-05 -0.000284475 -0.00495751 0.00462016 0.00451791 -0.00982827 -0.00114536 2.5552e-06 4.32908e-07 
-1.78096e-06 4.09603e-06 -2.38656e-06 4.08241e-07 6.19311e-07 1.30907e-06 -8.96517e-07 -1.19642e-07 7.98075e-08 
-1.4738e-06 -1.42471e-06 -2.13693e-07 -1.25332e-06 -1.26262e-07 4.2049e-07 2.32204e-06 -2.59099e-07 1.79138e-08 
8.53819e-07 -2.68692e-06 -3.98607e-06 -2.03765e-06 -0.000142454 0.000255947 -0.000103671 -5.99215e-06 -1.64786e-05 
-7.2153e-06 -1.13834e-05 2.0854e-05 5.97795e-06 -7.67326e-07 3.90049e-07 2.32054e-07 -5.01793e-06 3.92798e-07 
3.04096e-07 1.05404e-06 -1.3076e-06 -1.84591e-06 -1.83239e-06 -2.44834e-06 -2.84977e-06 -2.26333e-06 -2.77522e-06 
-1.63755e-06 -3.83639e-07 -1.02796e-06 -9.8254e-07 1.25643e-08 3.54711e-07 1.43759e-06 1.79561e-06 2.44526e-06 
2.43995e-06 1.02602e-06 9.25965e-07 4.81374e-08 -5.75299e-07 -2.48398e-07 -3.71079e-07 -3.87674e-07 9.72213e-07 
-3.1665e-08 1.9567e-07 1.88974e-07 -0.000631124 -0.00019146 -9.72944e-07 -6.65403e-07 -6.44542e-07 -1.71288e-07 
-1.1556e-07 -1.21487e-07 1.16468e-06 9.94787e-07 6.17594e-07 -1.06685e-06 8.66795e-07 -3.6084e-07 3.87595e-07 
1.11499e-06 1.47127e-06 -5.86606e-07 1.54519e-06 1.33005e-06 1.43687e-06 1.92924e-06 1.17582e-06 1.54316e-06 
5.90113e-07 1.319e-06 9.00029e-07 1.65186e-07 -3.8278e-06 1.52136e-06 -9.05958e-07 -3.29716e-06 -1.8839e-06 
1.29584e-06 -3.60273e-06 -1.775e-06 -2.88306e-06 -1.7485e-05 8.30906e-07 -6.26912e-06 -2.0724e-05 5.47114e-06 
-0.000244109 -0.000656162 0.000153115 -0.000430793 0.000305097 -0.000122823 -7.95442e-05 -5.92973e-05 -4.00725e-05 
-3.50899e-05 -0.000112574 -3.81778e-05 -9.14822e-05 -3.52638e-05 -4.02665e-05 5.9953e-05 4.92935e-05 -5.6219e-06 
5.64448e-05 5.47585e-05 4.83261e-05 0.00016537 0.000163995 0.000127848 -0.000692024 0.000574701 -1.72614e-06 
1.18428e-05 -2.698e-05 5.0631e-07 1.90344e-05 4.78138e-05 -0.000102155 -0.000152945 -4.76788e-05 0.000549128 
-0.000751184 -0.000587072 0.000563495 -0.000595381 -5.68881e-05 -3.14661e-05 -1.34004e-05 1.81012e-07 -5.42409e-06 
8.62116e-06 2.57593e-05 9.71318e-05 0.000103938 0.00018928 0.000894744 -4.09412e-05 0.000128045 -5.70787e-05 
4.6585e-07 0.000144394 0.000515068 0.00039492 -0.00126003 -0.000107413 -0.000144621 1.54458e-06 1.22159e-06 
1.77868e-06 -1.06171e-06 9.80444e-07 1.95366e-07 9.84238e-07 -1.29897e-07 -1.19186e-07 2.06612e-07 1.38756e-07 
3.3048e-07 4.24444e-07 1.73333e-07 6.55387e-08 -6.95805e-07 -4.09427e-07 -2.03816e-07 6.42142e-07 3.89447e-06 
-6.97435e-07 1.70016e-06 -1.10497e-05 -3.15069e-06 -1.97751e-06 9.36168e-06 -9.94234e-06 -4.75122e-06 -7.24157e-07 
6.15799e-07 1.6891e-07 -6.86363e-07 4.7575e-07 -2.69411e-07 1.16795e-07 7.04213e-07 2.37537e-06 2.01591e-06 
1.74457e-06 2.23923e-06 2.72919e-06 2.27401e-06 5.19666e-07 -1.18745e-06 1.74361e-06 1.13375e-06 -1.4249e-06 
-1.32913e-06 -1.07269e-06 -9.98919e-07 -9.36022e-07 -8.69457e-09 -8.60823e-07 -1.85976e-06 -2.25336e-07 -2.07813e-07 
-6.68299e-07 -4.09565e-07 1.95953e-06 -1.0043e-06 2.61514e-06 -2.79609e-06 -3.05878e-05 0.00011804 1.37243e-05 
2.65358e-05 -4.0569e-07 -1.02169e-06 6.25314e-07 2.82249e-07 5.17325e-07 2.32019e-06 -5.69866e-07 -3.14287e-07 
-3.17941e-06 8.63076e-07 -2.74091e-07 1.76706e-06 1.61479e-06 3.45766e-06 -5.07018e-07 2.27071e-06 -1.07569e-07 
3.18156e-06 1.96992e-06 1.95764e-07 5.87767e-07 9.84033e-07 6.60132e-07 -5.17307e-06 -4.51635e-06 -1.7084e-06 
-5.31775e-06 8.69975e-07 -3.85627e-06 -3.99372e-06 -3.37612e-06 2.23956e-06 -5.3428e-06 -8.83004e-06 -8.94323e-06 
3.07414e-06 -1.06859e-05 1.72828e-05 -0.000141633 -4.06874e-05 -0.000198055 -3.26165e-05 3.16657e-06 7.39807e-05 
4.20652e-05 9.21688e-06 6.76837e-06 -4.00483e-06 2.85379e-06 -1.86049e-05 -5.27194e-06 5.1673e-06 7.40449e-06 
1.68909e-05 1.81858e-05 4.71961e-06 1.48766e-05 2.29941e-05 3.13931e-05 -1.74802e-06 2.74319e-05 -2.44471e-05 
-9.77414e-05 2.86316e-05 -6.22841e-05 2.28745e-05 9.39357e-06 -3.18928e-05 -1.69953e-05 2.7349e-05 -3.20253e-05 
-4.70108e-05 -0.000105062 -0.000246026 0.000121678 0.000417454 -8.16335e-06 -6.98737e-06 -2.47181e-07 2.38341e-05 
3.13201e-05 3.4731e-05 0.000106098 -6.06115e-05 -0.000101035 -2.45946e-07 -2.39681e-05 -1.29863e-05 -1.14533e-05 
5.85852e-06 -4.27232e-08 8.92217e-05 3.54536e-05 -3.59401e-05 -0.000120901 -1.42324e-06 6.96079e-05 -1.09325e-05 
-0.00017023 4.09453e-05 -9.31969e-06 -2.19755e-05 2.15652e-06 1.59896e-06 -3.1475e-07 1.71185e-06 3.68577e-06 
-8.70929e-07 -3.02179e-07 -2.03059e-06 -2.00855e-06 6.60723e-06 5.00076e-06 -2.4753e-07 -2.56972e-07 -7.43672e-07 
7.5126e-08 -1.79602e-07 -5.3619e-07 -8.5148e-07 -1.16792e-06 -2.07487e-05 5.25688e-05 -5.08205e-05 1.0055e-05 
3.9683e-06 -1.74336e-06 2.91241e-05 -5.62283e-06 -2.97551e-06 -8.68854e-06 -5.02129e-06 -2.026e-06 -1.35435e-06 
6.9891e-07 -8.24433e-07 -1.49449e-06 7.94275e-06 5.4081e-06 4.82876e-06 3.52269e-06 1.61022e-06 1.21194e-06 
2.48796e-06 2.56298e-06 7.35565e-07 4.21692e-06 1.57731e-06 -1.93164e-06 7.01065e-07 -6.5087e-07 -1.44247e-07 
-3.28046e-06 -1.20933e-06 -1.4899e-06 -4.20467e-07 1.8152e-07 -1.35376e-06 -1.17725e-06 -7.40077e-07 -1.31941e-06 
9.83128e-08 -3.64875e-07 -6.19059e-07 3.69845e-06 -5.91194e-07 1.85312e-05 -4.34201e-05 1.93903e-06 -1.08698e-06 
-3.06348e-07 -1.26789e-06 -5.08536e-07 -5.13491e-06 1.02813e-06 -4.81791e-06 1.29756e-06 6.63506e-07 2.10965e-06 
4.3584e-06 -4.51074e-07 6.50727e-06 5.3618e-06 -2.40619e-07 -1.90082e-06 -2.44986e-06 -5.59444e-06 -3.69506e-06 
2.17656e-06 -6.55744e-06 3.23993e-06 5.11327e-06 1.57498e-06 -5.1184e-06 -2.99601e-06 9.6373e-07 1.34361e-06 
-7.9751e-06 -6.28129e-06 -7.07716e-06 1.14365e-05 -5.07082e-06 4.62087e-07 1.67271e-05 1.88329e-05 -3.9698e-05 
-1.32838e-05 1.37479e-05 2.94574e-06 -2.71297e-05 -5.08613e-06 -2.82465e-06 -8.60335e-07 -6.09566e-06 1.41468e-06 
6.95565e-06 4.32626e-06 3.06507e-06 1.397e-05 -5.06978e-06 6.93137e-06 1.51612e-05 5.65522e-06 2.89464e-05 
-4.78878e-07 -2.13053e-05 -1.30227e-05 -1.35759e-05 -4.16959e-05 -3.89512e-05 4.10282e-05 -4.37924e-05 -3.16821e-05 
5.05326e-06 1.95773e-05 -1.72052e-05 -1.94777e-05 -8.76978e-05 1.29583e-05 5.90593e-05 2.50279e-06 3.84538e-05 
1.28741e-05 -6.11321e-05 -1.45991e-05 1.66199e-05 -1.60131e-05 -5.46016e-07 -8.8344e-06 2.11542e-05 2.02148e-05 
3.11977e-08 4.51033e-05 2.65678e-05 5.75451e-05 -1.05509e-05 1.49233e-06 -5.47162e-05 -3.49864e-05 3.05794e-06 
5.38692e-06 1.37821e-07 -2.08559e-06 -3.78454e-06 2.88843e-06 7.96462e-06 -8.24757e-06 -1.08363e-06 -4.59255e-06 
3.29009e-06 3.45113e-06 1.92499e-06 -4.05195e-06 -6.69069e-08 -2.0588e-06 -1.89693e-05 2.2559e-05 2.39523e-05 
2.10932e-05 -2.34775e-05 -1.16691e-05 -1.52932e-07 -2.04287e-05 -4.33179e-06 -1.0245e-05 -4.80189e-06 -3.24757e-06 
2.47173e-06 2.39314e-07 7.7981e-06 -1.26913e-06 2.95694e-06 9.25149e-07 -8.32025e-07 1.64103e-06 -8.66205e-06 
-8.19305e-06 -8.39519e-06 2.39528e-06 3.08638e-06 2.21423e-06 -5.71964e-06 -5.07506e-06 -9.04641e-06 -8.18053e-07 
5.85525e-08 2.73202e-06 -2.58754e-06 -6.05713e-06 3.65224e-06 1.88845e-06 1.54693e-06 -1.33565e-06 9.11016e-07 
-6.07417e-06 -2.02083e-05 -5.34198e-06 1.42457e-06 -1.50812e-06 -1.33526e-06 4.57798e-06 -1.25729e-05 4.32842e-06 
-6.73874e-06 1.23048e-05 -4.10212e-06 4.36777e-06 8.00029e-06 1.5692e-05 -8.63631e-06 -9.27446e-06 -3.82905e-06 
-1.42638e-06 -1.78556e-06 7.8507e-07 1.70167e-05 -2.31134e-06 -1.31279e-05 7.3908e-06 -1.01587e-05 1.20192e-05 
-2.78377e-06 5.26643e-06 6.78854e-07 -6.41693e-06 7.50863e-06 9.61368e-06 8.61361e-06 -2.10285e-05 1.06476e-05 
-5.31723e-06 -1.78222e-06 -3.54464e-05 1.87188e-05 3.95868e-06 7.30606e-06 1.43927e-05 -1.52442e-05 1.13372e-05 
2.56289e-06 -2.51883e-05 1.88582e-06 1.16321e-07 1.05698e-05 2.99869e-06 5.59291e-06 -9.85053e-06 -2.49841e-06 
-1.51407e-05 5.35241e-06 -2.07173e-05 -1.13418e-05 3.90906e-05 -5.41479e-06 -6.59581e-05 -1.15308e-06 -5.00202e-05 
1.09247e-05 8.36822e-06 1.98427e-05 3.1773e-06 2.75492e-06 -2.85409e-06 -1.62946e-05 -2.68782e-05 -1.6226e-05 
1.14134e-05 -8.13866e-06 1.10065e-05 2.75952e-05 1.07644e-06 -4.6692e-06 9.56551e-06 2.32953e-06 2.22465e-05 
5.331e-06 5.81705e-06 -1.03675e-05 5.756e-06 -8.86673e-06 1.05796e-05 9.58831e-05 -4.09271e-06 -2.76635e-06 
1.21429e-05 2.46105e-06 8.02562e-06 -2.7273e-06 1.61652e-05 4.05799e-06 -9.42914e-06 -1.69922e-05 -6.99867e-07 
3.17488e-06 8.5813e-06 2.23314e-05 -2.55613e-05 -1.33767e-06 1.31499e-05 -1.16127e-05 -1.1208e-05 6.96477e-06 
6.71848e-06 -1.04976e-05 -2.25275e-05 -4.67603e-07 3.35676e-06 -2.54526e-06 -1.11699e-05 -1.64667e-05 -2.7126e-05 
-3.97758e-06 -1.73567e-06 1.52753e-05 -1.58113e-05 4.58356e-06 -1.40908e-07 -1.52229e-06 9.04317e-06 -1.73538e-05 
6.7958e-06 2.89653e-05 -1.1067e-05 -1.82136e-05 8.31483e-06 -1.00473e-05 6.91995e-06 -4.11616e-06 -3.51782e-06 
5.2351e-05 2.66927e-05 -3.02327e-07 -1.45263e-05 -1.68222e-05 -6.86455e-06 4.78594e-05 -3.34915e-05 -7.19603e-06 
-1.23538e-05 -1.2171e-05 8.01691e-06 2.17101e-05 1.31115e-05 1.4006e-05 1.83071e-05 4.0947e-06 7.50289e-06 
1.65303e-05 -7.74433e-06 1.14639e-05 8.43473e-07 -1.602e-06 -7.92467e-06 -1.78353e-05 9.39232e-06 -3.78728e-06 
-9.85038e-06 -6.26901e-06 -1.27113e-05 -7.79319e-05 -4.04925e-05 -1.96677e-06 -1.70456e-05 1.3916e-05 -2.38619e-06 
-1.95609e-05 2.50828e-05 8.61518e-06 1.11821e-05 3.48725e-05 -2.00714e-05 2.37505e-05 7.41685e-06 -5.59916e-06 
-2.40214e-05 1.88656e-05 -8.72823e-06 2.25524e-05 7.74698e-07 1.38672e-05 -1.75127e-05 1.98491e-06 -1.14864e-07 
1.18068e-06 -1.14804e-06 5.37621e-07 3.9856e-06 4.58825e-06 3.06028e-06 5.24595e-06 6.25537e-06 5.40093e-06 
6.86616e-06 8.5881e-07 1.79053e-06 -8.70646e-07 -3.86741e-06 -1.06132e-06 -4.60142e-06 -1.88007e-06 -2.4246e-06 
-2.35256e-06 -4.0283e-06 4.74508e-07 -1.34922e-06 6.02656e-07 2.20429e-06 3.20141e-06 -1.35732e-07 -0.00519873 
0.000100197 -4.9746e-05 -2.40337e-05 -1.78542e-05 -3.05998e-06 1.64236e-07 -9.55651e-06 -3.42975e-06 -3.17883e-06 
-3.45017e-06 1.26337e-06 -3.48721e-06 9.58339e-07 2.61478e-06 2.9562e-06 5.48616e-06 5.31135e-06 6.0904e-06 
5.60568e-06 5.0106e-06 4.86925e-06 2.99029e-06 1.55174e-06 2.10221e-07 -1.09967e-07 -2.51417e-06 -3.35045e-06 
-4.94015e-06 -4.72621e-06 -5.586e-06 -5.48378e-06 -4.37891e-06 -3.07793e-06 -1.77063e-06 -6.01843e-07 6.87143e-07 
1.09053e-06 2.04839e-06 2.77259e-06 1.70653e-06 7.3255e-07 -1.37971e-06 2.65678e-06 1.9858e-06 1.37569e-06 
1.00042e-06 8.34811e-07 9.07267e-08 1.73707e-07 2.06592e-07 3.90588e-07 1.74227e-06 2.75584e-06 4.07935e-07 
4.11555e-07 3.23627e-07 8.5932e-07 -1.78161e-07 1.48541e-06 1.03622e-06 1.71391e-06 1.0307e-07 1.6975e-06 
1.07436e-06 7.04651e-07 7.73347e-07 -5.54104e-08 6.4014e-07 -5.42622e-07 1.38686e-06 -1.50029e-07 1.561e-07 
-1.86354e-06 -1.29211e-06 -1.53761e-06 -3.67109e-06 1.06995e-06 -2.7827e-06 -2.68062e-06 -5.54487e-06 -1.00143e-05 
-1.17303e-05 1.72017e-05 -0.000143101 -0.000258534 -0.00034963 0.00615325 0.000153561 0.00116027 0.00208951 
0.00192888 -0.00283592 -0.000264282 0.000179325 -2.47056e-05 -0.000440344 -0.000105672 -0.000376026 -0.000167887 
0.000136327 0.000383525 8.09344e-05 -0.000116586 0.000156858 -0.000324386 3.47869e-05 -3.82212e-05 -0.00028867 
-0.000242273 -0.000702384 -0.00042304 0.00579133 -0.00115628 0.00193003 0.00100631 -0.000553911 -0.000267866 
-0.000240579 -0.000262197 -0.000353706 -0.000326662 -0.000280016 -0.000268072 -0.000279554 -0.000467025 -0.00105197 
-0.00215956 0.00225363 0.000615073 3.93552e-05 0.00015921 0.000308832 0.000311166 0.000305147 0.000295371 
0.000288912 0.000254497 0.000278504 0.000262824 0.000129773 8.20676e-05 -0.00275066 0.00096035 -0.00371984 
-8.32478e-06 0.00633186 -0.00157459 2.72287e-06 -1.16492e-06 -1.26485e-06 -3.52802e-06 5.63729e-06 1.54714e-06 
8.59832e-07 5.42592e-07 -1.93399e-06 8.95665e-07 1.59938e-06 3.6652e-07 -7.41741e-07 -9.43137e-07 -1.17748e-06 
-6.55324e-07 -7.72729e-07 -3.41135e-07 -4.77897e-07 -1.36275e-06 -1.50143e-06 6.67272e-07 -4.01994e-07 6.33551e-07 
-4.24882e-05 2.38711e-06 0.00200109 -0.000125398 -0.00140347 -2.42368e-05 -1.1592e-05 -1.37311e-05 -3.80988e-06 
-3.05829e-06 -4.56523e-06 -4.0928e-06 -3.45539e-06 -1.70414e-07 1.66739e-07 -4.46387e-07 -9.8516e-07 -9.6245e-09 
-8.15115e-07 -5.72387e-07 9.60834e-08 6.12391e-08 -6.81885e-07 -1.19161e-06 -3.33852e-07 1.28963e-07 -1.10731e-07 
-3.77645e-07 -5.76536e-07 -6.99292e-07 -1.04481e-06 -2.17233e-06 -2.09729e-06 -1.10162e-06 -1.78723e-06 -1.17236e-06 
-8.40349e-08 3.16518e-07 7.18583e-07 -2.77945e-07 8.96508e-07 -8.50805e-07 7.85063e-07 -3.86402e-07 -1.38591e-05 
0.00177498 0.00109652 -1.57954e-07 4.81508e-08 1.11711e-07 5.21467e-07 -7.65499e-08 -4.81695e-07 -4.89803e-07 
9.27029e-08 6.89146e-07 9.83739e-07 5.53714e-07 5.36116e-07 1.00651e-06 2.97807e-08 8.48667e-08 1.04628e-07 
-9.59484e-07 -1.73409e-08 -1.1551e-06 -1.18915e-06 -1.42708e-06 -1.57519e-06 -1.51195e-06 -1.6003e-06 -1.08656e-06 
1.92562e-06 1.55336e-07 2.49836e-06 3.87875e-06 3.6235e-07 -1.35694e-06 9.34987e-07 2.29681e-06 -5.99733e-07 
7.9865e-06 1.03149e-05 -1.81604e-06 -6.70832e-06 -2.04727e-05 -3.61744e-05 0.000248906 -0.000466876 0.000338422 
5.16502e-07 -0.000391708 1.67319e-05 -0.000104256 -1.40019e-05 -2.51939e-06 5.79118e-05 5.87002e-05 4.34034e-05 
7.07696e-05 -9.03181e-06 -1.2858e-05 -6.87657e-05 -1.18685e-05 1.23994e-05 6.77164e-05 1.43106e-05 3.91865e-05 
1.18595e-05 -7.10689e-05 -9.05325e-06 -0.000118662 -0.000993704 -0.000503799 -0.00115025 -0.000180977 -7.24552e-05 
1.02169e-05 -2.26819e-05 -2.41635e-05 8.68464e-06 -2.79526e-05 -1.04448e-05 -1.44471e-05 3.26773e-05 9.6199e-05 
8.66842e-05 4.42615e-05 -5.45455e-05 -7.0084e-05 -5.38245e-05 -4.54903e-05 -4.16423e-05 -4.241e-05 -4.06577e-05 
-5.30344e-05 -6.25754e-05 -0.000144298 7.74801e-05 -0.00265927 -1.2984e-06 -4.53613e-05 0.000206601 0.000156619 
5.95447e-05 0.000130185 0.00128922 0.000819895 -0.000184852 -8.66092e-07 2.73978e-06 2.01976e-06 -1.94449e-06 
1.73028e-06 1.31523e-06 7.49678e-07 2.5197e-06 5.9352e-07 -3.88536e-06 -3.20713e-06 -1.42252e-06 4.84953e-07 
1.15096e-06 -1.49213e-06 -6.90055e-07 -7.95508e-07 -3.50542e-06 -6.67386e-08 9.71382e-07 3.26143e-05 1.28693e-06 
-3.56497e-05 0.000247382 -6.40778e-06 -6.38547e-06 -4.1791e-06 7.9426e-07 3.58504e-07 -7.65815e-07 -2.24224e-06 
-3.8453e-07 -6.6976e-07 -5.79068e-07 2.05116e-06 2.21118e-06 1.02433e-06 -8.35481e-08 -7.99661e-07 -2.46738e-06 
-3.14888e-06 -3.29507e-06 -7.89237e-08 -1.77832e-06 -2.23537e-06 -2.16979e-06 -3.10306e-06 -2.38039e-06 -2.0253e-06 
-3.13812e-06 1.77397e-07 1.2899e-06 -1.53796e-07 8.93546e-07 2.72963e-06 4.2191e-07 5.4497e-07 1.65293e-06 
-2.6214e-07 -1.54607e-07 4.80529e-08 7.51363e-05 -1.33254e-06 1.21092e-06 -7.31101e-07 -2.21115e-06 2.04241e-06 
2.30736e-06 -2.01599e-06 3.35956e-06 1.64203e-06 1.58331e-08 9.71542e-07 -8.26617e-07 -2.29995e-09 1.2582e-06 
-1.15553e-06 -3.13018e-06 -4.08722e-07 -9.88319e-07 -2.2435e-06 -9.20683e-07 -2.35754e-06 -1.51209e-06 3.33696e-06 
4.06269e-06 -2.2025e-06 -1.61818e-06 3.77914e-06 2.53667e-06 -7.28318e-07 2.61075e-06 6.01563e-06 2.33172e-06 
2.27448e-05 -1.01938e-05 -6.24067e-06 -1.95464e-05 1.26881e-06 0.000148455 2.58601e-05 -2.26261e-05 -9.77527e-06 
-7.32467e-05 -0.000140222 5.11358e-05 -6.8828e-06 1.43811e-06 2.65214e-05 3.94646e-06 3.28201e-05 2.68775e-05 
1.87912e-05 1.62207e-05 1.50759e-05 1.49196e-05 6.41961e-06 1.79398e-05 1.33874e-05 -1.96112e-05 -2.54878e-05 
-4.1384e-07 -1.91275e-05 5.79111e-05 2.55247e-05 0.000104796 -3.96487e-05 -0.000340526 7.01468e-05 1.10806e-06 
-1.84526e-06 -1.29676e-06 -4.22409e-06 8.1242e-07 1.30176e-05 1.28126e-05 3.68667e-05 6.13981e-05 -2.08749e-05 
-0.000205446 -3.47373e-05 -1.78295e-05 -1.06016e-05 9.08985e-07 -1.56453e-06 -8.897e-06 -1.61476e-05 -2.22443e-05 
-4.92743e-05 -2.91725e-05 0.000169419 -3.06004e-06 1.00317e-07 -1.62725e-05 3.43852e-07 6.72936e-08 0.000165976 
-9.19307e-05 -1.74599e-05 6.33765e-06 0.00014029 0.000166719 8.86551e-05 8.94446e-05 -1.41444e-06 2.54567e-06 
9.53345e-07 -3.23324e-06 -6.31581e-06 2.00058e-06 -2.88123e-06 -2.90999e-06 -1.84777e-06 2.09296e-06 -2.84205e-06 
-1.50454e-06 -1.31901e-06 7.2482e-07 4.22267e-07 -1.99177e-05 -6.83862e-06 4.1078e-07 1.7964e-06 2.10731e-06 
-3.47773e-06 2.88019e-06 -1.01566e-06 -3.00639e-06 -2.71391e-08 4.87066e-06 -2.21174e-06 -2.96839e-06 -1.88378e-07 
5.00003e-08 -1.9061e-06 -4.33337e-06 -2.28037e-06 1.80445e-06 -6.66136e-08 -6.90803e-07 -3.73074e-06 -6.31799e-07 
1.15197e-06 9.80135e-07 3.13191e-06 -1.23776e-06 -2.75769e-08 -3.19351e-06 -1.34715e-06 1.04401e-06 2.61907e-07 
9.2475e-08 1.50655e-06 2.6062e-06 6.54304e-07 5.34747e-07 -5.3916e-07 1.50231e-05 5.33042e-05 -1.35338e-05 
2.31781e-05 5.14385e-05 2.02061e-05 -7.98294e-07 -2.63735e-06 6.558e-06 1.95387e-06 2.28012e-06 -4.32021e-06 
1.15526e-06 1.18689e-06 1.1895e-06 -1.65635e-06 -5.37409e-07 -2.62642e-06 -3.21162e-06 3.00335e-06 -5.2221e-06 
4.3013e-06 5.78452e-06 1.51986e-06 -2.9572e-06 2.15911e-06 -5.19405e-06 4.70431e-06 6.29515e-06 -5.70361e-06 
2.54166e-06 -3.14233e-06 1.06491e-06 -1.51804e-06 -2.84785e-06 4.2978e-06 1.74335e-05 -9.33271e-06 -4.28155e-06 
9.86603e-06 8.39035e-06 -2.79968e-05 1.33512e-05 2.18049e-05 -6.40723e-07 -1.70173e-05 6.95971e-07 1.2507e-05 
1.16622e-05 -1.19637e-05 6.69118e-06 -1.41435e-06 -1.05453e-05 1.61533e-06 -1.24232e-06 3.20637e-06 1.36828e-05 
4.82704e-07 3.34551e-07 1.04858e-06 6.84267e-06 3.32579e-06 -3.98936e-05 1.32238e-05 1.45073e-06 7.77466e-07 
-6.8828e-05 -7.06189e-07 -1.87128e-06 -5.06003e-05 1.53373e-05 3.51422e-05 2.78365e-05 -1.90563e-05 4.56512e-06 
4.35965e-05 4.59172e-06 -1.04001e-05 -3.52828e-06 -2.42372e-05 -2.91227e-05 -1.14484e-05 -1.81265e-05 -1.61494e-05 
-2.48595e-05 -1.50972e-05 -3.013e-06 3.61914e-05 -1.03112e-05 -7.10115e-05 -9.2203e-08 -1.17055e-05 3.22352e-06 
-0.000182879 -2.9195e-06 1.70221e-06 7.14048e-05 1.33801e-05 -5.85369e-05 -1.47104e-06 -8.72935e-06 8.01401e-05 
6.04326e-05 9.96505e-05 3.86995e-05 -1.70505e-06 -6.23339e-06 -2.80464e-06 -5.20988e-06 2.80052e-06 2.59654e-06 
4.95133e-06 2.54954e-07 -1.29731e-06 -2.61223e-06 -1.47805e-06 1.33684e-05 4.99091e-06 1.41882e-06 6.02239e-06 
2.64325e-06 2.79276e-09 7.2887e-06 1.23366e-05 4.49161e-06 8.3568e-06 -7.57923e-06 -1.10429e-06 1.55437e-05 
5.30399e-06 -2.97371e-06 -2.37227e-06 -2.04522e-07 -3.30851e-06 -3.55991e-07 -1.77049e-06 -5.10042e-07 -8.08954e-06 
-7.51439e-06 -1.77614e-06 3.00552e-06 -3.68322e-08 -1.68151e-05 2.27497e-06 3.44672e-06 -2.26113e-06 1.10793e-07 
-1.2661e-05 -5.017e-07 1.40228e-05 8.59964e-06 2.30451e-06 6.15489e-06 4.08166e-06 1.13162e-05 -4.12533e-06 
4.29505e-06 6.25887e-06 7.65617e-06 2.1064e-06 -1.2743e-05 -1.02087e-06 -1.34041e-06 2.74756e-06 -1.34706e-06 
3.4421e-06 -5.49582e-06 8.46652e-07 7.4707e-06 -1.59957e-05 1.95959e-05 -1.07801e-07 -5.43807e-06 8.86549e-06 
3.04745e-06 1.35407e-06 9.82932e-06 -1.28743e-05 -2.23665e-05 -2.80366e-06 -1.75963e-05 -2.69983e-05 -5.36009e-05 
1.0603e-05 1.67896e-05 2.01956e-05 -2.19168e-06 -7.13173e-06 5.75707e-06 -5.36169e-08 -7.82393e-07 9.20022e-06 
-1.04517e-05 -9.88735e-06 -1.99531e-05 2.26655e-05 -8.36949e-07 3.85886e-05 -5.49126e-05 -3.30336e-05 1.76643e-05 
2.25772e-05 5.20267e-06 -6.17711e-06 -1.12561e-05 -1.32108e-05 3.17038e-05 -4.6881e-06 -5.82032e-06 3.09097e-05 
-6.7504e-06 -2.6088e-06 4.42298e-06 -1.32271e-06 -2.25173e-05 -1.50055e-05 -4.13399e-05 -2.59254e-05 -2.31239e-05 
-1.57228e-05 1.20636e-05 1.59768e-05 1.69852e-05 -7.88059e-06 2.57797e-06 -6.29444e-06 3.41058e-05 -3.73396e-05 
5.16034e-05 1.72074e-05 -3.60577e-06 2.00777e-06 2.19272e-05 6.50532e-07 4.14308e-06 -2.08596e-06 2.58709e-06 
4.63351e-06 4.8232e-05 -9.1739e-06 -1.77991e-06 -1.31351e-05 2.04008e-05 2.23513e-05 -3.32592e-05 -7.65489e-06 
-4.821e-06 -1.08276e-05 -2.59597e-05 1.41718e-05 -2.08216e-06 5.90242e-07 8.13351e-06 1.00418e-05 -5.99392e-06 
8.35533e-06 1.98222e-05 -1.37111e-05 -2.63157e-06 -2.24989e-06 -3.87325e-05 4.45549e-05 -2.39811e-05 6.30037e-06 
-1.38335e-05 1.28292e-05 1.12606e-05 -1.46901e-05 1.26282e-05 -2.58627e-05 7.25558e-06 1.37684e-05 1.78183e-05 
3.16731e-06 -1.59897e-05 -8.11462e-06 -1.9049e-05 4.33994e-05 2.63943e-05 -1.05808e-05 -2.42912e-05 2.28284e-05 
1.40726e-05 -3.20528e-05 1.07494e-05 -2.19999e-05 3.23408e-06 -1.45389e-05 6.2645e-06 -4.90119e-06 4.6869e-06 
-1.32746e-05 1.88693e-06 -7.345e-06 5.43168e-08 -1.38486e-06 -6.72307e-06 -5.1531e-06 -1.95982e-05 -1.29318e-05 
1.18192e-05 4.19994e-06 -4.9488e-05 -3.08842e-06 1.67077e-05 3.09749e-05 1.84386e-05 -5.75814e-05 1.17095e-05 
-8.61057e-06 2.05366e-05 1.47787e-05 7.87386e-06 4.18597e-06 -2.67381e-05 7.19237e-08 9.60166e-08 -0.0124695 
0.00202235 -0.000301797 -0.000133859 1.24038e-08 2.89815e-08 -1.77177e-08 1.6541e-08 1.47828e-08 1.16505e-08 
1.12427e-08 1.31089e-08 1.16286e-08 8.87465e-09 7.51361e-09 8.16355e-09 6.81967e-09 4.30905e-09 3.98538e-10 
4.60353e-10 -1.55292e-09 -3.94116e-09 -7.53979e-09 -1.23184e-08 -1.38919e-08 -7.15888e-09 3.01022e-08 9.60165e-08 
7.19237e-08 3.57907e-09 4.70142e-09 2.57642e-08 7.37477e-09 -0.000179632 1.6829e-08 1.24515e-08 9.17917e-09 
5.57579e-09 5.40604e-09 2.92156e-09 5.11825e-09 6.20257e-09 8.11528e-09 5.88519e-09 3.65719e-09 2.80992e-09 
9.55906e-10 -1.65868e-10 1.55651e-09 -2.28158e-10 -1.55406e-09 -5.10713e-09 -1.74101e-08 -3.03554e-08 -3.19665e-09 
-2.27455e-05 -1.2015e-05 2.09116e-06 1.86574e-05 2.21567e-05 2.71314e-05 2.78663e-05 2.72036e-05 2.40425e-05 
2.08489e-05 2.39157e-05 1.88031e-05 9.33773e-06 2.06672e-05 5.92261e-06 -1.36115e-06 -1.47937e-05 -1.79558e-05 
-2.48967e-05 -1.81148e-05 -2.79483e-05 -2.82808e-05 -2.27506e-05 -1.45417e-05 -9.55926e-06 1.66106e-06 1.41034e-05 
1.78405e-05 -0.00783974 -0.000404318 -0.00117866 -0.000620137 -0.00034341 -0.000234454 -0.000161827 -0.000128586 
-8.54279e-05 -7.39937e-05 -6.62313e-05 -6.12886e-05 -6.6586e-05 -1.60616e-05 -4.76637e-05 -3.396e-05 -1.78854e-05 
6.13208e-06 1.61768e-05 2.68967e-05 3.62485e-05 4.01316e-05 4.41347e-05 4.62699e-05 4.52775e-05 4.05922e-05 
3.16941e-05 2.72182e-05 1.36405e-05 -8.00475e-07 -1.01773e-05 -1.93854e-05 -2.70538e-05 -2.98303e-05 -3.22297e-05 
-2.89731e-05 -2.53967e-05 -1.9688e-05 -1.31463e-05 -5.21819e-06 2.13981e-06 6.59691e-06 1.57544e-05 2.57905e-05 
2.17919e-05 -1.45849e-05 -4.24908e-06 4.95082e-06 -1.902e-05 -1.35799e-05 -8.95602e-06 2.48386e-08 6.57487e-06 
1.27016e-05 1.87343e-05 2.24238e-05 2.47112e-05 2.30952e-05 2.53737e-05 1.77527e-05 8.73811e-06 2.95833e-06 
-9.36465e-06 -2.03754e-05 -3.09659e-05 -3.7432e-05 -4.11357e-05 -4.24019e-05 -4.33054e-05 -4.11325e-05 -3.97448e-05 
-3.576e-05 -2.3251e-05 -1.01381e-05 -2.53285e-06 1.70535e-05 3.52379e-05 3.85161e-05 4.40107e-05 4.63447e-05 
5.14694e-05 5.31891e-05 6.94889e-05 8.57555e-05 0.00010814 0.000149123 0.000202932 0.000324651 0.000515416 
0.00116545 0.0130125 -0.0131915 -0.0149814 -0.0331181 -0.00357258 -0.00422388 -0.00409354 -0.00274927 
-0.00256952 -0.00186123 -0.00188464 -0.00270579 -0.0038315 -0.0039947 -0.00510584 -0.00317346 -0.0557181 
-0.0157269 0.0315963 0.00540311 0.00503211 0.00430408 0.00488112 0.00443685 0.00384487 0.00392074 
0.00411161 0.00394599 0.00429676 0.00458168 0.00793063 0.0388293 1.19021e-05 3.05276e-05 1.22525e-06 
-5.4137e-07 -1.2225e-05 -1.75065e-05 -2.14644e-05 -2.58741e-05 -2.87027e-05 -2.96201e-05 -2.21674e-05 -1.24068e-05 
-1.11749e-05 7.79014e-06 1.51141e-05 2.52308e-05 1.24313e-05 2.57798e-05 1.31724e-05 7.23422e-06 1.90413e-05 
2.73875e-05 2.67043e-05 2.35632e-05 1.16494e-05 -5.77899e-06 -1.06848e-05 -2.09713e-05 -0.0176104 0.0159985 
0.000946565 0.000559812 0.000236607 0.000135133 9.00583e-05 8.46849e-05 4.28632e-05 2.46554e-05 2.1801e-05 
1.1965e-05 9.5232e-07 -1.98983e-06 -6.64819e-06 -1.70763e-05 -1.66523e-05 -2.19535e-05 -2.54834e-05 -3.93934e-05 
-4.08144e-05 -4.28518e-05 -4.29711e-05 -3.98108e-05 -3.19747e-05 -2.27993e-05 -2.04058e-05 -8.7196e-06 4.82581e-06 
1.55058e-05 2.207e-05 3.11876e-05 3.34975e-05 3.33069e-05 3.02818e-05 2.0866e-05 1.25483e-05 5.18965e-06 
-2.45043e-06 -9.322e-06 -1.48455e-05 -1.86455e-05 -2.23491e-05 -2.22588e-05 -6.29673e-06 3.71772e-06 -4.24042e-07 
9.37272e-07 1.56834e-05 1.94432e-05 1.78182e-05 1.50072e-05 7.86687e-06 7.88769e-07 -5.74369e-06 -8.83319e-06 
-1.70718e-05 -2.63743e-05 -3.37154e-05 -3.58853e-05 -3.31635e-05 -2.86072e-05 -1.85466e-05 -1.02816e-05 1.7103e-06 
1.25503e-05 2.77423e-05 3.64748e-05 4.30715e-05 4.35404e-05 4.04566e-05 4.02361e-05 3.33908e-05 2.77262e-05 
1.71963e-05 1.61234e-05 -4.47125e-06 -9.77997e-06 -1.89967e-05 -1.98104e-05 -3.02969e-05 -2.3754e-05 -2.82473e-05 
-2.64229e-05 -4.37412e-05 -6.91474e-05 -8.88778e-05 -0.000162173 -0.000243254 -0.000747279 -0.00407181 -0.00243411 
0.0148938 0.0452449 0.00598837 0.00372582 0.00406598 0.00396777 0.00367359 0.00390357 0.00385266 
0.0038647 0.00383733 0.00456956 0.00581579 0.00656086 0.0456054 0.0110662 -0.0346857 -0.00765202 
-0.00468721 -0.00421083 -0.00243813 -0.00274475 -0.00303867 -0.00263136 -0.00253824 -0.00398337 -0.00424505 
-0.00317074 -0.0037921 -0.0358809 4.42151e-07 -2.84683e-06 0.0221349 -0.0161527 -0.0380761 0.0163901 
1.82536e-08 -0.0165484 0.000368604 2.26723e-09 -0.00106124 5.86467e-10 2.27468e-08 -0.000373682 -0.0113135 
0.0082719 -0.0110137 2.10207e-08 -0.000851059 0.00961445 -0.0111927 0.0107818 -0.0125239 0.0103389 
-0.012579 0.0107688 -0.0119179 0.011794 -0.0123148 0.0111469 -0.0124018 0.0118958 -0.0124549 
0.0117974 -0.0130769 0.0113663 -0.0136713 0.0114233 -0.0132146 0.011929 -0.0125326 0.0125959 
-0.0126895 0.0122254 -0.0116904 0.0130041 -0.0120025 0.0124295 -0.0117222 0.0130973 -0.0112632 
0.0138102 -0.0108415 0.0133594 -0.00965134 0.0132779 -0.0097767 0.0140678 -0.0117814 0.0177844 
-8.25028e-06 -1.45798e-05 -1.20824e-05 4.2087e-06 -3.63768e-06 -1.74402e-06 1.84001e-06 -2.27805e-06 -4.68929e-06 
5.9703e-06 1.39059e-07 1.49221e-06 5.14604e-06 -6.39702e-07 9.1492e-08 9.74606e-06 4.56523e-06 4.59831e-07 
1.18012e-05 5.14109e-06 -4.00418e-06 1.21115e-05 7.48353e-06 -7.56102e-06 1.15398e-05 8.60678e-06 -9.56744e-06 
-5.16084e-06 1.63607e-06 -2.09358e-07 -6.74064e-06 -2.5347e-06 8.47714e-07 6.26792e-07 -8.98301e-06 -8.25808e-07 
-1.31819e-05 -1.09307e-05 -3.46954e-06 -1.51312e-05 -1.22535e-05 1.22798e-06 -1.46677e-05 -1.35928e-05 4.17182e-06 
-1.25883e-05 -2.04401e-06 3.00015e-06 -1.18626e-05 -1.24587e-05 4.68281e-06 -9.74961e-06 1.20786e-06 6.61442e-06 
3.74043e-06 5.3904e-06 9.14329e-06 -6.83156e-06 -7.55207e-06 6.78352e-06 -1.48177e-05 -1.12847e-05 5.29712e-06 
-1.98583e-05 -1.21081e-05 1.78229e-06 -1.39305e-05 -1.26511e-05 2.75236e-06 -1.05393e-05 -1.56666e-05 4.08052e-06 
-1.2979e-06 -9.41375e-06 -4.77566e-07 3.75632e-06 1.41798e-05 -2.39537e-06 8.47882e-06 1.07552e-06 -1.02947e-05 
-9.19941e-08 0.00710854 -0.001518 -0.00235065 -0.000129212 -7.18539e-05 -0.000378663 -1.54896e-05 -3.88022e-05 
-0.000176032 -7.08445e-05 -2.09217e-05 -9.4962e-05 -4.14304e-05 -5.20891e-06 6.33246e-06 -3.86756e-05 -6.69873e-06 
1.90617e-05 -1.55284e-06 5.76938e-06 9.76458e-06 -2.5429e-05 -4.09508e-06 -4.04681e-05 -2.29616e-05 -6.62333e-07 
-2.60471e-06 -2.38856e-05 -2.67672e-06 -1.79532e-06 -2.34356e-05 -4.57131e-06 -3.91459e-06 -2.16027e-05 -1.04269e-05 
-7.26136e-06 5.26695e-06 -1.5378e-05 -1.17808e-05 -2.30877e-05 -7.84158e-06 -1.22823e-05 -2.16973e-05 -5.2315e-06 
-1.3535e-05 -1.6227e-05 -3.28468e-06 -1.26116e-05 -1.55613e-05 -1.2039e-07 -1.33472e-05 -1.06931e-05 -1.56977e-06 
-1.6232e-05 -9.08573e-06 -1.59969e-06 -1.41073e-05 -6.30615e-06 -1.80837e-06 -1.78409e-05 -3.12156e-06 -1.38232e-06 
-1.87916e-05 -5.16236e-07 1.08865e-07 -1.52503e-05 5.76452e-06 1.07618e-06 -1.39206e-05 7.16022e-06 1.18395e-06 
-1.06039e-05 7.30549e-06 1.09228e-06 -7.12409e-06 8.40321e-06 6.65241e-07 -4.26883e-06 1.21976e-05 2.93447e-06 
-1.15556e-07 9.6412e-06 3.28161e-06 5.67567e-06 8.39658e-06 2.9021e-06 7.68309e-06 7.09667e-06 3.82057e-06 
1.48735e-05 5.33716e-06 3.51827e-06 1.59849e-05 2.66848e-06 2.0834e-06 1.59336e-05 -1.75113e-07 1.99611e-06 
1.52507e-05 -2.73739e-06 2.87251e-07 1.18611e-05 -4.8489e-06 -4.84614e-07 8.00829e-06 -4.73577e-06 -1.52353e-06 
2.41712e-06 -6.24663e-06 -2.67305e-06 -1.36329e-06 -5.64298e-06 -3.61776e-06 -5.07134e-06 -5.12871e-06 -3.4087e-06 
-7.74771e-06 -4.07409e-06 -2.79216e-06 -9.0868e-06 -1.80365e-06 -2.91634e-06 -1.08179e-05 -1.83004e-07 2.32622e-07 
-1.11843e-05 2.78278e-06 7.41306e-06 -1.0876e-05 1.5282e-05 6.36045e-06 2.94781e-06 -0.0322587 -3.13176e-06 
-1.13649e-05 -1.21952e-06 -1.33932e-06 4.62474e-07 1.2497e-06 5.70676e-08 1.69005e-06 5.47298e-06 1.05052e-06 
3.86838e-06 6.241e-06 3.16394e-06 4.3628e-06 9.20327e-06 3.52056e-06 5.3894e-06 9.61109e-06 2.46149e-06 
5.18682e-06 8.1572e-06 2.42204e-06 6.42785e-06 2.00422e-06 2.40262e-07 5.90209e-06 -2.94142e-06 -6.33247e-07 
4.62815e-06 -6.83621e-06 -1.7196e-06 -1.73675e-06 -3.6337e-06 -3.34758e-06 -8.93697e-07 -7.44703e-06 -4.5024e-06 
-3.25633e-06 -1.20192e-05 -5.88277e-06 -5.39175e-06 -1.66871e-05 -6.02181e-06 -7.95233e-06 -1.53616e-05 -5.58889e-06 
-1.15204e-05 -1.74443e-05 -7.46753e-06 -1.04172e-05 -1.89503e-05 -6.00649e-06 -9.78768e-06 -1.3799e-05 -6.34138e-06 
-6.5713e-06 -9.12772e-06 -2.86381e-06 -4.50363e-06 -3.73298e-06 -1.55023e-06 4.14907e-07 3.08717e-06 3.75056e-07 
-5.98373e-07 4.83171e-06 -7.64307e-07 -7.35493e-07 5.19845e-06 -2.20762e-06 3.86556e-06 7.01351e-06 4.46004e-07 
5.2593e-06 1.02786e-05 1.36991e-06 8.18049e-06 1.42075e-05 1.41694e-06 6.6655e-06 1.53928e-05 4.4372e-06 
1.35503e-05 1.8254e-05 8.21896e-06 1.16522e-05 2.25988e-05 5.63034e-06 1.13701e-05 2.16717e-05 4.82987e-06 
1.10783e-05 1.48547e-05 4.76745e-06 1.20259e-05 1.46275e-05 7.65613e-06 1.33851e-05 1.86694e-05 4.27836e-06 
1.34434e-05 2.49351e-05 5.13279e-06 1.49626e-05 2.82377e-05 6.21488e-06 1.85966e-05 3.5369e-05 8.22239e-06 
2.4822e-05 3.63447e-05 1.30821e-05 3.52728e-05 5.22982e-05 3.56187e-06 4.19383e-05 6.47084e-05 4.1464e-06 
5.45717e-05 8.03989e-05 -1.24996e-05 9.00221e-05 9.42986e-06 0.000183373 0.00077367 -2.47557e-05 0.00109303 
0.00664157 -0.00011096 -0.00664317 0.00631003 -0.00375355 -0.00149457 -0.00148432 -0.00212783 -0.0024551 
-0.00321748 -0.000721969 -0.00146491 0.000892058 0.00268659 0.00156128 -0.0055076 3.55708e-05 -0.00452225 
-0.00402447 0.00206221 -0.00240989 -0.00290525 0.00105207 -0.00178206 -0.0022307 0.00083868 -0.00147094 
-0.00191562 0.000662879 -0.00135507 -0.00181815 0.000895223 -0.000945022 -0.00136361 0.000703946 -0.00108084 
-0.00160568 0.000442048 -0.00142727 -0.00157639 0.00083959 -0.00155872 -0.00136547 0.000740237 -0.00127049 
-0.00101846 0.00069516 -0.000793538 -0.000722523 0.000308247 -0.000299648 -0.000490727 0.000193861 0.000130498 
-0.000184785 -4.91164e-05 0.000303448 -0.000134475 -0.000108284 0.00043639 -9.56e-05 -0.00015403 0.000884234 
0.000100892 -0.000201537 0.00125452 0.000561936 -0.000353266 0.00191984 0.00134285 -0.000625 0.00339107 
0.00286668 -0.00100026 0.00472147 -2.97398e-05 -0.0006041 0.00918404 -0.0161565 -0.00489124 -0.00473808 
-0.00152055 -0.0049664 0.000841531 -0.00195302 -0.00164059 6.12334e-05 -0.00175462 -0.00142297 0.000295057 
-0.00174983 -0.00142026 0.000366852 -0.00165331 -0.00146074 0.000429635 -0.00176202 -0.00142246 0.000432108 
-0.00178041 -0.0014365 0.000445692 -0.00187287 -0.00144579 0.000434954 -0.00175597 -0.0013032 0.000481989 
-0.00185887 -0.00146718 0.000436603 -0.00201133 -0.00164957 0.000486357 -0.0039288 -0.00204777 0.000157297 
-0.00711553 -0.00192167 0.00217982 -0.00373153 0.00711738 0.00186226 0.0134321 0.00200249 0.00176982 
-0.000796859 0.00178342 0.00203616 -0.000414443 0.00169897 0.00206751 -0.000594803 0.00162362 0.0019105 
-0.000483221 0.00168571 0.00170426 -0.000418695 0.00166978 0.00171918 -0.000455254 0.00164306 0.00180653 
-0.000491121 0.00165387 0.00178828 -0.000506938 0.00168906 0.00181327 -0.000528723 0.0018228 0.00202502 
-0.000517968 0.00223313 0.00214031 -0.000415367 0.00386999 0.00305588 -0.000204066 0.00810409 0.00569379 
-0.00027677 9.31318e-06 -0.00457656 -0.00244912 -0.00520854 0.0138774 0.00624198 0.00114798 0.00299521 
0.0052455 0.0125562 0.00365326 -0.000536321 -0.00830108 -0.000934991 -0.00797495 0.0023762 0.000964399 
-0.000624896 -0.000183443 -1.78775e-07 -9.65851e-06 -4.13889e-06 -7.36598e-06 -3.47306e-06 2.18974e-06 5.42102e-06 
1.15889e-07 8.74134e-06 1.12488e-05 2.89797e-06 1.17192e-06 -1.24974e-05 2.74983e-06 -1.33393e-05 -1.24819e-05 
-6.48414e-06 -1.56287e-05 -9.81469e-06 -4.97829e-06 -1.25813e-05 -1.90083e-06 -3.6187e-06 -1.41675e-05 -5.96699e-06 
-3.41921e-06 -1.83654e-05 -1.7396e-06 -6.46592e-06 -1.54608e-05 3.02161e-06 -6.01054e-06 -1.28177e-05 7.3704e-06 
-6.54687e-06 -8.73808e-06 9.19698e-06 -4.29251e-06 -3.48155e-06 8.96616e-06 -2.35729e-06 -4.72005e-06 1.28833e-05 
1.76257e-06 5.84752e-06 1.13013e-05 1.19394e-06 2.76414e-06 1.05821e-05 4.47267e-06 9.62935e-06 1.13726e-05 
9.85098e-06 1.09342e-05 1.14896e-05 6.71673e-06 9.68884e-06 3.48756e-06 4.9099e-06 -6.42092e-06 2.97404e-06 
2.10173e-06 7.72587e-06 3.38357e-07 1.55364e-06 4.04996e-06 -4.59004e-06 -2.86891e-06 5.66658e-06 2.14595e-06 
-4.24193e-06 -0.000310032 -0.000363465 3.99405e-05 -0.00211855 0.000894396 3.71375e-06 -0.000253926 -0.000102084 
-1.55348e-05 0.000147658 -2.4329e-05 5.83213e-05 2.81832e-05 3.04565e-05 5.59846e-05 7.52032e-06 -7.45907e-06 
3.443e-05 -4.89738e-05 -8.15179e-06 -1.29596e-05 2.70297e-05 4.49444e-06 2.44074e-05 -6.47729e-06 1.10975e-05 
2.14421e-05 -1.36163e-05 -8.41985e-06 1.94418e-05 -1.27489e-05 -1.16396e-05 1.55332e-05 -1.20539e-05 -1.04899e-05 
4.20586e-06 -8.49897e-06 -1.24475e-05 1.90821e-05 -1.37531e-05 -1.24174e-05 6.21749e-06 -9.64448e-06 -1.11854e-05 
2.34624e-06 -4.45734e-06 -7.17099e-06 -1.97332e-06 -5.63753e-06 -8.67972e-06 -4.76452e-06 -4.10334e-06 -7.53546e-06 
-4.54539e-06 -6.09976e-07 -5.6851e-06 -7.44936e-06 -3.65393e-06 -8.02334e-06 -9.04214e-06 -4.50577e-06 -9.25083e-06 
-9.5113e-06 -2.11771e-06 -7.83696e-06 -8.92322e-06 -1.97493e-06 -6.54108e-06 -7.70302e-06 -2.79799e-06 -4.72996e-06 
-5.65081e-06 3.04033e-07 -3.17793e-06 -3.76896e-06 -9.07502e-07 -1.91306e-06 -1.42816e-06 1.00322e-06 -1.78471e-06 
1.74606e-06 2.80705e-06 8.33036e-07 3.73931e-06 2.18735e-07 2.50457e-06 6.16422e-06 4.17576e-06 4.21573e-06 
8.51861e-06 3.60818e-06 7.21679e-06 9.76354e-06 2.79001e-06 7.63812e-06 9.39823e-06 2.18191e-06 6.81047e-06 
8.09564e-06 2.53973e-06 3.63889e-06 7.29393e-06 1.46805e-06 1.736e-06 5.00693e-06 -8.68724e-08 -7.42389e-07 
2.59461e-06 -2.08427e-06 -3.03689e-06 6.63128e-07 -2.3976e-06 -4.93337e-06 -1.61556e-06 -2.48002e-06 -4.77833e-06 
-3.48696e-06 -1.5773e-06 -4.99449e-06 -3.93607e-06 7.10802e-07 -6.39705e-06 -4.64369e-06 1.60499e-06 3.60372e-06 
-4.87821e-06 4.70988e-06 2.58748e-06 6.3849e-06 3.01202e-06 -2.18443e-06 0.000743696 0.00119408 -0.00079676 
-0.000176736 0.000213655 -5.11691e-06 -9.96162e-07 -1.37267e-08 1.35396e-06 4.37695e-06 1.71756e-06 1.75586e-06 
6.50053e-06 2.88827e-06 4.13022e-06 7.43532e-06 3.96305e-06 5.3516e-06 8.43956e-06 3.40863e-06 3.92794e-06 
7.2923e-06 6.36212e-06 -2.54123e-06 4.19544e-06 1.54933e-06 -6.49806e-06 5.04786e-06 -1.27485e-06 -7.95258e-06 
1.77326e-06 -9.0284e-06 -4.06106e-06 -5.37251e-07 -1.09878e-06 -2.13767e-06 -8.32349e-06 -4.00686e-06 -5.14025e-06 
-9.70879e-06 -5.64578e-06 -5.47648e-06 -1.32803e-05 -4.60739e-06 -6.62791e-06 -1.33146e-05 -5.77303e-06 -7.85166e-06 
-1.42683e-05 -7.34237e-06 -1.00081e-05 -1.5809e-05 -5.51415e-06 -6.00838e-06 -1.30719e-05 -4.85468e-06 -6.03194e-06 
-6.3844e-06 -3.06761e-06 -3.32294e-06 -1.14377e-06 -8.25973e-07 -1.66533e-06 4.37487e-06 -7.67455e-07 -1.94179e-07 
6.78676e-06 1.19009e-06 -8.07866e-08 8.74665e-06 3.33728e-07 1.48297e-06 8.89878e-06 1.87806e-06 3.52197e-06 
1.15359e-05 2.5906e-06 3.52935e-06 1.33756e-05 3.57091e-06 5.47778e-06 1.65249e-05 2.86103e-06 6.54701e-06 
1.4329e-05 8.80944e-06 7.84308e-06 1.89662e-05 7.45268e-06 8.46883e-06 1.97109e-05 5.73751e-06 6.09808e-06 
1.48465e-05 3.68708e-06 6.37569e-06 1.04619e-05 6.17078e-06 8.50805e-06 1.61986e-05 4.76071e-06 7.45468e-06 
1.88281e-05 9.45251e-06 1.96226e-05 -3.44018e-06 -3.9989e-08 8.32454e-06 2.40013e-05 4.73147e-06 1.31705e-05 
9.37734e-06 -3.45421e-08 2.2452e-05 1.79829e-05 1.68317e-06 2.2291e-05 3.1911e-05 -2.02981e-05 8.82645e-06 
5.99851e-06 -3.04083e-05 -0.00012307 -3.67432e-05 0.000219898 -0.000243133 2.16899e-05 0.000124304 -4.60971e-06 
0.000759198 0.00108043 0.000669282 -8.70511e-05 0.000836198 -0.000138002 0.000191204 -0.000213745 0.00115714 
-0.000401979 0.00109617 0.000723914 5.99458e-05 0.00122248 0.000796794 -6.62326e-05 -0.000311857 0.000852367 
-0.000238805 0.000219569 0.000560128 -0.000237567 0.000333568 0.000343798 -0.000162114 0.000205338 0.000488682 
-0.00011847 0.000147695 0.000388233 -0.000209291 -2.46574e-06 0.000494044 -0.000131791 2.45786e-05 0.000610848 
-0.000117064 -2.2279e-05 0.000831585 -0.00016559 3.612e-05 0.000680349 -9.32266e-05 4.47219e-05 0.000523802 
-8.22651e-05 -1.93204e-06 0.000259535 5.7955e-06 -5.64583e-05 3.61438e-05 1.00276e-05 -8.83645e-05 2.14986e-05 
3.02021e-05 -0.000170511 5.99202e-05 4.20278e-05 -0.00013337 -9.41879e-05 4.94937e-05 -0.000169056 -7.00645e-05 
7.27562e-05 -0.000400599 -9.65677e-05 0.000112877 -0.00068656 2.7672e-05 0.000219729 -0.00121901 -0.00173516 
-0.000372875 -0.00105051 0.00176359 -0.000332173 0.000176901 0.000367936 9.33607e-05 0.000276492 0.000109394 
-1.517e-05 0.000137639 5.83386e-05 -2.32431e-05 0.000384993 0.000115524 -3.83885e-05 0.000399813 0.000134328 
7.04259e-08 0.000389979 0.000186387 -5.32749e-06 -0.000104171 3.94127e-05 1.68946e-05 -0.000311165 2.41556e-05 
-3.28616e-05 -0.000959246 -3.78213e-05 -4.86752e-05 0.000700098 -0.000370876 0.000139878 -1.32654e-05 0.000212239 
-0.00237868 -0.000829664 0.0026466 -0.00345734 -0.000579088 0.00110076 -0.000401016 -0.000379662 -0.000394785 
-0.00029423 -5.7565e-05 -0.000362981 -0.000316673 -2.48598e-05 -0.000367902 -0.000312293 -6.11981e-06 -0.000380658 
-0.000329928 1.05622e-05 -0.000399003 -0.000288775 2.73397e-05 -0.000380971 -0.000275558 5.58782e-05 -0.000390919 
-0.000154978 0.000148864 -0.000403335 -0.000164622 0.000262527 0.000616779 -0.000572443 -6.32523e-05 -0.00183455 
-0.000406372 0.000694098 -6.35687e-06 0.000219011 0.000178874 -8.96554e-05 -0.000227152 0.000102497 -0.000477058 
-0.000463949 -0.000306327 -0.000197044 -9.94011e-05 0.000216755 -0.000260568 -3.1825e-06 4.58651e-06 -1.79304e-05 
-3.07439e-06 -0.00028027 0.00191282 0.000119727 -2.60146e-06 -0.000865465 6.84274e-05 0.00177231 0.00104061 
-0.000309034 1.16809e-06 2.36759e-06 -0.000333168 -0.000287346 -0.00104069 0.000467462 -0.00292094 0.000603556 
-0.00129881 -0.000245277 1.92938e-05 -0.000286337 -0.000374585 -2.55412e-05 4.48999e-06 4.32481e-06 2.12101e-06 
7.80242e-06 3.93518e-06 -3.2597e-06 -8.65615e-06 4.68805e-06 -1.04796e-05 -6.20185e-06 -8.19437e-06 -6.88931e-06 
-2.21388e-06 -6.50464e-06 -6.94914e-06 -1.10034e-06 -5.62047e-06 -4.36271e-06 -1.18298e-06 -3.69565e-06 -5.9313e-06 
-1.62284e-06 -3.01976e-06 -1.09267e-05 -2.48595e-07 -5.65069e-06 -1.02352e-05 1.23226e-06 -4.42687e-06 -8.82354e-06 
4.63876e-06 -2.24127e-06 -8.10359e-06 4.71745e-06 -7.70934e-07 -4.83499e-06 5.79898e-06 2.4254e-06 -2.35449e-06 
6.50756e-06 3.55585e-06 -3.41502e-07 7.97375e-06 3.45515e-06 3.38705e-06 7.90967e-06 7.09002e-06 7.2261e-06 
6.02245e-06 5.31559e-06 6.64057e-06 5.99817e-06 4.70625e-06 5.6995e-06 5.44205e-06 4.91351e-06 -2.66217e-06 
1.94678e-07 4.12386e-06 1.50568e-06 1.48024e-06 2.47372e-06 -0.000426228 -7.29536e-05 -5.34432e-05 -5.48271e-05 
0.000145065 -2.89379e-05 2.86629e-05 8.18142e-05 9.03643e-05 4.4972e-05 5.97175e-05 8.45645e-06 4.26692e-05 
1.88757e-05 1.98336e-05 4.06699e-06 2.21901e-05 8.55701e-06 2.57831e-05 7.41362e-06 -7.9165e-06 2.27246e-05 
3.87061e-06 -5.53435e-06 2.24005e-05 6.25779e-06 -4.10058e-06 2.13736e-05 3.4813e-07 -4.159e-06 1.78065e-05 
1.84869e-06 -7.39204e-06 1.5134e-05 2.66921e-06 -6.89007e-06 1.21757e-05 9.74217e-06 -6.00962e-06 1.0508e-05 
5.63593e-06 -3.96675e-06 7.50866e-06 6.44495e-06 -2.10225e-06 6.89697e-06 8.3037e-06 1.42051e-06 5.94818e-06 
5.28687e-06 2.55816e-06 3.9067e-06 -2.43514e-07 -1.40018e-06 2.02053e-06 -2.59796e-06 -1.00146e-06 1.32931e-06 
-3.2509e-06 -2.96586e-07 2.7533e-07 -4.25856e-06 -6.30549e-07 -1.34628e-06 -6.59757e-06 -1.40494e-06 -3.12301e-06 
-8.17611e-06 -4.55939e-06 -1.95778e-06 -5.61225e-06 -4.26751e-06 -1.33406e-06 -3.7043e-06 -2.12047e-06 -2.05367e-06 
-4.89153e-06 -1.49157e-06 -1.45028e-06 -3.2597e-06 7.66833e-07 -3.37527e-07 5.65676e-07 1.95366e-06 2.19834e-06 
1.62414e-06 3.63157e-06 3.65514e-06 2.69884e-06 3.00837e-06 4.22539e-06 3.36585e-06 1.18426e-06 2.64811e-06 
3.81475e-06 7.32837e-07 2.38841e-06 3.58887e-06 -2.31342e-06 2.30587e-06 3.53299e-06 -3.92654e-06 -1.95613e-07 
2.99066e-06 -5.48085e-06 -1.47731e-07 1.3101e-06 3.78248e-06 -7.50452e-07 2.77082e-07 4.48189e-06 -1.36811e-06 
6.27092e-07 -5.53881e-06 2.13958e-06 -3.51665e-06 6.60203e-06 1.677e-06 -2.49448e-06 5.50502e-06 -2.52052e-06 
-3.40136e-06 -2.45061e-06 2.47747e-06 2.53883e-05 -7.71354e-05 0.000210993 -0.000622013 0.000161305 -0.000224787 
-0.000189514 -0.000107661 -0.000241046 -0.000311925 1.17607e-06 1.5026e-06 1.86912e-06 3.15683e-06 6.55542e-06 
4.26375e-06 5.03387e-06 8.05448e-06 3.22204e-06 2.11338e-06 9.29022e-06 4.41529e-07 -1.16828e-06 5.53275e-06 
-1.79092e-06 -1.96805e-06 5.3467e-06 -4.2138e-06 -4.90229e-06 1.61613e-06 -8.2425e-06 -2.16587e-07 8.65341e-07 
-5.50298e-07 -2.75894e-06 -8.30398e-06 -8.8e-07 -3.08044e-06 -1.10322e-05 -2.72053e-06 -4.2969e-06 -1.1294e-05 
-2.99721e-06 -4.51246e-06 -1.19429e-05 -3.8037e-06 -5.79035e-06 -1.48912e-05 -5.20198e-06 -8.35387e-06 -1.37996e-05 
-6.95543e-06 -6.71701e-06 -1.18309e-05 -4.56167e-06 -4.46387e-06 -4.70102e-06 -4.72068e-06 -4.8404e-06 -1.54774e-06 
-1.48914e-06 -2.07087e-06 5.29542e-06 -7.87705e-07 -1.48452e-06 8.54283e-06 -7.76501e-07 -1.15536e-06 8.29696e-06 
-3.26549e-07 -3.29897e-07 9.65759e-06 -5.26892e-07 1.19954e-06 1.04936e-05 1.94534e-06 1.21969e-06 1.16984e-05 
-8.98273e-07 -3.93473e-06 8.61341e-06 1.4361e-06 3.06759e-08 -5.79357e-07 1.30452e-06 6.91699e-06 5.75266e-06 
4.75874e-06 1.30783e-05 3.16941e-06 5.88442e-06 1.39634e-05 8.44657e-06 1.29059e-06 3.79784e-06 1.99228e-05 
7.86793e-07 6.34273e-06 1.16082e-05 5.90743e-06 1.54898e-05 -7.25543e-06 1.44208e-05 -1.29983e-05 7.107e-07 
-2.42684e-05 5.06025e-06 7.23429e-06 7.10439e-06 -1.00997e-05 2.6885e-07 5.45315e-05 4.03865e-05 1.70671e-05 
8.81482e-07 2.11482e-05 -4.85638e-07 -2.08262e-05 2.62569e-05 2.37226e-06 -2.94197e-05 -4.59202e-06 -3.12856e-07 
-0.000317743 -3.21599e-06 -9.13876e-05 -1.60239e-05 -0.00118695 0.000640405 -0.00028757 -7.52121e-05 -4.338e-05 
0.000117239 -8.82626e-05 9.33152e-05 7.86176e-05 3.75432e-06 -0.000118775 9.72684e-05 -1.31692e-05 -0.000142188 
2.02738e-05 3.56627e-05 -0.000131486 1.2244e-05 4.05481e-05 -0.000107687 1.95416e-05 -1.90324e-05 -0.000105635 
-1.19191e-05 2.79987e-07 -0.000135938 8.93587e-06 -6.11288e-06 -0.000122187 2.40444e-05 -1.27477e-05 -0.000135297 
3.8197e-05 -4.58989e-06 -0.000124466 5.81803e-05 -9.38919e-07 -0.000107489 8.83482e-05 1.01064e-05 -7.04437e-05 
9.89066e-05 1.24189e-05 -6.75585e-05 7.74356e-05 9.71094e-06 -7.34694e-05 8.87156e-05 1.78076e-05 -8.45407e-05 
0.000101631 1.0994e-05 -7.39679e-05 0.000113923 6.90745e-06 -0.000125997 0.000182714 -6.13267e-05 -0.000121239 
0.000185957 -9.62423e-05 -0.000192721 3.51332e-05 4.3381e-05 -4.16696e-05 -0.000288504 2.15366e-05 0.000119241 
-0.000105064 6.49617e-05 1.94833e-05 -2.24961e-05 -5.76436e-05 4.32025e-05 -6.33301e-05 -4.30913e-05 3.6896e-05 
-5.35038e-05 -4.88428e-05 -6.80039e-05 -6.28084e-05 -1.35283e-05 7.06248e-06 4.40816e-05 -2.64463e-05 2.53891e-05 
0.00015117 2.58373e-05 -0.000248676 -0.00020192 2.18549e-05 0.000207061 -0.000265364 9.82713e-06 0.00033936 
0.000107215 0.000271145 -0.000473316 -0.000167703 0.000568519 -0.000483922 0.000188424 0.000131604 0.000645076 
-4.45236e-05 -1.47785e-05 -2.99178e-05 1.4821e-05 -3.77512e-05 8.86116e-06 9.37082e-06 -5.57293e-05 2.23968e-05 
2.11359e-05 -9.53811e-05 -4.4271e-05 5.48324e-05 -0.000127768 -0.000212286 1.86812e-05 0.000306673 -0.000362972 
-9.36165e-05 -0.00041521 2.794e-05 -0.00024166 0.000110344 7.69178e-05 0.000234615 -2.56196e-06 5.40011e-07 
-1.42758e-07 5.19136e-06 -7.22719e-05 -4.47387e-05 -2.83821e-05 4.30104e-06 -3.30287e-05 -7.27636e-06 -8.07452e-06 
-2.45724e-05 3.68577e-06 -6.44654e-06 -1.2033e-06 -0.00025296 -0.00011954 -0.000199036 -4.37849e-05 0.000261192 
9.26914e-07 2.18733e-06 0.000119332 0.000127587 3.91309e-05 0.000217231 -0.000283802 -0.000168576 -9.72701e-05 
0.000477645 1.43892e-06 -2.98054e-06 9.26654e-05 0.000179859 -0.000185053 0.00016458 1.1039e-05 1.96901e-05 
5.8034e-06 -0.000153428 0.000696651 -1.34785e-06 -0.000292849 0.000471735 0.000133799 -0.000131287 -0.000165619 
-0.000194474 0.000135991 -9.96367e-05 -0.00127178 -7.35878e-07 -0.00023507 3.18299e-06 0.000546172 -6.03721e-05 
3.91166e-05 -1.90685e-05 4.30765e-07 -0.000122236 9.57987e-05 -0.000182312 -8.89171e-05 -0.000140054 7.54554e-06 
9.44173e-06 -1.23594e-06 -3.17481e-06 -4.60447e-06 -8.06054e-06 -4.79762e-06 -6.41134e-06 -6.82591e-06 -5.2903e-06 
-6.53747e-06 -3.82383e-06 -1.02529e-07 2.68188e-06 -8.9669e-06 -4.70344e-06 -4.62561e-06 -7.61528e-06 -1.01793e-06 
-3.45763e-06 -8.80719e-06 -7.71204e-07 -5.90813e-06 -7.61128e-06 -7.97134e-08 -4.28649e-06 -9.01904e-06 -1.22417e-06 
-6.1894e-09 -6.14636e-07 5.78662e-06 6.24851e-06 -2.51067e-06 4.82123e-06 6.65377e-06 -7.73778e-07 5.12899e-06 
3.7005e-06 -7.03792e-07 2.69939e-06 6.43585e-06 6.61056e-06 5.90273e-06 8.98244e-06 6.66907e-06 7.17432e-06 
5.73177e-06 6.31801e-06 8.40529e-06 4.66578e-06 6.88442e-06 1.09312e-05 3.13709e-06 6.75442e-06 5.24824e-06 
8.11538e-07 3.86508e-06 -7.24838e-05 -4.62304e-05 6.19626e-05 4.03533e-05 0.000124586 3.60619e-05 -3.39411e-05 
2.08617e-05 -9.07249e-05 -3.30958e-05 -4.82375e-05 5.86332e-05 4.2572e-05 1.24726e-05 5.15503e-05 -9.90581e-06 
-1.00606e-05 3.96626e-05 3.21546e-05 3.94714e-06 3.0934e-05 8.04071e-06 5.93867e-06 1.90205e-05 5.25143e-06 
1.38529e-05 1.09311e-05 -3.99596e-06 1.36054e-05 5.1026e-06 -2.00784e-06 1.43032e-05 7.68647e-06 -4.76285e-07 
1.60769e-05 2.97125e-06 1.48052e-06 1.41988e-05 8.01742e-06 -1.50157e-06 1.26108e-05 9.88325e-06 6.77029e-07 
1.43716e-05 1.48452e-05 6.90696e-06 1.08536e-05 1.12686e-05 1.00224e-05 9.20427e-06 1.2145e-05 9.03293e-06 
1.04447e-05 1.40158e-05 6.0352e-06 7.95879e-06 8.00285e-06 3.37556e-06 6.91777e-06 3.57757e-06 1.01163e-06 
6.01303e-06 2.26568e-06 1.62475e-06 5.43153e-06 7.45131e-07 2.0528e-06 3.73729e-06 -1.42367e-06 -3.88604e-07 
4.37463e-06 -3.70135e-06 2.76014e-06 3.55529e-06 -9.42335e-06 3.41073e-06 -7.89004e-07 -5.5416e-06 -1.24597e-05 
3.28065e-06 -1.04877e-06 -1.29875e-05 -2.17096e-06 5.08906e-07 3.07421e-06 -1.56326e-06 -9.53303e-07 8.60458e-06 
-1.69134e-06 5.72271e-07 1.8066e-06 -2.64369e-06 -7.74577e-07 2.44052e-06 -5.70171e-06 5.40285e-08 -7.43987e-06 
-1.72921e-06 8.17354e-07 -2.25136e-06 -8.62035e-08 3.62156e-06 -4.49408e-06 -3.62598e-06 3.34912e-06 -4.51871e-06 
-5.67297e-07 2.34452e-06 6.24347e-07 -1.34525e-06 -3.07317e-06 2.95862e-06 -6.81034e-07 -1.74238e-06 3.55476e-06 
-1.61237e-06 1.24018e-06 4.1147e-06 3.98057e-06 -3.27614e-06 5.64924e-06 1.21206e-06 -1.88324e-06 6.84292e-06 
0.000234495 -0.000135932 -0.000138928 -6.69091e-06 -1.44832e-05 -3.95075e-05 -1.39188e-05 4.45251e-05 -5.91494e-05 
-6.24902e-05 7.28277e-05 3.05676e-06 5.19193e-06 5.13455e-06 3.62654e-06 7.62823e-06 -3.98499e-06 3.44747e-06 
-5.11379e-06 -5.53383e-06 3.66682e-06 -2.35115e-06 -4.22804e-06 -3.84136e-06 -1.82045e-06 3.50053e-06 -1.17196e-07 
-1.56782e-05 2.83997e-07 -3.29768e-07 -4.38052e-06 -2.4871e-06 -3.81771e-06 -9.55782e-06 1.43721e-06 -1.49929e-07 
-1.12775e-05 -6.06642e-06 -3.14414e-06 -6.00144e-06 -2.32549e-06 -1.79241e-06 -1.73205e-05 -7.01011e-06 -4.79597e-06 
-8.17927e-06 -2.96929e-06 -6.54597e-06 -1.45413e-05 7.29786e-07 -1.87279e-06 3.10714e-06 -3.70762e-06 9.86176e-08 
1.712e-07 -1.07594e-05 -4.59556e-06 8.566e-06 -1.44115e-06 7.9873e-07 2.01332e-07 -2.9908e-06 6.27445e-07 
9.4465e-07 -6.79397e-06 -3.13224e-06 9.07637e-06 -1.20883e-06 4.09634e-06 -4.13618e-06 -2.3313e-06 -3.57257e-06 
1.00483e-05 -6.18643e-06 -7.76019e-07 -6.63173e-07 -1.1721e-06 -1.02843e-05 -3.96094e-06 4.20898e-06 8.01219e-06 
2.55932e-06 1.61556e-05 -5.05119e-06 3.83353e-06 4.19056e-06 -8.19175e-06 1.54253e-05 -3.3451e-06 9.55884e-06 
4.25064e-06 1.09833e-06 6.75038e-06 1.34401e-05 1.60646e-05 -7.92443e-06 7.92126e-07 -1.71894e-06 -2.68193e-05 
-2.32947e-06 -3.05428e-05 1.68524e-05 -6.32279e-06 2.09609e-07 -6.17517e-06 -5.77377e-06 5.24324e-05 -9.99147e-06 
9.40072e-06 5.0108e-05 2.4633e-05 2.85014e-05 -4.54274e-06 1.36626e-05 -1.55728e-05 -1.79881e-05 4.66752e-05 
4.2809e-06 1.28675e-05 -7.34827e-05 -1.64373e-05 7.9548e-05 8.70888e-05 2.20918e-05 5.64368e-05 4.39423e-05 
4.42514e-05 8.13644e-06 3.4719e-06 2.4413e-05 2.04073e-05 -3.89811e-06 1.64803e-06 4.65378e-06 1.85637e-05 
-2.17192e-05 -2.23804e-05 -6.02683e-06 3.75728e-06 -8.60251e-06 -1.34372e-05 -1.91163e-06 4.91931e-06 1.40301e-06 
5.38266e-07 -4.33717e-06 1.04896e-05 5.16763e-06 -4.8703e-06 1.70338e-05 8.73448e-06 1.64156e-05 1.28195e-05 
4.61726e-06 1.14038e-05 1.69716e-05 -7.09701e-06 7.04058e-06 4.88968e-06 4.45837e-06 -2.44336e-07 1.99805e-05 
1.6363e-05 2.83399e-08 6.02029e-06 1.87237e-05 -4.25875e-05 3.64811e-05 -1.61902e-05 -5.56477e-06 1.12602e-05 
0.000105215 3.04883e-05 0.000246946 -9.68493e-05 0.00025398 2.13643e-06 2.00879e-06 6.6907e-06 8.8351e-07 
7.40808e-06 -5.93772e-05 -4.93589e-05 -2.37637e-05 -6.72905e-05 -5.09032e-05 -1.65919e-05 -9.31069e-05 -4.5243e-05 
4.73436e-05 -3.1342e-05 6.13465e-06 2.68385e-05 0.000119405 -8.11122e-06 4.2072e-06 0.000149487 -5.87276e-06 
-4.97646e-05 -3.82907e-05 -0.000111595 -1.73604e-05 -1.07354e-05 -3.99064e-06 1.45763e-05 -0.000151465 9.13946e-05 
-0.000126479 -4.36699e-05 -6.40071e-05 -8.46642e-05 -0.000144269 -0.000483 0.00023823 0.000240645 -6.93918e-06 
-1.87166e-05 1.01955e-05 0.000497742 -0.000195611 -1.38442e-05 0.00010651 -0.000171462 -1.58038e-05 -3.77675e-05 
1.24294e-05 -1.92639e-05 6.21058e-05 5.20973e-05 3.92894e-05 2.82127e-07 9.94064e-05 -3.47273e-05 -0.00016668 
5.11477e-06 1.7215e-06 -7.51241e-07 -6.18821e-05 -1.86687e-05 -7.92818e-06 2.41745e-05 1.55011e-06 -3.64143e-05 
-3.41031e-05 3.24125e-05 -0.000172196 -5.79397e-05 -7.06756e-07 -2.84756e-06 7.79404e-06 -1.13e-05 -7.79766e-06 
-4.63968e-05 -3.96128e-05 0.000214456 -0.000157336 6.98443e-05 1.25805e-06 4.47317e-07 1.13189e-05 1.5985e-05 
-2.36527e-05 1.88369e-05 0.000150378 -8.11591e-05 -7.38921e-06 6.52826e-06 -7.82164e-05 -5.77496e-05 3.25313e-05 
0.000117948 4.35903e-05 -1.512e-05 6.52307e-08 -1.15875e-05 2.28936e-06 9.52162e-06 2.28485e-06 0.000199974 
1.7903e-05 -6.19794e-05 -0.00012801 0.000126564 1.04765e-05 -1.40611e-05 -3.17467e-06 -0.000157238 -0.000181245 
-9.40752e-05 0.000251611 4.0815e-05 -0.000185071 0.000127859 2.66704e-06 -3.64538e-06 -5.33525e-06 -6.56678e-06 
-7.90589e-06 -9.93911e-07 5.59412e-06 8.73835e-07 9.28003e-06 -1.84756e-06 -5.76638e-06 -4.86817e-06 -2.67047e-06 
-5.1839e-06 -1.09621e-05 -5.51227e-06 -1.77944e-06 -2.52021e-06 -5.94812e-06 2.3402e-06 2.06884e-06 4.59598e-06 
-5.21636e-06 -5.09186e-06 3.51003e-06 5.22893e-06 -1.83885e-05 1.94152e-07 -5.4612e-06 1.03767e-05 4.16484e-06 
-1.25905e-06 3.74239e-06 3.71589e-06 3.65546e-06 9.32975e-06 6.41105e-07 7.06569e-06 5.44643e-08 1.87526e-06 
7.73869e-06 1.01749e-05 4.60603e-06 9.66974e-06 9.76966e-07 5.14219e-06 8.90072e-06 -2.02136e-06 -4.28717e-06 
4.91267e-05 3.20923e-06 4.00928e-05 -2.87219e-05 2.25075e-05 -3.96113e-05 -6.99537e-06 2.74965e-05 4.738e-05 
8.11326e-06 -2.1748e-05 -1.26176e-05 -1.40122e-05 6.32465e-06 -9.19094e-06 1.17573e-05 6.96346e-07 1.56386e-06 
-1.23767e-05 -3.71024e-05 3.6513e-06 -8.49186e-06 -5.60959e-06 1.06661e-05 -2.8074e-05 -5.46203e-06 5.65895e-06 
-1.89563e-06 -1.68278e-06 1.73973e-06 -1.54342e-06 2.17091e-06 4.61732e-06 6.7298e-06 1.09156e-05 1.02448e-05 
5.14448e-07 8.31937e-06 1.27869e-05 1.18167e-05 1.48857e-05 1.7928e-05 1.34711e-05 3.51292e-06 1.53356e-05 
1.48139e-06 6.27659e-06 1.12913e-05 -2.01701e-06 5.6712e-06 7.05548e-06 -8.62692e-06 -2.99692e-07 1.90929e-06 
-1.42843e-05 -4.09436e-06 4.0119e-07 -9.39697e-06 -6.08991e-06 -1.31369e-06 -5.81337e-06 -7.06544e-06 -2.34682e-06 
-1.39737e-05 -4.76287e-06 -1.37462e-06 -8.68445e-06 -1.155e-06 2.15172e-06 -1.69747e-06 -1.95479e-06 -2.67362e-06 
2.4989e-06 -4.88326e-06 -7.59824e-06 1.42149e-06 -1.28324e-05 -1.15853e-05 -2.10524e-06 4.15775e-07 -1.73939e-05 
-1.31385e-06 -1.57387e-05 -1.16157e-05 3.61056e-06 -1.51123e-05 -8.77122e-06 1.57883e-06 -1.83648e-06 -1.20807e-05 
-4.07426e-06 -9.52194e-06 -1.15038e-05 -5.29582e-06 1.02204e-06 -3.34454e-06 1.78465e-06 1.62095e-06 -5.62977e-06 
-1.73574e-06 -3.38462e-07 -5.87701e-08 5.11622e-07 8.33743e-06 -5.29056e-06 -2.40392e-06 -3.23864e-06 -1.75323e-06 
-3.68809e-06 3.03831e-06 5.40386e-07 -2.33341e-06 3.72952e-06 4.69246e-06 5.92456e-07 -7.55179e-06 -9.10445e-06 
-0.000202077 0.000111939 5.73196e-05 -4.82703e-05 -3.49302e-05 6.90728e-05 -6.22453e-07 1.06002e-06 3.56767e-06 
7.45882e-06 -1.70802e-06 3.83804e-06 0.000935692 0.000899352 8.62292e-06 4.62563e-06 4.87952e-06 -7.65983e-06 
7.00391e-06 -1.38803e-06 -1.52941e-06 0.00024558 0.000271455 1.59128e-06 -6.30117e-06 -1.01804e-05 -8.41946e-06 
6.6113e-06 -6.01074e-06 -1.66355e-06 -4.81679e-06 -4.32592e-05 -1.97726e-05 2.36378e-05 -4.81196e-06 -1.29739e-05 
-5.54734e-06 2.3454e-05 1.49405e-05 -1.61182e-06 0.000235433 -8.37657e-06 -2.8382e-06 1.15311e-05 1.67145e-05 
1.56671e-05 1.20539e-05 9.78645e-07 -1.31097e-05 -1.62907e-05 -7.29498e-06 -1.74461e-05 -1.68575e-05 -9.83269e-06 
-3.53026e-06 1.67777e-06 -6.40682e-06 -1.07887e-05 7.88348e-07 -1.8002e-05 6.11369e-06 8.71331e-06 -6.92828e-06 
-9.46289e-06 -5.10244e-06 -6.03566e-06 2.27283e-06 5.46008e-06 6.4814e-06 1.01479e-05 -1.39659e-05 2.90058e-05 
-1.54891e-05 1.96023e-05 4.01688e-06 -1.40772e-05 -2.03776e-05 -3.44238e-06 -2.71772e-06 -2.47231e-05 7.90176e-06 
2.66412e-05 8.95546e-06 1.93908e-05 -1.80553e-05 4.44076e-06 -1.10341e-05 -1.20837e-05 4.08015e-06 -2.17489e-05 
-4.97928e-06 -1.97501e-06 -2.6079e-05 -2.6354e-06 -1.82736e-05 4.08727e-05 7.3919e-06 -1.43829e-05 3.44346e-05 
-2.01211e-05 2.04362e-05 -2.44245e-05 6.44243e-06 9.11635e-06 2.97655e-06 -5.86364e-07 -1.20086e-05 -1.05381e-05 
2.53121e-05 -3.7801e-07 -7.99344e-06 -2.80989e-05 -3.46174e-06 7.15683e-06 -9.38518e-06 -9.89799e-07 4.14141e-05 
2.10223e-05 0.00012313 1.09809e-06 1.48209e-05 1.41225e-05 4.23452e-06 4.63792e-06 2.51258e-05 1.62951e-05 
2.17753e-05 -1.7147e-05 2.87686e-05 -8.38726e-06 2.08467e-05 4.92908e-06 -1.19783e-05 8.36216e-06 -8.0684e-06 
-9.24019e-06 4.6096e-06 3.06903e-05 1.35995e-05 -2.19173e-06 -1.39934e-05 -9.15302e-06 -7.80888e-06 -1.46387e-05 
-1.07217e-05 -1.12377e-05 -2.6736e-06 1.43314e-05 2.57631e-06 3.63578e-06 1.52299e-05 1.8301e-05 7.25064e-06 
2.09185e-06 4.03183e-06 -3.86556e-05 -6.41703e-07 8.78412e-06 -3.41252e-05 2.45614e-05 7.49533e-06 -1.98664e-05 
2.05579e-05 -2.15501e-05 3.437e-06 -6.00105e-05 -2.94512e-05 4.2846e-05 -4.8984e-05 -2.58245e-05 2.65155e-06 
4.13414e-05 1.89931e-05 8.11236e-06 -7.36187e-05 0.000115971 -4.2051e-05 7.03806e-05 6.20927e-05 9.08141e-05 
3.12651e-05 -9.08724e-05 4.83815e-05 -8.68065e-05 -8.44062e-06 6.19773e-06 -4.75556e-05 -0.000121683 6.03682e-05 
9.14845e-05 0.000126738 -2.66086e-05 -7.75083e-05 1.69763e-05 -2.19439e-05 3.27233e-06 3.04081e-05 1.84595e-05 
-3.88761e-06 2.32248e-05 1.98265e-05 1.41367e-05 3.84838e-06 -6.39064e-06 -3.13608e-06 -4.61462e-05 -7.37064e-05 
-8.75007e-05 -8.19454e-05 7.29903e-06 -3.67349e-05 -2.32788e-05 2.2403e-08 -1.20652e-05 1.72576e-05 -0.000218986 
7.79393e-05 0.000129915 4.96956e-05 7.01286e-05 3.2684e-05 1.27255e-05 -2.8458e-05 -7.46818e-06 -3.2941e-05 
6.72746e-05 4.5128e-06 -5.886e-06 5.34619e-06 3.47603e-06 5.41723e-05 1.41455e-05 0.00124938 0.000802043 
1.57789e-05 5.10825e-06 6.16886e-05 -9.75235e-05 -1.91419e-05 -7.52889e-05 5.62169e-07 -3.9677e-05 1.81121e-05 
-6.75994e-06 3.88339e-05 3.81684e-05 3.5453e-06 -3.51069e-05 -2.47154e-05 1.1404e-05 2.23848e-05 2.58669e-05 
3.51631e-06 -7.19463e-05 4.36256e-05 5.70835e-05 2.66377e-05 4.8413e-05 -3.27744e-05 -1.51067e-05 -1.16687e-05 
2.17115e-05 4.18039e-05 2.96546e-06 -3.35512e-05 1.98498e-05 4.59806e-06 -1.50663e-05 9.45094e-06 -2.31505e-06 
8.34164e-06 -1.1255e-06 4.11069e-06 -6.83342e-07 -7.21568e-06 -3.69492e-05 1.24509e-05 7.13354e-06 -7.55061e-06 
-5.13053e-06 -7.6805e-05 4.69511e-05 0.000188285 2.92592e-05 -4.90064e-05 -3.27454e-05 -6.80478e-05 -1.54237e-05 
-2.37235e-05 -7.55025e-06 1.31073e-05 -9.92333e-06 -2.43751e-07 -3.4672e-06 -5.61777e-06 9.43626e-07 3.7275e-06 
-3.67768e-06 -9.95154e-06 5.36231e-06 -1.2453e-05 1.57632e-05 2.52022e-05 -1.05195e-05 -1.10651e-06 -8.17831e-06 
3.32933e-05 1.0532e-05 -8.59475e-07 -1.87964e-05 -1.34693e-05 0.00119818 0.000882739 8.41856e-06 1.96344e-05 
-1.67793e-05 -6.13976e-06 0.00136541 0.000890682 1.65208e-05 1.60376e-06 -1.77037e-05 5.4779e-06 -4.75108e-06 
1.5101e-05 -1.02476e-05 1.5263e-05 1.8262e-05 1.66334e-05 -1.30232e-05 -5.6929e-05 1.97018e-05 7.8901e-07 
-1.05038e-05 4.02556e-06 3.55654e-05 -6.00762e-06 -3.1782e-05 -2.35834e-05 2.97145e-05 -3.03019e-06 -3.5142e-05 
1.36559e-06 5.93979e-06 -7.33449e-06 -5.154e-06 0.00115094 0.000745401 -7.11925e-06 7.70843e-06 -7.76124e-06 
-2.78277e-06 -4.78138e-06 9.87825e-06 2.40906e-06 -3.37773e-06 9.87315e-06 -1.27866e-05 -1.20589e-06 -2.61462e-05 
-1.62897e-06 -1.09465e-05 -3.66609e-05 3.53543e-06 -1.44419e-05 -3.18737e-05 -2.1466e-05 -2.22042e-05 -8.40332e-06 
-2.10792e-05 -2.93361e-05 -2.57987e-06 -4.89975e-06 -1.04759e-05 1.24239e-05 -1.94405e-07 -1.22973e-05 -2.40371e-05 
-7.71353e-06 -4.65296e-06 -2.85742e-05 -1.24885e-05 -1.98703e-06 -1.38777e-05 -9.49062e-06 -1.00246e-05 -1.99463e-05 
4.25964e-06 -3.56707e-06 -6.34746e-06 -8.65656e-06 -1.17322e-05 -1.01391e-05 1.32325e-05 7.55704e-06 5.89628e-06 
1.01292e-05 1.45651e-05 -1.3977e-06 1.15857e-06 -1.45981e-05 7.62725e-06 -6.98855e-06 -8.37485e-06 1.07487e-05 
-2.17542e-06 -1.01531e-05 2.20164e-05 4.6458e-06 -7.57341e-07 -1.7165e-05 2.1355e-05 -1.0035e-06 8.06315e-06 
2.18318e-05 1.51426e-05 -2.12004e-05 -7.71979e-05 1.23907e-05 2.59378e-05 5.56992e-06 -2.52933e-05 -8.15889e-07 
2.61793e-05 -2.92465e-05 1.83877e-05 1.12178e-05 -2.13128e-05 1.89909e-05 -1.07291e-05 7.3254e-06 -2.53594e-05 
2.40792e-06 3.66916e-06 1.74027e-05 -5.43019e-06 -1.26374e-05 -1.71101e-05 -7.51902e-06 0.00100729 0.000514396 
-2.84699e-06 3.49833e-05 2.8368e-05 2.47687e-05 6.90296e-06 -5.54339e-06 -3.99263e-05 9.46568e-07 4.3066e-05 
2.5167e-05 -3.04662e-05 1.7588e-05 -4.04393e-05 -3.02174e-05 -2.75056e-05 -1.2581e-05 -1.16108e-06 -6.76876e-06 
-4.55522e-05 4.85255e-05 1.83256e-05 6.52721e-05 -8.48099e-06 2.09037e-05 3.10989e-05 3.68847e-05 1.82307e-05 
-8.11214e-05 1.36085e-05 -0.000568097 0.000104813 2.85951e-05 1.72365e-05 4.19407e-05 -8.6763e-06 5.98786e-06 
-2.66498e-05 3.65209e-05 -9.66572e-06 -2.39725e-05 -1.89744e-05 -1.72151e-05 4.2068e-05 -2.26772e-05 2.92457e-05 
-2.18523e-05 -5.1707e-06 1.05905e-06 -1.27433e-05 1.33933e-05 -6.15605e-06 -1.70537e-05 4.94225e-05 2.8024e-05 
3.55039e-06 3.78722e-06 -1.91562e-06 2.03378e-06 0.000120543 -1.56794e-05 -1.46809e-05 -4.93516e-05 1.29906e-05 
-4.28559e-05 2.44598e-05 -4.35184e-05 0.000176113 -2.68495e-06 -1.36055e-05 1.38915e-05 -3.39625e-06 3.58309e-07 
-4.91058e-06 -1.96225e-06 -1.04195e-05 -1.69994e-05 3.02726e-05 0.000669394 3.54454e-05 2.01682e-05 3.58849e-06 
-1.11588e-05 4.37691e-05 1.35503e-05 -3.60871e-06 -2.13391e-05 -1.51148e-05 -3.10403e-05 -2.87075e-06 -8.42809e-06 
1.61421e-05 -1.80644e-05 2.66196e-05 4.11794e-05 7.48205e-06 1.42891e-05 -1.64478e-05 -2.65568e-05 1.16323e-05 
2.89431e-06 -3.22999e-05 -1.09707e-05 7.26715e-06 -1.05624e-05 9.78673e-07 0.00134386 0.00115673 1.30415e-05 
-1.43175e-05 -3.99689e-06 -1.91633e-05 -1.34021e-05 -3.85325e-06 1.51863e-05 -2.29412e-05 -9.03836e-05 7.94181e-05 
1.75257e-06 -4.29714e-05 -8.66327e-05 -9.30915e-06 -1.06491e-06 -4.67418e-05 -6.21931e-05 3.05804e-05 -0.00392321 
-0.0138748 5.05627e-05 0.00315112 0.00771253 2.64328e-05 2.44104e-05 5.57406e-05 -1.62775e-05 -2.10723e-05 
-1.43785e-05 -2.37436e-05 1.98874e-05 -1.32243e-05 -3.64245e-05 1.3016e-05 -1.85646e-05 -1.47596e-06 1.67334e-05 
-1.06145e-05 -3.63062e-05 -1.05816e-05 8.09745e-06 -2.602e-05 1.56766e-05 7.68928e-06 -1.15417e-05 5.237e-05 
-6.53458e-06 -7.13393e-05 4.1539e-06 -9.09969e-06 3.11138e-05 -1.14433e-06 5.83661e-05 -3.78577e-05 -4.81914e-05 
-2.71335e-05 -7.92391e-05 -1.57951e-05 -2.55791e-05 4.19084e-06 -3.31156e-05 4.46142e-05 1.63794e-05 4.36998e-05 
2.45213e-05 -6.00839e-05 -2.68036e-05 1.98507e-05 -9.61967e-06 7.11118e-06 -1.06597e-05 3.31928e-05 -1.77796e-05 
3.64082e-05 -9.51718e-05 1.2979e-05 -4.77093e-05 2.16901e-05 -2.42894e-05 6.88286e-06 -7.37374e-05 1.06014e-05 
9.33689e-06 -3.18346e-05 -9.21062e-06 -1.89808e-05 -0.000108569 7.03737e-05 4.04014e-05 -3.7479e-05 2.77872e-06 
-2.69471e-07 7.21538e-05 -1.16545e-05 1.95465e-05 1.43092e-05 -1.20405e-05 -1.56636e-05 -1.21763e-05 -1.03596e-05 
2.23414e-05 1.04161e-05 8.0892e-05 -7.05797e-06 2.80602e-05 3.36349e-05 -6.32475e-06 2.83182e-05 3.53488e-06 
-6.07838e-06 3.53527e-05 -9.71768e-07 3.69381e-05 3.51837e-06 3.63108e-05 2.01451e-05 4.10946e-05 3.31944e-05 
-1.80039e-06 7.21824e-06 -3.31245e-05 -3.96096e-05 3.99154e-05 -1.42853e-06 -2.13066e-05 1.70301e-06 -1.67851e-05 
-1.75713e-06 -3.02858e-05 3.82317e-05 -1.05664e-06 5.49073e-05 -3.59298e-05 8.62002e-06 5.34525e-06 1.85171e-05 
-6.51308e-05 -4.63492e-05 -5.48619e-06 -2.14718e-05 -2.93803e-05 -2.26073e-05 9.12113e-06 -2.41579e-05 9.14682e-06 
-8.04582e-06 1.19214e-05 3.68376e-05 -8.45821e-06 6.24608e-06 -4.87373e-06 8.69219e-06 -3.45163e-06 -6.72725e-05 
1.92772e-05 -7.08339e-05 9.27718e-06 4.74238e-05 1.30512e-05 2.96645e-07 3.41261e-05 -5.01662e-06 -2.08877e-05 
-7.40443e-05 5.30248e-05 6.67734e-06 -4.79293e-06 -1.76116e-05 -3.10862e-05 4.21439e-05 -2.82778e-05 6.55533e-07 
4.56565e-05 -1.01196e-05 -4.69976e-05 1.33034e-05 3.10278e-05 -1.52916e-05 2.11444e-05 4.53589e-05 4.17072e-05 
-1.09825e-05 1.71669e-05 5.24468e-06 3.08428e-06 -1.16443e-05 4.47978e-05 7.49859e-06 2.78336e-05 3.89955e-06 
5.52302e-05 -1.13074e-05 0.00012704 -2.17657e-05 9.76848e-05 -6.63019e-05 -7.80723e-05 1.38159e-05 8.87804e-06 
-9.90898e-05 -1.26816e-05 -6.83937e-05 3.48464e-05 -1.62662e-05 -5.4688e-05 -8.2967e-05 -8.18011e-05 -1.7023e-05 
6.3846e-06 2.44621e-06 4.87432e-06 -1.31432e-05 3.25352e-06 1.98438e-06 -1.16932e-05 -8.6404e-06 -2.60633e-06 
-1.44117e-05 -9.51545e-06 2.07816e-06 -1.24939e-05 -1.06304e-05 7.82417e-06 -1.29331e-05 -7.10195e-06 8.50235e-06 
-1.10924e-05 -7.17339e-06 5.95175e-06 -6.16683e-06 -4.39591e-07 -1.1418e-07 -3.69554e-06 2.94914e-06 2.64606e-06 
-1.16106e-05 -9.95603e-06 1.88664e-06 -1.34841e-05 -1.40546e-05 4.11117e-06 -1.11179e-05 -1.46208e-06 -7.43192e-07 
-1.53243e-05 -1.23376e-05 -2.34084e-06 -1.40964e-05 -1.08071e-05 -3.92321e-07 -1.04329e-05 -8.29606e-06 -1.73991e-06 
1.1117e-06 -5.99675e-06 -1.59776e-06 -5.58377e-06 -1.73564e-06 -3.19115e-06 2.76915e-06 2.24594e-06 -1.27306e-06 
7.08222e-06 1.75465e-06 -2.1815e-07 1.04396e-05 6.26159e-06 8.24483e-07 5.52074e-06 8.32426e-08 8.53251e-07 
8.68024e-06 -1.03209e-06 1.32817e-06 -5.09253e-07 -2.91319e-06 1.19661e-06 -4.16432e-06 -5.96777e-06 1.8385e-06 
-7.00564e-06 1.32799e-06 1.94222e-06 -4.75769e-07 -5.86523e-06 -3.71877e-06 -2.73879e-06 -1.05462e-05 7.2151e-06 
-5.30986e-06 0.00323771 0.000233651 0.00564063 6.66159e-05 0.000378663 -0.00113068 -4.02599e-05 -8.60723e-05 
-0.000255431 1.96296e-05 -1.06446e-06 -0.000171774 6.07151e-06 -2.00324e-05 -3.68237e-05 1.01761e-05 -1.40447e-05 
-3.34219e-05 -1.47354e-05 -2.41236e-05 3.39862e-06 -4.98854e-06 -2.41547e-06 -2.85483e-05 -1.68828e-07 -1.15677e-05 
-1.76693e-05 -1.02723e-06 -8.36623e-06 -2.15193e-05 6.15882e-07 -1.09493e-05 -2.3126e-05 -9.70796e-06 -8.68689e-06 
-1.94342e-05 1.15753e-05 2.46008e-05 -9.69971e-06 -1.4339e-06 -9.84881e-06 -2.67805e-05 -4.75417e-07 -8.96601e-06 
-1.80758e-05 -7.11641e-07 -5.67801e-06 -1.36579e-05 -2.74028e-08 -2.42682e-06 -5.38553e-06 8.75835e-07 -4.12856e-08 
-1.45316e-06 -1.89258e-06 -4.7723e-07 2.21527e-06 -2.83365e-06 -7.6709e-07 8.60289e-06 -4.06946e-06 -1.5731e-06 
8.35972e-06 -5.41352e-06 -2.51545e-06 8.51889e-06 -5.08061e-06 -6.63725e-07 1.02968e-05 -6.74196e-06 2.34673e-07 
8.4076e-06 -5.56469e-06 -3.9951e-07 8.49345e-06 -2.74493e-06 -1.26432e-06 8.06734e-06 -1.28902e-06 -1.48794e-06 
6.47507e-06 -2.20753e-06 1.3363e-06 3.87114e-06 -5.78655e-08 5.15004e-07 -1.74715e-07 2.95066e-06 2.08983e-07 
-3.11286e-06 4.54532e-06 2.67556e-06 -1.5166e-06 4.66726e-06 1.97649e-06 -4.92622e-06 4.82879e-06 5.21713e-07 
-6.02655e-06 4.02309e-06 6.46946e-07 -5.65518e-06 3.04807e-06 -6.86564e-07 -6.14623e-06 2.54688e-06 -1.48446e-06 
-6.69246e-06 -8.86411e-07 -1.13868e-06 -6.16919e-06 -1.0574e-06 -2.45552e-06 -6.27691e-06 -1.93245e-06 -2.83019e-06 
-5.3734e-06 -2.54907e-06 -1.85357e-06 -2.82105e-06 -3.80679e-06 -2.87481e-06 -2.03359e-06 -4.65764e-06 -2.49291e-06 
-1.15726e-06 -3.3518e-06 -5.97755e-07 1.43446e-06 0.00710435 3.75454e-06 -7.08896e-06 -4.21534e-06 6.15896e-06 
3.35411e-06 -2.11509e-06 3.57601e-06 3.80821e-06 3.25206e-06 3.91263e-06 3.96523e-06 5.93758e-06 4.13225e-06 
5.58524e-06 8.42372e-06 3.40063e-06 3.92478e-06 9.30882e-06 2.57349e-06 3.03235e-06 8.35646e-06 3.15104e-06 
2.59794e-06 8.88817e-06 2.35334e-06 -1.28153e-06 4.84093e-06 9.34158e-07 -3.67928e-06 5.58447e-06 -3.66103e-06 
-3.99732e-06 4.62988e-06 -3.66993e-06 -5.51723e-06 -1.65049e-07 -4.51018e-06 -7.30029e-06 -6.26192e-06 -5.63481e-06 
-7.17266e-06 -9.93688e-06 -5.52484e-06 -7.27994e-06 -1.00651e-05 -5.41075e-06 -8.05584e-06 -1.36325e-05 -4.72394e-06 
-8.60775e-06 -1.58028e-05 -4.92628e-06 -4.42681e-06 -1.36792e-05 -1.89946e-06 -4.92074e-06 -1.23476e-05 -7.63693e-07 
-6.44423e-07 -8.55127e-06 1.22409e-06 -7.29478e-07 -5.70227e-06 2.35032e-06 2.55291e-06 -5.91798e-06 1.25859e-06 
3.12241e-06 -4.10123e-06 9.6538e-07 1.41324e-06 -3.448e-06 3.01635e-06 4.55052e-06 -1.77402e-07 4.03564e-06 
4.9055e-06 3.49082e-06 2.64088e-06 7.07864e-06 6.33206e-06 7.38742e-06 6.6109e-06 1.03703e-05 8.29576e-06 
1.16294e-05 1.84998e-05 4.86125e-06 8.15138e-06 1.36094e-05 3.86005e-06 5.20272e-06 1.29214e-05 3.72893e-06 
4.36766e-06 1.07623e-05 5.64991e-06 6.05894e-06 1.173e-05 2.68353e-06 5.13558e-06 1.06634e-05 9.61508e-06 
8.23256e-06 1.23295e-05 1.04201e-05 6.94486e-06 1.90875e-05 1.81543e-05 9.0156e-06 1.44824e-05 1.53711e-05 
1.41659e-05 2.2944e-05 1.80372e-05 8.00439e-06 1.62067e-05 4.14568e-05 1.37973e-05 2.1122e-05 0.000123321 
2.63138e-05 2.69318e-05 -8.37588e-05 -0.000230203 -7.34439e-05 -0.000203957 -0.000483996 0.000156492 -0.00555493 
-0.000801375 -0.00118673 0.0116176 0.00373829 -0.00666472 -4.67435e-05 0.00395373 0.000559248 0.00204123 
0.00176718 -2.68427e-05 -0.00287324 0.000918922 3.3753e-05 -0.00244652 -0.00398969 0.00299469 -7.37107e-05 
0.000779838 -2.96929e-05 -0.00265436 -0.00188934 0.000615556 -0.00244028 -0.00193731 0.000875495 -0.00220553 
-0.00166314 0.00107282 -0.0022045 -0.0012265 0.000795512 -0.0025127 -0.00139251 0.000554231 -0.00206368 
-0.00174661 0.00102237 -0.00184769 -0.00141802 0.00056426 -0.00137619 -0.00149333 0.000702596 -0.00146011 
-0.00143902 0.000588644 -0.00105806 -0.00115612 0.000810678 -0.000718387 -0.000436814 0.00033478 -0.000578187 
0.000148125 0.000151564 -0.000470525 0.000329805 9.32034e-05 -9.92784e-06 0.000479204 9.48951e-05 0.000146788 
0.00100599 -0.000168319 0.000664003 0.00142617 -0.000266362 0.00132573 0.0018627 -0.000487602 0.0011236 
0.00231728 -0.00120898 0.000660042 0.00162101 -0.000714626 0.0103096 -0.00175171 0.00159863 0.00335339 
0.000480268 -0.00683524 0.00867387 0.0017304 0.00456131 0.00418847 0.000676186 0.00252114 0.00147646 
-0.000503072 0.00196508 0.00150164 -0.0003928 0.00187898 0.00139422 -0.000332595 0.00170308 0.00141162 
-0.000383679 0.00165081 0.0013796 -0.000473486 0.00165299 0.00135391 -0.000423631 0.00171935 0.00139075 
-0.000433803 0.00182673 0.00150038 -0.000372376 0.00200698 0.00175294 -0.00048961 0.00212682 0.00218871 
-0.000504264 0.00285643 0.00289893 -0.000662681 0.0057578 0.00316837 -0.000637481 -0.00135254 0.0152325 
-0.00514683 -0.00647002 -0.00389786 -0.00285792 0.000979196 -0.00205093 -0.00197272 -5.56062e-05 -0.00162226 
-0.00165544 0.00027952 -0.00157259 -0.00165093 0.000421583 -0.0016262 -0.001591 0.000447813 -0.00155878 
-0.00163792 0.000435196 -0.00153804 -0.0016964 0.000437988 -0.0016282 -0.00182702 0.000428691 -0.00151255 
-0.00178511 0.000452024 -0.00156035 -0.00183838 0.000452258 -0.00182907 -0.00228338 0.000438171 -0.0025033 
-0.00205812 0.000549762 -0.00240391 -0.0133365 0.00086082 7.18676e-06 0.00636209 0.00743142 -0.00216761 
-0.000206977 -4.51761e-06 -7.54337e-06 0.00332201 0.00926898 0.000793117 0.00544797 -0.00156744 0.0013907 
-0.00763815 -0.00338647 -0.00131244 -9.66455e-07 0.000699475 5.2537e-06 -6.54037e-06 4.97495e-06 -1.29423e-06 
-7.77282e-06 2.02523e-06 2.52367e-07 9.6656e-06 -5.97673e-07 1.33383e-05 8.46754e-06 1.49097e-06 -3.3395e-07 
1.37604e-05 5.36353e-06 -8.94778e-06 -2.69594e-07 1.729e-06 -5.99218e-06 -5.793e-06 -2.70263e-06 -2.25225e-06 
-5.76323e-06 -1.95596e-06 -2.2258e-06 -9.76172e-06 -3.56143e-06 -1.24259e-06 -1.47509e-05 -4.23212e-06 6.34617e-06 
-1.09837e-05 -1.94218e-06 3.50626e-06 -5.99864e-06 -1.49804e-06 4.22523e-06 -6.26282e-06 -2.37701e-06 5.39417e-06 
-3.32286e-06 -1.2464e-06 5.5072e-06 4.91305e-07 -1.48896e-06 4.27442e-06 3.61254e-06 -8.23545e-07 6.32184e-06 
4.27546e-06 5.96861e-07 9.86726e-06 4.03786e-06 1.78564e-06 9.56636e-06 5.97636e-06 2.70054e-06 2.10851e-06 
6.47313e-06 2.4907e-06 2.23875e-06 -9.42483e-06 3.08884e-06 2.07912e-06 4.73255e-06 8.22005e-07 1.88832e-06 
6.99427e-06 1.72797e-06 6.14529e-06 4.1616e-06 -4.84416e-07 -0.000140141 1.93516e-05 1.78528e-06 -3.11356e-07 
0.00310395 -0.00156935 -7.23081e-05 5.75806e-05 -0.000372411 7.66389e-05 -0.0029028 0.00103715 -0.000745789 
6.62181e-05 0.000106433 -9.32868e-05 3.43605e-05 7.35364e-05 2.47881e-05 5.06013e-05 5.67499e-05 6.40004e-06 
-2.6348e-05 2.18906e-06 -1.65602e-05 7.56913e-06 3.23949e-05 5.15368e-06 4.73299e-07 3.28204e-05 -6.91229e-06 
1.61713e-06 2.96667e-05 -1.35888e-05 3.49902e-06 2.53762e-05 -1.46227e-05 -2.46419e-06 2.49586e-05 -1.14135e-05 
5.29048e-06 1.71056e-05 -1.18522e-05 5.84931e-06 1.89779e-05 -1.13101e-05 6.31487e-06 1.40148e-05 -8.29709e-06 
4.63327e-06 1.00143e-05 -4.59646e-06 4.1886e-06 6.62848e-06 -4.18241e-06 5.58133e-06 3.08754e-06 -3.06251e-06 
2.62059e-06 2.65888e-06 -1.1924e-07 -2.48577e-08 -2.56697e-06 -1.1432e-07 -1.01766e-06 -6.50709e-06 -1.0413e-06 
-2.69727e-06 -8.56027e-06 -1.48119e-06 -3.44855e-06 -1.02468e-05 -1.64876e-07 -3.68832e-06 -9.63262e-06 9.14024e-07 
-5.0476e-06 -8.45073e-06 2.02469e-07 -5.0608e-06 -7.94119e-06 -9.63765e-07 -2.5888e-06 -6.40002e-06 3.62286e-07 
-3.42106e-06 -2.71291e-06 2.50909e-06 -2.29563e-06 -1.47756e-06 5.29139e-07 6.13443e-08 1.75447e-06 7.13915e-08 
1.8101e-06 4.00784e-06 2.0094e-06 3.35897e-06 6.27716e-06 1.25316e-06 3.43435e-06 6.13214e-06 1.39555e-07 
3.6756e-06 6.83095e-06 -2.14765e-06 3.15075e-06 6.55374e-06 -2.90113e-06 2.30995e-06 5.00855e-06 -3.57486e-06 
1.45957e-06 3.45254e-06 -4.70982e-06 -1.4038e-07 2.57045e-07 -4.82192e-06 -9.52331e-08 -1.28223e-07 -4.01314e-06 
-2.94656e-06 -4.70744e-06 -5.17483e-06 -5.63929e-06 -2.86096e-07 5.08401e-06 -9.50421e-06 -8.73747e-07 8.59338e-07 
-0.000401695 -0.000794642 0.0052665 0.00380192 0.000458282 0.00135521 2.39011e-06 3.58854e-07 7.19182e-07 
3.75189e-06 3.16584e-06 3.31777e-06 4.00481e-06 3.57166e-06 7.02082e-06 3.79745e-06 4.76451e-06 9.98471e-06 
2.91055e-06 3.49946e-06 1.0304e-05 1.97868e-06 1.92931e-06 5.05523e-06 -6.13851e-06 -5.11052e-06 5.36445e-06 
-7.62806e-06 -3.46272e-06 2.00615e-06 -9.35973e-06 -3.75464e-06 -8.38192e-08 -2.96745e-06 4.37993e-06 -4.7198e-06 
-4.12954e-06 -4.19889e-06 -2.67947e-06 -6.02969e-06 -5.55052e-06 -6.20464e-06 -5.60976e-06 -5.43134e-06 -7.62975e-06 
-7.82987e-06 -6.82936e-06 -1.24684e-05 -7.34894e-06 -8.13921e-06 -1.52992e-05 -5.38641e-06 -6.91859e-06 -1.67528e-05 
-4.66884e-06 -5.58816e-06 -1.38146e-05 -2.18059e-06 -2.20966e-06 -1.23951e-05 9.61128e-07 -1.82103e-06 -9.56659e-06 
1.55583e-06 1.45365e-06 -8.84127e-06 2.00238e-06 1.98026e-06 -7.74805e-06 2.22872e-06 1.95699e-06 -6.64599e-06 
3.90328e-06 3.1117e-06 -4.44194e-06 4.8249e-06 4.00306e-06 9.81093e-07 4.46628e-06 5.51414e-06 2.42352e-06 
8.77313e-06 7.86475e-06 9.84632e-06 9.919e-06 1.34231e-05 1.80388e-05 9.96371e-06 1.11569e-05 1.49945e-05 
7.71456e-06 1.24722e-05 1.76499e-05 5.90035e-06 6.8661e-06 1.7935e-05 7.78709e-06 6.28574e-06 1.23419e-05 
6.93686e-06 8.87463e-06 1.52625e-05 1.60959e-05 8.85376e-06 1.98082e-05 6.41343e-06 1.5016e-06 9.15954e-06 
2.62954e-05 1.36101e-05 2.40689e-05 1.22996e-05 -3.97505e-06 2.89017e-05 2.16805e-05 1.33705e-05 7.78247e-05 
2.82684e-05 1.26303e-05 3.03984e-05 3.13666e-05 7.91625e-06 3.6912e-05 -5.72361e-05 -7.26506e-05 -3.59412e-05 
-5.54884e-05 0.000323386 0.000164441 -0.000795317 9.35663e-06 -0.000308161 0.00242407 0.00137678 0.000371657 
0.000794819 -0.0001531 0.000129799 -4.9062e-06 0.00155325 4.21943e-05 0.00161797 1.4618e-05 -0.000735269 
0.000820193 -0.000352523 0.000433429 0.000757938 -0.000129176 0.000213185 0.00103637 -0.000191688 -9.21931e-06 
0.00129456 -0.000210935 -3.93251e-05 0.00107664 -0.000164268 7.95335e-05 0.000868894 -2.73527e-05 9.27003e-05 
0.000984479 -0.000161327 -1.80535e-06 0.000817969 -9.99179e-05 6.46204e-05 0.000700645 -9.58156e-05 8.66847e-05 
0.000580472 -6.94315e-05 -3.08402e-05 0.000714716 -0.000123015 -0.000201127 0.000608552 -8.50831e-05 -0.000360057 
0.000618347 -1.44761e-05 -0.000457222 0.000647914 -6.15201e-05 -0.000489605 0.000567781 1.90549e-05 -0.00061111 
0.000553439 2.44013e-05 -0.000861315 0.000607473 4.21061e-06 -0.000979812 0.000359216 -6.38586e-05 -0.00102407 
4.58629e-05 -0.000169734 -0.000287367 -0.000167499 2.63662e-05 -0.00463469 0.000183423 -0.00191196 -0.00370546 
0.00062818 -0.0010259 -0.000444471 -0.00069985 -1.42345e-05 -0.000465801 -0.000219052 -0.000191502 -0.000348671 
-0.000155989 -2.15856e-05 -0.00036154 -0.000136553 -7.15744e-05 -0.000314366 -0.000362721 -1.51063e-05 -0.000445841 
-9.8879e-05 -2.39603e-05 -0.000377117 -9.19111e-05 7.14107e-06 -0.000338917 -7.50738e-05 8.70509e-06 -0.000208054 
-0.000408139 8.76313e-05 -0.000213804 -0.000593764 0.000141249 -0.00029378 -0.000672869 0.000184483 -0.00150074 
-0.0010227 -0.000550164 -4.71204e-05 -0.000262068 3.63996e-05 -0.000160066 -4.42845e-05 5.99496e-05 7.17905e-05 
5.80767e-05 -9.69636e-05 8.78128e-05 7.23667e-05 -7.95926e-05 8.35118e-05 9.29244e-05 -6.50854e-05 9.65383e-05 
9.91195e-05 -5.41501e-05 0.000108527 7.74308e-05 -4.83948e-05 0.000104124 5.69548e-05 -4.04945e-05 0.000152798 
-6.18213e-06 -3.79709e-05 0.000136338 -0.000246556 -3.59949e-05 -9.61449e-05 -0.000744355 -9.46662e-06 0.000608992 
-0.000873722 -0.000148888 -0.00227058 -0.00212436 0.00113304 -9.97047e-06 -4.36313e-06 8.17977e-07 7.90779e-06 
-0.000291216 -0.000136087 0.000639149 -0.00180245 0.00419961 -0.000212947 2.56175e-06 1.11589e-06 6.80657e-06 
0.00130311 0.000559628 0.00272734 0.000607521 1.96286e-06 -0.000724875 0.000219071 -8.42939e-05 -0.00175509 
0.00095872 0.000389101 -0.00032126 0.000710114 -0.000459362 -0.000427625 -0.00163701 -0.000298144 0.000376895 
-0.000106482 0.000167857 -0.000670812 0.000262945 -0.000635208 -6.56912e-06 -4.75686e-06 3.66022e-06 3.49861e-06 
-7.39182e-06 -5.15487e-06 -2.72444e-06 -5.78329e-06 -5.90435e-06 -3.98159e-06 -3.05416e-06 -9.37217e-06 -4.96477e-06 
2.11062e-07 -1.45519e-05 -3.62655e-06 1.02832e-06 -1.20514e-05 -1.6449e-06 2.57185e-06 -1.17501e-05 -1.39234e-06 
2.64986e-06 -8.77733e-06 4.41055e-06 3.6252e-06 -6.07571e-06 -1.86756e-06 2.96237e-06 -2.97346e-06 -1.50489e-06 
3.82436e-06 2.69079e-07 -1.2715e-06 2.59268e-06 4.20859e-06 1.50459e-06 7.2325e-06 3.23584e-06 3.06143e-06 
7.87141e-06 4.78946e-06 2.04571e-06 5.80144e-06 5.14836e-06 3.74454e-06 2.64529e-06 4.8893e-06 3.95027e-06 
-2.05959e-06 -8.81111e-06 3.5482e-06 -2.90837e-07 1.84496e-06 8.17398e-07 -1.8702e-06 3.96588e-06 2.40825e-06 
2.5906e-06 0.000236839 0.000220311 1.91709e-06 9.53639e-06 7.67101e-06 0.000541278 0.000971852 0.000405163 
-8.76136e-05 5.59429e-05 -6.92183e-05 0.000242454 2.3622e-06 1.11959e-05 6.31497e-06 -4.96732e-06 2.42207e-05 
2.00006e-06 -1.35058e-06 2.02543e-05 3.49167e-07 -2.16162e-06 1.8249e-05 -2.14e-06 2.41969e-06 1.92701e-05 
-6.25085e-06 3.47172e-06 1.84583e-05 -6.66075e-06 4.73517e-06 1.95047e-05 -7.51804e-06 5.91509e-06 1.64447e-05 
-7.48539e-06 8.36548e-06 1.03006e-05 -4.73542e-06 7.16087e-06 6.49522e-06 2.78306e-06 6.93512e-06 5.02357e-06 
4.18684e-06 6.2248e-06 1.57186e-06 4.12958e-06 5.65247e-06 -4.64313e-07 2.5488e-06 1.94128e-06 -1.45142e-07 
3.68211e-06 8.19038e-07 -1.60664e-06 1.71753e-06 5.87965e-07 -3.08819e-06 7.97845e-09 -1.95772e-07 -4.23999e-06 
-1.22838e-06 -1.63215e-06 -5.16994e-06 -1.57862e-06 -3.04899e-07 -9.82659e-07 2.77209e-06 -3.6985e-06 -7.11292e-08 
4.21372e-06 -2.87494e-06 -1.18597e-06 -6.56633e-06 -1.31276e-06 -4.41065e-07 -3.70817e-06 -2.5439e-06 -6.24162e-07 
4.36947e-07 -1.36369e-06 -1.36008e-07 -5.71659e-07 8.81144e-07 7.44072e-07 1.22565e-06 4.7031e-06 3.91874e-06 
1.99608e-06 5.58821e-06 4.16098e-06 2.57897e-07 2.92922e-06 1.47731e-06 -1.92311e-06 3.27266e-06 1.99173e-06 
-2.62246e-06 4.46308e-06 3.36822e-06 -1.39172e-06 1.51508e-06 9.92039e-07 -5.32386e-06 -1.61808e-06 -1.82873e-06 
3.1881e-06 -8.96642e-07 1.62494e-07 5.71945e-06 -1.03891e-06 -3.03679e-06 -5.5429e-06 -1.20188e-06 -1.35952e-06 
5.39808e-06 -4.13535e-06 -4.93064e-06 2.32244e-06 0.000321661 0.000169858 2.89086e-06 3.87536e-06 2.39257e-06 
1.92826e-06 3.63028e-06 1.21115e-05 -1.90474e-07 -1.93465e-06 3.39246e-06 -2.33388e-06 -4.66226e-06 4.55905e-06 
-2.57463e-07 -2.78819e-06 5.0855e-06 -1.79104e-06 -2.36249e-06 2.84741e-06 -2.6302e-06 3.06642e-06 3.27626e-06 
-6.62295e-06 -3.06364e-06 -2.29888e-06 -5.23377e-06 -2.90238e-06 -3.92099e-06 -6.54208e-06 -5.11789e-06 -9.13373e-06 
-7.63784e-06 -5.12722e-06 -1.45782e-05 -6.78684e-06 -6.83587e-06 -1.68916e-05 -4.48647e-06 -6.09465e-06 -1.9752e-05 
-2.76936e-06 3.90467e-08 -4.01878e-06 -1.02066e-06 -3.35233e-06 -1.4511e-05 -5.77631e-08 -4.14107e-07 -1.12986e-05 
2.59867e-06 1.57644e-06 -1.21585e-05 2.96918e-06 2.8331e-06 -7.83588e-06 2.94085e-06 2.3523e-06 -8.26291e-06 
4.67378e-06 3.40526e-06 -5.85241e-06 4.56066e-06 4.33469e-06 -1.1007e-06 1.72607e-06 2.23734e-06 -1.88093e-06 
7.51649e-06 1.25684e-05 9.041e-06 8.7644e-06 1.38347e-05 9.73537e-06 1.13319e-05 9.16715e-06 2.60307e-05 
8.7651e-06 3.56337e-06 9.94604e-06 5.53516e-06 3.53948e-06 1.49916e-05 5.63527e-06 7.97031e-06 2.3268e-05 
1.10723e-05 6.43768e-06 1.63239e-05 5.36462e-06 -9.33206e-07 7.41529e-06 -3.19493e-05 -2.52358e-05 1.9927e-05 
1.31498e-05 2.29214e-05 6.91253e-06 2.76074e-05 6.37049e-06 2.14611e-05 -1.96806e-05 4.09512e-05 3.23716e-05 
9.68658e-06 -1.10656e-05 7.01613e-05 -2.34115e-05 -2.90335e-05 4.97962e-05 -2.32411e-05 -4.39314e-05 7.95675e-05 
4.6609e-05 0.00017774 7.67834e-06 -0.000142084 -6.84221e-05 -0.000115603 -0.000152519 0.000204673 -1.20347e-06 
-0.000333654 -0.000141954 0.000156135 0.000545834 -0.000130245 -0.000506212 -0.00013889 0.000121597 1.37074e-05 
-8.83807e-05 -4.38161e-05 2.77391e-05 -6.68752e-05 -1.29206e-05 -3.69384e-06 -0.000112695 4.36851e-05 3.35735e-06 
-0.000128428 8.13434e-05 -5.16371e-06 -0.000106335 7.31998e-05 1.38815e-05 -9.52337e-05 0.000100742 2.2678e-05 
-0.000112361 0.000104058 4.24247e-06 -9.94693e-05 7.75292e-05 8.83006e-06 -0.000122973 5.6632e-05 4.57925e-06 
-0.000120689 4.86399e-05 8.88145e-06 -0.000106946 6.9902e-05 4.1944e-06 -9.58163e-05 0.000114391 5.03403e-06 
-9.91509e-05 0.000145356 1.70507e-05 -9.49309e-05 0.000108979 -2.14776e-05 -4.33105e-05 7.128e-05 -6.71659e-05 
-4.62987e-05 7.02489e-05 2.45545e-06 -1.69295e-05 6.81856e-05 -3.53099e-05 -9.93319e-05 0.000267488 -3.0484e-05 
-0.000137444 -0.000291969 0.000256341 0.000448245 8.54787e-05 0.000189993 1.61196e-05 1.71767e-06 -3.01053e-05 
6.58259e-06 -6.88744e-05 0.000105401 -0.000737816 4.19296e-05 -1.44356e-05 -6.65727e-05 -5.42342e-05 -3.5536e-05 
7.73586e-05 0.000100466 -7.58842e-05 -0.000214157 4.16123e-05 -5.49942e-05 -1.00332e-05 2.06247e-05 -5.02835e-05 
-1.15956e-05 4.61897e-05 -4.31124e-05 2.22494e-05 4.00777e-05 -3.98413e-05 -7.96148e-06 5.86156e-07 2.71475e-05 
-1.34053e-05 5.44899e-05 5.1065e-05 3.62988e-05 -0.00019486 -0.000225656 -2.76021e-07 -7.86045e-05 -0.000172378 
3.30784e-06 -0.000945851 0.000451199 -8.42531e-06 -0.000109407 -2.84332e-05 -1.56649e-05 -4.89671e-05 -3.49641e-05 
-1.17385e-05 -2.5109e-05 -1.69543e-05 -1.29354e-05 -1.64602e-05 -5.47443e-06 1.13433e-07 -1.60009e-05 -1.89321e-06 
-2.27907e-06 -2.22338e-05 -1.91195e-06 3.19668e-05 -7.19528e-05 -7.96757e-07 7.19395e-06 -0.000143766 -1.36912e-07 
-0.000134215 -0.000202807 -2.86228e-05 -0.000266458 -0.000106683 -0.000128703 0.000653672 -0.000694916 0.000803384 
-6.52208e-06 -1.01297e-05 -1.02765e-06 -4.1362e-06 3.56873e-06 3.14077e-06 9.02355e-06 0.000230397 -0.000276435 
4.70855e-05 -0.000240626 6.90578e-06 3.59011e-06 2.52532e-06 8.30992e-06 5.83727e-06 -3.30458e-06 1.0842e-05 
8.99986e-05 -0.00011505 -0.000172429 -0.000187624 -0.000165903 -0.000569055 -0.000211208 0.0001223 -0.000384986 
2.60844e-06 6.8534e-05 -9.29479e-05 8.51418e-05 -7.58199e-05 3.02119e-05 -0.000154088 0.000160407 4.58063e-06 
-2.93998e-05 2.17263e-05 0.000145399 0.000137983 -0.000254115 -0.000191107 -0.00061285 4.56055e-05 -0.000190031 
9.84415e-05 0.000741069 4.90054e-05 0.00012486 0.000170209 -0.000315876 -5.69576e-05 -6.52196e-06 -5.87396e-06 
1.95498e-06 -3.37257e-06 4.60754e-08 -1.10948e-05 -3.96853e-06 1.01797e-06 -9.1787e-06 8.84377e-07 -3.04707e-07 
-1.09618e-05 -7.38752e-06 7.17822e-06 -2.14286e-06 6.36108e-06 6.76139e-06 -6.01177e-06 3.75922e-06 2.14624e-06 
-3.01614e-06 4.56774e-06 3.13384e-06 1.66743e-07 2.05031e-06 6.61031e-06 4.23542e-06 1.00375e-06 7.08313e-06 
3.93615e-06 2.5903e-07 7.69584e-06 3.70919e-06 4.91147e-06 6.29268e-06 5.72198e-06 3.46792e-06 6.52926e-06 
6.44194e-06 5.18993e-06 4.9033e-06 5.20855e-06 4.77318e-06 4.12061e-06 2.69168e-05 -4.99056e-05 -7.85215e-05 
0.000117229 6.24713e-06 3.86443e-06 -2.94885e-06 7.05263e-06 -7.94577e-06 1.49631e-06 -3.33671e-07 -1.09396e-05 
-2.05103e-05 -3.8048e-06 -3.46563e-06 1.18201e-05 -4.05927e-06 6.75141e-07 1.01856e-05 -5.26787e-06 2.92997e-06 
1.13067e-05 -2.80387e-06 8.9894e-06 1.5742e-05 -8.52989e-06 1.34818e-05 1.24651e-05 6.77418e-06 -6.12312e-06 
-2.49823e-06 1.4653e-05 -4.94773e-06 -1.06867e-05 -1.76052e-05 -1.14362e-06 -1.09623e-05 -1.60431e-05 -1.93056e-06 
-9.12272e-06 -1.10923e-05 -4.4139e-06 -6.51568e-06 -4.58565e-06 -3.76695e-06 -4.72674e-06 -7.43956e-06 -3.4567e-06 
-6.20839e-06 -6.45024e-06 -2.55135e-06 -5.76228e-06 1.09426e-06 -2.25541e-06 -3.89021e-06 3.96517e-06 -4.2195e-06 
3.53312e-06 3.01922e-06 -1.72384e-06 3.27757e-06 2.44817e-06 -8.12037e-08 3.09707e-06 3.8473e-06 1.72556e-06 
1.75724e-06 6.51325e-06 -2.91042e-07 -1.89316e-06 1.34528e-05 1.74171e-06 1.302e-06 9.36028e-06 2.24394e-07 
-3.59725e-06 3.78392e-06 4.30884e-07 4.24284e-06 7.63767e-06 -1.34597e-06 1.06124e-06 -5.82205e-06 8.46442e-06 
-2.66307e-06 -8.39229e-06 7.56187e-06 4.25514e-06 -8.2846e-06 -2.77731e-07 2.80392e-06 -4.60572e-06 -1.23007e-06 
-1.23793e-06 3.22784e-08 -5.20347e-07 -3.37762e-06 -1.00989e-06 -8.25686e-07 -2.88413e-06 2.61299e-06 -2.22662e-06 
-2.12534e-06 4.42783e-06 -4.29604e-07 -8.04871e-08 3.40431e-06 -1.15487e-07 1.48482e-06 6.66511e-06 0.00013458 
6.43671e-05 0.000292932 -0.000103953 4.00457e-05 1.31847e-06 -4.46645e-05 -6.30459e-05 -2.10184e-05 -2.55637e-05 
0.000265718 0.000110295 -7.16949e-06 0.000163491 -5.83647e-05 -2.29834e-06 2.06665e-06 -4.75537e-06 1.71766e-06 
7.5781e-07 4.45095e-06 7.27225e-07 -5.74614e-06 9.11142e-06 -3.60389e-06 1.0818e-06 1.83704e-05 -7.96042e-06 
5.42427e-06 -6.13714e-07 2.5309e-09 -7.57355e-06 3.72502e-06 -4.52398e-06 1.94129e-06 -2.93543e-06 -5.33991e-06 
-3.32645e-06 -4.92123e-06 -6.97938e-06 -2.97451e-06 -8.68984e-06 -7.26999e-06 -4.74562e-06 -1.96228e-05 -4.23799e-06 
-8.27648e-06 -2.00939e-05 -5.30754e-06 1.15763e-06 -1.0265e-05 -8.9329e-07 -2.47923e-06 -1.26115e-05 7.87851e-07 
-3.53696e-06 -1.8732e-05 6.50898e-06 6.27748e-07 8.56555e-07 6.32097e-06 1.03513e-06 -1.26161e-05 3.06885e-06 
1.0288e-06 7.39786e-07 6.07729e-06 6.21587e-06 -6.04436e-07 2.28953e-07 -6.75868e-07 -5.03874e-06 1.18324e-05 
6.48045e-06 -2.26876e-06 -3.30257e-06 -1.23123e-08 -5.11047e-06 -8.95162e-07 8.27703e-06 -2.23805e-07 3.61586e-06 
1.29467e-05 9.27987e-06 -5.9321e-06 -8.37937e-06 3.56178e-05 -4.80021e-06 -4.29399e-06 2.24105e-05 2.44484e-06 
1.37231e-05 5.17306e-06 6.1474e-06 6.71628e-06 1.90822e-05 -2.47316e-05 -2.11595e-05 1.80149e-05 -1.80058e-05 
-7.1821e-06 1.97518e-07 4.4089e-06 1.01725e-05 -6.17529e-07 2.12019e-05 -5.88005e-06 1.85965e-05 -9.97643e-06 
3.33651e-05 1.79684e-05 -3.08664e-05 7.41403e-05 3.63379e-05 -9.35862e-06 -4.373e-05 1.60771e-06 2.54642e-05 
-5.18398e-05 8.22438e-05 -9.04418e-05 4.17201e-06 3.18572e-06 8.13106e-05 9.84936e-05 -3.19115e-05 -8.85953e-05 
9.19607e-06 -3.90921e-06 2.50547e-05 -1.17008e-05 8.87409e-05 -0.000119782 -8.06009e-05 -4.765e-05 2.08017e-05 
-4.2941e-05 -3.20915e-05 4.20728e-05 3.2978e-05 1.51203e-05 1.85151e-07 -5.9245e-06 3.80349e-05 3.82154e-06 
-4.58032e-06 -1.90686e-05 1.07331e-05 -1.99103e-05 1.34931e-05 8.49397e-07 5.91758e-06 2.16093e-05 -1.14797e-05 
1.55429e-05 1.31406e-05 8.45765e-06 -4.27176e-08 1.43001e-05 1.22319e-05 -1.04513e-05 1.3154e-05 1.27084e-05 
2.26654e-06 1.3707e-05 1.15347e-05 -1.15367e-07 4.64733e-06 8.5018e-06 -2.77358e-06 1.9999e-05 9.0961e-06 
6.26359e-06 -8.21247e-06 1.06299e-05 -9.16657e-06 -1.14752e-06 2.66291e-06 -8.18242e-06 -2.56106e-05 1.29939e-05 
-2.136e-05 -1.18301e-05 -1.26027e-05 -2.02883e-05 4.34114e-05 3.97318e-05 -5.2919e-05 -3.34598e-06 -8.3344e-06 
-4.28538e-06 0.000165505 8.11554e-05 7.77394e-05 1.63155e-05 -9.78955e-05 3.91167e-05 -0.000125108 2.74805e-06 
2.76399e-06 8.94696e-06 -1.30086e-05 -7.62898e-06 -6.66427e-06 1.56306e-06 -0.00015328 -9.13219e-05 0.0002456 
4.56631e-05 -0.00015266 -5.97229e-05 -1.2149e-05 -1.56517e-05 -4.53201e-05 2.16328e-05 3.02378e-05 -1.54063e-05 
-4.44514e-05 -8.1252e-07 -5.71416e-05 2.16197e-06 7.20691e-06 -1.65014e-05 1.27348e-05 2.17031e-05 5.86963e-05 
9.03371e-05 -3.9662e-05 9.00461e-05 9.4197e-05 -6.49647e-06 -5.28694e-05 -9.85158e-05 3.52481e-05 -1.08018e-05 
-3.11854e-05 -7.19157e-06 -7.52563e-06 -2.81872e-05 -1.19225e-05 -3.23512e-06 -9.31944e-06 6.86715e-07 -5.06258e-08 
-1.43475e-05 1.0718e-05 -7.57893e-07 -7.0574e-06 1.8736e-05 -4.181e-05 -1.1269e-06 4.10758e-05 -2.82072e-05 
1.05431e-05 -5.7198e-05 -3.48383e-05 -2.38153e-05 -9.17232e-05 -2.75201e-05 -1.13325e-05 0.000313534 2.62049e-05 
0.000356287 0.000161601 -0.000328278 -8.38297e-05 -2.18441e-05 7.18048e-05 -9.47686e-05 5.9214e-05 -1.92376e-05 
-7.54355e-05 -3.42441e-05 1.44971e-05 0.000111261 8.1026e-06 6.01325e-06 -0.00012637 -4.27663e-05 9.3229e-05 
-3.25678e-05 -8.21741e-05 -1.07701e-05 -0.000152647 7.88974e-06 -3.26286e-05 -0.000225602 4.85444e-06 5.42546e-06 
-3.4264e-07 -1.12273e-05 4.94634e-06 -3.466e-05 7.79884e-05 -5.68072e-05 3.49346e-05 9.39767e-06 8.26701e-06 
2.85767e-05 -7.09221e-05 1.46927e-05 -7.8284e-05 -8.24921e-05 -4.55052e-06 -5.9948e-06 -4.48024e-06 3.66161e-05 
2.193e-05 -5.06081e-05 1.77145e-05 3.78919e-05 9.21496e-05 -0.000110461 5.80393e-05 8.80628e-06 -2.87007e-05 
-7.96413e-05 7.25823e-05 -9.47971e-05 8.58536e-05 0.000108946 -6.11142e-05 -5.75832e-05 0.000136905 0.000163982 
4.60088e-05 -9.63298e-06 -2.64086e-05 6.38061e-06 -1.59022e-05 -7.68447e-06 1.38696e-06 1.71352e-05 -8.80218e-06 
-1.85407e-05 -5.67734e-07 -7.50947e-06 1.74081e-05 1.50016e-05 -8.0656e-06 -6.6384e-06 -6.28774e-07 -7.14702e-06 
1.28263e-05 2.56482e-06 8.1914e-06 1.26123e-06 2.61436e-06 1.00185e-05 1.06679e-05 8.45216e-06 8.84463e-06 
-3.8629e-06 1.06765e-05 7.23803e-06 2.19617e-07 5.43718e-06 -3.59063e-05 9.33259e-06 2.56249e-05 5.65946e-05 
-1.01063e-05 -2.50807e-06 -5.44393e-06 9.49534e-06 -1.52954e-06 -2.27874e-06 -2.1118e-06 8.71291e-06 -3.14396e-06 
2.22606e-05 8.85883e-07 1.09313e-06 1.3549e-06 -2.1842e-06 2.30659e-05 5.58504e-06 -1.45271e-05 -1.3081e-05 
1.63901e-06 -3.19848e-06 1.22823e-05 5.69035e-06 3.98388e-06 -2.07478e-06 -1.03957e-05 -6.9058e-06 -1.82758e-05 
-2.10003e-05 -3.29518e-06 9.93516e-06 -2.25048e-05 -1.14613e-05 -1.41751e-06 -1.97864e-05 -1.67861e-05 5.11847e-06 
-1.42356e-05 -3.76775e-06 2.05444e-05 -1.76602e-05 -2.37712e-06 1.58208e-05 -1.07077e-05 1.76479e-06 -1.07103e-05 
-6.99767e-06 -2.18902e-06 1.70133e-06 -1.02662e-06 -5.01616e-06 2.71884e-06 9.31035e-06 -6.42291e-06 1.62187e-06 
1.2118e-05 -1.74077e-06 -7.77195e-06 4.45206e-08 -3.70475e-06 -1.32731e-05 -3.24743e-06 -3.51277e-06 -1.31858e-05 
-6.31438e-06 3.12646e-06 -3.74737e-06 -2.66421e-06 6.21165e-06 8.08635e-06 1.01799e-05 3.69016e-06 -8.53821e-06 
-1.19463e-06 -1.0975e-05 -2.27152e-05 -9.1125e-06 3.40819e-06 -1.74503e-06 2.27792e-06 -6.54813e-06 -1.8236e-05 
-3.3086e-08 -1.07636e-05 1.68499e-06 -9.61081e-07 -2.33403e-06 -3.52097e-06 -2.14218e-07 9.42605e-07 -4.96684e-07 
1.58199e-06 8.79196e-06 -9.8577e-05 -9.4453e-06 -4.75595e-06 -5.9745e-06 -2.60303e-06 3.27018e-05 2.48224e-05 
1.88925e-05 1.47294e-06 1.93595e-06 2.62768e-06 -2.56956e-06 -1.69249e-06 -2.02133e-05 -5.82975e-06 3.70685e-05 
-9.3763e-06 7.41397e-06 2.93014e-06 1.48573e-06 -7.10402e-06 5.45972e-06 -6.3399e-06 -9.49618e-07 1.87093e-05 
-1.21444e-05 5.27449e-07 -3.82906e-06 1.82301e-06 -2.21547e-06 -1.84329e-05 8.40029e-06 -2.9835e-06 -9.05289e-06 
4.40229e-06 -7.23499e-07 2.25526e-05 -9.60437e-06 -1.55539e-08 2.17905e-05 1.64253e-05 -1.20547e-06 -1.6013e-05 
-1.2973e-05 1.02081e-05 -2.50347e-05 1.36008e-05 7.46186e-06 2.48363e-05 -7.82229e-06 -9.08921e-06 -3.83572e-05 
-4.59555e-07 -2.40332e-06 8.8485e-06 -1.93322e-05 -5.83816e-06 3.91378e-06 -8.63312e-06 7.28867e-06 -1.75779e-05 
4.26398e-05 -3.49682e-06 9.70648e-07 -1.59409e-05 -3.21743e-05 -2.68583e-05 3.68348e-05 2.84011e-05 2.20467e-05 
-4.09383e-05 -4.01023e-05 -6.7451e-06 -9.44703e-06 -7.2513e-06 -3.57648e-06 3.58918e-06 -2.84106e-06 -1.1145e-05 
-2.19024e-06 2.8252e-05 -8.14941e-06 6.88564e-06 2.21657e-06 -1.5642e-05 -1.58558e-05 2.53597e-05 8.39623e-06 
-6.4185e-06 9.00797e-06 3.19188e-06 3.12382e-05 1.49299e-05 -4.05927e-05 4.24794e-05 -2.5319e-05 -1.90457e-05 
4.39306e-06 -9.09867e-06 3.76814e-05 -7.08684e-05 -4.51044e-05 2.47395e-05 1.56421e-05 -8.42146e-05 3.35805e-05 
4.79753e-05 8.69591e-06 -5.93685e-05 6.73617e-05 -6.77387e-06 0.000176375 7.86179e-05 4.98931e-06 -1.5347e-05 
1.44568e-05 9.27579e-06 -1.16559e-05 -1.10212e-05 -1.27298e-06 1.56662e-05 -3.46958e-05 -1.04089e-05 2.10218e-06 
8.29259e-06 5.30868e-06 1.0161e-05 2.20631e-05 -1.54845e-06 1.63323e-05 -6.45741e-06 -3.80697e-06 -4.18034e-06 
-1.79292e-06 2.3444e-05 -1.78223e-05 -2.53597e-06 -4.10628e-05 1.48464e-06 -6.0856e-05 2.98712e-06 -2.32538e-05 
3.28409e-05 -6.61574e-06 -2.22964e-07 1.48063e-05 -0.000139468 0.000111535 -2.99065e-05 -2.6399e-05 -3.24697e-06 
-1.65189e-05 4.77119e-06 2.83945e-05 -3.62729e-05 3.08443e-05 -4.75992e-05 8.60143e-06 -6.06022e-06 -1.14729e-06 
-1.54714e-05 -1.61931e-05 -9.94786e-06 -1.75848e-05 1.32248e-05 -1.76277e-06 3.61792e-06 2.97315e-05 -0.000123643 
-9.22869e-06 7.9685e-06 -6.43184e-05 4.60207e-05 5.24669e-05 -7.74952e-05 -2.05139e-05 -2.86783e-05 -8.05157e-06 
-4.33422e-05 6.95676e-05 1.95483e-05 -4.17196e-06 1.51174e-06 -2.88818e-05 3.87861e-05 -2.35438e-06 -4.45374e-06 
-2.04473e-05 2.73885e-06 -4.44642e-06 6.95897e-06 -8.9789e-06 -3.74052e-07 1.39762e-05 5.98965e-05 -3.32531e-05 
0.000113683 -4.23364e-05 -0.000133083 -1.86432e-05 -2.44516e-05 8.20189e-06 -3.02765e-06 1.63884e-05 2.83182e-05 
-4.51845e-05 1.72868e-05 2.61845e-05 -1.27519e-05 2.02686e-05 2.18545e-05 5.18784e-06 4.56407e-05 -1.38898e-05 
1.58131e-05 -5.22491e-05 4.28426e-08 3.7403e-05 -4.89777e-05 1.55706e-05 -1.66307e-05 1.22348e-05 -6.52819e-06 
-1.11199e-05 -1.24342e-05 -9.60336e-06 3.38485e-06 2.89386e-05 -4.63576e-06 3.03027e-05 7.96856e-06 1.16684e-05 
1.46439e-05 -5.47947e-05 -2.33376e-05 -2.28757e-05 -8.25716e-05 3.37469e-05 6.13119e-05 -6.87568e-06 8.26788e-06 
1.99359e-07 2.46072e-05 7.78422e-06 4.41009e-05 -3.95784e-06 1.07134e-05 1.11126e-05 -6.53577e-06 -9.30655e-06 
-9.78469e-06 -3.54086e-05 -7.44038e-05 -1.12614e-06 -1.0691e-05 2.91918e-05 2.81174e-06 -2.11758e-05 -2.71334e-05 
5.53269e-07 4.83678e-06 -2.68191e-06 -3.18784e-06 -2.66881e-06 -5.83779e-05 2.78592e-05 3.13568e-05 2.63627e-06 
4.99064e-05 -4.20511e-05 2.77274e-05 -4.18205e-05 4.66705e-05 0.00012037 -4.20748e-06 -0.000100545 -4.48882e-05 
6.32369e-05 5.73314e-05 -3.08652e-05 -4.57058e-05 4.14363e-06 -2.19384e-05 5.50472e-07 9.83626e-06 7.5809e-06 
6.96019e-07 -1.31603e-05 4.28386e-05 -3.80286e-05 -4.67532e-05 3.66291e-06 2.49537e-05 2.87545e-06 3.21531e-05 
5.61043e-05 -1.75713e-05 0.000124909 -1.85121e-05 6.84241e-06 0.0001521 -9.60666e-05 0.000185922 -4.29235e-06 
3.27516e-05 -1.10241e-05 3.21969e-05 2.84447e-05 -9.31656e-06 8.73079e-06 -7.20823e-06 1.21032e-05 -2.88898e-05 
-6.57515e-06 0.0114121 -9.76561e-06 -2.79646e-06 1.04547e-05 -2.28022e-05 -2.42483e-05 -3.23409e-05 -1.31636e-05 
-1.21915e-05 4.05261e-06 -5.51437e-07 -4.14712e-05 0.0001059 1.47158e-05 1.278e-07 -1.02099e-05 2.69226e-05 
2.13602e-05 5.5236e-06 -4.13595e-05 -2.58558e-05 -1.2674e-05 5.51549e-05 4.42374e-05 4.92258e-05 1.4398e-06 
-7.8472e-06 4.62374e-06 -1.87376e-05 -3.36781e-05 8.68701e-06 -1.24209e-05 -9.00091e-06 -8.59896e-06 -2.72513e-05 
2.00297e-05 1.96762e-05 -7.87136e-06 -8.12209e-06 9.06631e-06 2.50195e-05 -4.6232e-06 2.91076e-05 2.35442e-05 
2.1878e-05 -1.29589e-05 2.45496e-05 -7.17845e-06 -1.66243e-05 1.70055e-05 7.70942e-06 -1.36112e-06 3.71406e-07 
1.18493e-05 2.42742e-05 -4.84255e-05 -1.22865e-05 -7.07598e-06 -3.66787e-06 -2.2537e-05 -1.68373e-05 6.66594e-06 
-5.91923e-05 -5.181e-05 1.84832e-05 5.7809e-06 1.40818e-05 -7.37812e-06 -7.67798e-06 -4.74655e-05 2.77173e-06 
-2.56258e-06 -1.49504e-05 -8.06611e-06 4.3364e-06 1.24319e-05 2.12542e-05 -6.58253e-06 -3.68086e-05 -9.49387e-06 
2.27199e-05 8.98866e-06 -3.85621e-06 4.59177e-06 1.67349e-06 -2.48373e-05 4.33554e-05 1.42998e-05 2.14823e-05 
-5.18766e-05 2.68457e-05 -3.30284e-05 3.97552e-05 -1.6003e-06 8.81033e-07 -3.81057e-05 3.03413e-06 -7.69542e-06 
5.72975e-05 1.98234e-05 4.78587e-05 -2.92484e-06 -7.71999e-06 6.14569e-05 3.68577e-05 -5.38321e-05 -5.6443e-05 
-4.08073e-06 -2.8269e-05 3.39595e-05 3.56352e-05 6.92703e-05 2.71405e-05 1.41071e-05 1.35028e-05 -3.49324e-05 
3.40174e-05 1.04576e-05 -1.53027e-06 2.54923e-05 1.37677e-05 1.09824e-05 9.39159e-06 -6.31949e-06 -1.37662e-05 
3.22985e-05 -5.60299e-05 4.17757e-07 -4.99378e-05 2.92632e-05 2.22363e-05 1.91452e-07 5.2161e-05 6.56466e-05 
-3.95446e-05 8.8898e-05 -4.58057e-05 -5.19869e-05 -2.51198e-05 4.53084e-05 1.16451e-05 5.66984e-08 3.02411e-05 
-4.5603e-05 -2.2467e-06 -1.52929e-05 -6.91708e-05 -7.166e-05 1.51364e-05 2.25888e-05 -4.25257e-05 2.38227e-05 
3.5233e-05 1.19997e-05 2.47228e-05 2.55239e-05 8.5702e-06 -7.33497e-06 0.0262005 -9.92282e-06 1.30008e-05 
-3.69885e-06 9.42126e-06 1.07156e-05 -2.69545e-05 -2.78864e-05 1.06472e-05 4.899e-06 8.456e-06 5.52873e-06 
-2.76044e-06 1.52767e-05 8.13404e-06 -5.01465e-06 5.27335e-06 -2.17883e-06 -6.18738e-05 2.13413e-05 2.99625e-07 
5.57192e-06 1.21418e-05 -3.04322e-05 2.10048e-05 5.34983e-05 8.7059e-05 -5.4439e-05 1.26753e-05 5.18994e-05 
-1.78037e-05 -2.51683e-05 -1.34771e-05 -2.28997e-05 1.28275e-05 -1.9478e-05 -1.02742e-05 4.20787e-05 -1.34501e-05 
3.05239e-07 -5.53667e-05 -2.40216e-06 6.63619e-06 -2.13486e-06 2.1861e-06 5.58273e-07 5.05099e-06 -3.85821e-06 
2.45835e-05 -6.11678e-06 8.82928e-06 4.05785e-07 -2.64673e-05 -1.1619e-05 -2.86208e-06 -2.17169e-06 -1.24002e-06 
6.37601e-06 9.78954e-06 4.07734e-06 3.70821e-05 7.18397e-06 -1.87111e-05 -1.55765e-06 -1.86283e-05 -1.45492e-05 
-2.51027e-05 8.02821e-06 2.41883e-05 1.0506e-05 3.60603e-06 9.41513e-06 0.00249674 0.000824672 2.97894e-05 
-2.49621e-05 -2.15525e-05 4.41396e-06 7.16695e-05 -6.27204e-05 -4.22838e-05 0.000567384 -0.000243777 3.79102e-05 
2.88764e-05 4.42081e-05 -1.51809e-05 -2.78837e-05 0.000488888 0.00151444 -8.52359e-06 0.000918847 0.00120573 
7.26734e-06 1.12786e-05 8.78317e-06 1.587e-05 -9.49298e-06 -2.13936e-05 -3.05627e-05 1.54632e-05 0.000102057 
-2.8025e-05 1.62772e-05 -1.00624e-05 7.02382e-05 -4.45502e-05 2.62051e-05 4.37298e-05 1.25948e-05 9.49458e-06 
-1.25907e-06 -1.73036e-05 1.41321e-05 -5.31743e-05 6.81056e-05 -3.14031e-05 3.82558e-05 1.00176e-06 6.10176e-05 
-6.24613e-05 -1.5009e-06 -2.25999e-05 3.94859e-05 1.09129e-05 -3.47781e-05 -4.82656e-05 2.27582e-05 -5.30803e-05 
-6.96924e-05 7.637e-06 -4.13361e-05 -1.76683e-05 1.31606e-05 6.02682e-06 2.80708e-05 4.3964e-05 -9.07744e-06 
9.48144e-05 1.0813e-05 4.95946e-06 -7.158e-05 0.000128096 -9.96519e-06 2.55759e-07 1.55916e-05 -1.44203e-05 
2.80505e-05 0.000820699 0.000716073 4.0297e-05 2.94093e-05 6.07705e-05 -1.75436e-05 2.26595e-06 1.65302e-05 
4.84589e-05 1.76186e-05 -3.83313e-05 -6.1873e-06 4.3583e-05 -7.85582e-06 -4.62026e-06 -1.36816e-06 3.37107e-05 
1.05262e-06 -9.55107e-05 -4.85567e-05 -2.44819e-05 -2.74039e-05 2.04403e-05 3.7743e-05 -1.26704e-05 1.37043e-05 
0.000696763 0.000737735 2.01387e-06 0.00111398 0.00124784 4.20029e-05 -2.31691e-05 -3.5125e-05 -0.000103382 
-1.68189e-05 -2.97028e-05 -9.72792e-06 -2.05938e-05 4.16365e-05 8.32349e-05 -3.94626e-05 4.31596e-05 -0.000120243 
7.58537e-05 0.00109197 -0.000363873 0.000134993 6.3375e-07 8.858e-05 -1.35623e-05 -7.96404e-05 6.68027e-06 
-3.34703e-05 -0.000140037 -8.88768e-06 2.7364e-05 -2.55788e-05 6.57379e-05 -9.69491e-05 -5.97663e-05 6.21721e-06 
-4.86861e-06 0.000508385 -0.000359132 0.00360539 0.0160625 1.26303e-05 0.00166571 0.00046219 6.34114e-06 
-0.00620193 0.00677173 -2.99763e-06 3.77537e-06 -5.66962e-08 -7.52698e-07 -1.56621e-06 6.98015e-07 -3.24865e-06 
1.10799e-07 -4.03454e-06 -4.47762e-07 -5.2703e-06 -1.00129e-06 -4.79018e-06 -7.97739e-07 -4.31093e-06 -6.1011e-07 
-3.2903e-06 1.07818e-09 -8.05574e-07 6.58134e-07 8.15509e-07 5.55896e-07 3.44363e-06 1.45046e-06 3.30232e-06 
2.21348e-06 4.92343e-06 1.36484e-06 7.72723e-06 5.96765e-07 9.91388e-06 6.17376e-07 1.14331e-05 8.15472e-07 
1.12773e-05 1.19273e-06 1.00298e-05 7.59093e-07 7.27724e-06 -5.75869e-07 6.66939e-06 -2.30785e-06 -6.7196e-07 
-5.53722e-08 -2.82245e-06 1.223e-06 -8.09027e-06 4.47015e-06 -9.94365e-06 8.74408e-06 -1.22842e-05 8.87949e-06 
-1.59532e-05 1.05228e-05 -1.89409e-05 1.0749e-05 -2.01615e-05 5.84939e-06 -2.10513e-05 7.41202e-06 -2.24772e-05 
1.00861e-05 -2.17792e-05 9.07668e-06 -2.09029e-05 6.64049e-06 -2.00106e-05 8.04598e-06 -1.86192e-05 4.61131e-06 
-1.92922e-05 2.14199e-06 -2.04324e-05 -2.22101e-06 -2.19417e-05 -5.78579e-06 -2.674e-05 -6.95183e-06 -3.16794e-05 
-1.63978e-05 -3.18382e-05 -2.56753e-05 -4.4659e-05 -6.19765e-05 3.83941e-05 -0.000208864 -0.0014199 -0.00513329 
-0.00963349 -1.00773e-06 3.52894e-06 0.0223009 -0.00213848 -0.000894132 0.000315041 9.06693e-06 5.41784e-05 
-3.11306e-05 5.92334e-07 3.34331e-06 -1.45087e-05 5.77638e-06 -2.05379e-05 2.10036e-05 -1.06059e-05 1.61268e-05 
-5.1962e-06 1.4314e-05 -4.66774e-06 1.4767e-05 -3.69265e-06 1.57148e-05 -2.49372e-06 1.68209e-05 -5.68141e-07 
-2.50192e-06 7.84339e-07 1.72598e-05 -2.447e-06 1.8109e-05 -5.61234e-06 2.20458e-05 -1.04427e-05 2.04994e-05 
-1.33283e-05 2.0593e-05 -1.27906e-05 2.14446e-05 -9.66487e-06 1.94118e-05 -6.55364e-06 1.65944e-05 -1.86723e-06 
1.31147e-05 -1.79039e-08 9.84652e-06 3.29263e-06 5.59357e-06 3.76736e-06 1.99692e-07 5.59711e-06 -4.91521e-06 
8.21501e-06 -7.04497e-06 8.89053e-06 -1.11874e-05 7.00634e-06 -1.24961e-05 6.98895e-06 -1.28381e-05 3.85344e-06 
-1.26897e-05 1.6373e-06 -1.16752e-05 9.23539e-07 -9.89699e-06 -4.23611e-07 -5.67618e-06 -5.35522e-07 -4.62362e-06 
-7.33049e-07 -9.29166e-07 -7.99834e-07 7.72704e-07 -6.54598e-07 2.84902e-06 -2.83966e-07 4.35532e-06 -4.89789e-07 
5.35335e-06 -8.97339e-07 5.32327e-06 -2.60426e-07 3.75227e-06 2.99734e-07 1.36331e-06 -1.67013e-06 1.9302e-06 
-5.4825e-06 3.42238e-06 -2.36186e-06 -1.17337e-05 5.08052e-06 1.27314e-06 -8.23553e-07 1.22259e-05 1.26047e-05 
9.32921e-06 5.86423e-06 6.21871e-06 5.99842e-06 8.40192e-06 5.85335e-06 3.49483e-06 2.10572e-06 1.67642e-06 
-1.20407e-06 -4.50603e-06 -4.80958e-06 -7.50811e-06 4.02932e-06 6.23415e-06 2.47785e-06 -7.55694e-06 1.35832e-05 
1.56561e-05 1.81729e-05 1.25534e-05 1.72885e-05 1.19994e-05 1.76025e-05 1.3801e-05 1.16707e-05 -9.10705e-06 
3.26314e-06 6.63834e-06 3.13905e-06 -1.62921e-05 -1.20895e-05 -1.34106e-05 -1.82813e-06 -8.23403e-07 2.99608e-06 
1.54022e-06 4.92179e-06 3.71366e-06 7.35926e-06 5.58927e-06 4.2396e-06 -4.07528e-06 6.14736e-06 3.01719e-06 
-2.67346e-06 6.32826e-06 0.0347897 -0.00834918 -0.00550748 -0.00390325 0.000449672 -0.000379236 0.00048282 
0.000247191 -0.000173133 -0.000795326 -0.00031913 -0.000861848 -0.000808947 -0.000556342 -0.000629482 -0.000838489 
-0.000867657 -0.000119314 -0.000414805 0.000115217 0.000582529 0.000639545 0.00193729 -0.00343282 -0.0174638 
0.0354482 -0.00155849 -0.0161569 0.0132612 -0.000990634 -0.00270918 0.000685979 -0.00221122 -0.00027974 
0.000402585 -0.00128878 6.76782e-05 -0.000734798 -0.000343791 -0.000806184 -0.00038104 -0.000868253 -6.09561e-05 
-0.000653332 0.000173502 0.000345024 9.10979e-05 3.00073e-05 0.000563207 0.000766616 0.000875742 0.000852309 
0.00659683 -0.0429688 -0.0111468 -0.00115632 -0.00107853 0.000110522 0.00144746 -0.00194754 0.0015173 
-0.00139049 -0.00211988 -0.00161101 -0.000816463 -0.00157184 -0.00133546 -0.00848617 -0.00624006 -0.00148486 
-0.0385202 0.0412731 -0.00145402 -0.00128742 0.00140968 -0.00162886 -0.00160962 -0.00240805 0.00136142 
0.00256691 0.00243969 -0.000627664 -1.27676e-05 -2.50215e-05 -1.16554e-05 6.29051e-07 -1.9897e-07 -1.02958e-07 
1.04004e-05 6.64348e-06 2.14079e-07 8.03653e-06 5.53711e-06 6.17336e-06 8.05314e-06 2.29371e-06 4.37869e-06 
-1.13471e-05 1.46478e-05 1.6803e-05 3.59617e-05 2.12343e-05 0.0017305 -0.00151284 7.27072e-06 3.59563e-06 
4.24524e-06 -2.65772e-06 1.52548e-06 -8.45424e-06 5.33252e-06 6.69649e-06 5.70018e-06 -3.47625e-05 5.3184e-06 
-1.98094e-05 -3.86018e-06 -3.31188e-06 2.18293e-05 -2.49766e-05 1.16663e-05 1.26529e-05 -0.000173833 -1.35554e-05 
1.96815e-05 -1.49212e-05 -4.75021e-06 -8.42102e-06 -2.22654e-06 -2.27035e-05 -5.3122e-07 1.78053e-06 -0.000105273 
0.000158356 -0.000183624 8.0368e-05 -3.80648e-06 2.95532e-06 7.91371e-06 -1.7072e-05 3.67565e-06 4.00265e-05 
5.327e-05 -4.09147e-06 -8.86864e-06 8.08617e-07 -2.53997e-06 -1.6091e-06 -3.7705e-06 -4.3527e-06 2.28205e-05 
-7.89764e-06 2.47142e-06 -8.1253e-06 -1.61207e-05 -7.35139e-07 1.69463e-06 3.76833e-06 1.0284e-05 2.45807e-06 
-5.22936e-06 -3.75094e-05 -5.20953e-05 -7.93494e-06 -2.18695e-06 -8.63195e-06 -4.31014e-05 2.69273e-05 -2.84127e-06 
-3.25099e-06 -2.42411e-06 -5.95995e-06 -4.3334e-06 5.53496e-05 -4.75867e-06 -2.09151e-05 -6.05931e-06 -2.14961e-06 
6.55916e-06 4.33612e-06 2.37663e-06 5.11101e-06 0.000209343 0.000152156 -5.14082e-05 -2.10314e-05 -3.29568e-05 
1.88967e-05 3.86365e-06 6.84551e-05 -6.12197e-06 -4.56818e-06 1.72433e-06 9.90585e-07 5.84275e-05 -6.54846e-05 
7.4676e-05 -5.86721e-05 -1.30161e-05 -1.04527e-05 2.53925e-05 -6.34128e-06 1.17945e-06 3.57408e-06 3.06697e-06 
1.00603e-05 -8.0401e-06 -3.16731e-05 -1.16476e-06 -3.09541e-06 -6.1249e-06 1.03557e-06 5.07284e-06 -9.58508e-07 
1.41621e-05 -4.84888e-06 -7.83635e-06 4.41662e-06 3.88179e-06 -1.09591e-06 3.89869e-07 1.79089e-06 3.91085e-06 
-3.85768e-07 -1.38986e-05 -7.13265e-06 6.68972e-06 1.422e-06 1.06094e-05 -1.22465e-05 -5.87506e-06 -6.40664e-06 
-4.54642e-06 -4.63194e-07 3.32867e-07 -4.68497e-07 -2.96602e-06 9.90346e-08 -4.8241e-06 -6.87113e-06 -1.75722e-05 
-3.97226e-06 -9.20795e-07 7.72866e-06 -1.17593e-05 7.86912e-05 -2.49082e-05 3.21453e-06 2.53145e-06 1.35563e-06 
1.136e-05 1.37514e-05 5.52935e-06 1.93584e-06 4.97128e-06 -2.69517e-06 -3.59617e-06 -6.30092e-06 8.22133e-06 
-6.19903e-06 -4.55517e-07 -2.16945e-07 1.20246e-06 -9.95742e-07 1.02481e-05 7.18914e-06 1.25685e-05 -5.6095e-07 
2.97803e-06 1.25841e-05 -6.77004e-06 9.77326e-05 -0.000210922 6.53096e-05 2.13874e-05 -2.7225e-05 -1.45199e-05 
-0.000135913 -0.000249064 6.70019e-05 2.75896e-06 -2.82236e-05 -9.52276e-05 0.00033541 -6.84124e-06 -3.40438e-07 
6.86967e-07 9.99783e-06 1.71909e-05 5.26123e-06 -2.50355e-06 -4.02474e-06 -4.91612e-06 6.7553e-06 7.46168e-06 
1.33281e-06 -1.01255e-06 -6.1596e-07 -1.23151e-06 -4.19029e-06 -1.55561e-07 -3.78949e-06 -5.01608e-06 -2.12771e-05 
6.75058e-06 -2.26282e-05 1.10474e-05 5.7952e-06 5.51505e-06 4.79084e-07 1.71549e-05 5.87952e-06 6.34872e-06 
-3.29993e-06 -3.73105e-06 -5.19662e-06 -3.87962e-06 -1.61142e-06 4.14844e-05 -4.31439e-05 5.81244e-05 8.83462e-06 
-5.43416e-06 3.23295e-06 0.000592382 -3.83517e-05 -0.000939908 0.00409187 2.33947e-06 -5.9322e-09 -1.19126e-06 
-4.59251e-06 -8.08378e-06 -2.43231e-06 1.08963e-05 7.82051e-06 4.09759e-06 -2.5676e-05 3.9332e-06 2.2239e-05 
0.000560528 -0.0005478 9.30454e-06 1.83582e-05 3.39423e-05 6.61011e-05 9.13882e-07 4.86127e-06 5.38804e-06 
9.49229e-06 -6.75998e-06 -9.56081e-06 2.13384e-06 2.42521e-06 -6.02725e-06 -8.04962e-06 0.000288769 -0.000270383 
0.000165548 7.38342e-05 -3.46627e-05 4.0051e-06 -8.33002e-06 6.25065e-06 -6.00884e-06 3.07081e-06 -2.65311e-06 
5.34686e-06 -1.23499e-06 -1.14423e-05 -4.26244e-06 4.00896e-06 -1.78073e-05 -4.59587e-06 -1.40303e-05 -1.00648e-05 
-3.0377e-05 1.49518e-06 -7.22502e-06 -1.01891e-05 -2.83418e-06 -4.79305e-06 1.17545e-06 2.0608e-05 -4.28557e-05 
-2.72543e-06 1.49253e-05 -3.05905e-05 2.60633e-05 5.34041e-06 1.76239e-06 -3.6954e-06 8.33235e-06 -5.1622e-06 
-1.95819e-05 -2.32093e-05 1.11059e-05 2.64121e-06 -6.169e-07 -1.23239e-06 5.60498e-06 3.83802e-06 -1.98359e-07 
-2.54644e-05 -2.97775e-05 -1.2223e-05 0.000171599 -4.86407e-05 -0.000169529 -0.00251452 0.000190711 -0.000991562 
9.61798e-07 6.92421e-05 7.23495e-05 -7.68452e-05 -0.00524844 0.000335547 0.0059696 7.30132e-06 1.24576e-05 
-1.91796e-05 -9.87776e-06 -4.20125e-06 3.05396e-06 -3.64031e-06 7.50095e-07 -2.58228e-06 5.00023e-06 1.24769e-05 
2.96962e-05 -2.3677e-05 1.51385e-05 -9.37651e-06 4.45074e-05 8.27211e-07 2.34754e-06 4.4389e-06 -1.39304e-05 
-2.75809e-06 8.83871e-08 5.35553e-06 1.52304e-05 -4.00322e-05 -2.13016e-05 8.78157e-07 2.27875e-06 3.11689e-07 
-1.28036e-06 4.41149e-07 -8.32437e-07 -1.17931e-05 -4.54742e-05 2.02362e-05 7.93779e-06 -5.65381e-06 -2.72785e-06 
1.30651e-06 -2.13286e-05 4.79895e-05 2.31602e-05 -0.0015115 -0.000122457 -4.25732e-05 -0.00339456 -0.00451028 
-0.00267418 2.01373e-05 -3.26352e-05 1.57755e-05 4.47526e-06 2.0357e-05 4.38316e-05 -6.96061e-06 6.21813e-06 
-1.37573e-05 1.5872e-05 -1.52931e-06 2.89995e-05 5.95144e-06 -0.00148846 -3.67108e-05 6.98751e-06 1.94271e-05 
-5.673e-06 0.000618044 -0.000557635 0.000568891 9.19262e-06 6.82201e-06 0.000104075 4.97725e-06 7.99387e-06 
-4.8359e-06 -0.00217048 -0.00582868 1.18616e-05 2.83718e-05 -6.30814e-06 -3.67184e-05 -2.63826e-05 -2.03989e-05 
1.0121e-05 2.43378e-06 4.54114e-06 -0.00427777 0.00064102 0.00467641 -0.000299119 0.00695195 -0.000269534 
-0.000672754 0.00290684 -4.79385e-05 9.29534e-05 -0.000317027 1.31046e-06 -1.50994e-06 1.32613e-06 9.20296e-06 
1.98046e-07 7.84907e-07 -1.15231e-06 -1.65345e-06 1.27646e-06 -7.24345e-05 0.00152437 -1.83786e-06 9.98296e-06 
0.00156523 9.5761e-06 -1.32953e-05 2.74203e-06 -1.69126e-06 -6.56126e-06 -0.00176686 -0.00254395 -0.00411192 
2.56964e-06 2.32503e-06 -6.32423e-07 9.70546e-06 2.22996e-05 4.24207e-05 -4.56838e-05 -4.60394e-06 1.595e-06 
4.20065e-06 0.00166533 1.07533e-05 -8.6895e-06 2.94951e-07 -3.79199e-05 5.46194e-05 -7.35332e-05 8.70492e-05 
-1.43686e-05 -4.44057e-06 -1.60289e-06 6.71993e-06 2.9011e-06 -1.25279e-06 -1.22838e-05 2.11746e-06 4.57984e-06 
-1.01286e-05 0.000142291 -2.20743e-05 0.000275122 4.53675e-06 5.25011e-07 -1.03837e-06 1.13037e-07 -1.0149e-05 
-4.5994e-06 -1.38159e-05 -4.40442e-06 3.14758e-06 2.84371e-06 1.32452e-06 -8.46174e-07 -0.000708852 0.00565057 
3.07355e-05 -1.59035e-05 -2.25775e-05 -5.62519e-06 -1.59114e-06 6.27136e-06 -9.56244e-06 -1.62468e-06 -1.3142e-05 
8.88276e-06 8.82362e-05 -2.05396e-05 6.16646e-06 1.82577e-06 2.51175e-06 -2.83764e-06 -2.47439e-06 -1.74582e-06 
-5.26905e-06 -2.46825e-06 -7.25728e-06 3.1004e-06 -3.65065e-05 8.31792e-05 -7.59771e-06 2.38674e-05 2.52151e-05 
1.86952e-05 4.62965e-05 2.58256e-07 9.31052e-06 3.63139e-06 -3.95851e-06 -2.31404e-06 3.29636e-07 9.63244e-06 
4.7379e-06 -5.08483e-06 -3.60583e-06 -3.66164e-06 4.09823e-06 1.80091e-06 1.07668e-05 4.65738e-06 5.22293e-06 
-2.86368e-05 5.32999e-06 -8.21521e-06 3.50973e-05 2.1549e-05 -6.10118e-06 -1.23168e-06 -7.7038e-06 -4.13857e-06 
1.6196e-06 3.64577e-06 6.01136e-06 9.51718e-06 2.42912e-06 2.02326e-06 2.97079e-06 -5.97901e-05 4.01507e-05 
4.27846e-05 -1.58228e-06 -3.55383e-06 2.06181e-06 7.30991e-06 -3.56565e-06 2.5988e-06 -8.61531e-06 -5.43416e-06 
-9.151e-06 -5.35836e-06 1.06103e-05 -1.10216e-06 8.08674e-06 1.15681e-05 3.23616e-05 4.42202e-05 -6.88791e-06 
-3.57346e-06 2.80687e-06 4.4686e-06 -1.39828e-05 -7.96644e-07 -2.38093e-06 4.21024e-06 -1.34304e-06 -6.35033e-05 
9.72017e-05 0.000187197 0.000106496 -7.80792e-06 8.27518e-07 4.00764e-06 -9.76555e-06 -7.96437e-06 -6.26005e-06 
6.13416e-06 -6.71118e-07 1.05747e-05 -5.04658e-07 -7.88287e-06 1.44975e-05 -1.58076e-05 -2.98961e-05 7.88763e-06 
2.17068e-06 2.45345e-06 -6.47691e-06 1.67211e-05 -1.83053e-06 -9.7534e-06 2.2534e-06 2.21521e-06 9.99341e-06 
1.25477e-05 9.92714e-07 -1.04481e-05 -1.22321e-05 1.84539e-06 1.40092e-06 -9.55524e-06 -3.82709e-06 2.0555e-06 
1.73481e-06 2.03905e-07 -8.72308e-08 -9.28029e-05 2.19056e-06 1.70194e-07 1.66777e-06 -2.15649e-05 2.56614e-05 
-3.18688e-05 6.9061e-06 0.00112158 5.86748e-05 0.00085491 2.67942e-06 1.50439e-06 9.19612e-06 -3.93108e-06 
9.93878e-06 -4.00316e-05 -1.32062e-06 -2.86487e-06 -1.87006e-07 -8.39267e-05 1.71378e-05 0.000148882 -1.69703e-05 
-4.71442e-05 -2.21067e-05 -2.02588e-06 -4.89087e-06 3.75244e-06 2.30931e-06 1.1366e-05 -2.97819e-05 -1.43528e-05 
-4.36709e-06 -1.46624e-07 -6.82583e-05 -3.17015e-05 -1.14905e-06 -3.2057e-06 -3.36579e-06 9.35962e-07 -1.87247e-05 
3.10085e-07 -1.6742e-05 2.92232e-06 -9.30975e-07 -1.61839e-06 3.31669e-06 0.000876692 0.000283084 -0.000292772 
-6.41322e-07 -8.12653e-07 1.46566e-06 -4.1729e-06 -1.63883e-06 -2.45443e-06 3.57712e-06 6.38406e-06 7.73702e-06 
1.10284e-05 2.73484e-06 2.39077e-06 -4.79785e-06 -4.57929e-06 -3.7729e-06 -3.87113e-06 -3.75397e-06 2.86436e-06 
-2.42342e-06 -2.87524e-06 -3.54536e-06 -5.57407e-06 -6.27089e-06 -4.12541e-06 -2.01857e-06 2.3867e-06 -1.33192e-05 
-4.7288e-05 1.88969e-05 2.22219e-05 -1.06767e-06 -1.02973e-05 -3.57064e-06 8.14615e-06 7.46892e-06 6.66108e-06 
-1.46168e-06 3.56536e-06 -3.33931e-06 7.39683e-07 -2.10699e-06 -5.1713e-06 7.64596e-06 -1.22578e-05 5.34622e-06 
-1.88683e-05 -6.54241e-06 2.27059e-06 2.18258e-06 -1.31784e-05 -2.44586e-05 3.73946e-06 3.34739e-06 4.09391e-06 
2.8671e-06 7.74234e-06 -1.78193e-05 8.65382e-06 -4.29697e-05 -5.85139e-06 -5.98701e-06 1.35737e-05 -4.92494e-06 
0.000139919 -9.34487e-05 0.00561479 0.000520883 0.000370437 -0.00474463 -0.000695106 0.000402956 6.8304e-05 
-0.00139019 3.16878e-05 5.93855e-06 7.1855e-06 -3.09712e-06 -1.66305e-05 2.37107e-06 4.61628e-06 7.36116e-06 
1.7809e-06 1.19194e-06 5.70997e-06 1.25792e-06 -1.54409e-06 2.29987e-06 -5.44137e-06 2.96549e-07 -1.734e-06 
-2.16445e-06 -7.16948e-05 6.2381e-05 -3.59528e-06 -3.87536e-06 3.48005e-07 5.69487e-07 1.31353e-07 0.000312087 
0.000237402 -1.1098e-05 2.64539e-06 -4.53997e-05 -3.76466e-05 1.46714e-06 -4.42624e-06 -4.54366e-06 2.18205e-05 
-2.62697e-05 2.52657e-05 -1.70761e-05 4.21678e-05 4.16075e-05 -1.23476e-05 1.67298e-05 -2.3967e-06 6.07448e-06 
-8.62341e-06 -4.33952e-05 2.58053e-05 -1.31697e-05 -4.07992e-05 -4.20849e-06 -6.01753e-06 6.83965e-06 3.84312e-06 
-5.3001e-08 -7.29988e-06 5.51807e-06 1.07613e-05 1.41807e-05 -1.18041e-05 -3.47814e-06 3.38761e-06 2.77388e-06 
-3.50546e-05 2.68568e-05 1.22756e-05 4.70196e-06 2.19365e-05 6.28282e-08 -0.000250982 -6.29914e-05 -1.01432e-05 
1.99913e-05 -0.000611708 -0.000134898 6.96875e-07 3.88999e-05 -0.000216093 0.000200739 -3.51636e-06 -2.76783e-05 
-0.000127208 -2.61873e-05 3.83194e-05 -1.50163e-06 -4.66879e-05 -4.0682e-05 -2.96598e-06 -2.0466e-06 2.05331e-05 
-1.81412e-05 -1.47665e-05 4.76917e-06 -1.53284e-05 -3.66207e-05 -1.32314e-05 -7.44101e-05 -7.01916e-05 -0.000279678 
-1.17799e-06 1.32317e-06 -7.99189e-07 1.70902e-06 5.96389e-06 7.84141e-06 6.1083e-06 4.67024e-06 2.68907e-06 
-2.46295e-06 9.49975e-06 -0.000236986 -4.75965e-07 3.77439e-06 -5.11466e-08 5.54215e-07 2.8367e-06 8.08462e-07 
8.44126e-06 -3.59279e-05 -2.7423e-06 1.62697e-06 -0.00147353 2.55047e-06 2.93407e-06 3.11166e-07 8.1637e-06 
5.3982e-05 7.97602e-05 0.000170637 -0.00128232 -0.00158612 0.000243843 6.59301e-07 8.44961e-07 -1.03938e-06 
1.78587e-05 1.7109e-06 5.46849e-06 -4.9526e-05 1.03616e-05 -6.3438e-06 -0.00152472 -0.000101725 -3.6602e-05 
-1.23552e-05 7.14376e-07 3.80552e-06 3.73439e-06 3.95736e-05 0.000147438 5.98282e-06 8.91874e-06 1.91053e-06 
3.41345e-06 9.29967e-06 1.41845e-05 0.000111965 -1.6769e-05 -4.43234e-05 -0.00151586 -4.81152e-05 7.40296e-06 
5.33965e-06 1.04024e-06 4.54742e-06 8.34618e-06 1.04848e-05 9.93316e-06 4.88062e-05 -2.53931e-06 1.46605e-05 
-3.01617e-07 -3.05419e-05 4.90175e-06 -3.49682e-05 8.01306e-05 2.63062e-05 -1.15455e-05 -7.5875e-06 0.000714094 
-4.15827e-06 0.000460518 1.59019e-05 -2.59765e-06 -1.03793e-05 -9.08497e-07 2.28197e-06 4.53727e-07 -2.54644e-06 
3.81392e-06 -1.37631e-06 -4.02457e-06 -2.64195e-05 -5.82766e-06 -2.85801e-05 -8.90194e-05 8.63304e-05 -1.45117e-05 
-4.48091e-06 -3.41065e-05 2.19801e-05 -4.14653e-05 -4.99292e-06 7.28277e-06 -1.09197e-06 -5.23392e-06 -1.14925e-05 
-1.50407e-06 -4.00035e-06 -2.84881e-06 3.68956e-06 -9.95281e-06 5.26566e-07 1.93525e-06 -1.67472e-05 -3.26715e-05 
-0.000420737 0.00157634 -7.07066e-05 1.52918e-06 -1.11905e-05 -7.94838e-06 -3.94488e-06 -6.20669e-06 -8.91143e-07 
7.46792e-06 3.74405e-06 0.00218 0.00109552 -4.25304e-06 4.62365e-05 2.79482e-06 4.53737e-06 -4.28524e-07 
-3.96466e-06 5.09229e-06 4.97915e-05 -2.29451e-05 -6.07753e-05 -6.33849e-07 -3.21754e-06 3.35412e-06 -3.53346e-07 
-4.7916e-06 2.12636e-07 4.79129e-06 3.28589e-06 9.04809e-06 5.40386e-05 -4.03669e-05 -0.000100785 -6.69013e-07 
5.45384e-06 -6.39909e-07 8.03575e-06 2.18671e-06 8.31179e-06 4.37201e-07 2.62839e-06 -6.07085e-06 -2.53488e-06 
-2.68375e-06 7.73679e-06 -7.23714e-07 -7.54696e-06 -1.48489e-05 9.42271e-07 -7.83944e-06 -5.90097e-06 -5.56151e-06 
-3.55635e-06 -7.19843e-06 -0.00253741 -0.00188109 7.86111e-05 0.000436976 9.09795e-06 4.93537e-05 5.42042e-05 
0.000104238 0.000123912 -0.000359282 -0.000186824 -6.68643e-05 -7.12968e-05 -8.25974e-05 -0.000222265 -9.37846e-05 
-0.000102081 9.14745e-06 0.0002108 -2.25993e-05 -2.85511e-06 -1.33476e-05 7.45017e-07 4.39219e-05 3.24956e-05 
1.3163e-06 5.14287e-06 -1.86262e-06 3.26618e-06 -5.08613e-06 1.59113e-08 -1.01695e-05 -4.49784e-05 1.77154e-06 
1.13955e-06 -7.44733e-07 6.46199e-06 -1.14577e-05 -7.13616e-06 2.40625e-06 -7.27088e-06 8.89703e-06 3.57634e-06 
4.31659e-06 -3.59405e-06 -3.49555e-05 2.33507e-06 1.20544e-06 5.61056e-05 1.95417e-05 -6.87159e-05 -0.00114423 
-2.42467e-06 3.36885e-06 2.69591e-06 6.99415e-06 0.000523861 3.11691e-06 6.46289e-06 1.19762e-06 0.000132517 
4.84947e-06 -9.01844e-06 -7.67036e-06 -1.54937e-05 -5.84913e-06 2.7265e-06 0.00234448 0.00458998 0.00217026 
-4.5083e-07 -1.23326e-05 4.08723e-06 9.19959e-06 -1.1632e-05 -9.37503e-05 8.97346e-05 -0.000125329 4.40912e-05 
1.45218e-06 -3.2476e-06 -4.54258e-06 -1.74537e-05 2.37231e-05 -2.18147e-05 -1.37762e-06 8.33292e-06 -1.10554e-05 
-6.87994e-06 -7.45066e-06 -2.14087e-05 -5.31071e-07 -8.87246e-06 7.55802e-06 2.09879e-05 0.000101326 -9.18891e-05 
-7.8933e-05 -1.35386e-06 3.65386e-06 -1.09245e-06 6.13138e-05 0.000119388 8.69748e-06 7.08758e-05 1.36819e-05 
-3.01084e-05 1.39384e-05 -4.31438e-05 7.48825e-05 2.91958e-05 1.18603e-05 2.24153e-06 -1.91833e-07 8.25059e-06 
8.13859e-06 -1.57533e-06 0.000104589 -5.51594e-06 8.19007e-06 0.000176844 -4.48442e-05 -9.93595e-05 0.000446167 
2.35413e-06 6.25156e-05 -1.0267e-05 4.80806e-06 -4.41175e-06 -8.6763e-07 -1.74816e-06 3.66203e-07 -5.97395e-06 
4.88604e-05 -3.13967e-05 9.90375e-05 -1.58927e-05 -7.67331e-05 3.3658e-05 3.98694e-05 -2.55521e-06 4.76421e-05 
4.58172e-06 6.34142e-05 2.89222e-05 -8.5744e-05 -2.41402e-06 -3.27095e-06 -1.38465e-05 -4.60639e-06 -8.61193e-05 
7.69207e-06 -3.98857e-06 2.87672e-07 6.51053e-06 -3.27811e-05 0.000501417 2.8613e-06 -3.4257e-05 7.29553e-06 
-7.42039e-06 -7.23967e-06 -1.98111e-05 3.3356e-07 -5.36607e-06 -5.83347e-06 1.45249e-06 -6.0601e-06 3.30463e-06 
7.32805e-06 7.37545e-06 2.35528e-06 -8.15581e-06 -7.27628e-06 -3.35445e-05 -8.45051e-05 -1.69506e-05 8.40316e-06 
-9.05981e-06 -1.84224e-06 -4.69639e-06 1.05994e-05 6.79304e-07 -7.6211e-06 -8.49473e-06 -5.70365e-06 1.1387e-05 
1.93685e-05 -2.08495e-06 0.000246072 -0.000205358 -2.60167e-05 1.92015e-05 0.000101902 1.07967e-05 5.99908e-06 
1.91363e-06 -3.08167e-06 8.52862e-06 -9.3324e-07 -5.56443e-06 5.29704e-07 -6.15271e-06 -0.000255507 1.57991e-05 
-1.87807e-05 0.000224676 -1.55715e-05 -5.1215e-05 -2.77712e-07 -7.92941e-06 -3.42719e-05 -4.44658e-05 -0.00062261 
-2.93495e-05 -2.70592e-06 -7.20921e-07 5.84771e-06 4.58231e-06 -1.39234e-05 2.66919e-06 -9.23764e-06 -1.31999e-05 
3.49232e-06 4.90364e-06 -3.51327e-06 -2.75676e-05 0.000102437 8.22744e-05 0.00254915 0.000304467 -0.00130241 
-1.28242e-05 -4.68733e-06 -3.01738e-07 1.44104e-06 5.60539e-06 -1.23079e-06 1.15019e-06 1.62352e-05 -2.15926e-05 
1.28409e-05 6.0038e-05 -4.05237e-06 -2.92236e-06 -4.40722e-06 3.29643e-05 -5.87582e-07 4.67192e-06 -0.000686142 
-9.0682e-06 -2.14028e-07 3.82554e-06 -3.15603e-06 -7.80173e-05 -3.01185e-05 8.55531e-08 1.36922e-07 -6.7601e-06 
4.14552e-06 -4.03993e-06 1.04072e-05 -2.65244e-07 1.67351e-06 -1.02618e-07 4.04864e-06 1.15523e-07 -1.54569e-06 
-1.13073e-05 7.41614e-07 8.7309e-05 -1.37622e-06 -7.42649e-06 -6.16442e-06 -3.38901e-06 -6.19904e-06 -4.28377e-06 
3.4427e-06 -1.06892e-05 1.25638e-05 9.16911e-06 3.7915e-05 -6.69367e-05 0.000116715 -0.00018836 8.27851e-06 
5.87296e-06 -5.48798e-07 7.46246e-06 -3.94479e-06 -5.86552e-06 -2.9317e-06 -2.61813e-05 -3.06157e-05 3.18502e-05 
-1.1087e-05 4.70174e-05 2.96915e-05 5.4719e-05 -5.22213e-06 1.20493e-05 -6.41447e-05 -2.89226e-06 -9.36634e-06 
-8.75008e-06 1.91931e-06 8.62675e-06 -0.00548114 0.00516461 -1.28161e-05 -3.00322e-06 3.04079e-06 -3.66342e-06 
-1.41479e-05 5.47797e-06 1.87102e-06 -2.10507e-06 -9.07817e-06 9.61173e-06 -5.71379e-07 2.0863e-06 1.06949e-05 
2.45598e-06 6.08558e-06 -8.07211e-06 4.78373e-07 -2.28531e-06 4.81009e-07 -0.00140214 -1.59167e-05 0.00141988 
-4.42471e-06 -2.30852e-07 1.05355e-06 -4.93602e-05 -4.83831e-05 -1.4632e-05 9.84464e-07 0.000549262 0.000924265 
0.00143763 -4.09069e-06 4.194e-06 -1.3127e-05 -2.86993e-06 4.69137e-06 -1.62541e-05 -2.14896e-05 -3.16567e-05 
0.000511465 2.08685e-05 -0.00139009 0.0014442 1.51535e-06 -3.20591e-06 -6.10816e-07 9.30296e-06 1.26358e-05 
7.65823e-07 -7.3352e-05 7.448e-06 -1.98497e-05 5.44073e-06 -3.48837e-06 -3.85095e-06 3.18338e-06 -6.49478e-06 
-1.35062e-05 -2.72604e-06 1.22437e-05 5.32118e-05 2.24531e-05 6.05954e-06 1.27533e-06 -9.12066e-07 -3.99339e-06 
3.56355e-06 -1.49989e-05 1.07413e-05 1.18503e-06 4.40235e-05 -2.55343e-06 3.53793e-06 -2.37344e-06 -5.20761e-05 
-1.91364e-05 -0.0140047 0.00255312 -0.00192698 -2.1235e-05 -1.00469e-05 -2.35861e-05 0.000106962 0.000218947 
-9.327e-06 1.3226e-05 6.16355e-06 3.69428e-05 5.8036e-05 -8.46848e-05 -0.000464019 -3.46593e-06 2.7474e-05 
2.39405e-05 0.000341235 -0.00578725 3.86076e-07 -1.74545e-05 -0.000318472 -5.47955e-05 2.90307e-05 4.95989e-06 
1.46449e-05 3.93189e-06 6.95171e-06 -0.000971928 -9.86375e-05 0.000180548 -2.72287e-06 1.10738e-05 -1.51383e-05 
-9.14974e-05 8.06507e-05 0.000165155 2.51349e-06 4.0973e-06 -1.74198e-06 5.10232e-06 -2.27168e-06 4.20154e-06 
9.59185e-07 -1.83666e-05 -2.75004e-06 5.22047e-07 1.88969e-05 -2.10652e-05 -2.84338e-06 -2.86097e-06 -1.24652e-05 
5.4992e-05 3.98482e-06 9.29259e-06 0.000121895 5.69027e-05 -1.03057e-06 -8.43394e-05 1.33442e-05 0.000195455 
0.000121789 -4.23199e-05 -1.91906e-06 1.00951e-05 1.80863e-05 -3.60121e-05 0.00172747 -6.95189e-06 -2.48864e-06 
-2.81203e-06 -9.74631e-06 -1.18687e-05 -5.17685e-06 1.80838e-05 -7.45726e-06 -3.68279e-06 3.86339e-05 5.48155e-06 
-5.60827e-06 -3.02131e-05 -2.6559e-05 0.000787232 -0.00367167 -2.54873e-06 5.18953e-07 0.0055352 0.000344152 
0.000371233 0.000505792 -8.57785e-06 -1.6744e-05 -1.75336e-06 -3.30002e-06 1.80918e-06 3.48768e-07 -1.1631e-05 
-1.4479e-05 6.47181e-05 0.000206495 9.44134e-05 -8.30394e-05 -0.00150734 -0.00141742 0.00615825 8.63338e-07 
1.08781e-06 3.96385e-06 -7.14444e-06 -1.23054e-05 -3.44505e-05 -1.04576e-05 5.50972e-06 1.54106e-05 -8.7807e-06 
-3.0334e-05 -2.29867e-05 -3.41966e-05 4.83946e-05 4.76304e-06 1.02968e-05 5.79141e-05 8.17821e-06 8.35507e-07 
-4.34685e-05 -5.37207e-06 -6.4261e-06 -1.52474e-07 -3.34007e-06 9.26873e-07 -5.24792e-07 0.000238559 -0.000948343 
1.66235e-05 1.09167e-05 -1.58086e-05 6.56944e-06 3.21545e-06 6.38566e-06 1.65822e-06 5.54778e-06 -3.38992e-05 
1.1765e-05 9.5529e-06 3.00356e-05 -1.64782e-05 7.51318e-06 -3.79613e-06 3.32022e-06 -7.91253e-06 -5.25395e-06 
2.58172e-06 -2.305e-06 8.2889e-06 3.80534e-07 -1.88073e-06 -4.92992e-06 -8.62964e-06 -6.38636e-06 3.9027e-06 
9.47733e-07 6.29905e-06 -0.000812391 -0.00211274 1.09047e-05 6.30726e-06 -1.04669e-05 -7.11223e-06 2.31336e-06 
-1.1013e-05 -4.04262e-06 2.94957e-06 8.22258e-08 9.40598e-07 -5.63539e-06 6.25646e-06 1.37724e-07 1.49436e-06 
4.84157e-06 4.85369e-06 6.10063e-06 -7.37049e-06 -1.68762e-06 7.34881e-06 8.14106e-06 -3.58046e-05 0.000234338 
-0.00098536 -4.32139e-05 -2.01052e-06 -5.7905e-06 -2.5238e-05 1.75387e-05 7.61725e-06 4.01928e-06 -8.95532e-08 
4.37188e-06 -2.43746e-06 -3.93186e-06 -1.9936e-06 -2.13776e-05 1.87079e-05 0.00113508 0.00350186 -0.00603001 
4.28295e-05 2.98725e-06 4.73211e-06 -3.85213e-06 -8.10682e-06 5.66631e-06 2.29258e-06 -5.21707e-06 -1.21626e-05 
7.44159e-08 1.37689e-05 0.00157788 -0.000100952 -0.00156318 -6.56362e-06 3.41868e-05 5.06e-06 -2.86866e-05 
-6.87468e-06 -2.64395e-05 -2.69995e-05 2.7959e-06 4.68524e-05 0.000263421 1.78946e-05 -0.00020921 -9.17447e-07 
-3.26183e-06 -0.000148897 -6.77277e-06 9.26734e-05 0.000339064 5.49517e-05 8.72274e-05 7.76091e-06 -3.25861e-06 
-3.4802e-05 1.33154e-05 -1.8841e-05 9.94609e-06 6.60309e-06 5.96335e-06 -1.2034e-05 5.40125e-05 3.05621e-06 
4.85927e-06 1.10117e-05 -1.67812e-05 7.21375e-06 0.00016965 -0.000969354 0.00134671 -0.000102093 -0.000127659 
-0.000658737 -5.99476e-07 -2.82376e-05 -3.82443e-05 -0.000143107 2.57521e-05 1.90958e-05 -2.03921e-05 -8.69997e-06 
8.27639e-05 4.0093e-06 -5.66253e-05 6.86161e-06 1.09436e-06 -2.7182e-06 -7.05117e-06 -0.000135592 -0.00159349 
0.00156704 -1.6117e-06 -9.33552e-06 4.32293e-07 1.65158e-05 1.46677e-05 1.42584e-06 -1.6174e-06 5.99332e-05 
2.02526e-05 -2.97975e-06 8.06116e-06 8.75903e-06 -3.56389e-06 5.34122e-05 0.000586148 0.000376691 2.58783e-06 
-1.11609e-05 1.93839e-06 -3.62412e-07 2.62727e-06 -4.71434e-07 8.05246e-06 -0.000124828 2.81909e-06 -4.82837e-05 
-0.000270441 5.23901e-05 0.000539855 7.10948e-05 -5.78033e-05 3.29486e-05 2.48473e-06 -2.48026e-06 8.74123e-06 
1.83303e-05 4.19649e-06 -3.33128e-07 5.71669e-07 -1.28743e-05 0.000838593 8.88912e-05 0.00149432 0.000150896 
8.61214e-05 -2.47525e-05 2.44051e-05 -0.000251033 3.60776e-06 0.00203872 -6.75524e-05 -2.14703e-05 4.16825e-06 
-1.32718e-06 4.57036e-06 -1.08454e-05 3.21078e-07 7.88078e-06 3.64458e-06 -3.03102e-05 -0.0100292 -0.0014696 
1.56587e-06 -5.28601e-07 2.40883e-06 -3.64666e-06 2.85475e-06 5.22517e-06 -2.47421e-05 -3.62954e-06 3.18702e-06 
-0.000131023 -1.50516e-06 2.43902e-06 -1.53411e-05 6.09222e-06 5.45439e-06 -2.97004e-06 1.14399e-06 -2.08611e-05 
-2.42776e-05 -3.60738e-06 -1.80299e-06 1.7805e-06 9.62944e-06 3.89834e-06 -0.000650325 -0.00354659 1.4455e-05 
-3.37214e-06 -2.20467e-06 6.50017e-06 2.37853e-05 -4.18937e-06 7.95326e-06 1.60554e-05 -4.34988e-06 -9.46049e-06 
-2.35776e-06 -0.000403739 -0.00069623 0.00217891 -4.42442e-07 -3.59464e-05 -3.11514e-06 -1.17928e-05 -1.90736e-05 
-0.000113164 0.000117344 1.49542e-05 -1.05324e-05 0.000111465 -5.51113e-07 -6.14936e-07 -6.60657e-06 -2.47777e-05 
2.12469e-05 -2.98342e-06 -6.79524e-07 -1.58617e-06 -8.43639e-07 1.34298e-05 -1.05389e-05 -5.18552e-05 -6.14662e-05 
-6.11996e-07 -2.05028e-05 -4.75033e-06 -2.49396e-06 -4.78087e-06 -4.68777e-06 0.000224504 -0.000244491 9.43155e-06 
3.87893e-05 1.63807e-06 2.72206e-06 -6.16999e-06 -1.82918e-06 -5.38729e-06 -2.94626e-06 -4.8126e-06 -1.45704e-06 
3.68826e-06 9.54049e-07 3.84147e-06 6.0042e-06 2.92848e-06 0.000120759 0.0015875 4.90928e-06 -1.3674e-05 
1.61979e-07 6.91375e-06 -2.58645e-07 5.70628e-06 -9.77351e-07 -3.05917e-06 -0.00216937 0.00539262 2.31901e-07 
2.40537e-06 3.52826e-06 0.00207802 -0.00200578 -0.000142466 0.000135517 0.000308336 -5.75867e-05 -7.89467e-05 
-6.0028e-05 4.82946e-06 9.23166e-06 9.57487e-06 -1.4814e-06 3.77491e-05 -4.17503e-06 -5.38009e-06 9.6013e-06 
-0.0009109 0.00010016 -2.42702e-05 -1.78053e-06 6.73204e-06 2.62424e-06 -3.43651e-06 1.29995e-05 -5.39455e-06 
-8.77456e-06 2.48763e-06 1.50241e-05 -3.10336e-05 -6.09284e-06 -8.86581e-06 0.00141325 3.10168e-05 -0.000137462 
-0.000750315 -4.05849e-05 0.000295142 3.78942e-05 4.11247e-05 -6.24499e-06 7.20549e-06 -9.65163e-06 -8.77964e-06 
-4.59438e-06 -1.14603e-05 7.9862e-05 -5.66134e-05 -9.31995e-06 1.07632e-05 -2.11549e-05 1.17102e-05 2.225e-06 
-1.57808e-06 6.26477e-06 -9.83052e-06 -8.64643e-06 1.55186e-06 6.33209e-07 -5.17642e-05 0.000537527 -2.09343e-06 
2.28414e-06 3.30583e-07 -6.02111e-06 5.40903e-06 -3.2763e-05 1.12839e-05 5.03836e-05 -7.84307e-06 3.87697e-05 
2.51003e-06 1.16732e-05 4.60587e-06 -5.31926e-06 -1.26404e-06 7.091e-05 3.04181e-07 2.99501e-06 -0.000363083 
-0.000106951 8.31318e-05 1.88947e-06 -2.99926e-06 1.65584e-07 -6.3242e-06 -1.32443e-05 -9.87086e-06 -1.03421e-05 
9.32792e-06 -8.11411e-06 7.81523e-06 2.92073e-05 -6.53652e-06 -1.41743e-06 0.000298368 4.85952e-06 -0.00197728 
-0.00232144 -0.00129214 0.000391064 -3.69034e-05 1.74112e-06 2.90365e-05 8.49012e-05 -0.00756213 -3.82303e-06 
-5.42694e-06 -5.07211e-05 1.60687e-05 -1.88255e-06 1.04184e-06 5.63148e-06 7.77345e-07 1.10945e-05 2.69205e-06 
7.1726e-07 -7.92695e-05 -7.53758e-05 9.10927e-06 -2.93206e-06 6.69033e-06 -7.14566e-06 -8.43403e-06 -6.84894e-08 
-1.17491e-06 0.00549774 -0.00523165 -1.37357e-06 -0.00126989 1.4707e-05 4.18285e-06 0.000482115 0.000385572 
0.000255175 0.000702738 -0.000412497 -0.000605476 -0.00598695 5.0714e-05 -0.000186262 5.88889e-07 3.92103e-05 
5.59123e-05 -2.75964e-07 -6.66691e-06 -1.50381e-05 0.00251013 -3.25623e-05 -1.18994e-05 3.20251e-05 1.14308e-05 
0.000352135 0.00184992 -8.06517e-05 4.88696e-05 -7.70882e-05 -3.7009e-06 8.77311e-05 -4.4386e-06 6.12888e-07 
-3.29121e-06 -0.00220884 -0.000280846 0.000153815 4.23127e-06 3.66468e-07 -6.41645e-07 1.39497e-05 1.39544e-06 
1.66091e-06 -0.0013783 7.68897e-06 9.96372e-06 -5.6831e-05 0.000154393 0.00047743 -9.91728e-06 2.12472e-06 
2.09181e-05 -7.22536e-06 5.23876e-06 -4.65745e-06 -2.80998e-07 -5.89442e-07 -0.00170564 1.46035e-06 -0.00170483 
0.00553511 4.61855e-06 5.32979e-06 6.17821e-06 4.37232e-06 -9.92971e-07 2.28963e-05 1.70094e-05 6.06033e-06 
1.0633e-06 -2.89894e-06 -1.21284e-06 -1.31431e-05 1.46249e-05 -4.64983e-05 2.03757e-05 -2.10881e-06 -7.05211e-06 
-1.2783e-05 -3.56396e-06 1.93538e-05 -7.19371e-05 -5.2138e-05 -2.32436e-06 -4.94489e-05 -7.91316e-06 -1.19733e-05 
-1.98365e-06 -8.48953e-06 -3.34753e-06 -0.000122955 -2.7387e-05 -2.30065e-05 -0.000907519 -0.00171859 -4.6909e-05 
6.90817e-06 -1.54745e-06 0.000190021 -0.000516084 9.58062e-06 -3.57634e-05 -1.3358e-05 1.47992e-05 -5.37553e-05 
-5.57296e-07 0.000218527 -0.000298112 5.92206e-06 8.9954e-06 1.81585e-06 1.3388e-06 3.8971e-06 -1.45533e-06 
-0.000727064 0.000320334 -0.000240177 5.92967e-05 0.000224906 0.000114945 -0.000656006 0.000436888 0.000287731 
-0.00473667 0.000408278 -9.34322e-06 6.48978e-06 -1.8549e-06 0.00580926 0.0102491 0.00380385 0.00085024 
-1.73503e-06 -2.96393e-06 -2.97374e-06 -4.79346e-06 -2.7768e-05 -9.38049e-05 4.80004e-06 -4.0192e-06 0.000274385 
5.18149e-06 -7.12254e-06 -1.09175e-05 1.93974e-05 0.000582643 -3.20087e-07 2.54019e-05 -3.92741e-05 2.54759e-06 
-3.93502e-06 8.44752e-08 2.00589e-07 -1.30054e-05 -4.4433e-05 0.000195861 0.0015124 -0.00156957 -3.24472e-06 
-8.69814e-06 -3.46134e-05 -1.44157e-07 -7.44689e-07 -1.00941e-07 -5.04894e-07 -4.16096e-05 7.18469e-05 -0.000491804 
-3.17227e-06 1.74401e-05 5.30846e-06 -4.37716e-06 4.64419e-06 -9.05173e-06 -3.40338e-06 -7.23065e-06 2.16171e-06 
2.25196e-06 1.11074e-05 3.04761e-06 -8.90836e-06 -1.46174e-05 1.9164e-06 -4.03012e-07 1.61993e-06 2.16494e-05 
-2.90128e-05 -1.40484e-05 4.14633e-05 -5.70366e-06 3.01583e-05 4.34395e-06 -4.1426e-05 0.000276113 -0.00112934 
-0.00264584 -0.00512317 -9.13023e-06 -6.08451e-06 -7.8454e-06 -2.00152e-06 0.00283212 -9.95085e-05 0.000127619 
8.39939e-06 2.53897e-06 1.26622e-06 -3.44774e-07 1.74951e-05 -8.25265e-06 -3.97144e-05 -3.23887e-05 -3.85873e-06 
7.66293e-06 9.65761e-07 4.98365e-06 -3.89728e-07 -2.5979e-06 5.94369e-06 1.38416e-05 -1.62141e-06 -3.62579e-06 
-2.31948e-06 -2.93222e-06 -8.44278e-06 1.08167e-05 -1.04345e-05 2.54757e-05 8.71252e-06 -7.3181e-06 -5.50149e-06 
-6.39925e-06 -8.87401e-06 1.42633e-05 -3.08779e-06 7.93721e-06 -2.0374e-05 0.000246062 -1.80732e-06 -3.53472e-06 
-1.32489e-06 -2.34517e-06 1.26656e-06 -0.00175771 0.00131582 0.00742002 -7.18151e-06 -2.25848e-06 1.07164e-05 
-9.1165e-06 -5.03119e-06 -4.3284e-05 -1.54863e-05 -6.81329e-06 3.57937e-05 -2.07341e-05 5.93195e-07 -0.000375173 
0.00560911 -0.00549415 -3.89487e-05 -1.44343e-05 -1.68944e-06 -7.00302e-06 -8.45305e-06 2.78333e-05 3.18535e-05 
-1.64313e-05 -8.28424e-07 -4.67604e-05 -7.34026e-05 -1.66732e-06 -4.11739e-06 3.38357e-06 -3.22884e-05 -0.000117389 
1.67934e-05 7.57578e-06 0.00128456 -5.2301e-06 -5.71793e-06 -2.38521e-06 -2.67348e-06 6.97125e-06 -7.12972e-07 
2.72318e-06 -3.80742e-06 3.1804e-06 6.76212e-06 3.99175e-06 -2.53424e-05 3.64599e-06 1.22148e-05 9.98792e-06 
6.32983e-06 -7.76028e-06 5.91083e-06 1.70924e-06 -2.96061e-06 -1.17393e-05 -3.60302e-06 -5.05974e-06 0.000437715 
-2.83558e-05 0.000107527 -1.66378e-05 3.25976e-06 -9.04532e-06 -1.69372e-06 -1.11191e-05 -3.06831e-06 -1.82962e-06 
1.14239e-06 7.10053e-07 4.28781e-06 4.4852e-06 1.76381e-06 1.31931e-06 -5.05484e-06 2.66987e-06 1.3942e-06 
3.63411e-06 9.23144e-07 -4.76909e-06 0.000226892 -3.6954e-05 0.000133094 -5.71145e-05 -4.67427e-05 0.000500433 
8.06801e-07 -7.23498e-06 -1.50461e-05 1.18483e-06 -2.84483e-05 -0.00214919 -4.3635e-07 0.000108772 0.00010998 
0.000114271 -2.36389e-05 0.000620529 -2.02447e-06 -1.04329e-06 -6.44306e-07 4.13835e-06 -4.60383e-06 1.84739e-06 
-8.27509e-06 -0.000121488 0.000128459 -0.00582962 -0.00551713 -0.000207019 0.00526001 0.00525118 -6.50378e-05 
1.68334e-05 -5.6702e-06 4.04968e-06 5.94203e-06 7.24243e-06 8.59061e-06 2.10285e-05 2.27693e-06 -7.79265e-06 
9.15445e-06 -0.000149157 -4.70569e-05 8.53306e-05 -1.88404e-05 -2.33521e-05 -4.97289e-06 3.21962e-06 7.51594e-05 
0.000101765 8.31656e-06 5.01565e-06 4.77442e-06 3.70922e-07 -2.20743e-06 1.13342e-05 -0.000467599 -6.27551e-05 
8.79108e-05 -8.57437e-05 -3.22359e-06 2.61101e-05 -6.40875e-07 4.97711e-06 -7.1699e-06 -0.000775989 0.000480271 
-0.000545675 -4.47181e-06 3.56286e-06 -9.85366e-06 -6.06692e-05 7.9417e-06 -7.74756e-05 -3.4596e-05 4.53927e-06 
0.000171471 -7.59457e-06 4.0412e-06 -2.72078e-05 -4.47381e-06 5.74994e-06 -1.13236e-05 -3.81127e-05 -0.000196523 
-0.000250151 0.000146676 -9.72899e-05 8.54817e-05 2.48641e-05 0.000300029 0.00023493 -5.33257e-05 -4.99614e-06 
1.17986e-06 -2.39869e-06 -1.90743e-07 -8.50701e-06 8.69407e-06 1.50981e-05 3.5466e-06 -2.13987e-05 -5.88982e-05 
-6.52089e-06 -1.67679e-05 -5.84523e-06 -3.46715e-06 9.11003e-06 -3.81891e-07 -1.97339e-05 -2.4672e-06 2.53683e-06 
-3.76122e-06 -3.32215e-06 -8.74648e-06 -3.09007e-07 -8.52119e-06 1.13517e-07 1.19435e-06 -1.47756e-06 -1.27489e-06 
2.96387e-06 4.03067e-06 -0.00466 1.12513e-06 1.1351e-05 -0.000117698 -0.000150089 3.74047e-05 -2.35556e-06 
-5.84935e-08 8.31959e-06 1.07367e-05 -7.43799e-05 -0.0060755 0.00481079 0.00437853 -0.00038391 1.01339e-06 
4.80956e-06 -9.21001e-06 3.33029e-05 -8.99111e-06 -1.10725e-05 4.07914e-06 -0.000283722 -9.86953e-06 -0.00031263 
-3.32816e-06 -4.56644e-06 -1.52113e-05 5.44913e-06 -3.23281e-06 -3.65495e-06 -6.26273e-06 6.05817e-06 2.45654e-06 
-3.11181e-06 0.0001212 3.54967e-05 6.74068e-06 6.80159e-07 -5.88555e-07 6.58029e-07 -3.49274e-05 -1.9792e-05 
-2.04315e-05 -3.16386e-05 -8.11964e-05 -0.00330756 7.78015e-06 -1.55563e-06 5.93019e-05 7.32734e-06 4.59564e-06 
-9.24918e-06 3.52414e-05 3.38818e-05 -9.94785e-07 1.02029e-05 1.326e-07 -7.74712e-06 1.9471e-05 -8.89194e-06 
3.75063e-06 -6.90581e-08 -1.56289e-05 4.63553e-06 -0.000181141 5.68015e-05 4.49265e-05 -0.000189221 -3.0982e-05 
5.40867e-05 -0.000613723 -4.8825e-05 -1.14611e-05 8.71418e-06 -5.68929e-05 0.000409025 -6.67545e-05 5.306e-06 
-2.03239e-05 -0.000664438 2.03857e-06 3.30133e-06 3.81418e-06 5.39482e-06 -1.67382e-06 -1.42638e-05 -2.96743e-08 
6.09303e-07 5.02199e-05 9.69117e-05 4.35298e-05 3.51143e-05 2.44083e-05 -5.57098e-06 -1.45182e-07 4.40308e-06 
3.17127e-06 -9.02552e-05 3.94501e-05 -1.79962e-06 -0.00185081 -2.77723e-06 -3.90059e-05 -1.74799e-05 -3.00428e-05 
-1.46575e-06 -1.47412e-06 -1.76872e-05 -1.27148e-05 -1.32116e-05 5.64012e-06 -1.12355e-05 3.01631e-06 -6.91699e-06 
7.326e-06 1.58679e-06 7.64873e-06 -2.78e-06 0.000102451 -0.000207708 -0.000157329 -8.03591e-07 -2.01935e-06 
-2.72788e-06 -4.28585e-06 -2.5917e-07 -4.54549e-06 -3.28859e-06 -1.49722e-06 3.19085e-07 0.00137192 -7.16439e-05 
-0.00135975 -1.87624e-06 -3.10587e-06 -5.62234e-05 -6.86328e-05 8.39401e-06 0.000113007 9.75383e-07 1.17315e-06 
-2.36376e-05 4.29208e-05 5.34463e-05 1.10846e-06 4.33791e-06 5.80263e-06 4.54933e-06 -1.9085e-07 6.73373e-06 
7.68261e-05 -7.92475e-05 -9.9349e-05 4.28304e-05 8.36371e-06 -3.68653e-06 1.05531e-07 -1.28874e-06 -1.4536e-05 
-7.07635e-06 -2.17698e-06 3.99034e-05 1.24336e-05 -1.82714e-05 1.30997e-05 -5.55519e-05 -5.28499e-06 -1.06144e-05 
-1.55353e-06 1.31565e-06 1.22823e-05 0.000612 0.000659994 7.73511e-05 7.3776e-06 -6.23127e-07 7.20199e-06 
-0.000101534 -4.51328e-05 7.34324e-06 2.6892e-06 0.00159532 4.18616e-06 -7.9326e-06 -9.67855e-07 2.8932e-06 
-0.00243744 0.00389028 -1.03072e-05 0.00142798 1.17515e-05 3.04023e-06 1.80107e-05 -1.95811e-05 8.61764e-06 
-1.20083e-05 5.19698e-06 4.31587e-05 -7.42689e-06 5.5219e-06 -2.26969e-06 1.45627e-06 4.89802e-07 -4.6976e-07 
-2.28948e-06 2.71595e-06 6.62316e-06 1.02376e-05 -2.64842e-07 1.28308e-06 4.7788e-06 -8.23342e-06 -3.14687e-05 
-1.86057e-05 8.18968e-07 6.51413e-06 -0.0005496 0.000540806 9.57776e-06 -3.5997e-07 2.89155e-07 3.40203e-06 
1.59908e-05 -2.04466e-05 -3.17298e-06 -8.28334e-06 1.73013e-06 -1.10449e-05 7.03827e-06 -1.14437e-05 -5.62742e-06 
1.07487e-06 -5.42331e-07 -6.56707e-07 -4.367e-06 -1.41279e-05 -4.11921e-06 -4.89889e-06 0.000194917 0.000201948 
6.71651e-06 1.15697e-05 -1.31407e-05 1.50001e-05 6.86923e-06 -0.000250106 4.22523e-06 9.14332e-05 9.99659e-06 
-1.03795e-05 7.54958e-05 5.71656e-06 1.22817e-05 0.000129068 0.000129423 -1.66894e-06 -3.80015e-06 3.98912e-06 
0.000504693 0.000309133 2.34759e-06 8.79602e-07 -9.53841e-05 -5.42901e-05 3.42226e-05 -0.00112313 -1.76867e-05 
-8.26704e-05 0.000100962 -0.000152063 6.83747e-05 2.45545e-06 4.59228e-06 4.67321e-06 4.29587e-06 -6.39886e-06 
6.60919e-07 -1.08841e-05 -1.84043e-06 3.13826e-05 -1.12817e-05 -1.55346e-05 2.76894e-06 -1.13193e-06 -8.41382e-06 
-0.000137595 4.00734e-06 -7.99013e-07 1.06305e-05 -6.03074e-06 5.58674e-05 0.0001937 -6.44312e-05 9.83406e-07 
-2.32285e-06 -5.60379e-05 9.6392e-05 -8.46611e-05 -7.33181e-06 -3.52612e-06 -1.39733e-05 1.74071e-05 -2.33869e-06 
1.94979e-06 1.36986e-05 1.01133e-05 4.54921e-06 -8.01716e-06 3.72678e-07 2.62362e-06 5.91477e-06 -4.93149e-05 
6.20875e-06 -4.02153e-05 1.58279e-06 -1.63476e-05 0.000407476 -3.39219e-05 4.06782e-05 -9.45803e-07 2.96403e-05 
-7.63699e-06 4.13849e-05 -2.24665e-05 -5.55012e-06 -1.44949e-06 8.34047e-06 -3.29947e-05 -6.02362e-05 1.74989e-06 
-5.78608e-06 1.84004e-05 -2.38741e-06 -0.000462088 0.000697846 -0.00149616 1.07101e-05 3.58813e-05 -0.000472708 
3.43539e-05 0.00656065 0.00401646 -2.02753e-05 -6.18512e-05 -0.000954575 -0.000295227 -1.40361e-05 -7.51231e-05 
0.000552719 0.00247384 1.79332e-05 1.20627e-05 6.64858e-06 4.0623e-07 1.10368e-05 -1.99746e-05 -2.39579e-06 
-1.70197e-06 1.50178e-06 -6.39948e-05 2.89145e-06 -5.41943e-06 -2.62313e-06 2.145e-05 -5.19193e-06 8.47558e-07 
2.57638e-06 4.66525e-07 4.67184e-05 1.14351e-06 -0.00138551 4.16814e-05 -4.87514e-06 2.80234e-05 5.06486e-06 
-1.53953e-06 -2.94656e-08 -2.62221e-06 -4.48288e-06 -3.02152e-06 2.52615e-06 -5.66015e-06 3.84604e-05 -2.9659e-05 
-1.31865e-06 -1.07939e-06 -3.58935e-06 -1.67025e-06 -2.63893e-06 -1.76716e-06 2.41112e-07 -5.23902e-06 -4.36424e-05 
-1.64199e-05 -1.1532e-05 7.1036e-06 -2.22411e-05 -7.41628e-05 -5.4917e-05 -0.00478432 -0.00128033 5.91014e-07 
1.14168e-05 9.13923e-06 1.37892e-05 2.21896e-05 -1.39685e-05 -3.1442e-05 -4.00107e-05 -3.13796e-06 8.70688e-06 
4.23663e-06 -0.000382641 8.80237e-05 -7.80884e-05 -0.000666458 -0.000118791 -8.34634e-05 -6.28608e-05 -1.62459e-06 
1.97267e-05 -3.25019e-05 -5.57809e-05 3.24242e-06 6.69223e-06 4.13291e-06 7.9859e-06 5.87628e-05 -7.06382e-06 
-7.16909e-06 -1.45193e-05 -8.096e-07 -1.12895e-06 3.13438e-06 -0.000182811 7.76388e-05 -7.15247e-05 5.43391e-05 
-8.41281e-06 -5.23676e-08 0.000587119 2.18565e-05 -0.000846119 -1.87355e-05 7.4278e-06 1.51583e-06 -1.89123e-06 
-1.123e-06 0.000229814 -1.81357e-06 5.05448e-06 -2.10593e-05 -7.84853e-06 3.41984e-06 -3.41211e-06 -5.18038e-08 
1.00098e-06 -4.37522e-06 2.08861e-05 5.62066e-05 4.51867e-05 -6.76113e-06 1.63853e-05 2.31578e-06 -2.56807e-06 
-3.60244e-05 5.91129e-06 -6.25408e-05 8.09322e-05 -1.44298e-06 4.05159e-06 -7.06917e-05 1.96291e-05 -1.28425e-05 
-1.00292e-06 3.16654e-05 2.85461e-05 2.36195e-07 -3.777e-06 -1.40172e-05 -3.79536e-06 9.68323e-06 2.28614e-06 
8.61834e-06 6.00963e-07 2.19883e-06 1.19719e-05 4.75093e-07 7.99247e-06 -2.18973e-05 -1.89911e-06 4.01502e-05 
-2.24793e-05 1.11543e-05 1.42188e-05 7.48464e-06 -2.24704e-06 -1.31899e-06 2.84588e-05 5.91235e-05 0.000320002 
-4.81898e-07 -3.96896e-05 -2.15291e-05 -2.97235e-07 -0.000560062 0.0072182 -0.00228248 2.91368e-05 -8.17664e-06 
-1.32617e-05 9.17701e-06 -1.17736e-05 0.000121372 -0.000135238 0.000985646 -8.5525e-06 -1.79159e-06 7.8053e-06 
-5.6282e-06 -4.39938e-06 -4.43733e-07 3.23866e-06 -1.23489e-06 1.1007e-06 -1.3798e-06 1.44341e-06 -5.0299e-06 
-1.78115e-06 3.22477e-06 -6.19585e-06 4.66825e-06 -5.47273e-06 2.79518e-06 -2.43693e-07 -3.59571e-06 9.07909e-06 
-2.02057e-05 2.91706e-06 9.99615e-06 2.61952e-06 -3.30502e-06 -3.69504e-06 -3.04539e-08 -6.9174e-06 1.61943e-06 
-1.15953e-05 -0.000777432 -5.30504e-06 -0.000456388 -0.0024592 0.00030872 -0.000352787 -0.000218232 -0.00028245 
8.46721e-07 -5.85075e-07 5.42296e-07 -9.07527e-06 -7.28366e-05 -5.51714e-06 4.82422e-06 -9.63423e-07 2.24413e-06 
2.31157e-06 -3.52544e-06 1.95237e-06 -3.39414e-06 -4.93457e-07 -5.04294e-06 -4.36727e-06 3.26561e-06 -2.48163e-05 
-6.35737e-06 -1.71487e-05 -4.83783e-07 -1.31561e-05 -1.24671e-06 7.52429e-07 3.53286e-06 0.00157687 -7.92409e-05 
-0.00111938 1.4603e-05 3.95019e-05 -5.05082e-06 -8.20776e-06 -1.34543e-05 0.000101354 -0.000961229 0.00549702 
8.79105e-05 1.90137e-06 3.72245e-05 9.70773e-06 -0.00155857 -6.01743e-06 4.70194e-05 7.16633e-08 -7.21306e-06 
2.86407e-06 1.38599e-05 1.6509e-06 1.08946e-06 8.11796e-05 3.47296e-06 -9.11911e-05 -5.36062e-05 -0.00330205 
-0.000336604 3.19464e-05 1.22465e-06 6.59211e-05 -7.529e-05 -7.4591e-06 -2.04673e-05 7.57453e-06 -2.71962e-06 
1.2391e-08 -1.8174e-05 -7.45764e-06 -1.07256e-05 5.54407e-06 -8.77413e-06 1.44854e-05 -4.33896e-05 0.00152323 
-0.00207205 -1.35779e-06 -2.6238e-05 4.61704e-05 -0.000927753 1.01036e-05 -0.000170655 0.00549205 -0.00110986 
-2.26556e-05 4.70166e-05 -2.24636e-06 -7.91398e-06 -2.51291e-06 -4.87245e-06 -2.8909e-07 6.14664e-07 -5.00789e-06 
-7.31606e-06 -3.6876e-06 -4.10158e-06 -1.0781e-05 0.000645713 -6.09284e-06 -1.15483e-05 6.0246e-05 2.51158e-05 
-5.46885e-07 -6.5048e-07 -1.73639e-06 0.000253648 -3.6652e-06 -2.05501e-05 -1.45039e-05 -4.54028e-06 2.83553e-06 
-1.06469e-05 1.1299e-06 4.29644e-07 -1.60231e-06 3.9736e-06 -1.74847e-05 0.00149212 -2.6195e-06 1.76888e-05 
-0.000231889 5.34015e-05 -3.15162e-05 -0.000578242 -4.79483e-05 -3.87221e-06 1.89489e-06 -0.000611647 0.000447942 
-3.49589e-05 -6.38786e-06 5.25371e-06 8.78352e-06 -8.7706e-06 -0.00171345 -0.00917429 -5.05979e-06 -0.000242077 
-0.000127033 -1.31706e-07 7.84155e-06 -5.72623e-07 0.00131222 0.000328478 -0.000316883 0.0011098 -2.21552e-05 
-5.97746e-05 2.99001e-05 -6.45074e-06 -0.00130021 0.00572883 -0.00151113 6.80478e-06 -0.00501222 3.2378e-07 
-1.5206e-06 8.59062e-07 -3.95956e-07 -1.15227e-06 -1.68154e-06 8.11674e-07 2.64648e-06 -7.24232e-06 -0.0051538 
8.84464e-05 0.00124862 -0.000408854 -3.24769e-07 4.32727e-07 4.61299e-05 -0.00577308 0.00075687 1.76618e-06 
-8.13532e-06 5.52053e-06 0.000679069 5.16174e-05 -9.67323e-07 9.04802e-07 -1.47057e-05 -3.1523e-06 -1.80902e-05 
6.48895e-05 5.00972e-06 -2.86272e-05 2.18793e-06 -1.53673e-05 -4.30216e-05 9.9745e-06 -3.01865e-06 -1.21538e-05 
-2.73651e-05 -1.7887e-05 3.11881e-05 0.000488715 -0.00178421 2.82511e-05 -2.36365e-05 -2.61489e-05 -1.54512e-06 
1.17812e-05 -1.74362e-05 -2.22535e-06 0.000385163 -1.18585e-05 0.000128962 8.57129e-07 -1.58891e-05 0.00188302 
5.45872e-05 1.82913e-05 6.53742e-06 3.26938e-06 4.95437e-06 3.44159e-06 -2.01776e-06 3.33793e-06 -4.63792e-06 
-9.79846e-07 3.75671e-05 -9.60021e-07 -5.35844e-06 -6.48893e-06 -9.57179e-05 -2.25279e-07 -7.23331e-06 2.7359e-06 
-4.70762e-06 8.88267e-06 2.05416e-06 -5.0364e-06 -5.36199e-06 -3.08692e-06 -0.000113303 -9.94301e-05 -0.000193635 
-1.02528e-06 8.00414e-06 4.7133e-06 -2.58839e-06 -1.84641e-05 2.11173e-07 -5.14364e-06 -4.09866e-06 0.00022071 
-4.50644e-06 -7.8992e-05 0.00570021 -4.52389e-06 6.1815e-06 5.53551e-06 5.61831e-07 0.000341268 -3.20551e-06 
-9.00123e-07 -4.92077e-07 -2.61791e-06 3.83099e-07 -0.00162735 -5.08345e-06 -8.32879e-06 -1.21365e-05 7.68868e-05 
8.75003e-05 -0.000128554 2.08336e-06 3.47933e-07 9.99748e-05 -2.17216e-05 1.10944e-06 8.97347e-05 0.00151368 
-0.000112166 0.000226696 5.19918e-05 -2.23047e-06 1.36916e-07 8.66283e-06 8.50823e-05 -3.18026e-06 6.56517e-07 
-2.29446e-06 1.00139e-05 4.40291e-06 1.09328e-05 4.96832e-06 3.63424e-06 -3.23397e-06 5.45342e-05 5.63958e-06 
7.91761e-06 1.03569e-06 2.89827e-07 -7.50014e-07 1.69371e-06 -2.10022e-05 -9.28653e-07 4.84092e-07 -5.80906e-05 
-8.77919e-07 -4.17484e-06 -2.03775e-07 9.12032e-06 3.84322e-06 7.44879e-06 4.71894e-06 6.49697e-07 -2.13601e-06 
1.02679e-07 2.21983e-06 -1.264e-05 6.99794e-06 -3.01817e-06 -2.64948e-05 -7.94766e-06 -1.48478e-05 0.000101894 
3.82823e-05 -0.000146854 -6.59479e-06 6.60181e-06 5.79474e-06 -0.000356545 -3.69475e-06 0.000233418 -0.000176176 
3.15763e-06 3.71529e-05 2.37513e-06 0.00046985 3.05783e-06 7.27172e-06 -0.0014745 1.27438e-05 -3.8735e-05 
2.04028e-05 2.32155e-05 -0.000340812 -2.64779e-05 -0.00168575 2.60624e-05 3.32596e-06 4.89295e-07 2.38102e-07 
2.0553e-06 5.46782e-05 -6.97211e-06 -4.01241e-06 4.7716e-06 -4.19536e-06 -1.90419e-06 -2.22515e-06 -4.5615e-05 
8.64586e-06 -1.69047e-05 -2.22017e-06 2.72791e-06 -4.66657e-07 3.1125e-08 -8.09801e-08 -3.89997e-06 0.00103948 
1.02396e-06 -2.57413e-05 -6.04089e-06 4.00212e-06 2.00966e-07 0.000138786 2.42465e-05 6.06707e-07 0.000635979 
-2.6536e-06 -6.53048e-06 -1.23903e-05 -1.48987e-06 0.000238212 4.77942e-05 -2.72317e-05 -4.57411e-06 -0.000386239 
-8.15117e-05 -4.13795e-06 -1.98542e-05 1.80263e-05 2.27634e-05 -6.31831e-05 -0.000300563 -0.00162493 0.000140789 
-6.64493e-07 -5.35679e-06 2.88372e-06 1.83157e-06 2.35348e-06 1.06761e-05 6.16734e-06 2.44305e-06 4.88896e-06 
-1.39108e-06 -1.22824e-05 -5.88167e-06 -2.0893e-06 3.60824e-07 2.27308e-07 2.92306e-06 4.7693e-06 -3.92175e-06 
-2.92711e-06 -1.97738e-06 -1.67436e-05 -2.6295e-06 -1.21103e-05 2.90927e-06 2.01625e-07 -3.18067e-05 -4.46749e-05 
-0.000495161 -1.40582e-06 -3.89854e-07 -0.00167064 5.56271e-06 -1.71174e-05 1.28948e-05 8.23326e-06 0.00185306 
4.36453e-05 -4.03462e-06 2.74725e-05 -6.80359e-06 4.17216e-07 -1.60614e-05 6.02605e-06 -1.95252e-07 1.05062e-05 
-8.47413e-05 0.000539671 0.000103325 -3.38593e-05 -9.86802e-07 -4.19649e-05 2.21061e-06 2.84203e-06 -4.25762e-05 
-9.76191e-06 0.000238231 -1.23134e-06 -0.0044323 -0.00664589 -6.17409e-05 7.74733e-05 2.86821e-05 -1.39209e-05 
-4.67691e-05 3.50095e-05 0.000286332 -0.00011831 -1.31253e-06 1.56711e-06 2.20378e-06 -3.4974e-06 -4.86692e-06 
-1.29451e-06 -2.72502e-06 1.49764e-06 -1.40801e-05 -2.39831e-05 0.000238829 -1.96436e-05 3.3024e-06 9.43722e-07 
3.05092e-05 2.29105e-06 9.70337e-06 0.00184547 -9.24575e-06 -1.23077e-06 -4.31175e-07 -5.1863e-06 -7.13005e-06 
6.82655e-08 -1.7268e-06 0.0128156 6.57914e-07 -5.77699e-06 -1.03885e-05 7.89783e-07 -5.27116e-06 2.00133e-06 
-8.12327e-06 1.33349e-05 1.29858e-05 0.000723177 0.000105736 0.000224521 2.10292e-05 -6.28218e-05 0.00013955 
0.000174784 4.85855e-06 -8.66209e-06 0.000203989 8.90533e-06 3.3121e-06 7.30029e-06 -2.67806e-06 -1.86387e-06 
4.9509e-07 -7.13456e-06 -5.53937e-05 1.68512e-05 -2.73891e-06 -1.93039e-05 -1.48933e-05 -1.51768e-06 -3.00706e-06 
2.71942e-05 -7.59832e-07 0.000175229 1.26277e-05 -3.45278e-05 6.03975e-05 4.47211e-06 3.86679e-05 4.24226e-05 
-6.71868e-06 1.07042e-05 -2.53004e-05 1.88191e-06 0.000154147 -3.29575e-06 5.27938e-06 2.75789e-06 -5.96678e-06 
-8.78029e-06 -5.62059e-05 1.51604e-08 3.49912e-05 -1.17133e-06 2.18227e-05 2.68178e-06 0.000332471 -0.000714752 
0.0015825 6.47589e-05 5.46196e-05 -9.71932e-05 5.83794e-06 3.87157e-05 2.49137e-05 6.00495e-06 -3.6058e-06 
5.61962e-05 -3.99465e-05 -0.000389085 -9.6066e-05 -3.64553e-05 -1.49171e-05 9.09698e-05 0.000217208 -3.72277e-06 
-1.63369e-06 -3.87324e-06 6.39379e-07 8.12144e-06 -7.00152e-06 -4.83314e-05 -5.15356e-05 -1.34505e-06 -3.20277e-06 
-2.01529e-05 -4.2471e-06 5.00036e-06 8.73736e-08 -3.68151e-05 6.76951e-07 1.71934e-05 4.64481e-05 3.04731e-06 
-7.48056e-05 5.59384e-05 3.79846e-05 1.92194e-05 1.53783e-05 9.2226e-06 2.09094e-05 -1.01639e-06 -2.14828e-05 
-3.01356e-06 -2.43993e-05 -1.49842e-05 7.71305e-06 -4.95474e-05 -8.25205e-06 -8.56823e-06 -4.71558e-05 4.52888e-05 
-0.00243997 8.41868e-06 2.28341e-06 4.71595e-05 -5.67494e-06 5.57054e-07 -3.82272e-05 2.76274e-06 -1.34817e-05 
2.35279e-05 4.17092e-06 -5.51284e-05 -3.17476e-05 4.22423e-05 1.32908e-06 6.01519e-06 1.529e-05 -1.96021e-05 
5.44068e-05 -3.33349e-06 -5.56013e-07 2.02044e-05 -4.76031e-06 -3.1341e-06 1.52588e-05 -5.46471e-06 8.10569e-06 
5.03119e-06 4.96634e-06 9.29903e-06 -2.82765e-05 -1.79524e-05 -1.8912e-05 5.82392e-07 1.58629e-06 2.37433e-05 
-1.51578e-05 -1.94231e-05 3.06855e-05 2.36867e-05 -5.24991e-05 3.55128e-05 7.56371e-05 2.51176e-05 0.000528505 
7.88351e-05 -0.000137876 0.0018521 2.30685e-08 2.25629e-06 -1.4074e-06 -4.85495e-07 1.99119e-05 -1.23551e-05 
1.07286e-06 -2.30677e-06 7.60263e-06 -5.27625e-06 9.43594e-06 3.24683e-05 5.07862e-06 8.88607e-06 3.50267e-06 
-0.00018245 2.43883e-06 2.82043e-06 -2.50962e-06 5.80629e-06 -1.62454e-06 -0.000825212 2.24816e-05 1.26383e-05 
5.85493e-05 5.96256e-05 2.52461e-06 0.000470295 2.44448e-06 -1.13038e-06 7.87396e-06 1.75162e-06 -2.27286e-07 
-6.70022e-06 -6.15341e-05 -1.32236e-05 -4.79463e-06 1.69596e-06 4.58368e-06 7.27469e-05 1.36151e-05 -0.00221347 
0.00223826 0.00247702 0.000269741 -0.000184484 -5.85089e-05 -3.05897e-06 1.36182e-06 0.0014723 2.13174e-06 
-3.37615e-06 -4.53411e-06 3.28112e-06 1.39846e-06 -1.99504e-06 -3.8513e-06 2.27001e-06 6.37041e-06 -9.81998e-06 
7.70014e-06 -0.00012081 -2.06387e-06 2.71613e-06 1.46093e-06 -4.37536e-05 -2.16219e-05 6.70687e-06 -7.49647e-06 
-2.04205e-05 -3.87112e-05 2.06597e-05 -1.11571e-05 -3.71267e-05 -1.34289e-05 1.43223e-05 2.9431e-07 -5.15741e-06 
-4.95049e-06 -4.08091e-05 2.21518e-06 3.22431e-07 -3.04795e-05 -1.0634e-06 1.02941e-05 4.74433e-06 2.69615e-05 
4.8282e-06 -2.57466e-06 -2.3831e-06 0.00224954 7.00189e-07 -2.4849e-05 -2.53871e-05 -0.00545732 4.16589e-05 
-6.1286e-05 -1.90947e-05 6.13076e-06 -5.78602e-06 -5.70456e-06 -5.03687e-06 4.1639e-06 0.000397048 -1.86532e-05 
-7.80083e-05 -3.04378e-06 -6.63305e-06 1.25879e-05 6.06189e-07 8.10473e-06 -2.30864e-06 -1.17452e-06 2.21725e-07 
0.000126921 -1.02401e-05 -0.000118999 -3.74071e-05 5.1295e-06 -3.46501e-06 -1.30642e-05 9.07336e-07 0.000302328 
-1.86517e-07 4.18876e-06 -8.91163e-05 -3.11848e-06 2.39519e-06 1.34277e-05 -0.000493116 6.4672e-06 -0.000329336 
8.16891e-06 6.5081e-06 -7.2488e-05 -5.90051e-05 2.78977e-08 7.38678e-06 2.50279e-05 -1.73244e-05 2.51528e-06 
1.6407e-07 -0.00211024 0.00038406 2.42076e-05 
Stress%20yy%20component 1 12442 double
0.876619 0.848118 0.771189 0.902595 0.333406 0.333347 0.333365 0.333351 0.667648 
0.613868 0.713411 0.620362 0.629354 0.713196 0.625222 0.621588 0.408518 0.35268 
0.326773 0.326922 0.312244 0.306529 0.306865 0.306772 0.307712 0.307751 0.309776 
0.31083 0.312276 0.312198 0.313604 0.31204 0.311099 0.309804 0.307433 0.306686 
0.306473 0.305662 0.307902 0.311044 0.319626 0.337417 0.361085 0.336195 0.325054 
0.325373 0.310379 0.31339 0.313263 0.313832 0.314478 0.313348 0.313253 0.316089 
0.315769 0.314593 0.315521 0.313611 0.314029 0.314055 0.313676 0.311145 0.312878 
0.311588 0.312983 0.315995 0.323066 0.333003 0.386603 0.333364 0.333348 0.333375 
0.333358 0.333355 0.333345 0.333336 0.333323 0.333308 0.333308 0.333292 0.333273 
0.333267 0.333276 0.333271 0.33327 0.333322 0.333292 0.333328 0.333322 0.333346 
0.333355 0.333361 0.333367 0.333342 0.333371 0.333349 0.455583 0.34017 0.31024 
0.294936 0.285545 0.280637 0.278133 0.277434 0.277796 0.279159 0.281278 0.284272 
0.287549 0.292014 0.296699 0.302403 0.307768 0.313167 0.317535 0.321848 0.325041 
0.327397 0.328934 0.329498 0.329254 0.328094 0.326359 0.324203 0.321982 0.319769 
0.318046 0.316739 0.316057 0.316082 0.316728 0.31806 0.319905 0.322111 0.324402 
0.326821 0.3291 0.331 0.332575 0.333436 0.333486 0.333567 0.33336 0.332577 
0.331125 0.329232 0.32673 0.324374 0.322042 0.319781 0.3178 0.316489 0.315748 
0.315766 0.316506 0.317806 0.319663 0.321833 0.324364 0.326493 0.328206 0.329115 
0.329321 0.328546 0.326923 0.324552 0.320915 0.316822 0.31172 0.306646 0.300793 
0.295975 0.290897 0.286786 0.283183 0.280528 0.278304 0.277141 0.277008 0.278014 
0.28056 0.285708 0.294482 0.310367 0.342994 0.445036 0.724555 0.80832 0.870422 
0.90738 1.03779 1.05295 1.00889 1.05279 1.07924 0.903667 0.865172 0.806247 
0.6999 0.626412 0.796421 0.864705 0.906391 0.688582 0.797903 0.883753 0.798077 
0.785991 0.903746 0.863706 0.675177 0.563441 0.333286 0.333369 0.333375 0.333367 
0.333364 0.333351 0.333341 0.333329 0.333315 0.333299 0.333287 0.333313 0.33326 
0.333276 0.333273 0.333276 0.333286 0.333305 0.333313 0.333326 0.333334 0.333345 
0.333353 0.333363 0.333367 0.333379 0.33333 0.412546 0.340122 0.311579 0.295715 
0.28589 0.280991 0.278196 0.277139 0.277378 0.27859 0.280761 0.28367 0.287264 
0.291257 0.295918 0.300921 0.30607 0.310915 0.315875 0.320285 0.323946 0.326726 
0.328506 0.32945 0.329416 0.328594 0.327139 0.324963 0.322775 0.320601 0.31861 
0.317155 0.316302 0.316141 0.316693 0.317978 0.319589 0.32182 0.32408 0.326391 
0.328703 0.330819 0.332339 0.333364 0.333564 0.333623 0.333347 0.332345 0.330721 
0.328845 0.32641 0.324062 0.321759 0.319558 0.317804 0.316534 0.31582 0.315929 
0.316724 0.318204 0.320121 0.322408 0.324814 0.326797 0.328457 0.329267 0.329132 
0.328068 0.326013 0.32287 0.319342 0.315007 0.30973 0.304824 0.299669 0.294287 
0.289588 0.28568 0.282438 0.279814 0.278052 0.277088 0.277047 0.278296 0.281115 
0.286332 0.296253 0.313411 0.344873 0.419354 0.776848 0.804161 0.863379 0.90182 
0.784442 0.796623 0.801941 0.798802 0.787685 0.907404 0.868844 0.802285 0.623297 
0.825961 0.825313 0.879055 0.916666 1.04457 1.0569 1.05801 1.04967 1.03081 
0.899514 0.858275 0.878354 0.668287 0.333139 0.333157 0.333186 0.333191 0.333222 
0.33327 0.333323 0.333382 0.333446 0.333481 0.333539 0.333589 0.333594 0.333587 
0.333572 0.333529 0.333486 0.333422 0.333365 0.333319 0.333259 0.333216 0.333178 
0.333159 0.333163 0.333122 0.333197 0.406076 0.35623 0.328732 0.312342 0.303205 
0.296862 0.293583 0.291859 0.290737 0.291124 0.292303 0.294001 0.296288 0.299378 
0.302902 0.306678 0.310197 0.31374 0.316934 0.319605 0.321723 0.323331 0.324282 
0.324595 0.324259 0.323609 0.322642 0.32132 0.319976 0.318906 0.31808 0.317667 
0.317738 0.318289 0.319255 0.320603 0.322203 0.324067 0.326038 0.327933 0.329579 
0.331071 0.332151 0.332854 0.332068 0.331052 0.329543 0.32776 0.325753 0.323783 
0.321933 0.320172 0.318784 0.317856 0.31739 0.317431 0.317919 0.318792 0.320054 
0.321404 0.322599 0.323557 0.324106 0.324282 0.323871 0.322969 0.32136 0.318831 
0.315884 0.312564 0.308859 0.30489 0.301396 0.297922 0.294988 0.292666 0.290843 
0.289712 0.289441 0.290764 0.29346 0.297588 0.303242 0.313046 0.330812 0.359888 
0.43323 0.374388 0.350606 0.33088 0.317614 0.30248 0.313863 0.313684 0.314784 
0.316218 0.316366 0.31788 0.318366 0.318967 0.319309 0.318696 0.317468 0.315168 
0.314728 0.313031 0.312648 0.312966 0.314916 0.321737 0.335213 0.358656 0.550895 
0.315755 0.256918 0.229241 0.219786 0.217158 0.216851 0.217201 0.216937 0.217331 
0.218674 0.224226 0.234657 0.268025 0.343077 0.545128 0.342166 0.25674 0.227523 
0.218614 0.215894 0.214748 0.214561 0.21427 0.214056 0.214153 0.216171 0.223675 
0.249847 0.319354 0.38085 0.373907 0.400997 0.363532 0.445766 0.332765 0.332725 
0.332792 0.332942 0.33315 0.333383 0.333632 0.333895 0.334107 0.334274 0.334363 
0.334416 0.334346 0.334253 0.334059 0.333846 0.333603 0.333375 0.333148 0.332934 
0.332763 0.332661 0.332624 0.332663 0.280234 0.368974 0.34764 0.332829 0.322419 
0.31507 0.309168 0.305095 0.302806 0.301452 0.300944 0.300998 0.301839 0.303108 
0.305005 0.307174 0.309301 0.311618 0.3139 0.315805 0.317348 0.318626 0.319568 
0.320218 0.320577 0.320498 0.320137 0.319632 0.319062 0.318468 0.318143 0.318068 
0.318325 0.318958 0.319878 0.321102 0.322488 0.324044 0.325683 0.327396 0.328857 
0.330253 0.331468 0.332519 0.31866 0.361377 0.331379 0.330137 0.32869 0.327028 
0.325272 0.323661 0.32201 0.320585 0.319434 0.318544 0.31801 0.317841 0.317983 
0.318362 0.318945 0.319547 0.319924 0.320091 0.320195 0.319938 0.31934 0.318347 
0.316782 0.314815 0.31271 0.310317 0.307842 0.305461 0.30341 0.301661 0.300299 
0.299437 0.299368 0.30044 0.302581 0.305766 0.309893 0.315673 0.323931 0.336364 
0.352649 0.435695 0.345981 0.331579 0.326161 0.323316 0.324014 0.32444 0.325308 
0.326079 0.327273 0.327968 0.328215 0.328533 0.327857 0.327316 0.326131 0.324871 
0.32369 0.323207 0.323413 0.325362 0.330337 0.339708 0.444121 0.30165 0.246881 
0.242397 0.240016 0.238951 0.24042 0.244553 0.251623 0.26571 0.287664 0.31378 
0.332175 0.318918 0.326682 0.310391 0.245304 0.239124 0.236343 0.2344 0.234491 
0.236795 0.242329 0.254057 0.276672 0.301581 0.435274 0.258636 0.280803 0.258095 
0.332468 0.368355 0.354413 0.35258 0.354202 0.303767 0.307609 0.332034 0.33222 
0.332631 0.333151 0.333722 0.334321 0.334828 0.33527 0.335576 0.335776 0.33582 
0.335615 0.335251 0.334752 0.334235 0.333672 0.333153 0.332658 0.332239 0.331952 
0.331827 0.340097 0.333909 0.32745 0.322442 0.31744 0.313765 0.311508 0.309871 
0.308666 0.307883 0.30785 0.308113 0.308695 0.309618 0.310777 0.312002 0.31314 
0.314124 0.314995 0.315693 0.31621 0.316565 0.316825 0.31716 0.317353 0.317303 
0.317138 0.317209 0.317449 0.318002 0.318846 0.319974 0.321214 0.322609 0.324101 
0.325643 0.327216 0.32867 0.329929 0.33108 0.332036 0.262852 0.395816 0.345287 
0.320556 0.329705 0.328355 0.326793 0.325228 0.323689 0.322135 0.320794 0.319457 
0.318437 0.317681 0.317172 0.316858 0.316783 0.316921 0.316922 0.316631 0.316501 
0.316189 0.315925 0.315403 0.314575 0.313513 0.312283 0.311024 0.309726 0.308505 
0.307546 0.306902 0.306578 0.306699 0.307391 0.309481 0.311965 0.315455 0.319148 
0.323358 0.328906 0.335812 0.379358 0.338213 0.382689 0.286043 0.332927 0.330065 
0.328651 0.328685 0.329555 0.330579 0.331691 0.3326 0.333094 0.333342 0.333138 
0.33257 0.331649 0.330413 0.328875 0.327935 0.327559 0.32834 0.331526 0.337234 
0.317567 0.408052 0.259866 0.268081 0.259737 0.263253 0.270033 0.279734 0.291518 
0.306962 0.331403 0.327259 0.316415 0.382744 0.262742 0.252629 0.254123 0.259355 
0.269894 0.284008 0.298048 0.411932 0.320507 0.330938 0.271582 0.256622 0.253729 
0.34353 0.331907 0.340813 0.339777 0.307547 0.368159 0.288224 0.299332 0.34456 
0.343887 0.272928 0.355556 0.311851 0.331493 0.332488 0.33341 0.334524 0.335581 
0.33641 0.337144 0.337682 0.337924 0.337773 0.337129 0.336342 0.335432 0.334398 
0.333428 0.332498 0.331703 0.331154 0.330871 0.336286 0.321137 0.321084 0.276958 
0.311885 0.333977 0.330697 0.327136 0.323392 0.320552 0.318504 0.316163 0.314111 
0.312753 0.311762 0.311135 0.310861 0.310853 0.310971 0.311171 0.311396 0.31167 
0.311922 0.312152 0.312419 0.312924 0.313511 0.314259 0.315188 0.31502 0.315399 
0.316001 0.3168 0.318008 0.319457 0.321042 0.322594 0.324226 0.325867 0.327408 
0.328787 0.330007 0.331111 0.358733 0.275186 0.337859 0.279022 0.328474 0.326976 
0.325332 0.32378 0.322469 0.320543 0.319017 0.317729 0.316541 0.315581 0.314819 
0.314278 0.314409 0.313265 0.312516 0.312443 0.312255 0.311949 0.311859 0.31156 
0.311144 0.310816 0.310532 0.310331 0.310377 0.310761 0.311451 0.312516 0.313821 
0.316142 0.31949 0.322923 0.325725 0.328535 0.331822 0.335026 0.30008 0.378475 
0.333498 0.333554 0.334362 0.335853 0.337535 0.338625 0.339164 0.339715 0.340002 
0.339793 0.338842 0.337344 0.335431 0.333848 0.332851 0.332605 0.333103 0.376753 
0.329747 0.278255 0.283922 0.282709 0.289253 0.296541 0.304753 0.325626 0.304845 
0.269375 0.288994 0.29801 0.311308 0.354787 0.2723 0.373678 0.318942 0.279901 
0.306001 0.336001 0.333495 0.303186 0.31074 0.271477 0.289388 0.355307 0.282433 
0.334757 0.317778 0.326325 0.380893 0.333773 0.269006 0.38675 0.341515 0.332575 
0.334147 0.336427 0.337356 0.338765 0.339847 0.3405 0.340751 0.340246 0.338507 
0.337454 0.335703 0.33425 0.33261 0.331246 0.330235 0.322115 0.293733 0.315793 
0.334884 0.334812 0.333646 0.331496 0.327695 0.326751 0.324144 0.32083 0.317988 
0.31597 0.314156 0.312546 0.311334 0.310395 0.309503 0.308735 0.308439 0.308108 
0.307722 0.307608 0.308121 0.309019 0.310362 0.312068 0.312739 0.313836 0.315034 
0.316534 0.318399 0.320647 0.322777 0.324364 0.326411 0.328003 0.329218 0.330275 
0.314855 0.358284 0.291775 0.343575 0.327145 0.325474 0.323275 0.319067 0.3167 
0.314538 0.313341 0.311551 0.310531 0.308109 0.306294 0.308319 0.307548 0.30767 
0.30887 0.308506 0.309121 0.309799 0.310734 0.311681 0.312977 0.31485 0.31696 
0.319342 0.320611 0.325199 0.329032 0.331029 0.332838 0.334218 0.335721 0.283674 
0.323016 0.329134 0.336922 0.365574 0.337372 0.338911 0.342032 0.344257 0.345677 
0.345369 0.347664 0.347646 0.346519 0.344641 0.341604 0.338908 0.336991 0.335463 
0.296862 0.294864 0.30077 0.30969 0.358151 0.305098 0.3619 0.309162 0.356834 
0.293366 0.310921 0.289284 0.307223 0.33155 0.313573 0.335039 0.324127 0.371951 
0.318408 0.330544 0.30483 0.345659 0.345328 0.304985 0.288726 0.309228 0.282769 
0.329692 0.285932 0.299177 0.287307 0.300027 0.303577 0.36872 0.295009 0.323577 
0.334031 0.339589 0.341952 0.343493 0.343848 0.344867 0.340921 0.336743 0.33359 
0.331156 0.297018 0.313705 0.3369 0.337306 0.334782 0.328663 0.323713 0.321151 
0.314779 0.309961 0.308181 0.30506 0.304309 0.303459 0.302218 0.301517 0.301642 
0.302615 0.30717 0.309212 0.311253 0.312584 0.314784 0.316848 0.326602 0.329671 
0.330517 0.283651 0.300471 0.304821 0.31337 0.316709 0.31966 0.324652 0.327488 
0.33435 0.337609 0.33669 0.337 0.330324 0.33429 0.347914 0.350885 0.354197 
0.356722 0.353958 0.353198 0.347415 0.343049 0.339945 0.337777 0.330989 0.354257 
0.359236 0.332427 0.329144 0.303465 0.338691 0.332605 0.317849 0.312145 0.304464 
0.328955 0.319711 0.353571 0.349465 0.341722 0.302051 0.306888 0.309231 0.311447 
0.344842 0.293552 0.294289 0.346464 0.362561 0.346382 0.297628 0.342915 0.349887 
0.341519 0.293602 0.343997 0.298076 0.348779 0.33273 0.337848 0.295037 0.333113 
0.333081 0.333123 0.333178 0.333216 0.333256 0.333306 0.333364 0.333426 0.333495 
0.333538 0.333563 0.333582 0.333592 0.333578 0.333537 0.333493 0.333438 0.333375 
0.333313 0.333266 0.333204 0.33317 0.333144 0.333133 0.333155 0.333275 0.425221 
0.36099 0.334458 0.31701 0.306507 0.29965 0.295191 0.292531 0.291648 0.291462 
0.292414 0.294224 0.296387 0.299019 0.302288 0.305746 0.309087 0.312415 0.31537 
0.318238 0.320553 0.322193 0.323353 0.323856 0.323808 0.323295 0.322518 0.321421 
0.320309 0.319212 0.318387 0.317938 0.317923 0.318405 0.319314 0.320616 0.322239 
0.324003 0.325909 0.327732 0.329451 0.330944 0.332121 0.332848 0.332063 0.330804 
0.329243 0.327519 0.325523 0.32359 0.321828 0.320181 0.318866 0.31797 0.317491 
0.317582 0.318128 0.319154 0.320373 0.321625 0.322875 0.32376 0.324292 0.324162 
0.323513 0.322166 0.320205 0.317689 0.314722 0.31123 0.307611 0.303851 0.300315 
0.296869 0.294176 0.292013 0.290343 0.289809 0.290065 0.29142 0.293659 0.29785 
0.304022 0.314551 0.331768 0.363232 0.398297 0.329032 0.324789 0.315101 0.31963 
0.322463 0.319605 0.31656 0.316836 0.317906 0.319704 0.319983 0.319496 0.319909 
0.318819 0.319019 0.318405 0.318113 0.317618 0.317222 0.316007 0.317191 0.318883 
0.32205 0.328704 0.343545 0.361843 0.589778 0.337964 0.252116 0.225434 0.218589 
0.216142 0.216222 0.216082 0.216957 0.21799 0.218677 0.221015 0.230658 0.256812 
0.335542 0.611684 0.321608 0.251903 0.229202 0.222503 0.219136 0.217716 0.21702 
0.216598 0.215902 0.216635 0.219258 0.226315 0.254552 0.327786 0.363122 0.353172 
0.3329 0.395994 0.378586 0.332435 0.332547 0.332803 0.332951 0.333126 0.333377 
0.33365 0.33392 0.334152 0.334364 0.334488 0.334481 0.334468 0.334347 0.334141 
0.333913 0.333664 0.333395 0.333145 0.332922 0.332768 0.332631 0.332575 0.332615 
0.338384 0.332048 0.450912 0.352237 0.367222 0.326985 0.318614 0.312518 0.308295 
0.305278 0.303557 0.302346 0.301914 0.302289 0.303344 0.30493 0.306735 0.308745 
0.310738 0.312636 0.314415 0.316021 0.317344 0.318264 0.318857 0.319219 0.319365 
0.319374 0.3191 0.318692 0.318294 0.318117 0.318136 0.318448 0.319087 0.320054 
0.321248 0.322633 0.324217 0.325833 0.327365 0.328914 0.330346 0.331566 0.304346 
0.448262 0.31945 0.331101 0.32989 0.328414 0.326866 0.325182 0.323615 0.322062 
0.320623 0.319492 0.318628 0.318114 0.317975 0.318152 0.31857 0.319096 0.319633 
0.320033 0.320209 0.320102 0.319623 0.318843 0.317602 0.315957 0.313999 0.311844 
0.30944 0.306995 0.304826 0.302864 0.301108 0.300108 0.299623 0.300163 0.301477 
0.30327 0.305945 0.310355 0.315943 0.32498 0.336631 0.354287 0.365516 0.332018 
0.344531 0.325846 0.323379 0.324668 0.324936 0.325723 0.326619 0.327828 0.328195 
0.328485 0.328271 0.328248 0.327679 0.327202 0.326655 0.325506 0.324963 0.325278 
0.326301 0.32961 0.335359 0.346811 0.319275 0.32811 0.451557 0.276715 0.257677 
0.247614 0.241188 0.239076 0.238755 0.24035 0.243505 0.251689 0.26534 0.282977 
0.310705 0.278056 0.259793 0.249866 0.243564 0.240747 0.239435 0.23964 0.242503 
0.247726 0.258352 0.278227 0.303692 0.431484 0.33261 0.304507 0.325465 0.372769 
0.36493 0.328788 0.363769 0.352518 0.401055 0.333127 0.332291 0.333705 0.334324 
0.334926 0.335417 0.335775 0.335968 0.335975 0.335787 0.335405 0.334923 0.334331 
0.333743 0.333168 0.332674 0.332254 0.331948 0.331762 0.331779 0.39268 0.33146 
0.310421 0.390217 0.337375 0.321963 0.317971 0.314564 0.312199 0.3104 0.309139 
0.308498 0.308401 0.308825 0.309571 0.310351 0.311181 0.311929 0.312682 0.313232 
0.313812 0.314374 0.314882 0.315289 0.315657 0.316005 0.31622 0.316414 0.316719 
0.317203 0.317885 0.318862 0.320071 0.321402 0.322883 0.324487 0.326063 0.327445 
0.328807 0.33012 0.331501 0.312838 0.328189 0.326678 0.325279 0.323768 0.322219 
0.320715 0.319518 0.318476 0.31773 0.317238 0.317011 0.316926 0.316894 0.316739 
0.316536 0.316395 0.315941 0.315451 0.314771 0.314007 0.312929 0.311682 0.310523 
0.309149 0.307977 0.307487 0.306989 0.306534 0.306957 0.308588 0.310418 0.312652 
0.315132 0.318999 0.323941 0.330088 0.337399 0.345107 0.329284 0.33191 0.308914 
0.327609 0.32607 0.328901 0.329692 0.3301 0.330523 0.331543 0.332767 0.333353 
0.333349 0.33329 0.333119 0.332561 0.331664 0.330534 0.329697 0.329536 0.330278 
0.332301 0.336028 0.34277 0.301587 0.320801 0.326434 0.423701 0.286398 0.275629 
0.267444 0.261717 0.259237 0.259609 0.262937 0.269584 0.280673 0.293029 0.287536 
0.376654 0.276168 0.268346 0.263766 0.260864 0.260504 0.262783 0.267579 0.27606 
0.287281 0.299465 0.407487 0.33265 0.329537 0.29909 0.330743 0.332093 0.350584 
0.314717 0.344692 0.338859 0.349532 0.340183 0.303967 0.373582 0.333354 0.336659 
0.33736 0.337862 0.338132 0.337973 0.33748 0.336639 0.335687 0.334515 0.333438 
0.332506 0.331733 0.331118 0.330767 0.29987 0.306417 0.32568 0.322504 0.325176 
0.328406 0.319504 0.317028 0.314745 0.313058 0.311861 0.311161 0.310799 0.310451 
0.310135 0.30971 0.309352 0.309285 0.309389 0.309824 0.310456 0.311103 0.311824 
0.312658 0.313659 0.314406 0.315248 0.316489 0.317934 0.319605 0.321387 0.323059 
0.324848 0.326616 0.327963 0.329192 0.330282 0.331287 0.311578 0.361397 0.335217 
0.305792 0.392616 0.3208 0.327063 0.328431 0.324078 0.322282 0.320577 0.319026 
0.317674 0.316519 0.315685 0.315006 0.314364 0.313723 0.313111 0.312548 0.312026 
0.311743 0.311451 0.31127 0.311168 0.31073 0.310507 0.310196 0.309829 0.310523 
0.311152 0.311674 0.312844 0.315237 0.317775 0.320212 0.322589 0.325236 0.329146 
0.332601 0.335874 0.324709 0.334316 0.334509 0.316341 0.325274 0.33564 0.353452 
0.332814 0.336151 0.336129 0.338658 0.340088 0.340132 0.339816 0.339988 0.339849 
0.338741 0.337323 0.335743 0.334646 0.33445 0.334537 0.309157 0.335623 0.315852 
0.31354 0.329665 0.334518 0.375904 0.288745 0.282253 0.278214 0.276974 0.277825 
0.283066 0.290617 0.29963 0.3017 0.28685 0.282027 0.278946 0.278024 0.279461 
0.28224 0.287253 0.293716 0.300734 0.379542 0.392738 0.294021 0.293847 0.3281 
0.369115 0.331689 0.33155 0.332142 0.334672 0.308261 0.332423 0.333747 0.339567 
0.353908 0.343632 0.334812 0.339556 0.340596 0.34068 0.339048 0.338118 0.33596 
0.334092 0.332481 0.331232 0.330215 0.307691 0.337463 0.3287 0.321279 0.317589 
0.315828 0.313502 0.312106 0.310383 0.308533 0.306687 0.305188 0.30365 0.302975 
0.302882 0.303219 0.304403 0.306176 0.307811 0.309498 0.311486 0.312298 0.314699 
0.316425 0.31894 0.321665 0.323969 0.325498 0.327435 0.329051 0.330217 0.330999 
0.324791 0.32796 0.32207 0.32663 0.329198 0.32232 0.319987 0.318186 0.316406 
0.314772 0.313314 0.312166 0.310761 0.309112 0.30787 0.307192 0.306505 0.30616 
0.306991 0.307877 0.308937 0.309061 0.310851 0.313021 0.315173 0.316305 0.319777 
0.323566 0.326712 0.329201 0.330816 0.332003 0.334965 0.312717 0.310672 0.316054 
0.339994 0.341517 0.371407 0.34606 0.347873 0.346222 0.345891 0.347528 0.345873 
0.343577 0.341416 0.338782 0.337438 0.335514 0.372496 0.380135 0.342517 0.308517 
0.314033 0.337803 0.331479 0.296257 0.298611 0.291497 0.295366 0.289298 0.292561 
0.297329 0.303411 0.307981 0.324918 0.318091 0.320052 0.356014 0.293727 0.292883 
0.292698 0.294153 0.296799 0.300429 0.304012 0.341349 0.340017 0.32873 0.3546 
0.324341 0.309318 0.336048 0.333956 0.328178 0.332641 0.329015 0.332247 0.299722 
0.306247 0.346926 0.301485 0.335905 0.304505 0.303853 0.341513 0.36442 0.360152 
0.334646 0.311922 0.338458 0.333445 0.330671 0.341566 0.366342 0.317716 0.322896 
0.327126 0.328882 0.330516 0.3321 0.329067 0.351891 0.322023 0.326307 0.316044 
0.329462 0.315226 0.320991 0.327069 0.332711 0.335548 0.336244 0.336025 0.332625 
0.354805 0.344859 0.340299 0.313903 0.349889 0.344446 0.354249 0.349438 0.346495 
0.341538 0.338907 0.339574 0.365357 0.355249 0.342756 0.338112 0.344887 0.333139 
0.353302 0.3353 0.345723 0.312428 0.318254 0.310286 0.308756 0.300637 0.302138 
0.305438 0.355342 0.3497 0.299451 0.336644 0.347566 0.338485 0.358528 0.333946 
0.344884 0.342568 0.3538 0.339384 0.346188 0.279809 0.865837 0.897656 0.589085 
0.382167 0.347536 0.325819 0.39694 0.341717 0.36132 0.38492 0.387798 0.389865 
0.391806 0.39408 0.396026 0.396451 0.397135 0.396717 0.395131 0.39387 0.39216 
0.390292 0.389718 0.388408 0.388731 0.390869 0.398495 0.413084 0.424933 0.58947 
0.553339 0.353007 0.320658 0.332259 0.396084 0.319034 0.395707 0.40034 0.399144 
0.397726 0.401351 0.401515 0.401146 0.401047 0.39992 0.399462 0.399822 0.401462 
0.397371 0.39917 0.398252 0.398418 0.40216 0.405957 0.415802 0.440472 0.617269 
0.3333 0.333407 0.333405 0.333382 0.333384 0.333376 0.333359 0.333333 0.333311 
0.333293 0.333276 0.333241 0.333174 0.333222 0.333222 0.333229 0.333245 0.333274 
0.333284 0.333317 0.333333 0.333356 0.333379 0.333388 0.333385 0.33338 0.333405 
0.333398 0.597154 0.364235 0.31943 0.300172 0.288845 0.282223 0.278791 0.27732 
0.277249 0.278161 0.279944 0.282509 0.285725 0.289559 0.294172 0.299438 0.305057 
0.31053 0.315465 0.319857 0.323644 0.326434 0.32839 0.329435 0.329589 0.328862 
0.32736 0.325356 0.323109 0.320831 0.318812 0.317261 0.316241 0.315895 0.316245 
0.31725 0.318871 0.320936 0.323222 0.325613 0.328003 0.330122 0.3319 0.333141 
0.333572 0.333434 0.333468 0.333563 0.333079 0.331942 0.330247 0.328022 0.325553 
0.323183 0.320852 0.318692 0.317022 0.31597 0.315588 0.315991 0.317036 0.318645 
0.320697 0.32311 0.325516 0.327495 0.328837 0.329425 0.329155 0.327945 0.325942 
0.322936 0.319031 0.314395 0.309251 0.303721 0.298311 0.293325 0.288697 0.284819 
0.281691 0.279224 0.277492 0.276777 0.277123 0.278758 0.282359 0.288865 0.300143 
0.318861 0.334318 0.573671 0.797801 0.559514 0.760292 0.846347 0.893635 1.16657 
1.1921 1.20321 1.2032 1.19134 0.923774 0.890625 0.857637 1.02042 0.872533 
0.804371 0.821051 0.77534 0.841362 0.892011 0.925226 0.943794 0.953808 0.95413 
0.944347 0.922017 0.889216 0.841526 0.777717 0.751744 0.333276 0.333407 0.333446 
0.333427 0.333401 0.333373 0.333357 0.333332 0.33331 0.333284 0.333238 0.333243 
0.333211 0.33322 0.333209 0.333213 0.333196 0.33325 0.333254 0.333333 0.333346 
0.333356 0.333382 0.333397 0.333411 0.33343 0.333385 0.333358 0.575912 0.336238 
0.319666 0.300845 0.289178 0.282472 0.278919 0.277228 0.276957 0.277744 0.279474 
0.282067 0.28529 0.289132 0.2935 0.298412 0.303524 0.308565 0.313524 0.318286 
0.322355 0.325601 0.327886 0.329245 0.329665 0.329202 0.328031 0.326145 0.323869 
0.32163 0.31949 0.317712 0.316534 0.316007 0.316224 0.317172 0.318668 0.320628 
0.322929 0.325254 0.327605 0.329858 0.331703 0.332991 0.333591 0.33343 0.333442 
0.333592 0.332951 0.331628 0.329863 0.327685 0.32526 0.322904 0.320608 0.318594 
0.317047 0.316006 0.315693 0.316142 0.317301 0.319024 0.321169 0.323585 0.325828 
0.32773 0.328999 0.329416 0.328814 0.327262 0.324658 0.321301 0.317352 0.312501 
0.307362 0.302306 0.296968 0.291886 0.287553 0.283962 0.281 0.278808 0.277436 
0.276915 0.27741 0.279337 0.283161 0.290102 0.30255 0.324671 0.369426 0.581092 
0.805307 0.811697 0.802439 0.840168 0.888506 0.922938 0.94265 0.953005 0.954542 
0.945814 0.924896 0.89398 0.845578 0.793907 0.790736 0.7897 1.0017 0.811711 
0.858677 0.903301 1.17687 1.19882 1.20577 1.20183 1.18654 0.91865 0.885693 
1.05477 0.95198 0.784919 0.333376 0.333362 0.674331 0.657667 0.698109 0.67165 
0.542558 0.532502 0.385231 0.346966 0.337618 0.317911 0.33043 0.322592 0.33096 
0.31365 0.327995 0.295294 0.312465 0.315817 0.325852 0.315217 0.32827 0.316251 
0.325633 0.318033 0.321587 0.320297 0.329653 0.320092 0.327348 0.322896 0.326077 
0.320599 0.328323 0.322341 0.328487 0.319762 0.327205 0.321721 0.324209 0.323134 
0.324862 0.320938 0.318137 0.320076 0.321364 0.320162 0.318799 0.319483 0.317563 
0.322919 0.320099 0.326271 0.320746 0.33822 0.328194 0.346946 0.362014 0.4083 
0.333329 0.333229 0.333203 0.333255 0.333239 0.333211 0.333262 0.333249 0.333211 
0.333268 0.333246 0.33324 0.33328 0.333266 0.333251 0.333306 0.333294 0.333286 
0.33333 0.333326 0.333297 0.333363 0.333359 0.333337 0.333401 0.333384 0.333375 
0.333414 0.333414 0.333423 0.333442 0.333448 0.333457 0.333449 0.33347 0.333495 
0.333471 0.333482 0.333522 0.333468 0.333481 0.333497 0.333458 0.33347 0.33349 
0.33343 0.333438 0.333466 0.333419 0.333425 0.333433 0.333381 0.333394 0.333398 
0.333348 0.333346 0.333353 0.333319 0.333326 0.333356 0.333289 0.333295 0.333311 
0.333253 0.333271 0.333267 0.333243 0.333251 0.333247 0.333228 0.33323 0.33322 
0.333252 0.333226 0.333218 0.333252 0.333216 0.333186 0.333266 0.33329 0.333388 
0.333178 0.420086 0.434653 0.380819 0.353412 0.33491 0.376333 0.321449 0.312774 
0.339109 0.304747 0.299463 0.318843 0.295022 0.292201 0.306699 0.28917 0.28766 
0.299261 0.286095 0.285678 0.294592 0.284903 0.284983 0.29236 0.284449 0.285048 
0.291003 0.285292 0.286301 0.290702 0.286936 0.288386 0.291511 0.289294 0.290901 
0.292957 0.291997 0.29419 0.294982 0.295783 0.298067 0.297681 0.299862 0.302626 
0.301057 0.304569 0.307174 0.304752 0.308969 0.311591 0.308456 0.313399 0.31553 
0.312057 0.317171 0.31927 0.315465 0.320625 0.322192 0.318425 0.323263 0.324435 
0.320836 0.325249 0.326015 0.322709 0.326483 0.326779 0.323987 0.326933 0.326833 
0.324611 0.326655 0.326121 0.324574 0.325771 0.324956 0.324052 0.324457 0.323434 
0.323201 0.322747 0.321688 0.322004 0.320989 0.319941 0.320617 0.319395 0.318566 
0.319361 0.318139 0.317509 0.318391 0.317297 0.316972 0.317738 0.317002 0.317012 
0.317558 0.31729 0.317599 0.317876 0.318081 0.318719 0.318654 0.3194 0.32029 
0.319835 0.321095 0.322165 0.321341 0.323105 0.324221 0.323107 0.325217 0.326396 
0.325053 0.327351 0.32846 0.327016 0.329286 0.330215 0.328817 0.330964 0.33174 
0.330404 0.332279 0.33273 0.331715 0.333089 0.333203 0.332567 0.716384 0.333194 
0.332672 0.33227 0.331747 0.331034 0.331624 0.330275 0.329343 0.330372 0.328449 
0.327219 0.328707 0.32621 0.325051 0.326791 0.324065 0.322919 0.324773 0.321992 
0.320884 0.322835 0.320002 0.319047 0.320988 0.318351 0.317721 0.319397 0.317257 
0.316904 0.318217 0.316672 0.316683 0.317498 0.316707 0.317074 0.317263 0.31732 
0.317962 0.317532 0.318398 0.319295 0.318227 0.319934 0.320994 0.31933 0.32167 
0.322897 0.320687 0.323484 0.324519 0.32202 0.324991 0.325821 0.323149 0.326078 
0.326521 0.323948 0.326605 0.326697 0.324339 0.326483 0.326101 0.32425 0.325637 
0.324842 0.323604 0.324022 0.322853 0.322354 0.321574 0.319781 0.320279 0.318288 
0.316267 0.317517 0.31459 0.312087 0.314356 0.310211 0.307716 0.310807 0.3057 
0.302829 0.30691 0.301085 0.2987 0.303134 0.29695 0.29445 0.299605 0.292985 
0.290943 0.296352 0.289779 0.28799 0.293692 0.287081 0.285747 0.291604 0.285172 
0.284082 0.290102 0.283961 0.283381 0.289356 0.284051 0.284022 0.289794 0.285379 
0.285932 0.291727 0.287984 0.289371 0.295025 0.292179 0.29496 0.299728 0.29982 
0.304627 0.307074 0.313039 0.322434 0.319615 0.336783 0.359276 0.341397 0.377141 
0.428032 0.375349 0.357922 0.356352 0.329426 0.328587 0.321925 0.355033 0.312399 
0.309933 0.338572 0.295283 0.303654 0.335863 0.271123 0.279554 0.315535 0.304803 
0.291674 0.30174 0.293209 0.292688 0.320844 0.291087 0.292374 0.322104 0.291272 
0.292403 0.323403 0.294666 0.294173 0.324313 0.294038 0.294093 0.325147 0.295088 
0.295355 0.326087 0.295748 0.295424 0.326356 0.295857 0.295222 0.326927 0.294177 
0.293524 0.327548 0.293328 0.292463 0.32648 0.292712 0.292699 0.324493 0.29053 
0.291253 0.323097 0.291097 0.29151 0.32178 0.290056 0.291177 0.320254 0.289538 
0.29149 0.32048 0.291455 0.294461 0.321714 0.294489 0.300584 0.325413 0.305294 
0.315143 0.33403 0.325159 0.356684 0.351334 0.592442 0.65149 0.262973 0.306781 
0.221787 0.2299 0.284098 0.207019 0.20233 0.237719 0.205416 0.201077 0.223313 
0.206391 0.203211 0.218836 0.207615 0.205883 0.217866 0.20806 0.207328 0.217824 
0.207226 0.208125 0.217854 0.205905 0.208043 0.217931 0.20376 0.207506 0.218276 
0.203017 0.208273 0.220693 0.206144 0.213243 0.225985 0.234621 0.235533 0.241577 
0.351421 0.297421 0.288522 0.622241 0.612036 0.306138 0.322601 0.22274 0.227975 
0.275102 0.207349 0.201254 0.234393 0.205462 0.200686 0.221375 0.206012 0.203171 
0.217755 0.206534 0.204866 0.216146 0.206821 0.206189 0.215708 0.206161 0.206565 
0.215628 0.204538 0.206004 0.21534 0.201799 0.204533 0.215194 0.199112 0.203611 
0.215908 0.197988 0.204594 0.219679 0.212673 0.215113 0.233448 0.284625 0.264147 
0.27781 0.333276 0.368842 0.46342 0.46035 0.443132 0.450496 0.412184 0.343613 
0.478325 0.473377 0.359447 0.457671 0.456903 0.346841 0.336719 0.398451 0.36994 
0.48524 0.436525 0.332954 0.332963 0.332953 0.332929 0.332768 0.332984 0.333004 
0.332792 0.333061 0.333092 0.332882 0.3332 0.333243 0.333054 0.333346 0.333399 
0.333261 0.333501 0.333564 0.333478 0.333676 0.333721 0.333708 0.333802 0.333857 
0.333927 0.333932 0.333962 0.334116 0.333997 0.334024 0.334225 0.334035 0.334035 
0.334285 0.334001 0.333989 0.334274 0.333944 0.333916 0.3342 0.333836 0.333789 
0.334067 0.333696 0.333644 0.333881 0.333547 0.33348 0.333679 0.333376 0.333333 
0.33348 0.333228 0.333185 0.33328 0.333094 0.333063 0.333079 0.332963 0.33295 
0.332875 0.332905 0.332891 0.33276 0.332873 0.332883 0.332691 0.332898 0.332865 
0.332677 0.257627 0.274143 0.387643 0.365263 0.365058 0.332953 0.353728 0.339247 
0.332274 0.323354 0.338693 0.318283 0.31361 0.326433 0.309842 0.306471 0.317601 
0.303458 0.301694 0.311288 0.299698 0.298745 0.306495 0.297546 0.297003 0.303552 
0.296297 0.296488 0.301735 0.296195 0.296778 0.300864 0.296788 0.297657 0.300672 
0.298051 0.299169 0.301168 0.299762 0.30132 0.30225 0.302269 0.303994 0.303881 
0.305101 0.306922 0.305952 0.308011 0.309715 0.308146 0.310914 0.312613 0.31043 
0.313813 0.315328 0.312777 0.316327 0.317604 0.314901 0.318415 0.319425 0.31666 
0.320103 0.320867 0.318101 0.32137 0.321819 0.319228 0.322176 0.32232 0.320029 
0.322517 0.32235 0.320531 0.322319 0.322009 0.320659 0.321829 0.321374 0.320414 
0.321106 0.320495 0.319949 0.320183 0.31956 0.319376 0.319239 0.318749 0.318737 
0.318564 0.318198 0.318241 0.318129 0.317958 0.318006 0.31806 0.318116 0.318077 
0.318413 0.3187 0.318516 0.319149 0.31963 0.319303 0.320239 0.3209 0.32039 
0.321591 0.322377 0.321721 0.323152 0.324065 0.323223 0.324886 0.325847 0.32485 
0.326712 0.327633 0.326557 0.328383 0.329178 0.328176 0.329894 0.330604 0.329625 
0.331225 0.331765 0.330925 0.33229 0.332676 0.332034 0.315917 0.342946 0.383079 
0.360193 0.35403 0.33171 0.331175 0.330564 0.329804 0.330803 0.329091 0.328194 
0.329456 0.327376 0.326373 0.327894 0.325507 0.32452 0.326169 0.323735 0.322816 
0.324457 0.321997 0.321135 0.3228 0.320431 0.31975 0.321217 0.319185 0.318715 
0.319901 0.318272 0.318057 0.318883 0.317771 0.317816 0.318162 0.317695 0.317972 
0.317815 0.317993 0.318456 0.317816 0.318615 0.319258 0.318097 0.319511 0.320203 
0.318607 0.320455 0.321086 0.319242 0.321213 0.321721 0.319772 0.321756 0.32206 
0.320075 0.322066 0.322183 0.320228 0.322027 0.321836 0.320173 0.321521 0.321074 
0.319755 0.320574 0.319764 0.318969 0.318995 0.317727 0.317689 0.316758 0.315254 
0.315913 0.31426 0.312561 0.31385 0.311411 0.309533 0.311578 0.308349 0.30634 
0.309114 0.305226 0.303401 0.306633 0.302472 0.300664 0.304375 0.299879 0.298327 
0.302435 0.297761 0.296498 0.300857 0.296174 0.295163 0.299704 0.295258 0.294601 
0.2992 0.295239 0.295093 0.299612 0.296234 0.29685 0.301245 0.298477 0.299862 
0.303673 0.302091 0.30413 0.307296 0.307131 0.310083 0.312094 0.314228 0.319524 
0.318873 0.325599 0.335483 0.328699 0.342882 0.359691 0.359758 0.342922 0.332836 
0.344412 0.350707 0.424203 0.497045 0.435768 0.33206 0.323891 0.31794 0.323744 
0.338835 0.3149 0.314674 0.329588 0.319171 0.310566 0.325627 0.316007 0.31746 
0.322239 0.317189 0.317192 0.323044 0.317934 0.317814 0.324093 0.31784 0.319613 
0.324791 0.31971 0.320833 0.325685 0.320103 0.321245 0.326745 0.320826 0.321308 
0.327182 0.321682 0.321609 0.327149 0.321362 0.320439 0.327028 0.32076 0.319569 
0.326607 0.319336 0.318658 0.325828 0.318054 0.316952 0.324734 0.315866 0.316071 
0.323425 0.315878 0.314993 0.322729 0.31512 0.315057 0.322569 0.316505 0.316695 
0.323839 0.320568 0.322222 0.327248 0.327839 0.333812 0.334392 0.347223 0.49172 
0.447815 0.282632 0.307196 0.309921 0.289882 0.233217 0.23414 0.230255 0.230332 
0.243702 0.228884 0.229025 0.240262 0.228304 0.228591 0.238715 0.229362 0.229407 
0.238843 0.23241 0.231988 0.241317 0.239859 0.236747 0.247189 0.253866 0.246874 
0.256368 0.28329 0.264833 0.274202 0.32398 0.29189 0.299329 0.361975 0.338119 
0.33808 0.316908 0.334496 0.343146 0.282151 0.317852 0.231726 0.233161 0.227617 
0.228133 0.241563 0.225899 0.225973 0.237465 0.224715 0.224786 0.235224 0.224625 
0.224709 0.234291 0.226028 0.225927 0.235266 0.230295 0.229194 0.238616 0.241073 
0.237038 0.246064 0.26694 0.25391 0.261214 0.312478 0.280605 0.285327 0.42695 
0.490886 0.443003 0.332831 0.24089 0.246078 0.250965 0.257394 0.273165 0.292893 
0.240383 0.245769 0.265858 0.250067 0.349077 0.267012 0.332795 0.33285 0.332842 
0.332555 0.407693 0.373701 0.357883 0.33224 0.362882 0.336666 0.349496 0.392168 
0.403303 0.331973 0.332652 0.323365 0.353973 0.308645 0.34363 0.35672 0.321105 
0.392017 0.336504 0.290959 0.307195 0.31177 0.303912 0.33239 0.332411 0.332506 
0.332592 0.332124 0.332759 0.332893 0.332441 0.333114 0.333306 0.332906 0.333527 
0.333726 0.333425 0.333956 0.334158 0.333994 0.334357 0.334512 0.334528 0.334678 
0.334828 0.334995 0.334939 0.335023 0.335347 0.335092 0.335145 0.335589 0.335154 
0.335115 0.335701 0.335027 0.334956 0.335628 0.33481 0.334658 0.335351 0.334462 
0.334296 0.334938 0.334096 0.333898 0.334452 0.333676 0.333489 0.333933 0.333284 
0.333118 0.333422 0.332909 0.332764 0.332928 0.332583 0.332485 0.33248 0.332345 
0.332288 0.332114 0.332224 0.332224 0.331914 0.349426 0.344339 0.33663 0.334388 
0.32838 0.336269 0.325481 0.321691 0.330127 0.319233 0.316089 0.324395 0.313611 
0.311561 0.319396 0.309744 0.308523 0.315146 0.307344 0.306683 0.312268 0.305812 
0.305586 0.310374 0.304933 0.304965 0.308979 0.304546 0.305001 0.308004 0.304941 
0.305559 0.307634 0.305689 0.306608 0.307773 0.306898 0.307948 0.308216 0.308412 
0.30945 0.309015 0.310044 0.311169 0.310103 0.311797 0.3129 0.311346 0.313485 
0.314423 0.312546 0.314917 0.315689 0.313621 0.316125 0.316768 0.314568 0.317117 
0.317591 0.315369 0.317847 0.318177 0.315985 0.318345 0.318541 0.316428 0.318656 
0.318642 0.316743 0.318793 0.318638 0.317049 0.318726 0.318506 0.317311 0.318462 
0.318228 0.317355 0.318109 0.317863 0.317208 0.317875 0.317737 0.317143 0.317841 
0.317821 0.317274 0.318092 0.318222 0.317652 0.318643 0.318953 0.318344 0.319526 
0.319961 0.319338 0.320599 0.321174 0.320538 0.321897 0.322551 0.321871 0.32332 
0.324062 0.323336 0.324859 0.325638 0.324875 0.326452 0.327272 0.32645 0.328027 
0.328732 0.327982 0.329385 0.330059 0.329347 0.33064 0.331241 0.330552 0.331739 
0.332239 0.332429 0.331593 0.251901 0.253277 0.41299 0.389446 0.352142 0.346046 
0.342283 0.342289 0.336368 0.319405 0.329906 0.329172 0.328507 0.327677 0.329053 
0.326898 0.326028 0.327598 0.325246 0.324462 0.32603 0.323679 0.322874 0.324456 
0.322081 0.321405 0.322883 0.320712 0.320171 0.321409 0.319476 0.319086 0.320075 
0.318534 0.318291 0.318869 0.317877 0.31783 0.317988 0.317535 0.317641 0.317353 
0.317451 0.31765 0.316953 0.31759 0.317886 0.316774 0.317934 0.318248 0.316824 
0.318213 0.318407 0.316941 0.318244 0.318345 0.3168 0.318251 0.318319 0.316595 
0.318149 0.318022 0.316373 0.317884 0.317584 0.316093 0.317331 0.316824 0.315708 
0.316418 0.315619 0.315035 0.315114 0.314113 0.314092 0.313536 0.312435 0.312925 
0.311881 0.310651 0.311689 0.310038 0.30879 0.310383 0.308218 0.306993 0.309089 
0.306574 0.305521 0.307933 0.305241 0.304328 0.307129 0.304246 0.303451 0.306649 
0.303631 0.303114 0.306477 0.303569 0.303499 0.306826 0.304574 0.305121 0.308163 
0.306404 0.307499 0.310466 0.309235 0.310917 0.313261 0.312634 0.314986 0.316725 
0.317091 0.320117 0.320777 0.322682 0.327245 0.325507 0.330283 0.337127 0.331596 
0.373312 0.401576 0.340571 0.333478 0.402796 0.375659 0.272764 0.28409 0.331173 
0.32875 0.335993 0.327881 0.326296 0.331814 0.325837 0.325482 0.329545 0.325781 
0.325765 0.328759 0.326372 0.326823 0.32924 0.327264 0.327728 0.330177 0.328276 
0.328887 0.331276 0.329219 0.329683 0.332244 0.32982 0.330032 0.33292 0.330139 
0.330164 0.333312 0.330084 0.32977 0.333304 0.329554 0.329171 0.332944 0.328784 
0.328221 0.332189 0.327629 0.327048 0.331141 0.326116 0.325728 0.329726 0.325169 
0.324966 0.328548 0.324736 0.324867 0.327917 0.325019 0.32611 0.328161 0.327687 
0.329993 0.330402 0.332799 0.337003 0.342709 0.334889 0.324154 0.31588 0.425297 
0.431355 0.392115 0.249849 0.250541 0.260461 0.255534 0.257959 0.264018 0.250498 
0.249656 0.258884 0.254717 0.252306 0.260537 0.26184 0.258022 0.26537 0.274012 
0.266503 0.273244 0.291213 0.279507 0.284783 0.310002 0.297558 0.299328 0.348967 
0.331134 0.327533 0.342442 0.314022 0.320298 0.321137 0.309893 0.374543 0.404905 
0.251565 0.254862 0.243786 0.243763 0.245727 0.244627 0.252754 0.251402 0.248564 
0.255825 0.2628 0.256887 0.263325 0.28121 0.269715 0.275352 0.302154 0.286938 
0.290046 0.423514 0.432717 0.405116 0.395 0.319356 0.33637 0.332362 0.331148 
0.330508 0.330345 0.260434 0.265686 0.278112 0.268841 0.246892 0.248314 0.258829 
0.244321 0.245304 0.254535 0.252602 0.3026 0.349042 0.344998 0.340315 0.339855 
0.332243 0.332296 0.344029 0.331624 0.330819 0.341268 0.312402 0.313674 0.384834 
0.369451 0.332188 0.331606 0.33903 0.359565 0.273566 0.286159 0.294843 0.362128 
0.292755 0.289957 0.393442 0.331883 0.312945 0.299947 0.305115 0.325033 0.354554 
0.339906 0.355261 0.336771 0.345135 0.332032 0.313692 0.331444 0.362483 0.260008 
0.266899 0.279031 0.266601 0.350706 0.364029 0.314013 0.309584 0.30391 0.331849 
0.332099 0.332512 0.332863 0.33199 0.333227 0.333626 0.332956 0.334088 0.334517 
0.333966 0.334892 0.335252 0.335038 0.335593 0.335904 0.335938 0.336191 0.336428 
0.336714 0.336627 0.336791 0.337332 0.336874 0.336923 0.337698 0.336861 0.336707 
0.337769 0.336447 0.336179 0.337379 0.33587 0.335517 0.336682 0.335168 0.334797 
0.33585 0.334392 0.333981 0.334894 0.3336 0.33324 0.333918 0.332851 0.332534 
0.332982 0.332191 0.33194 0.332126 0.331696 0.331544 0.331448 0.331408 0.33135 
0.331026 0.338802 0.335195 0.330668 0.320376 0.320346 0.330612 0.268814 0.26909 
0.310011 0.315928 0.316346 0.334318 0.330587 0.334965 0.329611 0.326704 0.332132 
0.325087 0.322444 0.32871 0.320702 0.318737 0.325094 0.317366 0.316219 0.321729 
0.315157 0.314337 0.319313 0.313136 0.312536 0.3171 0.311484 0.3111 0.314902 
0.310394 0.310389 0.313216 0.309884 0.30999 0.312049 0.309701 0.30993 0.311248 
0.309854 0.31027 0.310801 0.310295 0.31082 0.310704 0.310921 0.31149 0.310787 
0.311611 0.312166 0.310953 0.312264 0.312773 0.311166 0.312891 0.313355 0.311415 
0.313448 0.313835 0.311691 0.313911 0.314213 0.311943 0.314308 0.314517 0.312206 
0.314731 0.314897 0.312608 0.315144 0.31536 0.313181 0.315689 0.315837 0.313888 
0.316261 0.316287 0.314771 0.31615 0.316145 0.31508 0.316281 0.316368 0.315199 
0.316631 0.316784 0.315676 0.317148 0.317457 0.316338 0.318028 0.318459 0.317324 
0.319194 0.319721 0.318675 0.320556 0.32112 0.320225 0.321934 0.322575 0.321816 
0.323444 0.32412 0.323434 0.324999 0.325706 0.325079 0.326528 0.327263 0.326687 
0.327999 0.328686 0.32815 0.329338 0.329932 0.329446 0.330514 0.331074 0.330599 
0.353368 0.368202 0.338922 0.266273 0.269617 0.336676 0.341114 0.337954 0.269938 
0.271796 0.277258 0.3284 0.327625 0.326853 0.326109 0.327769 0.325241 0.324522 
0.32619 0.323703 0.322966 0.324571 0.322291 0.321663 0.323151 0.320631 0.320057 
0.321525 0.31926 0.318769 0.319727 0.318082 0.317756 0.318361 0.317111 0.316899 
0.317105 0.316393 0.316241 0.316018 0.315864 0.31581 0.315147 0.31556 0.315597 
0.314528 0.31568 0.315662 0.314294 0.315106 0.314944 0.313877 0.31454 0.314506 
0.312854 0.314501 0.314309 0.312406 0.314227 0.314104 0.312247 0.313946 0.313676 
0.312062 0.313645 0.313216 0.311878 0.313071 0.31254 0.311677 0.312344 0.311701 
0.311304 0.311585 0.31097 0.310909 0.310799 0.310205 0.310633 0.30999 0.309509 
0.310406 0.3095 0.309058 0.31023 0.309214 0.30893 0.310418 0.309303 0.309102 
0.310958 0.309711 0.309667 0.311869 0.310385 0.310701 0.31299 0.311898 0.312929 
0.314741 0.314629 0.316012 0.317587 0.317632 0.319505 0.320937 0.320746 0.322824 
0.323973 0.324044 0.326372 0.326829 0.327829 0.330965 0.329821 0.332076 0.336118 
0.335932 0.333053 0.292895 0.299608 0.39227 0.383886 0.331655 0.330979 0.331147 
0.331059 0.33392 0.33151 0.331948 0.334219 0.332678 0.333215 0.335289 0.333971 
0.334606 0.336881 0.335069 0.33565 0.338281 0.335854 0.336158 0.339006 0.336381 
0.33652 0.339562 0.336646 0.336532 0.339989 0.336473 0.33613 0.340024 0.335714 
0.335185 0.339473 0.334486 0.33382 0.338278 0.332896 0.332121 0.336561 0.331333 
0.33093 0.334864 0.330318 0.330306 0.333566 0.330001 0.330481 0.332902 0.3307 
0.332169 0.333045 0.381719 0.392016 0.376685 0.329722 0.329038 0.329127 0.33136 
0.271487 0.269462 0.276702 0.273792 0.276643 0.280719 0.276964 0.273507 0.279899 
0.285278 0.280072 0.285217 0.295169 0.288673 0.291868 0.305887 0.298298 0.308598 
0.325789 0.334876 0.30585 0.301015 0.262116 0.261396 0.287029 0.27952 0.298535 
0.290518 0.293364 0.301506 0.315265 0.309507 0.364027 0.350495 0.366036 0.266292 
0.263607 0.270175 0.381679 0.373652 0.324454 0.318086 0.315708 0.27555 0.269944 
0.275418 0.284035 0.302695 0.306475 0.303248 0.330908 0.335314 0.332067 0.338682 
0.346306 0.331672 0.331282 0.336192 0.316 0.32765 0.334595 0.330273 0.295375 
0.303842 0.306869 0.307016 0.312682 0.331547 0.264537 0.272641 0.262908 0.280912 
0.287744 0.294781 0.364973 0.358956 0.344817 0.278015 0.2729 0.278585 0.33221 
0.334538 0.333674 0.351781 0.366185 0.334105 0.330314 0.308993 0.308001 0.300161 
0.321936 0.322189 0.317007 0.336744 0.334962 0.328123 0.323573 0.331595 0.368971 
0.384029 0.334726 0.335527 0.3279 0.268532 0.261122 0.261779 0.396829 0.394324 
0.380596 0.396468 0.344139 0.346256 0.338638 0.330444 0.332468 0.333044 0.333706 
0.334416 0.333362 0.335343 0.336073 0.335335 0.336445 0.33698 0.336919 0.337532 
0.338041 0.338055 0.338464 0.338852 0.339231 0.3391 0.339263 0.340093 0.339361 
0.339223 0.340535 0.339095 0.338611 0.34048 0.337902 0.337382 0.339392 0.33698 
0.336362 0.337935 0.33565 0.334978 0.336607 0.334418 0.33377 0.334939 0.333072 
0.332493 0.333425 0.331899 0.331429 0.331947 0.330976 0.330682 0.330763 0.321357 
0.327756 0.291848 0.298093 0.283453 0.313915 0.318249 0.318698 0.335529 0.334138 
0.334332 0.334556 0.332658 0.334867 0.332442 0.330348 0.334148 0.329586 0.327532 
0.332493 0.325712 0.32421 0.329616 0.323788 0.322721 0.327169 0.321429 0.320246 
0.325361 0.318576 0.31755 0.322382 0.316118 0.315456 0.319279 0.314436 0.313924 
0.31685 0.313041 0.312675 0.314905 0.311945 0.311721 0.313199 0.311219 0.311107 
0.311816 0.310723 0.310693 0.310798 0.310314 0.31038 0.309876 0.310017 0.310104 
0.309032 0.309981 0.3101 0.308363 0.309946 0.310077 0.308036 0.309884 0.310001 
0.307671 0.309957 0.31008 0.307408 0.310345 0.31057 0.307609 0.311009 0.311284 
0.308367 0.311926 0.312311 0.309571 0.313098 0.313631 0.311181 0.313624 0.313876 
0.314155 0.31233 0.314609 0.314968 0.313258 0.31552 0.315963 0.314383 0.316667 
0.317292 0.315738 0.318206 0.31891 0.317386 0.320061 0.320766 0.319488 0.321914 
0.322616 0.321779 0.323448 0.324221 0.323648 0.325303 0.32606 0.32545 0.326912 
0.327638 0.327303 0.328296 0.328954 0.328692 0.329521 0.330107 0.317694 0.313171 
0.36444 0.358023 0.284573 0.286059 0.340025 0.347691 0.326996 0.326233 0.325376 
0.324588 0.326373 0.323897 0.800315 0.836892 0.322854 0.321893 0.324452 0.319805 
0.319045 0.321109 0.318396 0.865702 0.886925 0.317158 0.316618 0.31781 0.315545 
0.315033 0.315681 0.314497 0.314094 0.313883 0.313256 0.312895 0.312479 0.312548 
0.312468 0.311005 0.311847 0.904425 0.921116 0.310688 0.310365 0.309332 0.309403 
0.309442 0.306999 0.310504 0.310359 0.30723 0.309973 0.30982 0.307759 0.309891 
0.309851 0.307489 0.310406 0.310301 0.308235 0.310129 0.309902 0.308595 0.310234 
0.31002 0.308635 0.310338 0.310266 0.309343 0.310634 0.310636 0.310214 0.310991 
0.311166 0.311137 0.311769 0.311997 0.312115 0.312914 0.313232 0.313697 0.314286 
0.314789 0.315867 0.316037 0.316601 0.318082 0.317296 0.318463 0.319905 0.320758 
0.322511 0.322733 0.324363 0.3262 0.326974 0.327037 0.328662 0.329925 0.329366 
0.331021 0.331785 0.331604 0.333366 0.333378 0.32999 0.329338 0.334433 0.334535 
0.278324 0.276895 0.328316 0.321867 0.318741 0.328771 0.32806 0.328182 0.345996 
0.339579 0.37257 0.372913 0.335293 0.335841 0.336874 0.336511 0.3373 0.338328 
0.33883 0.339852 0.34059 0.340682 0.341425 0.343517 0.342023 0.342452 0.3451 
0.342202 0.342509 0.345629 0.343615 0.343772 0.346622 0.343843 0.343621 0.347756 
0.343147 0.34247 0.347212 0.34173 0.34086 0.345868 0.339468 0.338466 0.343429 
0.337156 0.33633 0.340475 0.335391 0.334898 0.338218 0.334069 0.334039 0.336462 
0.333517 0.293579 0.290213 0.287278 0.289965 0.292737 0.285742 0.279102 0.299093 
0.295215 0.298249 0.310464 0.307279 0.358989 0.366443 0.361513 0.30493 0.300818 
0.302744 0.307407 0.361516 0.371313 0.334885 0.309878 0.306985 0.366026 0.357689 
0.34881 0.360931 0.288609 0.286085 0.294744 0.30857 0.311229 0.28422 0.283561 
0.289945 0.2909 0.30357 0.306436 0.331481 0.332064 0.332071 0.383283 0.315858 
0.312865 0.311772 0.334668 0.334158 0.335674 0.335485 0.32462 0.329976 0.3768 
0.380393 0.322091 0.321493 0.318034 0.326374 0.33116 0.299273 0.304109 0.313254 
0.314243 0.3298 0.311926 0.330769 0.269532 0.352274 0.349092 0.931048 0.79316 
0.341741 0.350931 0.352838 0.351237 0.334435 0.333425 0.307217 0.304606 0.301432 
0.329683 0.335329 0.282156 0.286069 0.306125 0.309827 0.306758 0.282574 0.276419 
0.276334 0.317538 0.321084 0.342458 0.309198 0.366403 0.330741 0.326759 0.27922 
0.28426 0.283111 0.296506 0.291942 0.294621 0.337334 0.332597 0.279651 0.281671 
0.287445 0.335398 0.330939 0.287513 0.29901 0.294456 0.302676 0.301914 0.305398 
0.330905 0.372496 0.363768 0.37557 0.29223 0.287694 0.297523 0.370626 0.326545 
0.322981 0.322603 0.326839 0.334156 0.335392 0.33839 0.339306 0.340236 0.341 
0.340765 0.34162 0.342053 0.342631 0.34225 0.342321 0.343575 0.342948 0.342393 
0.344614 0.340759 0.339621 0.34317 0.33895 0.944978 0.801147 0.337265 0.336207 
0.33904 0.335328 0.949864 0.800298 0.334015 0.333 0.335175 0.331954 0.331133 
0.332321 0.330217 0.289682 0.295624 0.301075 0.292833 0.312818 0.315058 0.312381 
0.31538 0.311322 0.334999 0.336032 0.335127 0.336171 0.335522 0.334347 0.337029 
0.333123 0.331259 0.336242 0.330786 0.943847 0.791936 0.32641 0.324748 0.322266 
0.320836 0.326139 0.319583 0.318594 0.322534 0.314515 0.3137 0.310773 0.310195 
0.309446 0.308902 0.308886 0.307525 0.306936 0.30675 0.306839 0.306548 0.304375 
0.306181 0.305975 0.303657 0.305304 0.30512 0.302521 0.304782 0.30471 0.301502 
0.304829 0.305044 0.301188 0.305494 0.305894 0.30173 0.308782 0.309633 0.310567 
0.311037 0.308131 0.311958 0.312587 0.310246 0.313189 0.313853 0.311849 0.314876 
0.315687 0.313706 0.316705 0.31765 0.315767 0.32203 0.323064 0.325385 0.326439 
0.328024 0.328731 0.328437 0.329188 0.329803 0.33019 0.276625 0.278078 0.284802 
0.282531 0.317598 0.320515 0.335024 0.307146 0.308849 0.304158 0.304167 0.306725 
0.307169 0.312576 0.313381 0.31479 0.315872 0.314795 0.31727 0.318274 0.318362 
0.320777 0.322042 0.322097 0.32329 0.323971 0.326252 0.326374 0.929699 0.774296 
0.329845 0.331712 0.330967 0.333225 0.334426 0.336098 0.333971 0.334968 0.336953 
0.334924 0.335713 0.336892 0.327823 0.332546 0.337359 0.336898 0.332542 0.340377 
0.341887 0.344663 0.346114 0.345219 0.347324 0.348379 0.349204 0.349815 0.349665 
0.352976 0.351035 0.903269 0.886549 0.352056 0.352072 0.355463 0.350866 0.35012 
0.355537 0.34991 0.348675 0.353628 0.346026 0.344532 0.350487 0.342255 0.340859 
0.345255 0.339427 0.338389 0.341843 0.336841 0.328057 0.327194 0.334847 0.33964 
0.330075 0.330603 0.331289 0.330776 0.357399 0.3598 0.296873 0.313465 0.310891 
0.330731 0.325486 0.360927 0.366353 0.331814 0.303158 0.301028 0.332486 0.333279 
0.333166 0.33173 0.330153 0.336225 0.866217 0.839403 0.301099 0.32768 0.32543 
0.326269 0.329381 0.320932 0.318089 0.300423 0.298531 0.337106 0.338065 0.337427 
0.339292 0.336483 0.303836 0.315929 0.328393 0.330785 0.329766 0.316937 0.316016 
0.312456 0.311767 0.307435 0.305658 0.306846 0.328967 0.803194 0.754646 0.330121 
0.320092 0.321695 0.321242 0.318958 0.353911 0.359422 0.35602 0.355411 0.3541 
0.348181 0.352382 0.347335 0.303683 0.305928 0.330264 0.308803 0.307107 0.757517 
0.772502 0.339307 0.653603 0.668999 0.316329 0.312116 0.311081 0.309411 0.302897 
0.305239 0.30492 0.305674 0.308234 0.308488 0.303972 0.306326 0.306252 0.309584 
0.310116 0.307921 0.311014 0.311675 0.312405 0.310252 0.322495 0.325666 0.344134 
0.339472 0.349859 0.33865 0.333814 0.288902 0.28849 0.317558 0.307493 0.309691 
0.290704 0.333613 0.296995 0.298859 0.303209 0.306197 0.290288 0.289323 0.293546 
0.294269 0.339441 0.313223 0.316252 0.310784 0.30085 0.296448 0.346216 0.351517 
0.309364 0.307299 0.315502 0.305907 0.303709 0.312316 0.31068 0.360894 0.366961 
0.350323 0.294915 0.302464 0.299893 0.340321 0.335344 0.366184 0.301156 0.304623 
0.360708 0.356865 0.342493 0.304071 0.300701 0.301668 0.297104 0.31358 0.344049 
0.345148 0.293088 0.296913 0.310868 0.32886 0.32722 0.33863 0.340191 0.338776 
0.341184 0.342588 0.346325 0.345399 0.319579 0.322744 0.324597 0.301844 0.30123 
0.297795 0.297882 0.298277 0.298696 0.318163 0.331537 0.299046 0.331671 0.334162 
0.331795 0.310203 0.343337 0.305607 0.339631 0.341571 0.339926 0.343354 0.332066 
0.339465 0.306441 0.3381 0.336879 0.359828 0.358124 0.343227 0.292745 0.314386 
0.316515 0.297845 0.293097 0.29817 0.34158 0.343224 0.345101 0.341277 0.314665 
0.346272 0.348952 0.297557 0.301459 0.30108 0.315937 0.356358 0.357826 0.346073 
0.346033 0.337184 0.333242 0.331753 0.330923 0.312852 0.288453 0.329409 0.326824 
0.292846 0.288976 0.333223 0.334549 0.341046 0.33507 0.33502 0.33473 0.299437 
0.298917 0.293765 0.296163 0.347442 0.340087 0.351708 0.346791 0.349124 0.343088 
0.289465 0.291399 0.354283 0.336808 0.354699 0.351571 0.362212 0.341189 0.332256 
0.33134 0.345198 0.34893 0.348326 0.344853 0.350039 0.345316 0.349662 0.351507 
0.333357 0.333196 0.333249 0.3332 0.333229 0.333175 0.33321 0.333228 0.333155 
0.333236 0.333254 0.333206 0.33326 0.333276 0.333241 0.333286 0.333295 0.333269 
0.33331 0.333324 0.333308 0.333346 0.333356 0.333314 0.333383 0.333384 0.333352 
0.333432 0.333431 0.333378 0.333459 0.333466 0.333427 0.333453 0.333467 0.333445 
0.333476 0.333482 0.333448 0.333481 0.333489 0.333453 0.333473 0.333479 0.333461 
0.333442 0.333453 0.333451 0.333425 0.333418 0.333421 0.333392 0.333394 0.333394 
0.333347 0.333347 0.333365 0.333321 0.333315 0.333348 0.333296 0.333287 0.33332 
0.333269 0.333257 0.333273 0.333244 0.333238 0.333234 0.333226 0.333226 0.333224 
0.33324 0.333227 0.333213 0.333256 0.333243 0.333192 0.333301 0.333308 0.33325 
0.333397 0.365671 0.390567 0.455654 0.340193 0.363382 0.373485 0.316738 0.326341 
0.342591 0.302297 0.307881 0.322898 0.294299 0.297211 0.310069 0.289255 0.29094 
0.301814 0.286396 0.287123 0.296635 0.285117 0.285037 0.293201 0.285271 0.284714 
0.29163 0.286238 0.28519 0.291128 0.288154 0.286712 0.291591 0.290827 0.289075 
0.29303 0.293941 0.291898 0.295041 0.29754 0.295255 0.297508 0.301625 0.299165 
0.300502 0.30589 0.303373 0.303911 0.30994 0.307573 0.307368 0.31404 0.311621 
0.310765 0.317683 0.315524 0.313964 0.320941 0.319142 0.31693 0.323482 0.322111 
0.319565 0.325188 0.324304 0.321576 0.326257 0.325772 0.322987 0.326506 0.326501 
0.323816 0.32609 0.326465 0.324032 0.325135 0.325815 0.323726 0.323721 0.324739 
0.323043 0.322118 0.323151 0.322043 0.320509 0.321543 0.32088 0.318986 0.319936 
0.319715 0.317877 0.318568 0.318688 0.317236 0.317642 0.318013 0.317148 0.317225 
0.317763 0.317658 0.317396 0.317988 0.318731 0.318115 0.318701 0.320171 0.319397 
0.319831 0.32207 0.320989 0.32133 0.324055 0.322957 0.323069 0.326139 0.325016 
0.324947 0.328179 0.327059 0.326845 0.330072 0.32905 0.328653 0.331564 0.330822 
0.330285 0.33267 0.332145 0.331617 0.409201 0.333025 0.333203 0.333127 0.33215 
0.332646 0.332538 0.330722 0.331523 0.331511 0.329012 0.329939 0.330092 0.326959 
0.328157 0.328427 0.324802 0.325959 0.326542 0.322704 0.323834 0.324542 0.320753 
0.321826 0.322659 0.319073 0.319924 0.320924 0.317797 0.31841 0.319395 0.316982 
0.317339 0.318264 0.316811 0.316753 0.317558 0.317243 0.316847 0.317381 0.318225 
0.3175 0.317714 0.319682 0.318747 0.318528 0.321395 0.320285 0.319689 0.323183 
0.322013 0.32099 0.324773 0.32381 0.322292 0.326019 0.325215 0.323406 0.326673 
0.326283 0.324152 0.326543 0.326626 0.324388 0.325676 0.3262 0.324019 0.323984 
0.324995 0.323028 0.321448 0.322988 0.321374 0.318428 0.320167 0.319126 0.314805 
0.316938 0.316353 0.310456 0.313041 0.313092 0.306216 0.308635 0.309491 0.301779 
0.304331 0.30575 0.297358 0.300009 0.302052 0.293291 0.295607 0.298504 0.290004 
0.291942 0.295408 0.287305 0.288934 0.292958 0.285178 0.286483 0.291017 0.284048 
0.284929 0.289849 0.283726 0.284191 0.289674 0.284433 0.284428 0.290403 0.286262 
0.2856 0.292131 0.289918 0.288376 0.295148 0.295885 0.293035 0.300067 0.306718 
0.301219 0.307924 0.3258 0.315675 0.321215 0.359106 0.342219 0.341894 0.41829 
0.380073 0.377552 0.400138 0.330951 0.363186 0.305056 0.324467 0.317017 0.277045 
0.303336 0.319869 0.298486 0.309218 0.326007 0.300938 0.308151 0.32544 0.293087 
0.285926 0.32341 0.291359 0.29396 0.32165 0.293272 0.292474 0.324065 0.29347 
0.292777 0.324728 0.291697 0.293199 0.325613 0.294326 0.294102 0.328102 0.294963 
0.2955 0.327491 0.294013 0.294946 0.327196 0.29441 0.29556 0.327413 0.294085 
0.294962 0.326892 0.294003 0.295341 0.326427 0.293012 0.294198 0.325631 0.29337 
0.292159 0.325837 0.290967 0.291053 0.324322 0.292381 0.290735 0.324121 0.293194 
0.290584 0.323189 0.294925 0.291943 0.324437 0.300106 0.294673 0.326561 0.307058 
0.299714 0.330715 0.321045 0.308148 0.340649 0.356324 0.332608 0.360274 0.392148 
0.617986 0.634177 0.331928 0.274052 0.220139 0.22063 0.265621 0.196983 0.206711 
0.231909 0.199991 0.205148 0.220946 0.20249 0.205893 0.217398 0.205062 0.207113 
0.216705 0.206685 0.207521 0.217118 0.207607 0.207307 0.217481 0.208018 0.206436 
0.218189 0.207144 0.204056 0.218998 0.206795 0.202094 0.219894 0.208808 0.201847 
0.225129 0.220345 0.215423 0.23989 0.271298 0.308586 0.28838 0.598503 0.683421 
0.279117 0.264744 0.217116 0.217993 0.274989 0.203128 0.208746 0.237186 0.20331 
0.207539 0.22522 0.20516 0.208077 0.22097 0.206645 0.208288 0.21912 0.207474 
0.207892 0.218183 0.207545 0.206892 0.21761 0.20671 0.204953 0.216953 0.205575 
0.202106 0.216515 0.204826 0.199466 0.217486 0.207213 0.199412 0.2202 0.22336 
0.221173 0.232372 0.309219 0.312168 0.268904 0.333284 0.41152 0.337063 0.442696 
0.432235 0.333237 0.333062 0.372002 0.351865 0.452338 0.471355 0.325185 0.482264 
0.346578 0.46357 0.469145 0.332948 0.341061 0.332612 0.332776 0.332754 0.332781 
0.332874 0.332719 0.332531 0.333008 0.332972 0.333106 0.333079 0.332911 0.333214 
0.333187 0.333062 0.333393 0.333334 0.333251 0.333571 0.333499 0.333486 0.333743 
0.333673 0.33374 0.333899 0.333835 0.333963 0.334014 0.333974 0.334183 0.334079 
0.334042 0.334329 0.334083 0.334067 0.334378 0.334056 0.334063 0.334363 0.333961 
0.334004 0.334309 0.333835 0.333873 0.33416 0.333678 0.333742 0.333965 0.333515 
0.333573 0.333745 0.333338 0.333399 0.333526 0.333186 0.333236 0.333285 0.333043 
0.333091 0.333061 0.332962 0.332961 0.33288 0.332871 0.332883 0.332731 0.33285 
0.332832 0.33265 0.332882 0.332855 0.332634 0.32886 0.338505 0.332028 0.332432 
0.480441 0.428533 0.344893 0.360511 0.343129 0.360981 0.379173 0.363583 0.356788 
0.317416 0.323293 0.330882 0.30966 0.313556 0.321785 0.304255 0.306749 0.314727 
0.300718 0.302249 0.309731 0.298696 0.299191 0.306198 0.297716 0.297862 0.303991 
0.297558 0.297118 0.302591 0.298199 0.29732 0.301815 0.299435 0.298354 0.30183 
0.301239 0.299948 0.302591 0.303644 0.302038 0.303961 0.306225 0.304545 0.305706 
0.30887 0.307245 0.307667 0.311492 0.309888 0.30971 0.313907 0.31247 0.311682 
0.316215 0.314826 0.313549 0.318172 0.317035 0.315269 0.319652 0.318841 0.316755 
0.320693 0.32011 0.31789 0.32125 0.320991 0.318653 0.321435 0.321433 0.319134 
0.321286 0.321499 0.319385 0.320926 0.32127 0.319451 0.320274 0.320763 0.31929 
0.319549 0.320043 0.318913 0.318839 0.319313 0.318471 0.318346 0.318712 0.318155 
0.318132 0.318335 0.318042 0.318279 0.318287 0.31819 0.318832 0.318605 0.318662 
0.31975 0.319329 0.319476 0.320975 0.320372 0.320576 0.322456 0.321696 0.321889 
0.324112 0.323276 0.323403 0.325852 0.324944 0.32503 0.327511 0.326637 0.32662 
0.329134 0.328304 0.328175 0.330606 0.329859 0.329676 0.331827 0.331219 0.331007 
0.313036 0.280689 0.463537 0.491805 0.334167 0.319128 0.330907 0.331552 0.331623 
0.329532 0.330318 0.330542 0.327938 0.328812 0.329192 0.326188 0.327186 0.327662 
0.324396 0.325358 0.32602 0.322764 0.323626 0.324381 0.321191 0.321971 0.322805 
0.319832 0.320438 0.321278 0.318814 0.319235 0.319972 0.318153 0.318372 0.318933 
0.31794 0.317866 0.318253 0.318143 0.317833 0.317935 0.318716 0.318193 0.317975 
0.319512 0.318881 0.318301 0.320379 0.319726 0.318815 0.32124 0.320595 0.319388 
0.321864 0.321394 0.319886 0.322202 0.32192 0.3202 0.322066 0.322128 0.320253 
0.321493 0.321813 0.319977 0.320427 0.321101 0.319356 0.318814 0.31981 0.318353 
0.316739 0.318013 0.316901 0.314274 0.315801 0.315087 0.311476 0.31326 0.31301 
0.308481 0.310331 0.310691 0.305404 0.307329 0.308225 0.302562 0.304391 0.305837 
0.299883 0.301654 0.303745 0.297661 0.299102 0.301867 0.296094 0.297278 0.300449 
0.295046 0.29597 0.299669 0.295117 0.295424 0.299616 0.295891 0.295848 0.300523 
0.297561 0.296925 0.301954 0.300115 0.299054 0.304195 0.304558 0.302406 0.307518 
0.310794 0.307416 0.31229 0.321151 0.315232 0.319237 0.336278 0.327038 0.329355 
0.360868 0.343626 0.343079 0.38714 0.363823 0.358133 0.35602 0.319045 0.324406 
0.329431 0.337463 0.337836 0.332266 0.346861 0.310492 0.319967 0.328751 0.315625 
0.306959 0.325398 0.319492 0.320202 0.321839 0.319251 0.318405 0.323669 0.319298 
0.318911 0.32406 0.320352 0.319587 0.324689 0.321858 0.32067 0.325864 0.322305 
0.320404 0.326451 0.3221 0.321056 0.327189 0.321789 0.320681 0.327167 0.321827 
0.320959 0.327222 0.320794 0.320944 0.326839 0.320001 0.321064 0.32625 0.319775 
0.320106 0.325456 0.318402 0.318985 0.32467 0.317505 0.318396 0.323909 0.317923 
0.318446 0.323838 0.319064 0.319386 0.324381 0.321458 0.323128 0.32685 0.326949 
0.327852 0.331355 0.339015 0.336162 0.340231 0.329894 0.325363 0.331687 0.343105 
0.452364 0.502215 0.26759 0.254753 0.286137 0.244249 0.240884 0.263645 0.234447 
0.233366 0.250569 0.229272 0.229665 0.243118 0.228042 0.228207 0.239455 0.227888 
0.228367 0.238609 0.229138 0.229613 0.239158 0.231486 0.231714 0.241399 0.236157 
0.237706 0.246084 0.245326 0.250372 0.255724 0.261664 0.274001 0.268977 0.288461 
0.32263 0.318843 0.292249 0.268769 0.256639 0.246931 0.242407 0.266345 0.237642 
0.235346 0.253111 0.232188 0.231209 0.245713 0.229831 0.229274 0.241566 0.228733 
0.228363 0.23964 0.228681 0.228219 0.23906 0.229913 0.23029 0.240392 0.233311 
0.235026 0.243966 0.240787 0.245776 0.251105 0.255005 0.272067 0.265359 0.280169 
0.313184 0.288299 0.461212 0.429855 0.424036 0.332892 0.332848 0.332563 0.332741 
0.312668 0.281269 0.311146 0.329586 0.344055 0.354716 0.332961 0.332305 0.332738 
0.413221 0.370642 0.370846 0.405841 0.332095 0.312868 0.288795 0.345613 0.343535 
0.326863 0.345538 0.370817 0.413801 0.353872 0.356573 0.355581 0.336996 0.34427 
0.435978 0.399481 0.314318 0.419402 0.388062 0.333286 0.333107 0.332625 0.332531 
0.333725 0.333507 0.333418 0.334177 0.333957 0.333987 0.334606 0.334403 0.334577 
0.334952 0.33477 0.335112 0.335192 0.335071 0.335514 0.335269 0.335252 0.335773 
0.335255 0.335263 0.335869 0.335074 0.335173 0.335779 0.33477 0.33493 0.335514 
0.3344 0.334585 0.335108 0.333974 0.334172 0.334588 0.333531 0.333738 0.334016 
0.33312 0.333311 0.333464 0.332764 0.332922 0.332945 0.332484 0.332589 0.332491 
0.332279 0.332344 0.332131 0.332166 0.332183 0.331876 0.332207 0.332159 0.331788 
0.331917 0.387398 0.414136 0.325599 0.330201 0.308047 0.315452 0.388446 0.414372 
0.332705 0.338933 0.333351 0.347738 0.331989 0.315501 0.317927 0.311906 0.313573 
0.319516 0.309277 0.31025 0.315883 0.307438 0.308115 0.313053 0.306294 0.306556 
0.310994 0.305825 0.305673 0.309491 0.305991 0.305511 0.308556 0.306704 0.305958 
0.308226 0.30779 0.306932 0.308443 0.309144 0.308195 0.309085 0.310512 0.309564 
0.30987 0.311856 0.310951 0.310697 0.31311 0.312249 0.311501 0.314294 0.313504 
0.312263 0.31523 0.314577 0.312932 0.31599 0.315525 0.313495 0.316577 0.316269 
0.314072 0.317026 0.316825 0.314618 0.317306 0.317203 0.315079 0.317509 0.317467 
0.315476 0.317574 0.317655 0.315842 0.3175 0.317638 0.316129 0.31741 0.317541 
0.316313 0.317484 0.317522 0.316543 0.317739 0.317692 0.316913 0.318234 0.318062 
0.317476 0.319025 0.318723 0.318318 0.320089 0.319655 0.319429 0.321331 0.320799 
0.320712 0.322749 0.322126 0.322137 0.324325 0.323605 0.323704 0.325917 0.32516 
0.325308 0.327367 0.326643 0.326797 0.328814 0.328079 0.328166 0.330198 0.329501 
0.329496 0.331537 0.330919 0.330847 0.316218 0.308643 0.33141 0.327516 0.328291 
0.325928 0.326761 0.327452 0.324483 0.325217 0.325999 0.322972 0.323681 0.324543 
0.321491 0.322142 0.322996 0.320175 0.320694 0.321438 0.319148 0.319546 0.320049 
0.318362 0.318584 0.318924 0.317919 0.317949 0.318021 0.317734 0.317628 0.317419 
0.31782 0.317595 0.317071 0.318029 0.317754 0.31694 0.318263 0.317983 0.316918 
0.318377 0.318172 0.316833 0.318348 0.318247 0.316665 0.31821 0.318264 0.316498 
0.317737 0.317979 0.3162 0.317088 0.317492 0.315739 0.316132 0.316762 0.315162 
0.314922 0.315769 0.314446 0.313404 0.314419 0.31352 0.311711 0.312831 0.312342 
0.309977 0.311168 0.311124 0.308096 0.309326 0.309863 0.306446 0.307526 0.30844 
0.305216 0.306233 0.307568 0.304056 0.305027 0.30706 0.303348 0.30395 0.306586 
0.303387 0.303684 0.306524 0.304521 0.30427 0.307512 0.306055 0.305427 0.309225 
0.308198 0.307285 0.311132 0.310837 0.309522 0.313535 0.315136 0.312693 0.316628 
0.320692 0.317528 0.320697 0.328623 0.323458 0.326257 0.338375 0.331753 0.33283 
0.350056 0.340402 0.340189 0.34883 0.325706 0.326108 0.327221 0.330881 0.3309 
0.312617 0.305852 0.327419 0.344905 0.324802 0.346272 0.325614 0.325898 0.329141 
0.326532 0.326773 0.329486 0.327001 0.326939 0.330088 0.327703 0.327235 0.330449 
0.328828 0.328225 0.331124 0.329852 0.329342 0.332236 0.330279 0.329884 0.333164 
0.330185 0.330035 0.333443 0.330146 0.330022 0.333401 0.329707 0.329977 0.333291 
0.3291 0.329488 0.332953 0.328346 0.328774 0.332218 0.327219 0.327759 0.331192 
0.326422 0.326709 0.330256 0.326421 0.326365 0.329757 0.327574 0.326752 0.330125 
0.330047 0.328209 0.331565 0.335163 0.331958 0.334342 0.343579 0.338091 0.340071 
0.303403 0.29014 0.307332 0.33754 0.320309 0.314775 0.319931 0.323316 0.328303 
0.323646 0.340645 0.348505 0.441504 0.439928 0.283207 0.272781 0.26815 0.262888 
0.2794 0.258554 0.255097 0.270083 0.252156 0.250926 0.263425 0.24955 0.249397 
0.259343 0.24968 0.250372 0.258607 0.252157 0.253646 0.260135 0.257365 0.261691 
0.264988 0.267012 0.27424 0.27382 0.280249 0.289094 0.285228 0.284149 0.274575 
0.293894 0.394666 0.370981 0.26941 0.263854 0.280627 0.260114 0.256617 0.271122 
0.254381 0.252754 0.265203 0.251348 0.250584 0.261573 0.250461 0.250552 0.259975 
0.25178 0.253377 0.260872 0.255854 0.25887 0.264261 0.262965 0.269056 0.270733 
0.273857 0.284963 0.280485 0.288675 0.302684 0.292631 0.430917 0.42781 0.396546 
0.332915 0.332781 0.332497 0.332912 0.328956 0.329704 0.328884 0.302612 0.286994 
0.291389 0.345351 0.330164 0.33029 0.330915 0.332202 0.332443 0.332329 0.352633 
0.372422 0.340255 0.338977 0.304752 0.317009 0.405814 0.319594 0.312581 0.318826 
0.331283 0.355014 0.339474 0.335402 0.34081 0.321362 0.339136 0.35191 0.331967 
0.360565 0.343043 0.342445 0.331648 0.370524 0.412817 0.293377 0.30874 0.310308 
0.297125 0.389269 0.388864 0.374861 0.358254 0.304108 0.33546 0.333586 0.333196 
0.336131 0.335748 0.336641 0.336369 0.336941 0.336983 0.336823 0.337526 0.337073 
0.337076 0.337906 0.336868 0.336999 0.337963 0.33642 0.33671 0.33766 0.335741 
0.336092 0.337005 0.334955 0.335384 0.336121 0.334086 0.33449 0.33509 0.33325 
0.333642 0.333986 0.332546 0.332871 0.333011 0.331959 0.332215 0.332154 0.331515 
0.33169 0.33145 0.331269 0.331349 0.330953 0.331235 0.299596 0.292914 0.303137 
0.307869 0.324742 0.325448 0.317551 0.318808 0.320114 0.321921 0.323648 0.323448 
0.325652 0.326535 0.315135 0.316081 0.320806 0.313229 0.313911 0.318069 0.311731 
0.312113 0.315668 0.310798 0.310918 0.313663 0.310367 0.310241 0.312275 0.310397 
0.310099 0.311403 0.310592 0.310271 0.310956 0.310836 0.310478 0.310632 0.311084 
0.310721 0.310273 0.311256 0.31088 0.309886 0.311374 0.311077 0.309448 0.311643 
0.311317 0.309203 0.311973 0.311652 0.309194 0.312441 0.312141 0.309449 0.312922 
0.312713 0.309993 0.313421 0.31322 0.310644 0.313964 0.313743 0.311368 0.314499 
0.314317 0.312198 0.315103 0.314921 0.313162 0.315626 0.315391 0.313999 0.316299 
0.315992 0.314809 0.31722 0.31686 0.315837 0.318395 0.317949 0.317168 0.319812 
0.319281 0.318774 0.32135 0.320772 0.320556 0.32292 0.322255 0.322295 0.324607 
0.323878 0.324036 0.326283 0.32555 0.325816 0.327659 0.326998 0.327369 0.328954 
0.3283 0.328638 0.330164 0.329529 0.329773 0.331369 0.330696 0.330802 0.315974 
0.310553 0.359446 0.373401 0.332655 0.332364 0.306923 0.30241 0.302557 0.308643 
0.397777 0.405096 0.33208 0.330809 0.320154 0.326173 0.326841 0.326416 0.32754 
0.328283 0.327776 0.323178 0.323875 0.324926 0.321538 0.322228 0.323223 0.320084 
0.320642 0.321423 0.318786 0.319282 0.319766 0.317751 0.318085 0.318306 0.316917 
0.317137 0.31707 0.316368 0.316474 0.31605 0.315973 0.316041 0.315324 0.315636 
0.315673 0.314678 0.315214 0.315334 0.314025 0.314838 0.314918 0.313405 0.314469 
0.314563 0.312786 0.313991 0.314222 0.312204 0.313589 0.31384 0.311783 0.313075 
0.313467 0.311508 0.312627 0.313033 0.311299 0.312013 0.312586 0.311187 0.311176 
0.311833 0.310881 0.310531 0.311074 0.310629 0.309721 0.310329 0.310484 0.309088 
0.309532 0.309976 0.30913 0.309313 0.31004 0.309157 0.309387 0.310656 0.309154 
0.309448 0.311281 0.310037 0.309836 0.312047 0.312072 0.311225 0.31385 0.314293 
0.313319 0.316286 0.316644 0.315478 0.318729 0.319151 0.317843 0.321112 0.322504 
0.320399 0.323612 0.327135 0.324161 0.326657 0.332016 0.328411 0.33047 0.337454 
0.333007 0.333771 0.338217 0.330136 0.330758 0.333712 0.326224 0.3315 0.333128 
0.332104 0.331811 0.335201 0.315973 0.321991 0.324451 0.337571 0.336657 0.337263 
0.335528 0.361988 0.349177 0.330642 0.331172 0.333872 0.333331 0.3333 0.332975 
0.33593 0.333838 0.333223 0.33616 0.33569 0.335062 0.337491 0.336751 0.336356 
0.339538 0.336743 0.336681 0.34022 0.336544 0.336576 0.340084 0.336506 0.336649 
0.33999 0.33613 0.336504 0.340046 0.335118 0.335659 0.339423 0.333835 0.334469 
0.338233 0.332608 0.333089 0.336739 0.331945 0.332119 0.335439 0.332219 0.331997 
0.334924 0.333178 0.332397 0.334979 0.310752 0.305407 0.33373 0.335371 0.334932 
0.336098 0.32104 0.314448 0.312476 0.320383 0.312328 0.319063 0.318878 0.328908 
0.329595 0.329055 0.334465 0.334026 0.333954 0.335055 0.389768 0.381455 0.364464 
0.282729 0.278536 0.275789 0.272527 0.284409 0.27054 0.269369 0.278877 0.268785 
0.268695 0.27681 0.269248 0.270891 0.276398 0.273382 0.277355 0.279274 0.280636 
0.286747 0.285919 0.290872 0.297389 0.294583 0.301835 0.294744 0.305374 0.28225 
0.278116 0.275886 0.273415 0.283692 0.271981 0.270428 0.279694 0.270025 0.269851 
0.27772 0.270571 0.271809 0.277957 0.273171 0.275813 0.28009 0.278062 0.282642 
0.284091 0.285403 0.291398 0.289957 0.294114 0.300663 0.29701 0.388492 0.393817 
0.377067 0.369688 0.408592 0.399435 0.290989 0.285291 0.290438 0.296422 0.291338 
0.285349 0.289599 0.29737 0.336905 0.331799 0.331707 0.327078 0.33977 0.336625 
0.334938 0.30354 0.376737 0.380663 0.330226 0.309505 0.392512 0.332198 0.331985 
0.331478 0.329714 0.327049 0.329487 0.316481 0.382657 0.32199 0.331794 0.33438 
0.327294 0.338526 0.330431 0.310714 0.312587 0.332909 0.332803 0.332508 0.330302 
0.333505 0.334165 0.33217 0.333381 0.342312 0.350499 0.333962 0.343333 0.335524 
0.303587 0.301621 0.362472 0.351548 0.343734 0.362314 0.336538 0.344573 0.356208 
0.334369 0.335735 0.33375 0.338534 0.338028 0.339331 0.339431 0.339014 0.339349 
0.340674 0.337784 0.338369 0.339889 0.336785 0.337443 0.338493 0.335152 0.335943 
0.337075 0.333689 0.334338 0.335025 0.332453 0.333031 0.33326 0.331457 0.331908 
0.331903 0.33066 0.330977 0.330721 0.330381 0.304416 0.306966 0.336468 0.335657 
0.340634 0.339358 0.324176 0.325717 0.318051 0.319251 0.315394 0.316292 0.31927 
0.313836 0.314569 0.316691 0.312325 0.312778 0.314578 0.311448 0.311772 0.312869 
0.310428 0.310727 0.311278 0.309403 0.30965 0.309406 0.308336 0.3086 0.307481 
0.307413 0.30757 0.305629 0.306668 0.306663 0.303911 0.306419 0.306393 0.302883 
0.306577 0.306373 0.302434 0.30702 0.306744 0.302597 0.307928 0.307642 0.303388 
0.309119 0.308792 0.305011 0.31034 0.309878 0.306807 0.311661 0.311054 0.308572 
0.313028 0.312562 0.310505 0.313866 0.313287 0.31174 0.315598 0.314938 0.313636 
0.317151 0.316403 0.315466 0.319171 0.318396 0.317676 0.321392 0.320598 0.320426 
0.32342 0.322596 0.32299 0.325053 0.324169 0.324854 0.326935 0.326112 0.326542 
0.328436 0.327804 0.328392 0.329654 0.329059 0.329739 0.330618 0.330083 0.330646 
0.330994 0.33419 0.306737 0.323549 0.324334 0.326772 0.327465 0.327963 0.323083 
0.325292 0.32609 0.327392 0.328114 0.328766 0.328635 0.321458 0.322215 0.323682 
0.319499 0.320263 0.321197 0.317918 0.318597 0.319008 0.316481 0.317009 0.317361 
0.315232 0.315657 0.315611 0.314165 0.314525 0.314021 0.313266 0.313651 0.312704 
0.312232 0.312634 0.311452 0.311172 0.311441 0.309924 0.310259 0.310527 0.308318 
0.309693 0.309998 0.307326 0.309259 0.309369 0.306504 0.308868 0.309067 0.306147 
0.309184 0.309299 0.30628 0.309536 0.309656 0.307238 0.30994 0.310091 0.308413 
0.309843 0.309845 0.308742 0.310479 0.310404 0.310045 0.3105 0.311008 0.31225 
0.311768 0.311571 0.313493 0.313207 0.314048 0.314691 0.314057 0.315764 0.317669 
0.316398 0.317903 0.320814 0.319527 0.321567 0.323624 0.322371 0.325087 0.326143 
0.324825 0.327846 0.328279 0.326801 0.329803 0.330742 0.328576 0.331078 0.334192 
0.332332 0.333537 0.310822 0.314325 0.309004 0.311684 0.30883 0.314882 0.320485 
0.33823 0.337301 0.33914 0.345967 0.338006 0.382226 0.373237 0.343119 0.342237 
0.344513 0.343974 0.343819 0.347087 0.343008 0.343121 0.347137 0.342891 0.342847 
0.346144 0.343559 0.343735 0.34679 0.342173 0.342873 0.346857 0.340239 0.341126 
0.344877 0.338408 0.339374 0.342766 0.336552 0.33724 0.340354 0.335689 0.336185 
0.338261 0.334734 0.335077 0.336945 0.372444 0.380423 0.388211 0.386558 0.376579 
0.339182 0.341476 0.304498 0.308586 0.317414 0.312781 0.33734 0.336625 0.338625 
0.327046 0.328473 0.33006 0.292135 0.28961 0.329302 0.329933 0.294135 0.290675 
0.287264 0.285342 0.294954 0.287288 0.286754 0.293007 0.283652 0.284018 0.292005 
0.285319 0.288376 0.290474 0.290239 0.294548 0.294389 0.297259 0.301851 0.300307 
0.308441 0.304879 0.321051 0.322287 0.326827 0.323029 0.31742 0.322941 0.315214 
0.326109 0.319823 0.364277 0.357224 0.288567 0.28693 0.294202 0.286532 0.286014 
0.29257 0.285933 0.28668 0.291998 0.287295 0.288798 0.292573 0.289943 0.292734 
0.294843 0.29423 0.297468 0.298043 0.299128 0.302542 0.30577 0.339756 0.339565 
0.340896 0.339029 0.338695 0.340659 0.333952 0.339728 0.335391 0.329385 0.351098 
0.360083 0.363132 0.336644 0.335137 0.320277 0.324119 0.33197 0.329726 0.310419 
0.301896 0.310226 0.307759 0.311686 0.332082 0.332374 0.33411 0.334308 0.333567 
0.322668 0.328018 0.335967 0.328919 0.330703 0.334431 0.331345 0.3258 0.331441 
0.325599 0.335104 0.332849 0.332312 0.333151 0.334464 0.297181 0.293646 0.297362 
0.305878 0.303219 0.30768 0.317663 0.33196 0.345059 0.352761 0.362007 0.312845 
0.348827 0.375405 0.295265 0.299462 0.298141 0.305944 0.33686 0.335855 0.33511 
0.304951 0.302342 0.299424 0.302892 0.299037 0.301301 0.305727 0.347325 0.339046 
0.335032 0.371096 0.360068 0.324872 0.372356 0.363211 0.369331 0.361859 0.353364 
0.337276 0.332504 0.313596 0.310577 0.337055 0.338568 0.333818 0.334816 0.335992 
0.33283 0.68838 0.330933 0.331624 0.331982 0.340214 0.340751 0.340507 0.34065 
0.339501 0.334931 0.331735 0.370357 0.372783 0.311007 0.311976 0.308248 0.309285 
0.305373 0.306316 0.302746 0.303359 0.300367 0.300986 0.298749 0.299026 0.298272 
0.298349 0.298301 0.298198 0.299559 0.299112 0.304266 0.303558 0.306802 0.305956 
0.318188 0.317005 0.32202 0.320778 0.32046 0.325384 0.324138 0.325442 0.327019 
0.326262 0.328214 0.328053 0.329656 0.328847 0.329816 0.331104 0.330552 0.33143 
0.326866 0.327797 0.357715 0.354704 0.333608 0.309937 0.311688 0.32102 0.322044 
0.32426 0.325248 0.324395 0.319058 0.31996 0.328013 0.328668 0.329259 0.329286 
0.32992 0.314981 0.315754 0.304888 0.305303 0.32054 0.318637 0.325278 0.323516 
0.323941 0.32975 0.328183 0.330088 0.332516 0.331105 0.334399 0.333711 0.332707 
0.335706 0.334083 0.333522 0.335828 0.315866 0.309853 0.301705 0.318906 0.316053 
0.335412 0.314026 0.335055 0.339395 0.329403 0.362773 0.35512 0.348182 0.349358 
0.344423 0.33987 0.3483 0.340225 0.338454 0.313838 0.350605 0.351652 0.312561 
0.314763 0.348094 0.345933 0.342119 0.341934 0.343126 0.349814 0.350943 0.346258 
0.347707 0.352165 0.343802 0.345078 0.347886 0.340251 0.341611 0.344282 0.335142 
0.310329 0.311323 0.335208 0.335884 0.334166 0.33557 0.339071 0.33162 0.325602 
0.32096 0.313062 0.31545 0.37276 0.368687 0.325148 0.32178 0.31747 0.31437 
0.351416 0.350192 0.353006 0.355348 0.343003 0.341878 0.700437 0.326933 0.339896 
0.338068 0.336849 0.342057 0.34298 0.343872 0.343098 0.343047 0.344048 0.331308 
0.328893 0.330792 0.337246 0.330221 0.337078 0.335164 0.359059 0.352478 0.335763 
0.334529 0.336639 0.31983 0.324506 0.312786 0.330496 0.331757 0.327953 0.314723 
0.319821 0.301034 0.336974 0.338888 0.339157 0.309637 0.308411 0.314212 0.315229 
0.331231 0.338462 0.343522 0.345063 0.308756 0.333145 0.332186 0.313634 0.313991 
0.313107 0.312801 0.330159 0.318147 0.319197 0.317234 0.311115 0.311869 0.309613 
0.31048 0.317842 0.316828 0.303117 0.303446 0.304092 0.304129 0.301005 0.301262 
0.304967 0.304803 0.307192 0.306659 0.360222 0.337142 0.644204 0.788306 0.350444 
0.315661 0.316754 0.302798 0.34772 0.349707 0.346694 0.698561 0.859872 0.320949 
0.3514 0.882569 0.900645 0.355244 0.916402 0.927688 0.333689 0.790945 0.943232 
0.340475 0.311318 0.303234 0.297117 0.294283 0.303323 0.30948 0.296195 0.36613 
0.307467 0.306844 0.306411 0.357803 0.29716 0.299938 0.301329 0.304362 0.33573 
0.341054 0.308423 0.307488 0.342144 0.348471 0.353127 0.309617 0.339954 0.346783 
0.358551 0.364304 0.335144 0.332828 0.349651 0.349009 0.346879 0.340414 0.31097 
0.362795 0.333875 0.331325 0.333915 0.332853 0.332212 0.334845 0.350491 0.30051 
0.357508 0.360392 0.342477 0.348885 0.351849 0.306841 0.303627 0.307749 0.299284 
0.297877 0.80009 0.949875 0.337085 0.341009 0.338343 0.341084 0.339723 0.327646 
0.322954 0.336489 0.327105 0.349783 0.351666 0.331796 0.329228 0.338616 0.331519 
0.295693 0.360845 0.360543 0.346953 0.337072 0.33872 0.344421 0.348737 0.327524 
0.949421 0.799495 0.320064 0.940843 0.788289 0.340495 0.336814 0.343394 0.346579 
0.349889 0.343047 0.331462 0.346613 0.316961 0.359347 0.339096 0.332339 0.343108 
0.349989 0.778144 0.9102 0.347937 0.353623 0.354288 0.359551 0.343906 0.344291 
0.343264 0.353901 0.338672 0.334951 0.319047 0.893131 0.871008 0.343427 0.340065 
0.354857 0.845687 0.811393 0.610198 0.67311 0.346637 0.783036 0.716759 0.333437 
0.653658 0.441369 0.333576 0.333608 0.333396 0.333054 0.332504 0.331807 0.330962 
0.330033 0.329067 0.327826 0.326582 0.325405 0.324218 0.323043 0.321885 0.320732 
0.319636 0.318601 0.31775 0.317039 0.316447 0.316008 0.315709 0.315654 0.315772 
0.316081 0.316542 0.317146 0.317938 0.31885 0.319844 0.320918 0.322098 0.323384 
0.324601 0.325699 0.326677 0.327596 0.328392 0.328899 0.329262 0.329424 0.32933 
0.328969 0.328411 0.327628 0.326574 0.325406 0.323816 0.322007 0.320215 0.318191 
0.31599 0.313446 0.310765 0.308238 0.305755 0.30282 0.300224 0.297812 0.295105 
0.292539 0.29019 0.288117 0.286169 0.28434 0.282739 0.281401 0.280086 0.278939 
0.278079 0.27745 0.276996 0.276834 0.276876 0.277246 0.277943 0.279045 0.280523 
0.282781 0.285547 0.289318 0.294554 0.301275 0.310051 0.320904 0.344173 0.379004 
0.561749 0.333456 0.333539 0.484892 0.358549 0.334371 0.319894 0.309091 0.300919 
0.294337 0.289174 0.285126 0.282556 0.280399 0.278967 0.277896 0.277359 0.277086 
0.27715 0.277434 0.277971 0.278744 0.279788 0.280911 0.282305 0.283862 0.285525 
0.287408 0.289297 0.291563 0.29387 0.29625 0.298752 0.301633 0.304237 0.306921 
0.309379 0.312086 0.314607 0.316774 0.319021 0.321165 0.323036 0.324604 0.326043 
0.327174 0.32811 0.32884 0.329353 0.329576 0.329612 0.32943 0.329055 0.328428 
0.327708 0.326808 0.325706 0.324599 0.323492 0.32237 0.32126 0.320143 0.319109 
0.318266 0.317494 0.316866 0.316398 0.316089 0.315961 0.316023 0.31626 0.316632 
0.317237 0.317958 0.318739 0.319701 0.32081 0.321943 0.323078 0.324236 0.325406 
0.326618 0.327802 0.328935 0.330033 0.330957 0.331762 0.332519 0.333075 0.333454 
0.333588 0.33329 0.33335 0.333322 0.33334 0.333419 0.333347 0.333366 0.333399 
0.333396 0.333382 0.333386 0.333375 0.333374 0.333359 0.333353 0.333343 0.333333 
0.333324 0.333309 0.333301 0.33328 0.33324 0.333264 0.333228 0.333307 0.333261 
0.333229 0.333221 0.333235 0.333218 0.333231 0.333222 0.333243 0.333281 0.333317 
0.333249 0.333281 0.333301 0.333327 0.333312 0.333322 0.333341 0.333345 0.333359 
0.333365 0.333378 0.333376 0.333389 0.33339 0.333411 0.333344 0.333377 0.333383 
0.33335 0.333297 1.08298 1.25027 1.34523 1.43197 1.49184 1.5484 1.58504 
1.61906 1.64698 1.6691 1.68228 1.69427 1.6996 1.70361 1.69912 1.69454 
1.68126 1.64467 1.61825 1.57961 1.54198 1.47847 1.40407 1.32953 1.11729 
0.956161 1.66867 0.941112 1.10281 1.40851 1.35854 1.53506 1.48163 1.60994 
1.57414 1.66154 1.63454 1.68969 1.67682 1.70223 1.6969 1.69846 1.70119 
1.67691 1.68731 1.63089 1.65644 1.56076 1.59578 1.44726 1.50975 1.26997 
1.36942 1.09293 0.59308 1.6975 1.69661 1.50059 1.61662 1.6499 1.6092 
1.6359 1.66984 1.65923 1.48245 1.69342 1.57738 1.17689 1.30876 1.6743 
0.934099 0.879319 1.68249 1.58834 1.54256 1.68672 1.69231 1.42233 1.53668 
1.30901 1.40479 1.17733 0.312153 0.317946 0.313703 0.33342 0.333449 0.333599 
0.333506 0.317178 0.317101 0.316524 0.333511 0.333399 0.333656 0.333479 0.333374 
0.307294 0.308288 0.306157 0.30585 0.304259 0.205796 0.200846 0.334343 0.334168 
0.334607 0.333426 0.333386 0.333442 0.323629 0.32331 0.322378 0.347285 0.344775 
0.344653 0.333359 0.333344 0.318772 0.319332 0.317275 0.317903 0.35513 0.365566 
0.362629 0.379653 0.333738 0.333639 0.333552 0.316708 0.334115 0.333914 0.345288 
0.344005 0.34914 0.348456 0.316393 0.318241 0.318252 0.333086 0.331045 0.331327 
0.32957 0.333334 0.333314 0.333318 0.324511 0.324651 0.325229 0.325377 0.324211 
0.309958 0.309283 0.309206 0.308196 0.324942 0.32402 0.324133 0.29919 0.302128 
0.301127 0.303233 0.292381 0.295354 0.33797 0.334967 0.336726 0.333703 0.32751 
0.3268 0.326745 0.331565 0.331062 0.333076 0.332059 0.333502 0.33091 0.329902 
0.333136 0.333434 0.333218 0.333613 0.226042 0.225945 0.236919 0.329211 0.332061 
0.333078 0.336032 0.337163 0.333177 0.333253 0.333271 0.333297 0.340284 0.33648 
0.343776 0.340466 0.337209 0.334077 0.338948 0.3365 0.335454 0.335694 0.336263 
0.336507 0.310769 0.31125 0.310458 0.326337 0.325594 0.323868 0.318078 0.316248 
0.316094 0.315017 0.316617 0.315504 0.333196 0.333249 0.333177 0.318507 0.318909 
0.316972 0.310071 0.31935 0.318221 0.318179 0.309055 0.309212 0.309836 0.326412 
0.324065 0.324316 0.320765 0.32072 0.320187 0.332868 0.333043 0.332917 0.308555 
0.310648 0.311176 0.313168 0.302785 0.299162 0.302817 0.320143 0.319412 0.320588 
0.333538 0.333857 0.333923 0.322733 0.322738 0.322042 0.322074 0.322899 0.321192 
0.322095 0.320881 0.31985 0.320233 0.319254 0.314901 0.315225 0.315971 0.33503 
0.334677 0.334043 0.222597 0.219718 0.240316 0.346388 0.34564 0.343432 0.341929 
0.339338 0.344176 0.327391 0.33489 0.284001 0.290897 0.278565 0.303699 0.305733 
0.304844 0.306993 0.311258 0.310656 0.328961 0.329631 0.329112 0.324253 0.326215 
0.324017 0.330654 0.331001 0.331259 0.332401 0.332785 0.332453 0.332787 0.334839 
0.333545 0.335062 0.333549 0.316593 0.31452 0.316526 0.332064 0.335625 0.33255 
0.330032 0.330429 0.327655 0.328263 0.328538 0.309172 0.309964 0.31164 0.294102 
0.29772 0.293064 0.3549 0.351306 0.340624 0.360631 0.317522 0.317253 0.315287 
0.301701 0.296805 0.301151 0.32019 0.320157 0.319547 0.334946 0.332332 0.335606 
0.326736 0.326653 0.328278 0.333871 0.332234 0.33444 0.317798 0.317651 0.317864 
0.317986 0.313851 0.314451 0.31545 0.317259 0.315354 0.316423 0.325316 0.319674 
0.328325 0.329692 0.343496 0.345226 0.341406 0.296347 0.312021 0.31262 0.3109 
0.311525 0.307709 0.307508 0.309047 0.322671 0.342074 0.342865 0.345881 0.322552 
0.319669 0.324561 0.321157 0.335582 0.335748 0.33501 0.334287 0.335273 0.334607 
0.283732 0.341582 0.342743 0.340332 0.301918 0.312538 0.309953 0.310216 0.284388 
0.290946 0.283993 0.314012 0.323863 0.32601 0.323469 0.32005 0.320042 0.319461 
0.293369 0.285332 0.292136 0.323902 0.326515 0.325991 0.325972 0.318609 0.314452 
0.321409 0.336412 0.33359 0.33594 0.337363 0.32238 0.336403 0.315617 0.316256 
0.297354 0.296117 0.293942 0.330632 0.33002 0.330613 0.310913 0.311708 0.311218 
0.312099 0.310259 0.309088 0.31026 0.309404 0.326547 0.32578 0.325758 0.306584 
0.305857 0.303845 0.303278 0.332815 0.329403 0.335058 0.328769 0.328883 0.32819 
0.321176 0.321948 0.321233 0.333015 0.33519 0.332756 0.334481 0.315107 0.313423 
0.31545 0.331149 0.332558 0.333492 0.2057 0.216054 0.216373 0.307498 0.335549 
0.290088 0.324296 0.328797 0.326607 0.33339 0.335152 0.335221 0.308954 0.310137 
0.308693 0.346449 0.345521 0.344019 0.218719 0.206894 0.219587 0.34533 0.344197 
0.346928 0.276245 0.279656 0.253729 0.343882 0.344395 0.347919 0.326227 0.329942 
0.329085 0.499326 0.695254 0.306745 0.308368 0.309379 0.33695 0.334684 0.336223 
0.322757 0.323272 0.324627 0.335002 0.319659 0.33087 0.417176 0.398984 0.445134 
0.581754 0.672238 0.315345 0.309125 0.314571 0.327266 0.328048 0.32733 0.309623 
0.309923 0.322562 0.323331 0.323384 0.324148 0.215921 0.20487 0.324093 0.321188 
0.207282 0.326459 0.33045 0.318451 0.318174 0.31779 0.288553 0.292283 0.335897 
0.325063 0.324295 0.324946 0.313163 0.315048 0.312404 0.314448 0.3331 0.332794 
0.333154 0.206036 0.336244 0.339598 0.33593 0.290224 0.280067 0.29142 0.282648 
0.3225 0.324319 0.326332 0.31408 0.315694 0.315548 0.321368 0.322049 0.320517 
0.304804 0.231896 0.245178 0.230382 0.322149 0.31988 0.322204 0.317086 0.317765 
0.317419 0.310717 0.31277 0.313789 0.326366 0.327416 0.327023 0.291535 0.336424 
0.329987 0.330925 0.327829 0.327904 0.330128 0.32641 0.310781 0.311157 0.329255 
0.291149 0.293081 0.285485 0.332916 0.332639 0.332756 0.332251 0.332165 0.331761 
0.317154 0.316627 0.317328 0.325638 0.329737 0.33059 0.352081 0.347596 0.356008 
0.351279 0.351172 0.320584 0.320675 0.336772 0.336504 0.33573 0.32991 0.333472 
0.333804 0.333184 0.333262 0.333117 0.334157 0.334973 0.334859 0.335358 0.334344 
0.332436 0.328907 0.292675 0.285525 0.294133 0.333492 0.333475 0.333384 0.333402 
0.316472 0.316557 0.317191 0.321392 0.332992 0.333224 0.333223 0.291114 0.297543 
0.294095 0.332279 0.332633 0.332717 0.311144 0.310162 0.311875 0.316541 0.317629 
0.320529 0.321439 0.308038 0.309469 0.316002 0.317445 0.315509 0.317196 0.333249 
0.332935 0.332773 0.320709 0.317486 0.317362 0.317961 0.316659 0.317252 0.251241 
0.259006 0.234694 0.240868 0.292122 0.297847 0.299055 0.304082 0.304891 0.311114 
0.310726 0.310728 0.311199 0.310443 0.312019 0.327712 0.319128 0.323861 0.320004 
0.320108 0.321726 0.311338 0.313113 0.318835 0.329355 0.328524 0.328538 0.327776 
0.324619 0.325917 0.322873 0.31903 0.318869 0.31955 0.318128 0.318247 0.318655 
0.31928 0.325723 0.326529 0.348894 0.329395 0.329402 0.328737 0.297864 0.302472 
0.293487 0.299304 0.323818 0.289007 0.311924 0.326649 0.307643 0.305864 0.292708 
0.291889 0.296843 0.320854 0.319898 0.320951 0.303568 0.302416 0.298388 0.315062 
0.310814 0.317668 0.321938 0.321862 0.308665 0.310459 0.308694 0.30771 0.300763 
0.311128 0.304665 0.314494 0.307577 0.324418 0.323629 0.32519 0.324435 0.303469 
0.299673 0.306745 0.303355 0.318725 0.317958 0.333463 0.2758 0.281599 0.251424 
0.31097 0.310784 0.313289 0.323628 0.322738 0.322817 0.316706 0.318295 0.316837 
0.308578 0.308569 0.310635 0.330821 0.330952 0.331416 0.331535 0.307982 0.308216 
0.305383 0.302258 0.305378 0.332458 0.332237 0.332766 0.33261 0.320803 0.320128 
0.303949 0.304391 0.307141 0.321012 0.320144 0.320438 0.319543 0.319011 0.32219 
0.324383 0.320191 0.322118 0.326141 0.325273 0.325245 0.318332 0.301863 0.299075 
0.300836 0.319527 0.329112 0.331161 0.325875 0.325187 0.32475 0.32606 0.318381 
0.31814 0.31797 0.339993 0.338199 0.331011 0.317002 0.317671 0.318973 0.283973 
0.27926 0.28968 0.333499 0.320298 0.322359 0.338963 0.328145 0.322975 0.217506 
0.202867 0.218307 0.318613 0.318615 0.317972 0.310623 0.328277 0.32727 0.327841 
0.327294 0.327977 0.333109 0.332909 0.317339 0.314704 0.31331 0.319392 0.319047 
0.318346 0.335521 0.330852 0.333062 0.332943 0.322034 0.322902 0.322102 0.301433 
0.308498 0.3353 0.332168 0.335927 0.332912 0.306651 0.3093 0.306928 0.324104 
0.30371 0.307887 0.306891 0.313046 0.313303 0.312213 0.332228 0.335114 0.335662 
0.338643 0.300107 0.298604 0.296525 0.297789 0.335486 0.335358 0.336226 0.335583 
0.33523 0.334861 0.339319 0.34076 0.338784 0.317712 0.320309 0.319558 0.322282 
0.325899 0.322796 0.271207 0.260566 0.263131 0.34214 0.360578 0.33865 0.333439 
0.340655 0.344367 0.344877 0.31894 0.246326 0.23253 0.236404 0.323528 0.327299 
0.336378 0.32928 0.337562 0.250329 0.241304 0.239655 0.337558 0.339402 0.338977 
0.341064 0.340478 0.340431 0.339166 0.334659 0.331906 0.337755 0.265604 0.255846 
0.332175 0.332276 0.33167 0.316777 0.317446 0.317113 0.342309 0.318331 0.316457 
0.241393 0.240386 0.22973 0.326735 0.327037 0.325949 0.326248 0.321257 0.31964 
0.265706 0.268708 0.256716 0.337262 0.206465 0.331636 0.33417 0.334704 0.280093 
0.291278 0.270571 0.285175 0.216289 0.201743 0.236566 0.310351 0.30885 0.310572 
0.309209 0.328779 0.331065 0.326573 0.27506 0.27964 0.205587 0.223717 0.220213 
0.343447 0.340816 0.332543 0.332857 0.292312 0.299335 0.334017 0.333725 0.334505 
0.33406 0.323314 0.320307 0.232529 0.218464 0.219753 0.206516 0.217218 0.333345 
0.319462 0.319515 0.318934 0.338555 0.337227 0.334949 0.334518 0.336511 0.33586 
0.336588 0.33957 0.285679 0.291677 0.282984 0.346764 0.348394 0.349626 0.303521 
0.286768 0.30091 0.344998 0.333258 0.333418 0.333641 0.333777 0.33349 0.333708 
0.334304 0.334489 0.333459 0.321952 0.333827 0.332014 0.330928 0.336161 0.306219 
0.305614 0.3349 0.332874 0.33553 0.330862 0.311608 0.310932 0.311446 0.31078 
0.311236 0.311593 0.311916 0.30013 0.29525 0.300914 0.323575 0.290737 0.28479 
0.341802 0.359342 0.38116 0.312855 0.314351 0.313195 0.31357 0.314904 0.314642 
0.319707 0.320868 0.491289 0.444539 0.300027 0.296971 0.302257 0.321862 0.32213 
0.3174 0.32738 0.31548 0.317017 0.317269 0.319296 0.318758 0.319034 0.33326 
0.333301 0.333296 0.329166 0.328578 0.310586 0.29421 0.21674 0.216482 0.313049 
0.315129 0.314929 0.305016 0.335071 0.334894 0.33563 0.328809 0.329352 0.328466 
0.32089 0.32281 0.325965 0.308531 0.309446 0.308637 0.309562 0.329927 0.329711 
0.329089 0.310638 0.438037 0.484985 0.442044 0.507017 0.316754 0.317583 0.36446 
0.364513 0.372831 0.423951 0.430065 0.406418 0.359632 0.354977 0.368244 0.373498 
0.333533 0.339359 0.345608 0.310842 0.31043 0.309902 0.310138 0.312237 0.312957 
0.314905 0.311797 0.309697 0.311718 0.309556 0.312502 0.310791 0.305791 0.333271 
0.333124 0.333241 0.333177 0.35802 0.305535 0.30708 0.310504 0.310508 0.310146 
0.337603 0.337325 0.247579 0.307722 0.306973 0.330891 0.337305 0.332831 0.338006 
0.313351 0.33292 0.333001 0.33339 0.327576 0.333438 0.333568 0.333649 0.340714 
0.318001 0.316768 0.33445 0.303092 0.304926 0.302188 0.311006 0.327368 0.320502 
0.332909 0.333947 0.333337 0.331538 0.331036 0.351781 0.350313 0.35821 0.357177 
0.331882 0.328435 0.32777 0.335153 0.335676 0.333557 0.336808 0.336508 0.337779 
0.279951 0.285132 0.269631 0.276973 0.335843 0.336279 0.221488 0.362344 0.372938 
0.364608 0.317513 0.333287 0.333248 0.271731 0.27911 0.264752 0.272901 0.277977 
0.282498 0.299512 0.29442 0.283443 0.28793 0.3427 0.339369 0.340375 0.337413 
0.334969 0.335082 0.285396 0.309236 0.318014 0.359434 0.355919 0.377737 0.378954 
0.273813 0.267944 0.333463 0.333586 0.333471 0.33436 0.334438 0.334011 0.333277 
0.32267 0.329514 0.323617 0.328115 0.337561 0.322601 0.322146 0.320506 0.3335 
0.331687 0.335262 0.340743 0.338699 0.301504 0.30502 0.3054 0.345764 0.350618 
0.348983 0.331617 0.331 0.330586 0.329797 0.328131 0.333111 0.329995 0.332411 
0.332339 0.313724 0.314163 0.314839 0.328282 0.329019 0.332092 0.331579 0.331587 
0.333738 0.333927 0.327538 0.333069 0.333125 0.338626 0.341116 0.338562 0.335966 
0.313792 0.314149 0.312967 0.313282 0.318888 0.315428 0.334301 0.334554 0.306087 
0.309103 0.334843 0.323829 0.323433 0.275647 0.272996 0.267759 0.264113 0.311514 
0.311866 0.310813 0.311007 0.320024 0.319433 0.31954 0.319025 0.228388 0.238855 
0.217977 0.228433 0.276702 0.276861 0.283601 0.330528 0.327663 0.327291 0.32633 
0.334313 0.335753 0.328771 0.307334 0.305283 0.303746 0.30706 0.303619 0.299445 
0.33327 0.333224 0.333266 0.358081 0.363864 0.358237 0.223289 0.290545 0.260827 
0.305679 0.333018 0.333219 0.306346 0.306709 0.309524 0.310089 0.311047 0.336977 
0.336308 0.338971 0.326956 0.326079 0.326321 0.336233 0.313474 0.315025 0.324543 
0.326198 0.315541 0.313662 0.315713 0.289763 0.293575 0.3334 0.333437 0.333563 
0.314617 0.313542 0.313174 0.333421 0.333473 0.333236 0.311999 0.312097 0.310046 
0.310261 0.322615 0.291163 0.33334 0.333378 0.328084 0.327731 0.333245 0.330226 
0.329719 0.32779 0.330591 0.332354 0.33497 0.36882 0.371057 0.375812 0.32916 
0.335085 0.334872 0.335623 0.334162 0.334125 0.333836 0.270912 0.269599 0.262329 
0.260048 0.30662 0.305865 0.30981 0.30851 0.328789 0.32569 0.301595 0.296599 
0.302557 0.316898 0.316903 0.333016 0.333937 0.286753 0.333131 0.312577 0.312092 
0.306666 0.309856 0.333573 0.333497 0.333464 0.336854 0.336726 0.33779 0.337875 
0.334308 0.3102 0.310386 0.324559 0.324711 0.32552 0.207925 0.217948 0.207034 
0.316044 0.314306 0.314113 0.353047 0.348145 0.307713 0.308753 0.504167 0.448076 
0.403072 0.310771 0.310504 0.310764 0.332909 0.338382 0.333028 0.336286 0.303813 
0.30599 0.217504 0.205583 0.205485 0.332522 0.332057 0.332089 0.339338 0.340927 
0.339174 0.314445 0.316418 0.31547 0.33376 0.328353 0.328568 0.284777 0.291446 
0.30476 0.306816 0.326957 0.329066 0.327887 0.332662 0.333065 0.317682 0.333227 
0.333249 0.331592 0.328683 0.331675 0.328781 0.316821 0.315728 0.315598 0.346042 
0.34177 0.447443 0.412233 0.412188 0.309668 0.311052 0.315874 0.318957 0.322312 
0.316779 0.285436 0.288072 0.333955 0.326352 0.325985 0.325246 0.29434 0.298472 
0.298452 0.364402 0.39773 0.33474 0.336903 0.390525 0.375879 0.392792 0.333519 
0.289371 0.319805 0.318285 0.412627 0.386027 0.397144 0.320138 0.32209 0.325543 
0.340135 0.331406 0.344188 0.296839 0.29234 0.328029 0.315697 0.325859 0.291269 
0.290847 0.306826 0.301727 0.28853 0.287852 0.293104 0.330671 0.317946 0.284823 
0.274777 0.317898 0.317809 0.306396 0.302599 0.303021 0.317052 0.285133 0.227343 
0.228734 0.217236 0.322088 0.291507 0.290161 0.284009 0.213773 0.267795 0.260317 
0.269219 0.338054 0.338801 0.337515 0.309667 0.309211 0.307872 0.278395 0.334672 
0.335047 0.314828 0.31307 0.251517 0.219797 0.319618 0.320361 0.336161 0.320708 
0.321092 0.326511 0.304387 0.301333 0.318253 0.318381 0.318651 0.318853 0.310838 
0.311689 0.309938 0.341464 0.340968 0.338606 0.293056 0.292829 0.336869 0.333949 
0.334401 0.333678 0.286075 0.295192 0.325541 0.312337 0.312542 0.350915 0.346583 
0.335318 0.342083 0.339783 0.34475 0.341848 0.36387 0.367446 0.371659 0.317042 
0.314929 0.318624 0.318388 0.324853 0.312962 0.314751 0.315023 0.446163 0.409341 
0.289217 0.294323 0.292134 0.317182 0.317409 0.316852 0.31383 0.296699 0.323071 
0.321523 0.32005 0.334796 0.310158 0.308298 0.307938 0.318141 0.306806 0.311067 
0.307664 0.342467 0.309328 0.327415 0.327684 0.324919 0.325989 0.326065 0.326499 
0.325622 0.326928 0.405029 0.451564 0.317464 0.317675 0.333413 0.324378 0.32312 
0.32259 0.325996 0.318247 0.317746 0.318802 0.333394 0.308218 0.309917 0.32499 
0.324033 0.325171 0.325977 0.311543 0.310101 0.311621 0.310055 0.347534 0.354176 
0.291093 0.308008 0.331733 0.331132 0.296884 0.290237 0.294181 0.31735 0.317834 
0.317379 0.323641 0.329418 0.32893 0.312474 0.313138 0.294607 0.345844 0.340063 
0.333521 0.334521 0.335139 0.333251 0.33314 0.316707 0.333751 0.332637 0.309944 
0.310148 0.310768 0.200527 0.218863 0.202381 0.330105 0.333561 0.312341 0.281619 
0.289111 0.28252 0.345478 0.339497 0.303274 0.246153 0.254043 0.266285 0.316699 
0.33288 0.358516 0.323936 0.242283 0.238371 0.256285 0.31545 0.306095 0.305914 
0.317446 0.322112 0.318511 0.315615 0.316905 0.314158 0.308806 0.386555 0.33164 
0.334394 0.331004 0.287722 0.284824 0.322259 0.500983 0.600522 0.3959 0.371117 
0.379432 0.284217 0.348466 0.351228 0.353473 0.353689 0.341419 0.342118 0.340284 
0.302257 0.304219 0.306807 0.321344 0.323345 0.319147 0.320829 0.21657 0.204205 
0.20293 0.301149 0.298706 0.268691 0.25864 0.268744 0.318666 0.27948 0.282824 
0.288031 0.322649 0.315657 0.31431 0.293923 0.340209 0.361144 0.349711 0.335637 
0.335748 0.333867 0.331891 0.330941 0.331237 0.298596 0.367256 0.330076 0.32815 
0.391101 0.380892 0.394248 0.300083 0.296758 0.301923 0.317392 0.318913 0.316691 
0.336767 0.33607 0.303511 0.306513 0.306486 0.324428 0.316827 0.32516 0.313424 
0.288089 0.273654 0.295834 0.381497 0.314376 0.449793 0.292733 0.295712 0.333897 
0.334183 0.334864 0.335046 0.338782 0.339697 0.339388 0.331983 0.449993 0.382186 
0.337587 0.339953 0.326388 0.319968 0.319162 0.318425 0.316835 0.324436 0.321865 
0.311164 0.285525 0.289905 0.29052 0.310033 0.309115 0.307514 0.333212 0.329075 
0.329613 0.332966 0.332289 0.331317 0.312103 0.311212 0.328489 0.265293 0.303914 
0.305638 0.311106 0.308298 0.350247 0.346186 0.348178 0.303547 0.343118 0.339904 
0.342918 0.389975 0.375888 0.367522 0.306322 0.305074 0.306915 0.284816 0.294773 
0.297917 0.299043 0.301903 0.332266 0.312548 0.318698 0.319631 0.314167 0.331746 
0.329374 0.331533 0.315928 0.313855 0.312107 0.335934 0.336123 0.349659 0.353431 
0.320755 0.32134 0.322584 0.323217 0.341709 0.340223 0.300128 0.306295 0.318043 
0.338345 0.331248 0.330898 0.33063 0.330272 0.316669 0.316766 0.330135 0.330042 
0.329726 0.330243 0.333303 0.333137 0.333262 0.351017 0.332962 0.295121 0.289668 
0.32367 0.323692 0.324549 0.324606 0.33968 0.329208 0.286863 0.331188 0.338859 
0.338112 0.341568 0.364497 0.358942 0.342202 0.327753 0.327235 0.342863 0.3358 
0.338491 0.313914 0.317904 0.319014 0.328974 0.327183 0.338633 0.338931 0.340476 
0.394228 0.353999 0.431199 0.329838 0.329528 0.329129 0.319377 0.267677 0.269758 
0.277353 0.330607 0.327693 0.302473 0.333424 0.333708 0.206712 0.217474 0.326123 
0.325352 0.325803 0.324259 0.291998 0.288895 0.305656 0.302939 0.30355 0.302793 
0.305618 0.30234 0.305694 0.30692 0.305481 0.280884 0.286228 0.288267 0.330252 
0.264534 0.265083 0.25667 0.256422 0.309744 0.309975 0.368956 0.361596 0.3379 
0.339218 0.33324 0.333256 0.333199 0.314293 0.299793 0.306927 0.343821 0.345291 
0.334033 0.33402 0.333587 0.333038 0.318308 0.311421 0.322164 0.322949 0.337561 
0.319719 0.336722 0.312596 0.333328 0.310278 0.310261 0.308476 0.313933 0.313059 
0.309532 0.309213 0.310366 0.31005 0.333328 0.310525 0.494479 0.319926 0.293812 
0.384715 0.37884 0.355899 0.341822 0.291024 0.295491 0.288186 0.361017 0.295985 
0.301448 0.293709 0.298641 0.319754 0.320581 0.319077 0.31854 0.335151 0.335895 
0.335153 0.324614 0.327248 0.33084 0.316167 0.317985 0.328869 0.333707 0.323771 
0.324116 0.336208 0.338651 0.305197 0.291697 0.29561 0.297468 0.328327 0.322948 
0.322836 0.33816 0.332832 0.328795 0.349188 0.364835 0.366461 0.316582 0.350506 
0.353539 0.328578 0.308266 0.307764 0.303418 0.331476 0.33108 0.328782 0.328642 
0.367761 0.378282 0.359221 0.353422 0.359255 0.341311 0.344454 0.339928 0.321575 
0.321824 0.352998 0.3305 0.349108 0.316478 0.316047 0.326789 0.334001 0.321407 
0.321565 0.207949 0.319446 0.318931 0.344101 0.314821 0.309204 0.312 0.308919 
0.307369 0.306079 0.318581 0.329697 0.330432 0.330223 0.201938 0.320337 0.294548 
0.336918 0.33373 0.335306 0.317884 0.317552 0.318323 0.313344 0.314588 0.31402 
0.332468 0.331941 0.33219 0.299297 0.333033 0.329295 0.332203 0.332651 0.333691 
0.334265 0.323754 0.295755 0.293029 0.300051 0.331915 0.326808 0.330158 0.239283 
0.332879 0.332487 0.332556 0.32679 0.32639 0.329754 0.327532 0.329309 0.265225 
0.312458 0.31023 0.329023 0.330217 0.3185 0.359253 0.355726 0.334504 0.335436 
0.333945 0.349214 0.330086 0.33654 0.336596 0.33328 0.315951 0.317727 0.315707 
0.325914 0.324535 0.396199 0.405933 0.41284 0.434979 0.328631 0.323155 0.32327 
0.338735 0.325549 0.330078 0.333199 0.310483 0.394963 0.385158 0.329343 0.340951 
0.333506 0.333311 0.333123 0.333259 0.321476 0.31687 0.218352 0.218617 0.231232 
0.35134 0.346796 0.34674 0.325884 0.324439 0.325496 0.314875 0.319841 0.320506 
0.328984 0.32812 0.32423 0.319205 0.217926 0.229523 0.206619 0.205512 0.302843 
0.297397 0.323241 0.330113 0.329413 0.316308 0.318249 0.318918 0.318338 0.324641 
0.305622 0.309945 0.310922 0.309837 0.304416 0.312432 0.332597 0.332887 0.332305 
0.332708 0.308412 0.306358 0.318378 0.342683 0.342731 0.31064 0.310745 0.3104 
0.254091 0.257733 0.243908 0.333398 0.332 0.333254 0.3172 0.412178 0.358518 
0.447627 0.367379 0.333151 0.332918 0.332656 0.332933 0.215517 0.348692 0.348961 
0.333387 0.333507 0.333613 0.307618 0.306227 0.306496 0.334403 0.332009 0.304272 
0.308751 0.308914 0.339693 0.340729 0.339946 0.34104 0.304101 0.318503 0.316988 
0.317607 0.323784 0.32279 0.248322 0.258556 0.247111 0.317825 0.308984 0.309168 
0.31099 0.311748 0.302603 0.309037 0.31024 0.315406 0.287607 0.332198 0.331794 
0.331802 0.32579 0.324661 0.338881 0.323283 0.34025 0.323477 0.325309 0.346933 
0.350347 0.30467 0.313164 0.336431 0.337188 0.337108 0.331831 0.30787 0.288535 
0.334894 0.335646 0.329094 0.329153 0.313025 0.314161 0.31379 0.310294 0.312071 
0.308635 0.310483 0.334838 0.335007 0.32932 0.323679 0.293829 0.261339 0.251831 
0.337203 0.336497 0.346665 0.32808 0.327618 0.327741 0.3384 0.315372 0.31012 
0.308339 0.290198 0.30824 0.322959 0.313007 0.308229 0.322131 0.321514 0.323708 
0.331265 0.31236 0.310781 0.31459 0.333083 0.332562 0.332507 0.333313 0.348683 
0.35764 0.346749 0.308257 0.306258 0.307679 0.321032 0.318979 0.317512 0.319913 
0.319986 0.334436 0.316334 0.315089 0.319788 0.318923 0.315539 0.314912 0.323076 
0.32221 0.323158 0.328301 0.226906 0.237733 0.225717 0.237114 0.330157 0.328601 
0.322371 0.289527 0.299953 0.335341 0.297457 0.202657 0.333156 0.314834 0.311743 
0.315644 0.329475 0.319756 0.332691 0.314721 0.321686 0.321302 0.319736 0.317885 
0.318872 0.291735 0.28628 0.334229 0.335301 0.288827 0.335233 0.332948 0.319219 
0.30449 0.306776 0.303469 0.318729 0.31773 0.318442 0.326363 0.311398 0.311417 
0.319306 0.419477 0.307113 0.313304 0.321239 0.330346 0.333224 0.333385 0.367087 
0.373439 0.329303 0.318827 0.318207 0.332232 0.331851 0.333251 0.236646 0.268094 
0.286418 0.272703 0.332582 0.335051 0.31965 0.317014 0.312465 0.311587 0.323335 
0.324757 0.333331 0.333342 0.34155 0.348993 0.316912 0.299982 0.301994 0.335773 
0.333046 0.3339 0.33483 0.298744 0.346909 0.342914 0.341522 0.35571 0.36206 
0.35606 0.356644 0.30658 0.310033 0.307411 0.323169 0.264267 0.309058 0.338213 
0.312291 0.332861 0.332949 0.311077 0.311538 0.290544 0.339395 0.314829 0.319129 
0.320624 0.307656 0.311691 0.315846 0.315044 0.31369 0.313068 0.312487 0.314116 
0.312567 0.326898 0.315259 0.31453 0.315634 0.31801 0.319344 0.312012 0.312289 
0.319785 0.317876 0.339619 0.321362 0.327051 0.315958 0.32043 0.313867 0.322839 
0.320652 0.316841 0.31587 0.320662 0.335301 0.334933 0.337457 0.322978 0.320742 
0.319615 0.318332 0.323628 0.314892 0.315364 0.316873 0.324882 0.292325 0.322965 
0.324957 0.323913 0.31194 0.310091 0.310714 0.325577 0.314434 0.314104 0.312184 
0.308117 0.281865 0.308251 0.320183 0.320257 0.322089 0.314521 0.241443 0.311796 
0.273375 0.28547 0.279983 0.292291 0.333376 0.333403 0.348144 0.318034 0.317912 
0.306217 0.334154 0.336644 0.311207 0.315121 0.315678 0.314636 0.292061 0.321296 
0.321128 0.296483 0.292277 0.29334 0.335714 0.343196 0.342581 0.353824 0.336439 
0.336187 0.328507 0.329991 0.332921 0.332629 0.328849 0.327501 0.329375 0.333186 
0.31912 0.328009 0.332932 0.33268 0.332919 0.33266 0.306812 0.305113 0.299359 
0.295349 0.350768 0.34689 0.266278 0.255889 0.273172 0.331339 0.333224 0.333158 
0.333996 0.327983 0.330228 0.303578 0.21867 0.312748 0.249378 0.249964 0.23894 
0.331375 0.284949 0.262044 0.271969 0.248585 0.247419 0.258401 0.26591 0.257406 
0.275771 0.336881 0.336552 0.337665 0.369407 0.368567 0.378316 0.331644 0.330925 
0.330959 0.331048 0.331617 0.332479 0.332101 0.331953 0.332358 0.207464 0.217681 
0.207038 0.331318 0.330794 0.316826 0.319767 0.307882 0.334396 0.316075 0.319281 
0.315228 0.34741 0.345852 0.339152 0.338317 0.338117 0.32309 0.333258 0.3111 
0.316454 0.317554 0.320767 0.320257 0.3196 0.308681 0.308546 0.30046 0.30412 
0.302344 0.3075 0.305042 0.331455 0.292974 0.293428 0.322801 0.288006 0.292762 
0.332871 0.332879 0.313494 0.288552 0.320322 0.325323 0.336538 0.339896 0.340026 
0.354772 0.353049 0.333175 0.291154 0.204407 0.313784 0.31431 0.320013 0.316031 
0.319133 0.453191 0.28922 0.205852 0.284879 0.342294 0.342731 0.340793 0.310644 
0.310109 0.30774 0.306187 0.309144 0.319949 0.317848 0.315932 0.331865 0.332236 
0.311021 0.326196 0.316871 0.317673 0.306577 0.312776 0.311385 0.311376 0.320616 
0.310039 0.309929 0.327141 0.325468 0.325998 0.287799 0.309463 0.320198 0.319691 
0.316197 0.303242 0.320191 0.33652 0.337109 0.324681 0.316354 0.312596 0.31197 
0.314475 0.317707 0.317903 0.314307 0.311723 0.333293 0.323721 0.228644 0.228502 
0.217528 0.326888 0.322698 0.322768 0.325939 0.358733 0.318107 0.334923 0.344322 
0.345491 0.346817 0.333849 0.336418 0.320084 0.321093 0.312867 0.314334 0.313411 
0.3286 0.323015 0.330454 0.327651 0.365533 0.356236 0.353 0.292073 0.239546 
0.357868 0.360196 0.350188 0.351687 0.330925 0.331026 0.319254 0.317997 0.295533 
0.291686 0.304716 0.301725 0.26712 0.279107 0.261264 0.318684 0.318703 0.318189 
0.362244 0.317728 0.318654 0.333489 0.33347 0.376682 0.376834 0.366078 0.333439 
0.313374 0.338423 0.338145 0.340875 0.332974 0.33146 0.301362 0.299555 0.310405 
0.310669 0.308991 0.316485 0.317229 0.316543 0.310633 0.333277 0.320333 0.304396 
0.305366 0.31287 0.312755 0.311346 0.311125 0.304703 0.308218 0.315149 0.381132 
0.329703 0.336333 0.300061 0.30748 0.334342 0.285067 0.274613 0.274454 0.319189 
0.317451 0.318729 0.336258 0.32791 0.330866 0.364699 0.311888 0.31067 0.306281 
0.289817 0.690979 0.700576 0.304065 0.30202 0.366031 0.279272 0.280677 0.498289 
0.446046 0.445281 0.342175 0.342593 0.340496 0.337156 0.337565 0.299651 0.332632 
0.332881 0.336671 0.332765 0.333288 0.333276 0.330449 0.325636 0.320666 0.32121 
0.319524 0.317713 0.433658 0.315593 0.262991 0.417368 0.307619 0.30734 0.310846 
0.331285 0.331752 0.331283 0.300686 0.302596 0.331782 0.313031 0.314966 0.312852 
0.313509 0.332049 0.332325 0.332063 0.334315 0.322015 0.321298 0.309886 0.308426 
0.309633 0.33804 0.339311 0.331263 0.335125 0.339652 0.337282 0.290097 0.335729 
0.336181 0.335149 0.33186 0.354051 0.350693 0.347081 0.329061 0.335923 0.333971 
0.333525 0.347281 0.370794 0.377471 0.321845 0.319513 0.335861 0.335249 0.330365 
0.276955 0.320084 0.243923 0.332946 0.318458 0.322901 0.296549 0.293041 0.297836 
0.309231 0.309589 0.316546 0.320329 0.316073 0.393744 0.377161 0.321037 0.326657 
0.316966 0.31635 0.379854 0.30882 0.319114 0.304067 0.306874 0.303425 0.336925 
0.33593 0.321265 0.315477 0.316974 0.339143 0.304354 0.317069 0.323558 0.324337 
0.323572 0.305755 0.302858 0.309032 0.308774 0.333473 0.263514 0.322277 0.323349 
0.337403 0.33884 0.356572 0.356721 0.340472 0.338862 0.358387 0.321197 0.319834 
0.318987 0.342346 0.315927 0.335835 0.276544 0.27539 0.327118 0.290678 0.295008 
0.291908 0.296378 0.330539 0.329732 0.325185 0.330889 0.331604 0.328445 0.334452 
0.329997 0.338894 0.308888 0.284776 0.32977 0.33024 0.304857 0.402759 0.405206 
0.318563 0.308136 0.306171 0.33292 0.341912 0.333615 0.291234 0.338536 0.33816 
0.336362 0.304145 0.299947 0.390618 0.386186 0.340349 0.339381 0.318053 0.308795 
0.306922 0.333134 0.312898 0.33248 0.332543 0.331755 0.331174 0.317774 0.31807 
0.317822 0.318344 0.327619 0.317563 0.321854 0.320031 0.319549 0.31735 0.32515 
0.311659 0.325897 0.323696 0.313424 0.310461 0.313936 0.311474 0.316108 0.302602 
0.300518 0.292439 0.298193 0.270632 0.211637 0.262159 0.277169 0.240227 0.233566 
0.334483 0.335176 0.317272 0.305372 0.313149 0.259416 0.318016 0.31309 0.313404 
0.314401 0.314746 0.304067 0.303158 0.332219 0.315701 0.329617 0.332672 0.309554 
0.305981 0.307418 0.306191 0.302752 0.321133 0.32041 0.32126 0.207448 0.216821 
0.292659 0.285305 0.284539 0.329343 0.314613 0.252987 0.22827 0.316232 0.316992 
0.302697 0.333246 0.330375 0.320613 0.203796 0.371371 0.360895 0.320733 0.321465 
0.319589 0.32027 0.316078 0.314108 0.341369 0.33122 0.31097 0.239752 0.420091 
0.312867 0.334206 0.26871 0.260433 0.273138 0.339791 0.339957 0.312157 0.329204 
0.326607 0.304374 0.312184 0.312316 0.318409 0.31733 0.246211 0.236672 0.206732 
0.295125 0.333263 0.269181 0.259726 0.347662 0.345856 0.365766 0.335311 0.288888 
0.295765 0.302379 0.321652 0.331709 0.33102 0.333985 0.334415 0.334024 0.318032 
0.319401 0.321848 0.326432 0.323298 0.322683 0.318281 0.318201 0.305666 0.30338 
0.313255 0.311652 0.326656 0.229226 0.27355 0.280486 0.27457 0.333175 0.31764 
0.278799 0.331512 0.330956 0.246103 0.321486 0.317227 0.394081 0.319773 0.240166 
0.229846 0.241756 0.328629 0.327618 0.33012 0.33319 0.319197 0.327349 0.322542 
0.237333 0.246523 0.324288 0.321898 0.313238 0.324763 0.346593 0.325643 0.402144 
0.325101 0.320084 0.321978 0.326635 0.292905 0.286878 0.3464 0.340146 0.306315 
0.274054 0.383107 0.305231 0.291996 0.336329 0.29341 0.302084 0.33982 0.327573 
0.320164 0.331746 0.33197 0.331558 0.317893 0.319831 0.333622 0.337836 0.338366 
0.33805 0.320441 0.344814 0.336965 0.335846 0.318793 0.33381 0.291607 0.316935 
0.333303 0.33292 0.325067 0.251278 0.321034 0.329618 0.300134 0.33085 0.356991 
0.35548 0.319763 0.318697 0.317582 0.295775 0.308445 0.298144 0.312077 0.287913 
0.280752 0.270654 0.283918 0.31787 0.211484 0.349281 0.343442 0.340601 0.315398 
0.316807 0.316445 0.317765 0.254382 0.332945 0.277345 0.300619 0.303884 0.204382 
0.33712 0.312766 0.333247 0.333318 0.333324 0.324072 0.337483 0.322031 0.31921 
0.332626 0.346981 0.319166 0.324422 0.332123 0.343464 0.31788 0.323849 0.325242 
0.312322 0.26056 0.316167 0.316516 0.320864 0.322274 0.323163 0.323445 0.329356 
0.312459 0.308745 0.313431 0.284165 0.283804 0.28946 0.320152 0.326381 0.235025 
0.251484 0.332889 0.353466 0.326056 0.313206 0.314533 0.317374 0.400441 0.326553 
0.324266 0.324198 0.326743 0.314389 0.202479 0.318178 0.318101 0.314571 0.357028 
0.342478 0.342398 0.320605 0.321413 0.335984 0.279288 0.252055 0.257989 0.204683 
0.226314 0.246611 0.288776 0.309908 0.318444 0.332873 0.346422 0.326788 0.324508 
0.328729 0.315162 0.334452 0.335071 0.336084 0.337081 0.336435 0.336752 0.334535 
0.318006 0.288713 0.332267 0.332532 0.332269 0.268034 0.331694 0.282659 0.306299 
0.315889 0.316891 0.328748 0.317621 0.317695 0.318285 0.318035 0.317963 0.330262 
0.302116 0.298141 0.299197 0.32111 0.287684 0.296455 0.295629 0.289635 0.245272 
0.228169 0.223785 0.340657 0.307841 0.314837 0.328688 0.31144 0.321532 0.22591 
0.337221 0.299039 0.333432 0.32225 0.321563 0.324274 0.391139 0.246637 0.319485 
0.292506 0.335744 0.323799 0.280919 0.292298 0.329693 0.31175 0.334393 0.322769 
0.315615 0.340317 0.318008 0.318309 0.321063 0.331959 0.332228 0.325917 0.324304 
0.336955 0.320018 0.290554 0.321985 0.321481 0.331962 0.331794 0.33264 0.324964 
0.332273 0.320033 0.333231 0.333155 0.331373 0.339746 0.326211 0.302374 0.324959 
0.321785 0.300214 0.305194 0.328299 0.233214 0.299742 0.303046 0.311121 0.331167 
0.320471 0.320501 0.278819 0.290883 0.220624 0.391252 0.36015 0.381542 0.227062 
0.333016 0.332976 0.332589 0.333508 0.333987 0.333942 0.317697 0.318121 0.318437 
0.309572 0.313367 0.315077 0.315551 0.313653 0.329629 0.329248 0.338579 0.311622 
0.318745 0.304148 0.299662 0.304949 0.304633 0.3307 0.33131 0.33386 0.335348 
0.333348 0.252594 0.25119 0.20761 0.265073 0.273696 0.339884 0.336388 0.199033 
0.327321 0.334332 0.328393 0.249702 0.250404 0.294525 0.295867 0.298126 0.340608 
0.313961 0.359887 0.345284 0.329611 0.326656 0.338004 0.309933 0.31111 0.355774 
0.255389 0.361453 0.318584 0.262254 0.481396 0.347832 0.32288 0.32938 0.342088 
0.316136 0.344727 0.358321 0.346848 0.305952 0.33205 0.295156 0.327239 0.280415 
0.322341 0.311705 0.318068 0.33694 0.326829 0.344269 0.334948 0.325383 0.330292 
0.293172 0.324495 0.323826 0.205771 0.305953 0.302563 0.312456 0.331408 0.286964 
0.310539 0.306893 0.457807 0.300009 0.281442 0.301148 0.317685 0.33119 0.330711 
0.333792 0.314649 0.329583 0.326937 0.304474 0.297284 0.292273 0.31096 0.305321 
0.299243 0.343599 0.342827 0.389156 0.308842 0.33246 0.33245 0.333792 0.331348 
0.331658 0.298155 0.33398 0.301862 0.301168 0.297088 0.325838 0.307941 0.311296 
0.322853 0.318362 0.32345 0.330236 0.330091 0.338655 0.34231 0.287773 0.27994 
0.343035 0.265531 0.312036 0.312307 0.227412 0.326903 0.331533 0.33339 0.333929 
0.334462 0.32486 0.310504 0.334799 0.310113 0.309794 0.317729 0.323492 0.328507 
0.203775 0.323628 0.327353 0.31887 0.313802 0.293925 0.299575 0.31947 0.265842 
0.358126 0.339116 0.369809 0.352017 0.350485 0.311558 0.318832 0.225952 0.339658 
0.330729 0.3137 0.333172 0.324222 0.314215 0.238512 0.324316 0.314366 0.329231 
0.310623 0.311247 0.313715 0.313645 0.322487 0.312927 0.313363 0.314673 0.320452 
0.351658 0.352186 0.278115 0.306736 0.344585 0.297788 0.327103 0.325034 0.347888 
0.344421 0.326385 0.32958 0.332284 0.348336 0.344807 0.3497 0.353814 0.302509 
0.314146 0.314009 0.288952 0.306396 0.311346 0.300734 0.322783 0.326619 0.328274 
0.325366 0.323 0.339319 0.3614 0.365014 0.328397 0.297684 0.33953 0.297388 
0.354807 0.341877 0.336884 0.296645 0.312312 0.312194 0.327742 0.302094 0.320213 
0.319317 0.333325 0.332269 0.33389 0.342042 0.295459 0.308613 0.322821 0.340944 
0.340187 0.331822 0.356813 0.31286 0.359935 0.362755 0.239223 0.251849 0.296983 
0.295428 0.383808 0.475667 0.322351 0.350531 0.315779 0.301393 0.320489 0.333255 
0.333161 0.330083 0.294221 0.332635 0.321947 0.310001 0.336499 0.33332 0.309974 
0.319895 0.33315 0.330141 0.333341 0.333265 0.332966 0.362942 0.258007 0.243423 
0.248932 0.259336 0.31822 0.320437 0.335849 0.333956 0.33389 0.335047 0.330336 
0.321672 0.349069 0.297289 0.309879 0.291326 0.335131 0.345134 0.286956 0.294376 
0.304546 0.317067 0.23 0.232375 0.361044 0.317085 0.330567 0.263864 0.31265 
0.310353 0.30832 0.318232 0.256976 0.333712 0.333362 0.332876 0.31816 0.312177 
0.318071 0.378244 0.333893 0.325407 0.291545 0.317546 0.285644 0.320171 0.313064 
0.294935 0.216808 0.329372 0.286685 0.345604 0.344084 0.343121 0.318107 0.333966 
0.315651 0.340974 0.309617 0.298387 0.30033 0.313332 0.253789 0.297257 0.326884 
0.333317 0.315615 0.316183 0.295984 0.313707 0.330109 0.333938 0.370409 0.335945 
0.284857 0.331047 0.31037 0.319423 0.311431 0.307116 0.316642 0.340886 0.334517 
0.335139 0.299876 0.336007 0.298758 0.31468 0.31273 0.322059 0.332865 0.33656 
0.351903 0.273774 0.332309 0.288063 0.326687 0.33024 0.295665 0.326913 0.329079 
0.316476 0.31742 0.326295 0.332519 0.31826 0.315681 0.336822 0.326218 0.361622 
0.335174 0.297271 0.337774 0.328278 0.302513 0.286033 0.335266 0.285423 0.331884 
0.332005 0.292457 0.291049 0.280042 
Stress%20yz%20component 1 12442 double
-0.102101 0.0578337 -0.0741194 0.119045 3.70222e-06 -1.14399e-06 6.70056e-06 -2.47364e-06 0.0316418 
-0.0143018 0.0375686 -0.0393016 -0.0235795 0.0480914 -0.0174408 0.0468599 0.0393974 0.0580919 
0.0485262 0.0552882 0.0544885 0.07493 0.0522883 0.0516676 0.0512818 0.0520782 0.0520177 
0.0525264 0.0535306 0.05386 0.0530191 0.0528506 0.0527034 0.0526842 0.0530404 0.0535113 
0.0535064 0.0539746 0.0543772 0.0554191 0.0587201 0.0678662 0.0667065 -0.0777251 -0.0843199 
-0.0793429 -0.0563843 -0.0518883 -0.0474315 -0.0528153 -0.0524132 -0.0531889 -0.0527732 -0.051936 
-0.0534414 -0.0537029 -0.0533358 -0.0535616 -0.0537606 -0.053468 -0.0534306 -0.0542423 -0.05418 
-0.0548498 -0.055286 -0.055749 -0.0573775 -0.0645704 -0.0479356 7.70857e-07 4.3157e-07 -1.0614e-05 
-8.47846e-06 -4.341e-06 -4.67521e-06 -1.69378e-06 -4.68699e-07 2.61133e-06 6.04419e-06 7.66833e-06 -2.50257e-06 
9.89594e-06 8.88044e-06 8.20205e-06 9.59498e-06 -9.31616e-06 7.05943e-06 -4.60004e-06 5.7221e-06 -1.41839e-06 
-2.3427e-06 -5.92543e-06 -6.64335e-06 4.36573e-06 -1.02984e-05 -1.24203e-06 0.00390423 -0.00187948 -0.000146197 
-0.000159817 -0.00013684 -9.82712e-05 -6.37601e-05 -7.45495e-05 -6.37224e-05 -5.75145e-05 -5.54344e-05 -4.37572e-05 
-5.40471e-05 -5.73687e-05 -4.96619e-05 -4.13521e-05 -3.60203e-05 -3.13984e-05 -2.72031e-05 -2.09194e-05 -1.56884e-05 
-9.39784e-06 -4.26428e-06 3.96959e-07 4.18675e-06 7.3822e-06 9.48986e-06 1.14124e-05 1.11985e-05 1.04795e-05 
8.11266e-06 4.19916e-06 3.21122e-07 -3.87221e-06 -6.27697e-06 -9.47436e-06 -1.09044e-05 -1.18028e-05 -1.09693e-05 
-9.07681e-06 -7.39276e-06 -4.6345e-06 -2.07015e-06 1.00565e-05 2.56153e-06 3.2091e-06 9.48409e-06 3.63255e-06 
-6.50582e-06 -1.02785e-05 -1.44771e-05 -1.63616e-05 -1.58618e-05 -1.36686e-05 -1.35413e-05 -1.14985e-05 -6.36532e-06 
5.71156e-06 1.43785e-05 1.80268e-05 2.10214e-05 2.30095e-05 2.45969e-05 2.36523e-05 1.82276e-05 1.31791e-05 
2.31811e-06 -5.30456e-06 -1.36118e-05 -1.89314e-05 -2.62348e-05 -3.41169e-05 -4.11065e-05 -4.6975e-05 -5.50885e-05 
-5.55851e-05 -5.4629e-05 -5.57941e-05 -5.81019e-05 -5.65573e-05 -6.19853e-05 -6.85393e-05 -8.0537e-05 -9.16991e-05 
-0.00010005 -0.00011708 -0.00018201 -0.000235796 0.00341485 0.0292348 0.0154096 -0.000489537 0.000564534 
0.000526597 0.000166467 0.000196415 -0.000163543 -0.000233231 -0.000155167 2.53916e-05 -0.00111451 -0.00869846 
-0.0140323 -0.00965445 0.00128736 -0.000517819 -0.00054437 -0.00012636 0.000258658 0.000163906 -6.9783e-05 
-8.76242e-05 -0.000277145 -0.000322169 0.001301 0.00659203 2.2322e-06 1.84355e-06 6.44428e-06 6.47227e-06 
5.04622e-06 2.8355e-06 1.56881e-06 -1.61933e-06 -2.7521e-06 1.96211e-06 -7.44745e-06 7.88797e-06 -1.07917e-05 
-9.34683e-06 -8.25234e-06 -1.10398e-05 3.45602e-06 -7.43865e-06 7.42049e-07 -3.12636e-06 3.44106e-06 3.26867e-06 
6.31527e-06 6.49446e-06 -2.92798e-07 1.0127e-06 -3.0184e-06 -0.0284583 0.00118496 0.000322056 6.47233e-05 
5.97102e-06 1.64568e-05 2.52535e-05 1.82773e-05 4.72843e-06 1.20249e-05 1.61582e-05 1.80488e-05 7.67556e-06 
1.71899e-05 2.7351e-05 2.81223e-05 2.71736e-05 2.51971e-05 2.17116e-05 1.78739e-05 1.42452e-05 8.72823e-06 
1.09691e-06 -6.40304e-06 -1.31693e-05 -1.77258e-05 -2.20005e-05 -2.68713e-05 -2.86531e-05 -2.79933e-05 -2.69344e-05 
-2.35194e-05 -1.76353e-05 -1.05358e-05 -4.87615e-06 2.14177e-06 6.16777e-06 1.07218e-05 1.34379e-05 1.40559e-05 
1.36636e-05 1.31178e-05 8.15458e-06 -2.0197e-06 -1.86331e-05 -1.80768e-05 -3.30977e-06 5.91181e-06 9.33859e-06 
1.18827e-05 1.39844e-05 1.41431e-05 1.30385e-05 8.63194e-06 2.48677e-06 -4.0664e-06 -1.18197e-05 -1.89922e-05 
-2.61018e-05 -2.90014e-05 -3.19356e-05 -3.40686e-05 -3.46899e-05 -3.03472e-05 -2.30779e-05 -1.59321e-05 -8.71981e-06 
-3.27258e-06 1.50161e-06 8.80555e-06 1.70226e-05 1.98238e-05 2.52167e-05 3.04874e-05 3.10841e-05 2.59105e-05 
2.66084e-05 2.57614e-05 2.48043e-05 2.37329e-05 3.00257e-05 4.27006e-05 5.96932e-05 7.7886e-05 0.00010874 
0.000157011 0.000127462 0.000687447 0.00117293 -0.0288642 -0.0260824 -0.00229227 -0.00065609 -0.000692818 
-0.000205918 -8.34815e-05 -0.00012009 5.73931e-06 1.35114e-06 -0.000178868 -0.000441043 -0.000469326 0.00916607 
0.0212653 0.00203592 0.00087171 0.000630501 0.000118999 0.000173818 0.000132516 5.47349e-05 1.15123e-05 
0.000159208 0.000249035 0.001434 -0.00557562 -5.85985e-07 -2.06731e-06 1.31984e-07 6.34402e-07 8.06355e-07 
1.04331e-06 -2.49627e-06 -3.16742e-06 -4.84906e-06 -4.09072e-06 -1.23128e-06 9.95692e-08 -3.3815e-06 -3.54735e-06 
-4.35848e-06 -2.34413e-07 -5.02115e-06 2.23791e-06 -1.03518e-06 -5.54659e-08 2.18323e-06 1.57388e-07 2.07779e-06 
2.43117e-06 -3.05726e-06 -8.54307e-07 7.26631e-06 0.00700188 -0.000262835 3.82038e-05 2.91491e-05 2.58079e-05 
6.11168e-06 5.24705e-06 1.70382e-05 2.08754e-05 1.97724e-05 1.69434e-05 1.69425e-05 4.68327e-06 1.31477e-05 
1.01942e-05 8.31772e-06 4.01436e-06 2.66455e-06 1.18636e-06 -1.64884e-06 -3.22839e-06 -4.88687e-06 -5.33041e-06 
-5.08476e-06 -4.65027e-06 -5.40032e-06 -4.11921e-06 -3.16347e-06 -2.45289e-06 -1.57776e-06 9.8496e-07 2.43968e-06 
3.21042e-06 4.69118e-06 4.64665e-06 5.37243e-06 5.32323e-06 4.28097e-06 3.02851e-06 1.74897e-06 1.40907e-06 
1.03525e-06 -1.03616e-06 1.25649e-07 -6.03752e-06 -2.78477e-06 -2.01697e-06 -1.74925e-06 -1.72804e-06 -1.09975e-06 
3.62046e-08 4.2877e-06 5.85521e-06 5.44086e-06 6.6142e-06 4.17811e-06 4.91684e-06 5.18322e-06 5.93125e-06 
5.49323e-06 3.69526e-06 2.05226e-06 -4.84884e-07 -2.12393e-06 -2.86559e-06 -2.4956e-06 -4.27361e-06 -6.12179e-06 
-7.42218e-06 -6.51578e-06 -6.66892e-06 -6.55695e-06 -5.72595e-06 -6.63788e-06 -6.5231e-06 -6.20552e-06 -5.03925e-06 
-4.34778e-06 -1.13822e-05 -1.09346e-05 -4.61353e-06 7.12403e-06 9.92788e-06 5.18372e-06 5.89161e-05 0.000568712 
0.00119734 0.00826068 0.00582116 0.0031946 0.00744162 0.0136142 0.00437965 0.00505146 0.00595756 
0.00623362 0.00562441 0.00607552 0.00577946 0.00575739 0.00582013 0.00618342 0.00639117 0.00608272 
0.00632938 0.00593902 0.0061305 0.00597713 0.00598977 0.00651326 0.00556087 0.00401934 0.0179404 
-0.00194867 0.000623024 4.16504e-05 5.11626e-05 -9.30769e-06 -2.95742e-05 -2.61503e-05 -6.92836e-06 5.13974e-05 
0.000212126 0.000307397 0.000569343 0.000808665 0.00469958 -0.01774 0.00172547 6.81632e-05 0.000387527 
0.00017193 5.30797e-05 2.10552e-05 -1.98104e-05 -3.57339e-05 -2.51015e-05 -9.2294e-06 -5.47381e-05 -0.00010551 
-0.000454421 -0.00317279 0.000908419 0.00618965 -0.00572632 -0.00203197 0.00210945 -1.37631e-06 2.4898e-07 
2.44183e-07 -1.38577e-06 4.25172e-07 -6.97996e-07 -1.04407e-06 2.07111e-06 3.14459e-07 -1.00317e-06 1.92549e-06 
-1.90697e-06 -1.17463e-06 -2.43002e-06 2.37924e-07 -1.76729e-06 1.16373e-06 2.66487e-07 1.00349e-06 -8.12147e-07 
1.3511e-06 6.86977e-07 -2.50606e-06 3.95341e-07 -6.5515e-05 0.00143415 4.96403e-05 5.82055e-05 7.64314e-06 
2.88906e-05 2.27514e-05 3.02791e-06 4.98736e-06 1.79706e-06 1.43045e-06 4.00665e-06 6.46995e-07 -4.5161e-06 
-2.42366e-06 -8.88567e-07 -2.24694e-06 -3.52396e-06 -3.23876e-06 -1.47022e-06 -2.71908e-06 -3.46379e-06 -3.63487e-06 
-3.39116e-06 -2.81583e-06 -2.47127e-06 -2.44664e-06 -1.97637e-06 -7.7291e-07 -1.96206e-06 5.80342e-07 1.74118e-06 
2.50501e-06 2.27095e-06 3.23764e-06 3.64886e-06 2.91929e-06 1.4665e-06 9.16299e-07 3.58627e-07 4.42965e-07 
-1.54853e-06 -1.33305e-06 2.764e-06 0.00019873 0.000421138 3.59479e-08 -4.97657e-07 9.58559e-08 8.83292e-07 
2.13241e-06 5.62874e-06 4.64623e-06 3.54743e-06 3.32019e-06 1.61659e-06 7.56434e-07 1.60804e-06 9.86412e-07 
1.71957e-07 -2.0568e-06 -3.3699e-06 -3.8122e-06 -2.61276e-06 -3.39795e-06 -3.22444e-06 -3.55462e-06 -3.37474e-06 
-2.82434e-06 -2.59302e-06 -2.06346e-06 5.27515e-07 1.17542e-06 6.40169e-06 2.02878e-06 -2.53202e-06 6.86153e-07 
3.59687e-06 1.02121e-07 1.62461e-05 1.15956e-05 2.13597e-05 1.38409e-05 2.69051e-05 2.66395e-05 -7.26377e-05 
-9.61382e-05 -0.000813439 0.00129097 0.00120044 0.000144739 0.00112923 6.3326e-05 -9.62163e-05 -0.000122554 
-6.09982e-05 -0.000133779 -8.9462e-05 2.26096e-05 -4.26384e-05 2.93298e-06 -9.71512e-05 -8.20204e-05 -0.000126003 
-3.78508e-05 -6.13689e-05 -1.05805e-05 2.475e-05 -4.52163e-05 1.42807e-05 0.000220157 -0.000371046 9.02248e-06 
-2.85166e-05 1.28039e-05 2.69872e-05 3.18635e-05 -3.48745e-05 -5.59024e-05 2.14613e-05 -2.418e-05 -8.68495e-05 
0.000153574 0.00057381 0.000553607 -0.000402837 -1.98796e-05 -7.5253e-06 -1.24517e-05 -1.16317e-05 -1.54363e-05 
-1.80889e-05 -3.89776e-05 -0.000127168 -0.000385471 -0.000241022 0.000358281 4.49387e-05 -0.000255168 -2.49222e-05 
-3.00919e-08 3.58285e-05 -0.000226899 0.000198617 -0.000572589 -3.29766e-05 -5.22645e-06 1.86454e-06 1.82882e-07 
-2.79253e-06 1.72228e-06 -3.93977e-07 9.26363e-07 3.15791e-06 -9.3424e-07 1.52333e-07 4.61508e-07 -1.82462e-06 
-5.70033e-07 -4.17635e-07 -3.91671e-07 6.1234e-07 3.10664e-07 5.78949e-07 9.65887e-07 4.23977e-07 3.33063e-06 
-6.02593e-07 -2.74859e-05 2.46345e-05 -2.87788e-07 -1.1996e-05 1.12982e-05 1.60811e-05 6.08094e-06 1.36598e-06 
2.68891e-07 1.21776e-06 -8.79173e-08 -6.32566e-07 -1.92061e-06 -1.03977e-06 -2.72418e-06 -1.99676e-06 -1.03558e-06 
-1.1726e-06 -1.40529e-06 -1.23142e-06 -7.62659e-07 3.84313e-07 -1.11747e-06 -1.01743e-06 -7.61734e-07 -3.23184e-07 
-1.55038e-06 -7.71073e-07 1.08821e-06 4.83188e-07 4.73197e-07 1.35729e-06 2.06429e-06 1.63503e-06 3.49007e-06 
8.12958e-07 -7.57284e-07 8.15383e-07 2.27766e-07 -1.42984e-06 -2.24863e-06 1.1067e-06 -8.85075e-05 -8.72933e-05 
3.56314e-05 -2.18815e-07 7.71579e-07 2.48611e-06 2.73553e-06 1.95351e-06 9.28771e-07 2.46609e-06 -3.52905e-06 
-4.27652e-06 -3.24029e-07 4.10696e-07 1.3692e-06 -2.39009e-06 -4.34757e-06 -1.01566e-05 -3.165e-06 -3.55387e-06 
-6.7057e-07 -2.67767e-06 -3.71476e-06 4.10782e-07 -2.63022e-06 -3.42639e-07 9.33042e-06 1.64233e-05 8.76802e-06 
2.27032e-05 2.06721e-05 3.0639e-06 3.44304e-06 1.56146e-05 1.15968e-05 3.54549e-06 9.87261e-06 1.18771e-05 
1.57462e-05 1.29642e-05 -1.80445e-05 -0.00022108 9.58403e-05 0.000242695 -6.05256e-05 -3.38948e-05 2.41412e-06 
-1.90137e-05 1.16445e-05 -1.08594e-05 -3.78105e-05 -3.28211e-05 -2.68478e-05 -2.72793e-05 -1.98603e-05 -2.35623e-05 
-2.31962e-05 -3.20601e-05 -3.80492e-05 -3.33065e-05 -3.23846e-05 -1.80686e-06 -2.26364e-05 -1.7527e-05 -9.44471e-05 
5.427e-06 -0.000107296 -1.77773e-05 2.00455e-05 -5.6435e-06 1.71305e-05 4.55448e-05 -3.02759e-05 -6.07626e-05 
5.38469e-05 -3.12723e-05 -0.000147279 9.70657e-05 -8.76598e-05 -5.45876e-06 -1.0571e-06 -7.09474e-06 -2.33415e-05 
-4.37691e-05 -4.64086e-05 6.12335e-05 0.000256125 -1.99895e-05 -9.22101e-07 5.35743e-05 3.73843e-06 4.62071e-06 
1.16404e-05 -2.0564e-06 2.44872e-05 4.19488e-05 2.99318e-05 -6.72595e-05 -3.95016e-05 -2.23459e-05 1.68718e-05 
-7.32653e-05 -3.73613e-06 -1.56005e-06 2.48059e-05 1.14144e-07 1.38049e-07 2.55806e-06 1.28807e-06 4.38306e-06 
2.19022e-06 -1.66832e-06 -1.11878e-06 1.66224e-06 2.55247e-06 2.45733e-06 -2.14306e-06 1.39635e-06 -1.5675e-06 
-2.40866e-07 1.15334e-06 1.02616e-06 1.2639e-06 -4.50062e-07 -2.02507e-05 9.50997e-06 1.03211e-05 -3.4097e-06 
2.34734e-05 1.89741e-06 -2.066e-06 -3.08097e-06 -6.04384e-06 1.06797e-06 9.90012e-07 4.34454e-07 8.34764e-07 
2.6461e-06 -1.93936e-06 -3.78465e-06 1.25385e-06 -2.66309e-06 -1.5797e-06 -1.00888e-06 4.63173e-09 7.2979e-07 
5.03185e-07 6.00941e-07 -3.94002e-07 3.74233e-08 2.79192e-06 -9.55425e-07 -6.73648e-07 -1.95926e-06 -3.79851e-06 
-2.61627e-06 -2.21868e-06 2.67574e-06 4.16753e-06 9.02057e-07 5.23147e-06 3.77315e-06 2.04645e-06 5.26405e-07 
-9.16081e-07 8.42394e-08 -4.53862e-07 9.23193e-06 -1.08489e-05 -1.97255e-05 -1.56739e-05 1.89289e-06 3.03583e-06 
2.29303e-06 3.52343e-06 -7.17306e-07 1.09076e-05 5.012e-07 1.59324e-06 1.15294e-06 -1.7978e-06 -6.48879e-06 
-1.18867e-05 1.1302e-06 4.43902e-06 5.74079e-08 -8.84618e-06 -4.8643e-06 4.67995e-07 7.9361e-06 4.94017e-06 
3.77908e-06 8.96436e-06 4.89679e-06 8.30472e-06 7.68473e-06 7.67818e-06 8.74236e-06 9.38377e-06 1.19631e-05 
5.7811e-06 1.78967e-06 1.23027e-05 -7.33835e-06 -2.29851e-06 5.68442e-06 -5.30123e-06 -2.50918e-05 -1.23806e-05 
-1.45119e-05 -2.71946e-08 -1.99096e-06 1.09838e-05 1.81085e-05 -1.56748e-06 -4.52654e-06 -5.27664e-07 -1.53215e-06 
-5.44979e-06 -7.29164e-06 -4.37243e-06 6.87011e-06 5.06429e-06 -9.7659e-06 -1.12297e-07 4.37826e-05 -6.48576e-05 
-5.08004e-07 2.65923e-05 -1.60609e-05 -7.44786e-06 2.96138e-05 7.06875e-06 -3.77623e-05 7.67134e-05 3.48928e-06 
-4.65197e-06 -2.76169e-06 3.39751e-05 2.51757e-05 5.31279e-05 -1.14406e-05 3.12003e-05 -4.40326e-05 -2.71864e-05 
3.6004e-05 2.36593e-05 -7.55573e-06 -1.42955e-05 -1.32087e-05 -3.39588e-06 -4.67712e-05 -1.27091e-05 -1.12423e-05 
-1.29209e-05 2.26863e-05 -0.000104126 -1.46049e-05 4.8714e-05 -4.14738e-06 2.02302e-05 3.99639e-05 2.40151e-06 
-8.93019e-06 -1.69897e-06 -1.54925e-06 -4.30708e-07 -2.39174e-06 -4.27051e-06 -1.17327e-05 9.07551e-06 7.57114e-07 
7.56419e-06 5.19026e-06 4.46337e-06 -3.06685e-06 8.07022e-07 -1.14496e-07 -2.06487e-05 -9.86276e-06 3.61659e-06 
2.53389e-05 1.37284e-05 -1.52334e-05 -1.0055e-06 -6.30805e-06 8.16025e-06 2.16872e-06 -4.02725e-06 -3.24001e-06 
-3.77115e-06 1.88324e-06 1.56967e-05 -3.13537e-06 -1.01996e-05 -1.75053e-05 -1.79709e-05 -1.09492e-05 4.84939e-06 
7.2873e-06 4.1992e-06 7.90839e-06 3.71218e-06 2.03574e-07 2.57975e-06 1.95883e-06 -2.81516e-06 -1.17514e-06 
3.19629e-06 6.97316e-06 1.41747e-05 2.55041e-06 -5.35103e-06 8.29536e-06 -9.33789e-07 -1.97216e-06 -2.89731e-06 
7.41457e-06 -3.80008e-05 -1.04089e-05 1.43512e-05 -4.15751e-06 -9.05928e-06 2.01938e-05 -1.77429e-06 6.96169e-06 
-1.47589e-06 -1.14804e-06 -3.89744e-06 -7.17926e-06 4.41814e-06 -1.3642e-05 1.62662e-05 -2.74667e-06 -1.29016e-05 
9.33469e-07 1.11766e-05 -3.90499e-06 -5.96917e-06 -6.62677e-06 -1.89813e-05 3.10883e-06 2.68626e-06 6.3464e-06 
-3.60385e-06 -4.13202e-06 3.84432e-06 -2.8931e-06 3.57701e-06 4.50868e-07 9.46539e-06 -8.00978e-07 1.00381e-05 
5.45161e-05 -1.80217e-06 1.59651e-05 -1.41574e-05 3.58024e-06 3.0323e-05 -2.18967e-05 -6.77299e-06 -8.69458e-07 
5.66383e-06 -4.89957e-06 1.32031e-05 -8.42597e-06 -8.01568e-07 5.60211e-06 -1.69795e-05 1.39386e-05 2.68291e-05 
-1.51634e-05 -2.18123e-05 -1.55759e-05 3.21959e-05 -2.15564e-05 -7.61433e-06 -6.80439e-05 -2.01535e-05 -2.49199e-06 
-4.98405e-06 2.08675e-05 -1.50355e-05 -7.1026e-08 -6.75471e-08 3.17619e-05 2.90611e-05 1.24826e-05 8.17056e-06 
2.08546e-05 2.39419e-05 -3.90285e-06 -4.23141e-05 5.02326e-05 -1.18433e-05 -4.56939e-06 -6.40601e-07 6.42865e-06 
7.91549e-06 2.60976e-05 -9.81566e-06 -1.6153e-05 2.33606e-06 2.17091e-06 8.13892e-05 2.50478e-05 5.28888e-06 
1.23963e-05 -1.12366e-07 8.31492e-07 2.77348e-06 -1.00488e-05 -9.61659e-07 -3.97097e-06 -1.35343e-05 -5.86277e-07 
9.82866e-06 -5.11168e-06 1.20367e-05 -1.63605e-06 -3.11239e-06 2.0386e-05 -5.53007e-06 4.92931e-06 1.0056e-05 
-1.2417e-05 -4.62276e-06 8.40902e-06 -5.29003e-06 2.04414e-05 -3.37842e-06 -1.12094e-05 -3.67526e-06 -1.14395e-06 
-1.56508e-06 8.09887e-06 -9.68031e-08 4.14481e-06 -3.66763e-06 5.48182e-07 1.65363e-05 -4.60705e-06 -2.98808e-06 
-4.94257e-06 -1.76564e-06 7.41337e-06 -5.35506e-06 7.80242e-06 5.88329e-06 -5.4772e-06 -1.23764e-05 2.36149e-05 
-3.0041e-05 1.81766e-05 -1.93086e-05 2.66833e-05 8.2605e-06 -6.56337e-06 1.12258e-07 -2.81174e-06 6.85823e-07 
-4.21287e-06 -1.92796e-05 -3.68256e-05 3.89135e-05 6.73291e-07 -3.46201e-06 2.9904e-05 -4.59759e-06 -7.98646e-05 
3.55449e-06 6.03827e-06 -5.15077e-07 -1.96205e-05 1.77825e-05 -1.11613e-06 -6.10661e-06 -1.35758e-05 1.38189e-05 
2.31151e-06 -7.45988e-06 -3.82894e-05 -2.49954e-05 -1.21494e-05 -5.65472e-06 -8.49966e-06 9.20188e-06 -3.89136e-06 
-3.573e-05 2.98194e-06 -1.65134e-05 -1.73029e-05 -7.90414e-06 4.00422e-05 -2.08428e-05 7.75056e-06 3.85651e-07 
-1.59035e-05 -8.28747e-06 -8.69376e-06 -7.66502e-06 7.22929e-06 -1.69027e-05 4.80723e-05 -2.93297e-06 4.41812e-06 
8.50594e-07 1.19943e-06 8.25656e-07 -2.49002e-06 -1.91359e-06 2.29534e-06 3.15521e-06 1.6425e-06 1.47271e-07 
2.58919e-06 -1.23338e-06 1.56655e-06 3.95404e-06 2.88433e-06 1.581e-06 1.75433e-06 1.13135e-06 -9.05954e-07 
7.10072e-08 -1.83834e-06 9.7186e-07 -2.55195e-06 -3.6297e-07 2.60013e-06 6.29162e-06 -1.02017e-06 -0.00179579 
-0.000681228 -0.000173595 -5.24226e-05 -4.51387e-05 -3.92589e-05 -2.33492e-05 -3.17649e-06 -9.3905e-06 -1.11058e-05 
-1.17763e-05 -1.49656e-05 -4.91389e-06 -2.86267e-06 -8.70094e-06 -9.08707e-06 -8.11822e-06 -6.06528e-06 -5.78478e-06 
-7.1599e-06 -4.59798e-06 -2.89763e-06 -9.07216e-07 1.63471e-06 2.53922e-06 3.18202e-06 4.35403e-06 5.09873e-06 
5.63117e-06 7.04219e-06 4.63433e-06 3.80589e-06 1.92911e-06 3.766e-07 -2.12572e-06 -3.00152e-06 -3.48331e-06 
-3.86493e-06 -3.5221e-06 -3.27745e-06 -2.18138e-06 -1.55455e-06 1.08901e-06 -2.72229e-06 1.38629e-06 2.3475e-06 
2.75872e-06 3.21343e-06 3.34117e-06 1.33131e-06 -1.79997e-06 -3.14467e-06 -2.00143e-06 1.06003e-06 -2.95604e-06 
-4.37144e-06 -4.78108e-06 -5.63067e-06 -6.48709e-06 -5.88527e-06 -3.76702e-06 -2.76404e-06 -1.72033e-06 2.38202e-07 
3.90788e-07 3.13615e-06 4.20396e-06 6.4792e-06 8.00762e-06 9.26434e-06 9.41651e-06 1.05943e-05 1.23065e-05 
1.16593e-05 1.28374e-05 1.39664e-05 1.61746e-05 1.28425e-05 1.05404e-05 2.32582e-06 1.25697e-05 1.53631e-06 
-1.11801e-05 2.52382e-05 5.86581e-05 -0.000761727 -0.00734883 -0.0214163 -0.0159006 -0.0161422 -0.00636955 
-0.00345278 -0.00557537 -0.00534387 -0.00503181 -0.00561069 -0.0063335 -0.00603114 -0.00570109 -0.00607626 
-0.00567388 -0.00581761 -0.00563862 -0.00600152 -0.0060561 -0.00626237 -0.00601911 -0.00599361 -0.00568302 
-0.00549524 -0.00573842 -0.00561427 -0.00846953 -0.0154549 0.000138233 0.00104501 0.000208538 9.33596e-05 
4.19094e-06 1.07656e-05 -1.08136e-05 -1.8509e-06 9.66694e-06 2.15634e-05 -0.000158505 -0.000363354 -0.000465704 
-0.0034742 0.00958226 -0.00273586 -0.000416101 -1.11349e-05 -5.4531e-06 7.9674e-06 -2.31252e-06 -3.0854e-06 
1.28124e-05 5.70766e-05 0.000175265 0.000328949 0.000568805 0.000872889 0.00411529 0.00336588 -0.00209268 
-1.47415e-06 -0.00315046 0.00227028 -4.27775e-07 -1.60543e-06 9.57618e-08 2.19123e-06 -1.84742e-06 -8.35307e-07 
5.43328e-07 1.26166e-06 -1.4702e-06 -5.92543e-07 1.81055e-06 3.3516e-07 1.16515e-06 1.79155e-08 6.33014e-07 
2.58801e-07 2.63748e-08 -1.45827e-06 -8.79404e-07 -9.00305e-07 6.13893e-07 -9.97836e-07 1.63609e-06 -6.69659e-07 
-3.56849e-05 3.15168e-06 0.0013256 0.000184774 0.000149486 -2.24735e-05 1.45435e-05 -5.09198e-06 -7.5955e-06 
-1.66084e-05 -3.49632e-06 1.76948e-06 2.84981e-06 2.36613e-06 2.04279e-06 1.41099e-06 1.00627e-06 -5.34606e-07 
-7.3945e-07 -9.89139e-07 -2.33449e-06 -2.30994e-06 -2.43851e-06 -2.81548e-06 -3.41148e-06 -3.1714e-06 -1.79196e-06 
-3.47439e-07 -1.57978e-07 -5.25201e-07 1.01597e-06 1.4541e-06 1.26433e-06 1.49471e-06 1.65761e-07 1.88736e-07 
6.80028e-07 -1.61596e-07 -8.25671e-08 1.12284e-06 5.54894e-07 -9.8359e-08 -8.01488e-07 2.02761e-06 -0.000809518 
-0.000916731 4.07757e-05 2.03807e-06 1.09802e-06 5.2399e-07 -5.52241e-07 -2.51239e-06 -2.45519e-06 -3.94191e-07 
-3.41572e-07 1.44132e-06 -2.48879e-06 -1.0918e-06 -7.30057e-07 -1.08611e-06 3.31671e-07 1.12464e-07 1.43878e-06 
1.05144e-08 1.01503e-06 8.56321e-07 6.60074e-07 5.999e-07 1.08013e-06 1.32179e-06 1.75548e-06 1.23524e-06 
-3.83799e-06 -1.03738e-06 7.13101e-08 -2.08746e-07 8.83707e-07 3.08646e-06 -1.84813e-06 -1.21962e-05 -1.13295e-05 
-4.82187e-06 -2.45918e-05 -3.02922e-05 -3.66117e-05 -2.81704e-05 -6.73355e-05 -0.00042772 -0.00332026 -0.00022236 
-1.7351e-05 -0.00138229 -0.00076263 -9.31572e-05 -0.000195972 -0.000148256 -8.81491e-05 -3.79798e-05 -0.000152068 
-3.84354e-05 -0.000122442 5.19393e-05 -4.20622e-05 1.98463e-05 5.44045e-06 -3.13999e-05 -4.51577e-06 4.87809e-06 
-0.000116114 -9.619e-05 -0.000161495 0.000120929 0.000569327 -0.00090196 -7.37437e-05 -7.01753e-05 0.000146844 
2.53476e-05 7.05757e-05 5.6952e-07 1.72405e-06 -2.15212e-05 -3.82531e-05 -0.00011684 -9.3719e-05 -0.000277878 
-0.000343824 -0.000164467 -3.47582e-05 -2.24816e-05 -1.04956e-05 -1.85406e-06 9.24626e-07 1.14086e-05 2.57467e-05 
3.82908e-05 -2.01836e-05 1.99458e-06 -0.000919552 -0.000366592 2.16412e-06 -0.000201731 0.00113999 -0.000463119 
-0.000873413 0.000392526 0.000484667 -0.0011185 0.000396551 -1.23638e-06 -4.01117e-07 9.18482e-07 -1.63388e-06 
-2.01035e-06 -4.25156e-07 -3.13005e-07 2.98782e-06 -5.42012e-06 7.68559e-07 -2.5462e-07 2.33147e-07 5.7681e-07 
-6.96712e-07 -1.49221e-06 -1.07573e-06 -9.91552e-07 -1.23872e-06 6.06265e-07 1.50185e-06 -5.7451e-05 -2.37126e-05 
3.23974e-05 0.000144299 -2.06574e-05 1.32336e-05 -6.19777e-07 1.92372e-06 5.37451e-07 2.76789e-06 3.55998e-06 
4.59322e-06 4.59972e-06 4.6794e-06 3.63751e-06 2.22341e-06 -2.5734e-07 -1.80016e-06 -3.36348e-06 -3.13467e-06 
-2.30686e-06 -1.87375e-06 -5.27995e-07 -1.42639e-06 -6.20868e-06 -1.15542e-06 -1.53155e-06 -9.79225e-08 7.07347e-07 
9.10117e-07 1.79891e-08 2.39575e-06 2.9076e-06 -7.13972e-07 -1.46786e-06 -6.75665e-07 1.55714e-06 3.36522e-06 
-2.19905e-07 8.15964e-07 2.78591e-07 2.36564e-05 8.03695e-07 4.61775e-07 -8.67129e-07 -2.31268e-07 2.56586e-06 
1.62443e-06 1.85287e-07 5.00621e-06 1.5497e-07 3.08743e-07 5.1556e-07 1.96609e-06 3.73695e-06 4.33719e-06 
-2.71024e-06 2.65379e-06 1.21564e-07 -1.39561e-06 4.54855e-07 -8.62966e-07 -1.03457e-06 -2.106e-07 -1.41722e-05 
-1.29057e-05 -1.3137e-05 -1.43565e-05 -7.031e-06 -2.98927e-06 -8.62086e-06 -4.55449e-06 5.71909e-07 -9.00409e-06 
-8.39216e-06 3.32876e-06 -3.54855e-05 -2.86212e-05 -1.4961e-05 -5.9987e-05 -3.94034e-05 -0.000177894 0.0002282 
0.000192392 1.95685e-05 1.39351e-06 5.94538e-05 1.92101e-05 4.04453e-06 1.19619e-05 2.21001e-05 1.63229e-05 
6.2066e-06 1.55209e-05 7.93204e-06 1.85177e-05 1.9666e-05 2.63715e-05 1.55518e-05 1.88804e-05 6.0136e-05 
7.22931e-05 0.000102802 7.51793e-05 -5.76051e-05 -3.45259e-05 -6.61962e-06 -0.000189983 -0.00013886 -2.75737e-05 
-6.6596e-06 -6.31263e-06 8.55932e-06 -1.67208e-05 -2.45741e-05 3.22602e-06 -1.28187e-05 5.61451e-05 -2.44402e-05 
9.67606e-05 -1.60753e-05 -5.34869e-06 -4.20622e-06 8.80532e-07 7.74683e-06 1.09864e-05 3.66287e-06 -7.79172e-06 
-7.49177e-06 -0.000148484 3.00224e-05 2.3897e-06 7.56903e-07 -5.77864e-05 8.14998e-07 1.35073e-06 -0.000147347 
-4.49642e-05 -6.08978e-05 7.28951e-05 -0.000122684 -9.72365e-05 0.000175833 -0.000107086 6.69973e-07 -3.76468e-06 
-1.17256e-06 -2.01118e-06 8.93701e-07 -1.13361e-05 -3.21068e-06 -3.34671e-06 1.22254e-06 -1.16257e-06 -1.59926e-06 
1.4272e-06 -6.77862e-07 4.13882e-07 1.67746e-07 4.73846e-06 -1.55146e-05 6.77567e-06 -7.86531e-07 4.72189e-06 
-6.61718e-06 -6.53688e-07 1.70971e-06 4.79425e-06 8.64465e-06 1.31597e-06 -4.90427e-06 5.30074e-08 3.24452e-06 
2.2122e-06 4.16574e-07 1.27379e-06 3.38186e-06 2.55171e-06 8.15659e-07 -8.25607e-07 -4.56971e-06 -5.38925e-06 
-7.56566e-06 -5.37208e-06 -1.93153e-06 -1.98418e-06 6.60487e-06 -1.61792e-06 -3.04464e-06 -7.3212e-07 3.31753e-06 
-3.7495e-06 6.26e-07 4.00875e-06 2.73403e-06 1.71195e-06 -7.558e-07 3.38607e-05 2.97715e-05 -7.05344e-06 
-4.17914e-05 -1.54826e-05 -2.54686e-05 1.15403e-07 -4.54263e-06 3.10787e-06 -5.31904e-06 6.98171e-06 -4.10576e-06 
6.48944e-06 7.86876e-06 2.05886e-06 9.66826e-06 1.0774e-05 -8.34443e-06 -5.20424e-06 1.09619e-07 -3.44082e-06 
-5.17236e-06 -3.99745e-06 -1.04041e-05 -6.80504e-06 4.32479e-06 3.4207e-06 3.70788e-06 -1.26364e-05 -3.80857e-06 
-4.62793e-06 -2.54832e-06 7.78999e-07 5.12895e-07 -8.74556e-07 -4.747e-06 -1.9206e-06 -7.35005e-07 -1.71021e-06 
-2.56405e-05 6.78855e-07 4.57533e-05 7.06253e-06 1.9927e-05 1.11037e-06 -2.52568e-05 1.70515e-05 -1.21549e-05 
4.21679e-05 -1.19741e-05 -8.11464e-06 4.95966e-06 -9.45574e-06 -7.48382e-06 5.26184e-06 4.51296e-06 -4.80321e-06 
-9.09263e-07 4.51211e-07 1.04882e-05 1.75064e-05 1.4557e-05 -1.43173e-05 -1.89237e-05 -2.73992e-06 9.85382e-06 
1.92216e-05 -1.19413e-07 7.14933e-07 -3.5175e-05 2.65726e-06 -1.19497e-05 -4.59149e-06 2.81905e-06 -5.20282e-06 
-1.48116e-05 -1.97937e-05 3.6495e-05 -2.20686e-05 6.03353e-07 -4.08653e-06 -7.06969e-06 3.06177e-08 -3.12767e-07 
-8.4281e-06 -2.12147e-05 -3.39891e-05 -4.21152e-05 4.99254e-05 9.72e-05 -7.67549e-06 -1.89144e-05 4.31449e-05 
-7.44957e-05 1.52652e-07 -1.32644e-05 -1.73461e-06 -1.06611e-06 -5.83743e-05 -1.4193e-06 1.57171e-05 -5.70179e-05 
-3.86356e-05 3.43091e-05 1.54314e-05 4.78336e-06 -1.35999e-05 1.45211e-05 -1.88896e-05 6.52538e-06 -2.81369e-06 
-1.93789e-06 7.40204e-07 -1.72363e-06 1.01223e-07 -4.456e-07 2.86113e-06 -1.60219e-06 -2.13964e-06 -7.64997e-06 
2.33543e-05 -6.1723e-06 -1.98168e-07 4.41647e-06 5.42516e-06 -9.34771e-06 1.83131e-05 4.39764e-06 -1.64313e-05 
-1.54936e-05 -1.46897e-05 -1.29278e-05 -8.65814e-06 -3.33579e-06 -3.12834e-06 -6.81395e-06 -4.76374e-06 1.63833e-05 
3.71901e-06 -6.99055e-06 9.29313e-08 1.02225e-05 1.29323e-05 -1.04746e-06 5.80703e-06 5.89587e-06 1.1744e-06 
-1.9738e-06 3.63296e-06 2.1462e-05 2.18527e-06 2.94907e-06 6.81837e-06 -1.32161e-05 4.10968e-06 -2.58716e-06 
9.91421e-06 2.71173e-06 -4.10379e-06 -2.45385e-06 -1.02724e-05 -2.60892e-06 -1.38477e-05 -2.0263e-05 4.51704e-06 
1.26886e-05 3.62116e-06 -1.49827e-05 9.30694e-06 -7.98637e-06 3.505e-05 6.59e-06 -1.10147e-05 -6.40272e-06 
-1.33156e-06 9.06342e-06 -8.55134e-06 1.67803e-05 2.70854e-05 -2.59307e-05 -3.99306e-05 9.59821e-06 1.15862e-05 
-1.85003e-07 -2.12639e-05 8.31766e-05 -7.03858e-06 3.2459e-06 -1.09547e-05 3.21029e-07 -1.2492e-05 2.58344e-05 
7.49695e-07 9.89339e-06 -5.8867e-07 5.02844e-06 2.01536e-05 -5.16584e-05 -6.44156e-05 1.30771e-05 -2.22183e-05 
-3.50659e-06 -5.31865e-06 -6.71406e-06 -6.5761e-06 9.1625e-06 2.59659e-05 -1.57859e-05 -1.21441e-05 1.42434e-05 
-9.73368e-06 2.01987e-06 -7.7368e-06 3.91446e-06 2.02628e-05 -5.1451e-05 -2.7617e-05 -4.04412e-06 8.79147e-06 
-9.93642e-06 -3.56871e-06 -7.5588e-06 -7.54221e-07 -1.1537e-05 1.32995e-05 -6.59955e-06 -1.83093e-05 0.000105896 
-2.17722e-05 -2.9681e-05 2.18257e-05 2.27279e-06 -1.23795e-05 1.60567e-05 -1.29424e-05 2.01303e-06 2.44092e-05 
-1.65274e-06 -2.62073e-05 -1.29549e-05 -2.20698e-06 -2.18826e-05 -4.28893e-06 -4.49197e-05 -1.03237e-05 2.57623e-05 
-2.31517e-05 -1.05787e-06 1.04381e-05 -9.43186e-06 1.8866e-06 -1.63114e-05 -4.64684e-05 1.47137e-05 -1.23656e-05 
1.95607e-05 -3.20658e-06 -7.14176e-06 -1.05283e-05 3.16832e-05 1.66065e-05 4.90156e-06 -5.26372e-06 5.62858e-07 
-1.09184e-05 1.1067e-05 4.66057e-06 -2.67734e-05 -1.89416e-05 3.15621e-05 1.38843e-05 -1.02662e-05 -4.23568e-06 
-1.07638e-05 1.41526e-05 -5.65439e-06 -1.08919e-05 -4.77132e-05 -1.02992e-05 5.41586e-05 -7.35942e-06 -1.0994e-05 
-1.38962e-05 -7.04491e-06 -9.08086e-06 -1.28136e-05 1.59965e-05 1.08566e-05 -9.3809e-06 3.2389e-05 2.76443e-06 
5.95966e-05 -5.9011e-06 1.84114e-05 -2.22177e-05 6.93909e-06 -1.97379e-05 -1.49973e-05 1.56824e-06 1.22436e-06 
6.51703e-06 9.11031e-06 0.000110324 1.63024e-05 -1.88194e-05 2.39267e-05 -3.10022e-05 5.60283e-05 -5.93401e-06 
-1.28609e-05 -4.01305e-05 1.61086e-05 3.74883e-05 2.64366e-05 -0.000231043 -0.0262761 0.0392303 0.0548121 
0.0612344 0.0522224 0.048023 0.0749891 0.0744341 0.073547 0.0697064 0.068575 0.0694871 
0.0706228 0.0699188 0.0714063 0.0724234 0.0720018 0.0713078 0.0711353 0.0709952 0.0706786 
0.0716321 0.0716263 0.0716225 0.0718735 0.0727523 0.0746753 0.0830357 0.101061 0.104402 
-0.0946558 -0.092655 -0.0800602 -0.0745955 -0.0768884 -0.0445406 -0.0741166 -0.0709819 -0.0720043 
-0.0729625 -0.0707387 -0.0719537 -0.0729359 -0.0722711 -0.0718628 -0.0724322 -0.0729563 -0.0721959 
-0.0735607 -0.0731493 -0.074109 -0.0748526 -0.0750275 -0.076874 -0.0807953 -0.0906169 -0.0864678 
2.13263e-05 -9.44644e-06 -1.75434e-06 -2.35174e-05 -2.22774e-05 -1.81285e-05 -1.67139e-05 -9.7478e-06 -5.40384e-06 
-4.12156e-06 2.4763e-05 2.60459e-05 7.35542e-06 2.93419e-05 2.53217e-05 2.06597e-05 -2.87203e-06 7.9549e-07 
-7.19804e-06 1.07408e-05 8.27723e-06 5.13027e-06 -4.72408e-06 -8.66379e-06 -1.25708e-05 -5.56116e-06 -6.74268e-06 
-6.31063e-06 -0.0350952 0.00274516 -0.000699058 -0.000424971 -0.000310564 -0.000219402 -0.000150859 -0.000120581 
-0.000113545 -9.49456e-05 -8.95251e-05 -8.3223e-05 -7.95495e-05 -7.18862e-05 -9.07134e-05 -7.6618e-05 -6.80163e-05 
-5.84161e-05 -5.31025e-05 -3.8718e-05 -2.90986e-05 -1.8873e-05 -7.33729e-06 4.79852e-06 1.64963e-05 2.03849e-05 
2.542e-05 2.96171e-05 3.06863e-05 2.57647e-05 2.28896e-05 1.51632e-05 5.74911e-06 -4.83504e-06 -1.27009e-05 
-1.88152e-05 -2.17454e-05 -2.2351e-05 -2.27785e-05 -2.05684e-05 -1.70219e-05 -1.12173e-05 -2.9171e-06 9.43224e-06 
1.42035e-05 9.45201e-06 1.14305e-05 -4.20358e-06 4.81118e-06 -3.69314e-06 -1.34782e-05 -1.77693e-05 -2.35926e-05 
-2.40718e-05 -2.34303e-05 -2.28601e-05 -2.16105e-05 -1.63745e-05 -3.69463e-06 9.4816e-06 1.99102e-05 2.60002e-05 
3.32266e-05 3.6297e-05 4.08006e-05 3.67207e-05 2.92753e-05 1.7208e-05 2.51419e-07 -1.04031e-05 -2.43287e-05 
-3.48821e-05 -4.41801e-05 -5.19992e-05 -6.4577e-05 -6.72509e-05 -7.86485e-05 -7.30001e-05 -7.50996e-05 -7.39268e-05 
-7.5053e-05 -7.71148e-05 -9.23812e-05 -0.000110629 -0.000132429 -0.000155765 -0.000195847 -0.000268793 -0.000377479 
-4.12865e-05 0.0266616 -0.0194678 -0.0256964 -0.0091875 -0.000243223 0.000512759 0.000550909 0.000273509 
0.00051271 0.000354553 -0.000412876 -0.000443704 2.97033e-05 -0.000391775 -0.00595896 -0.0208123 0.0174422 
0.0561828 -0.0207334 -0.00243478 -0.000217914 -0.000931222 -0.00107437 0.000482048 0.000280186 -0.000192349 
-9.04e-05 -0.000183543 -0.000926808 8.18881e-05 0.00550359 -0.00177563 1.83758e-06 2.81495e-05 8.00578e-06 
1.50235e-05 1.22997e-05 3.90031e-06 -1.15685e-06 -9.01637e-06 -1.36647e-05 -2.01386e-05 -8.91388e-06 -8.42115e-06 
1.84546e-06 -2.41666e-05 -2.79079e-05 -3.15379e-05 -7.94568e-06 -2.53686e-05 -1.28053e-05 1.14097e-05 6.51859e-06 
1.90612e-05 2.07755e-05 2.29816e-05 1.98906e-05 5.02114e-06 2.68997e-06 -2.48541e-06 0.036063 -0.0189543 
0.00190076 0.000283195 6.6204e-05 3.7272e-05 2.89085e-05 2.85899e-05 1.43141e-05 1.73295e-05 1.72415e-05 
2.45166e-05 3.4348e-05 3.69227e-05 3.11451e-05 4.48594e-05 4.34045e-05 4.22708e-05 3.39297e-05 3.3278e-05 
2.62447e-05 2.00903e-05 1.26428e-05 4.10521e-06 -3.90369e-06 -1.51969e-05 -2.55852e-05 -3.02898e-05 -3.87074e-05 
-4.06985e-05 -3.9401e-05 -3.74951e-05 -3.21575e-05 -2.45824e-05 -1.52696e-05 -5.91198e-06 4.65187e-06 1.13279e-05 
1.82046e-05 2.09539e-05 2.19005e-05 2.2316e-05 2.05793e-05 7.4e-06 -2.0576e-05 -1.709e-05 -2.44341e-05 
-9.30854e-06 6.67805e-07 1.34144e-05 1.9367e-05 2.11867e-05 2.28937e-05 2.08388e-05 1.58217e-05 8.22007e-06 
-1.69589e-06 -1.38934e-05 -2.64247e-05 -3.90681e-05 -4.4778e-05 -5.1164e-05 -5.17135e-05 -4.9621e-05 -4.80102e-05 
-3.3529e-05 -2.29097e-05 -1.00282e-05 -1.87282e-07 7.59124e-06 1.27094e-05 2.59297e-05 3.46568e-05 3.91334e-05 
4.91738e-05 5.296e-05 4.40276e-05 3.94506e-05 3.6808e-05 3.4157e-05 3.05202e-05 3.4864e-05 4.68246e-05 
6.76855e-05 8.75212e-05 0.000123642 0.000181199 0.000267594 0.000571389 0.000945769 -0.00343081 -0.00534573 
0.0754684 0.0113524 -0.0148336 -0.00104302 -0.00120087 -0.00106073 -5.44395e-05 -0.000142037 3.23846e-05 
6.2109e-05 -0.000146833 -0.000959202 -0.00124036 -0.000988243 -0.00904284 -0.0298325 0.0161886 0.00680546 
0.0013848 0.000649467 -2.07822e-05 0.000111303 0.000279818 0.000229492 3.92396e-05 0.000502877 -7.3029e-06 
-0.000828535 0.00355735 -0.0158284 3.92517e-06 -3.05235e-07 0.0025325 0.0197136 -0.00686177 0.0227568 
-0.0188306 -0.0071875 -0.0183602 -0.0231351 -0.0209161 -0.0203055 -0.0154263 -0.01989 0.00396004 
-0.000860687 -0.00207567 0.0180031 0.0213261 -0.000740667 -6.98467e-05 -2.06553e-05 -0.000158712 -0.000120768 
-0.000562438 -4.97323e-05 -9.67351e-05 -0.000294972 0.000391558 0.000120429 0.000289869 -9.94036e-06 -3.57441e-05 
4.43992e-06 0.000464156 -0.000134499 -0.000221183 -0.000405495 0.000131727 -0.000405702 -2.04551e-05 -5.75767e-05 
-0.000237405 0.000361933 -0.000408829 -0.000108121 -8.06974e-05 0.000357859 -0.000716559 0.000487234 -0.000573196 
0.000408195 -0.000531529 0.000841987 -0.00059155 0.000635189 -0.00166701 -0.00062059 0.00260628 0.0137332 
7.62256e-06 4.59242e-06 1.87748e-06 4.94642e-06 -8.8083e-06 -1.84513e-06 -6.83674e-06 -3.50191e-06 1.70403e-06 
-5.0059e-06 -1.25855e-06 -2.20066e-06 -5.16188e-06 -4.7256e-06 -3.59629e-06 -6.61055e-06 -5.23414e-06 -5.52364e-06 
-6.23988e-06 -3.86871e-06 -1.06318e-05 -6.23438e-06 -4.67043e-06 -1.16367e-05 -6.34628e-06 -9.4048e-06 -1.68406e-05 
-2.16849e-06 6.51553e-06 -1.07329e-05 2.6953e-06 5.03568e-07 -5.90257e-07 1.16729e-05 1.67229e-05 5.94891e-06 
3.35844e-06 5.36238e-06 -6.32248e-06 -1.18749e-06 3.98088e-06 -1.06709e-05 -2.75085e-06 2.57311e-06 -1.21009e-05 
2.94702e-06 -1.05902e-05 -1.30316e-05 -1.14861e-05 -2.9659e-06 -8.64986e-06 2.4196e-08 -3.77668e-06 -1.36939e-05 
-3.64258e-06 8.49855e-06 -6.89697e-06 2.28754e-06 4.70271e-06 9.58007e-06 5.13374e-06 4.25258e-06 1.1448e-05 
3.73742e-06 3.14899e-06 1.22914e-05 8.50051e-07 8.03951e-07 8.37938e-06 1.85207e-08 4.03544e-06 1.06717e-05 
5.87688e-06 -1.2529e-05 2.04154e-06 -9.53227e-06 1.94648e-06 -4.5435e-06 2.75085e-06 9.17726e-06 1.74678e-05 
2.99307e-06 -0.0172252 0.0101483 0.000106288 -0.000254581 0.000129924 0.000485189 -1.21898e-05 4.22232e-05 
-0.000168746 -1.19712e-05 4.32717e-05 -5.519e-05 -2.45771e-05 2.46002e-05 -6.56967e-06 -2.59789e-05 1.28515e-05 
-6.81685e-06 -2.11628e-05 -1.35399e-05 -5.90924e-06 -2.14461e-05 3.5166e-06 -1.58536e-05 -1.83706e-05 4.95183e-06 
9.47521e-06 -1.69523e-05 3.24145e-06 1.17908e-05 -1.7833e-05 7.66914e-06 1.01375e-05 -1.0046e-05 2.58627e-05 
5.36998e-06 -2.50234e-05 -7.13416e-06 1.66044e-05 -2.85424e-05 -5.55674e-06 1.14583e-05 -2.51597e-05 -9.11643e-06 
7.50801e-06 -2.26526e-05 -1.11657e-05 5.81312e-06 -2.12006e-05 -1.41017e-05 3.47588e-06 -1.97976e-05 -1.40286e-05 
1.57654e-06 -1.73193e-05 -1.49348e-05 -4.57492e-07 -1.71366e-05 -1.52175e-05 -6.20861e-08 -1.59977e-05 -1.39879e-05 
-1.20855e-08 -1.2057e-05 -1.32222e-05 -8.34472e-07 -9.94694e-06 -1.23412e-05 -1.07947e-06 -6.35465e-06 -1.13701e-05 
-2.00538e-06 -1.30436e-06 -6.42409e-06 -1.67489e-06 1.78614e-06 -2.86228e-06 -1.51896e-06 3.67369e-06 -4.85562e-07 
-9.66679e-07 6.5145e-06 2.56019e-06 -6.88445e-07 8.46695e-06 6.25281e-06 -1.79745e-06 1.19846e-05 7.41645e-06 
-4.6946e-06 1.2487e-05 9.51368e-06 -2.74793e-06 1.24544e-05 1.11596e-05 -3.44783e-06 1.0878e-05 1.12989e-05 
-3.48994e-06 8.87453e-06 1.04656e-05 -1.93578e-06 6.05253e-06 8.40527e-06 -7.91134e-07 1.36921e-06 4.94781e-06 
1.0257e-06 -2.20338e-06 1.48652e-06 2.85379e-06 -5.91355e-06 -1.41245e-06 3.82675e-06 -7.47949e-06 -3.39749e-06 
3.47035e-06 -8.67627e-06 -6.23387e-06 3.36058e-06 -1.09067e-05 -8.98644e-06 5.30353e-06 -1.07874e-05 -1.20032e-05 
5.68153e-06 -9.79262e-06 -7.89393e-06 6.47197e-06 2.72355e-06 1.20922e-05 1.23058e-06 0.0322956 3.98184e-06 
-3.46203e-06 -2.4758e-06 -7.8561e-06 -9.55214e-06 -6.1931e-06 -9.37783e-06 -1.12991e-05 2.22265e-07 -9.66832e-06 
-1.30664e-05 -1.34909e-07 -9.00841e-06 -1.40702e-05 2.89009e-07 -7.01276e-06 -1.22114e-05 -9.31309e-07 -3.9241e-06 
-7.98687e-06 -1.97055e-06 2.8589e-06 -1.30177e-06 3.00958e-07 8.52038e-06 4.06304e-06 2.70502e-06 1.18228e-05 
8.85181e-06 1.43793e-06 1.37087e-05 1.62402e-05 -2.37256e-06 1.79428e-05 2.21887e-05 -3.11535e-06 2.04835e-05 
2.60817e-05 -3.9903e-06 2.05484e-05 2.51715e-05 -3.15884e-06 1.77548e-05 2.61961e-05 9.66062e-07 1.54616e-05 
2.42108e-05 3.42222e-06 9.75029e-06 2.01569e-05 4.87518e-06 3.05132e-06 1.18827e-05 5.38404e-06 -2.40324e-06 
5.19999e-06 5.81863e-06 -6.91398e-06 -2.54009e-06 4.14161e-06 -8.33278e-06 -4.91095e-06 4.15006e-06 -1.1497e-05 
-1.03239e-05 1.64217e-06 -1.38254e-05 -1.39474e-05 -1.05085e-06 -1.70615e-05 -1.8283e-05 -3.00305e-06 -2.35855e-05 
-2.6566e-05 -4.14837e-06 -2.71572e-05 -2.94088e-05 -3.81335e-06 -2.82551e-05 -3.50999e-05 -3.16117e-06 -2.93738e-05 
-3.94688e-05 -3.94553e-06 -2.75298e-05 -3.87212e-05 -3.01768e-06 -2.75757e-05 -3.63803e-05 -5.69127e-06 -2.57105e-05 
-3.63592e-05 -7.96725e-06 -2.49295e-05 -3.65747e-05 -9.13438e-06 -2.39971e-05 -3.67208e-05 -9.21567e-06 -2.24584e-05 
-3.8169e-05 -1.05308e-05 -2.32783e-05 -4.44631e-05 -1.72501e-05 -2.07148e-05 -4.8297e-05 -2.45774e-05 -1.43509e-05 
-5.06872e-05 -2.61354e-05 -2.26876e-06 -5.04217e-05 -2.02676e-05 1.56742e-05 -4.57011e-05 -1.92097e-05 5.04507e-05 
-6.02569e-05 -3.25526e-05 0.00020841 0.0001518 4.5663e-05 0.000438923 0.00178568 0.000123731 0.00607955 
0.0155626 0.00225058 -0.0197782 -0.0313545 -0.0321456 -0.0328284 -0.0293881 0.00689727 -0.0316912 
-0.0290557 0.007769 -0.0231076 -0.0255999 0.00840517 -0.0112274 -0.0169062 0.0124519 -0.024632 
-0.0262802 0.0134768 -0.0225225 -0.0256023 0.00739699 -0.022057 -0.0247521 0.00758053 -0.0220865 
-0.0239712 0.0081747 -0.0223263 -0.0244276 0.0079163 -0.0217731 -0.0245053 0.00769169 -0.02272 
-0.0247514 0.00825193 -0.0225531 -0.0245297 0.00814983 -0.0222669 -0.0240628 0.00826452 -0.0222493 
-0.0238138 0.00866972 -0.0225789 -0.0233214 0.00874744 -0.0232609 -0.0236885 0.00835942 -0.0232441 
-0.0236263 0.00826893 -0.024074 -0.0242467 0.00827614 -0.024172 -0.0242871 0.00813782 -0.024883 
-0.024725 0.00832152 -0.0253086 -0.024744 0.00835085 -0.0255765 -0.0243681 0.00863767 -0.0274628 
-0.0272721 0.00905419 -0.0313511 -0.0285278 0.010028 7.40776e-05 -0.0137218 0.0037304 -0.0148543 
0.000762383 0.00193995 -0.000255214 -0.000302081 -0.00017515 0.000370889 -0.000174992 5.08258e-05 0.000144079 
-0.000222047 -0.000114522 0.000145937 -0.00021034 -0.000111876 7.81003e-05 -0.000219324 -0.000111099 4.07036e-05 
-0.000235784 -0.000110106 9.21523e-05 -0.000113004 -0.000103576 0.000115242 -0.000140537 -3.37934e-05 0.000272441 
-0.000143002 -3.73369e-05 0.000379559 -0.000758947 -0.000203233 0.000444537 -0.00282063 -0.00175001 0.000279765 
0.00641746 -0.00233786 0.0025035 0.00475543 0.00415614 -0.00328673 -6.89056e-05 -0.000595918 -0.00139824 
0.00211813 -1.45596e-05 0.000304172 0.000432819 -4.54447e-05 -5.54313e-05 0.000285887 -0.000107705 -0.000165069 
0.000151747 -3.67818e-05 -9.34868e-06 6.28499e-05 -3.3157e-05 -3.55935e-05 6.4312e-05 -8.97775e-05 -7.23192e-05 
3.40445e-05 -0.000133658 -8.40156e-05 4.84039e-05 -0.000126717 -9.04054e-05 5.14044e-05 -0.000200656 -0.000319212 
4.19496e-05 -0.00031746 -0.00053518 4.45154e-05 -0.00125181 -0.00110299 4.25431e-05 -0.0135648 -0.00480527 
-0.00112723 1.85525e-05 -0.0122929 0.0195247 -0.0234391 -0.0153957 0.0106812 -0.0253417 -0.00126261 
-0.0113827 0.0159926 0.00095422 0.0173222 -0.0118186 -1.36046e-05 -0.00156291 0.00692021 0.0123198 
0.00777758 0.00285921 3.70401e-06 -1.62833e-06 3.67684e-06 -6.10181e-06 -2.39349e-06 -8.64014e-06 1.64442e-06 
-4.30508e-06 -3.21558e-06 2.00044e-06 4.14309e-06 -2.03337e-06 -4.86224e-06 8.40918e-06 -2.71696e-06 -4.70651e-06 
-7.52751e-06 -5.12176e-06 -7.03537e-06 -7.91814e-06 -5.29631e-06 -3.49983e-06 -7.06926e-06 3.23985e-06 -6.81559e-06 
-4.59999e-06 2.2339e-06 -1.33158e-05 4.36823e-06 -2.22543e-07 -9.47597e-06 5.53959e-06 3.03882e-07 -1.28545e-05 
1.95534e-06 -2.76918e-07 -1.21929e-05 -2.95161e-06 -2.33093e-06 -1.2012e-05 -4.09922e-06 -2.95981e-06 -8.61338e-06 
-5.4165e-06 -6.83245e-06 -4.61086e-06 -6.01769e-06 -3.07562e-06 -5.68606e-06 -7.53113e-06 -2.60918e-07 2.98455e-06 
7.18882e-06 3.07379e-07 5.15339e-06 8.34425e-06 3.25247e-06 1.70052e-06 7.50464e-06 5.08388e-06 6.39854e-06 
1.03611e-05 6.8185e-06 3.39037e-06 6.00429e-06 2.862e-06 9.67542e-07 1.58747e-06 4.25091e-06 5.95247e-06 
-3.19236e-06 8.17217e-05 -0.000348896 0.00336981 0.00762256 0.00093223 -1.6207e-06 3.5042e-05 0.000158825 
0.00012585 0.000180536 -1.50665e-05 3.63141e-06 8.05705e-05 5.49416e-05 1.89991e-05 6.2812e-05 0.000106474 
3.82372e-06 2.23191e-05 9.5703e-05 2.59244e-05 8.11099e-05 4.11872e-06 2.32599e-05 6.11867e-05 2.10712e-05 
2.28691e-05 5.75227e-05 2.94165e-05 2.5414e-05 5.2647e-05 2.42234e-05 2.84241e-05 5.37634e-05 2.19207e-05 
2.25738e-05 4.50983e-05 2.37747e-05 2.45499e-05 4.307e-05 1.53802e-05 3.12494e-05 4.07475e-05 1.5523e-05 
3.42575e-05 3.78648e-05 1.63747e-05 3.21251e-05 3.25934e-05 1.34465e-05 2.96155e-05 2.7405e-05 8.34717e-06 
2.7798e-05 2.70676e-05 2.93219e-06 2.64402e-05 2.00279e-05 1.97766e-06 1.91439e-05 1.12585e-05 -2.91811e-07 
1.23757e-05 3.26313e-06 -4.7384e-06 7.23841e-06 -1.48879e-06 -8.74112e-06 1.57889e-06 -7.3905e-06 -1.03914e-05 
-3.20378e-06 -1.28755e-05 -1.17138e-05 -9.98606e-06 -1.81482e-05 -1.15722e-05 -1.54161e-05 -1.90561e-05 -1.25264e-05 
-1.77924e-05 -1.8448e-05 -1.20516e-05 -1.89355e-05 -1.89929e-05 -8.49754e-06 -2.30858e-05 -1.96773e-05 -6.60311e-06 
-1.92433e-05 -1.00152e-05 -5.83923e-06 -1.50874e-05 -7.06479e-06 -2.08635e-07 -1.27631e-05 -2.88839e-06 3.11787e-06 
-8.02546e-06 3.11032e-06 5.31722e-06 -1.87369e-06 7.23467e-06 7.66014e-06 3.12553e-06 1.08951e-05 9.39471e-06 
6.58731e-06 1.25044e-05 9.3712e-06 9.63722e-06 1.16598e-05 7.91932e-06 1.08071e-05 8.91884e-06 5.92601e-06 
1.11689e-05 6.78044e-06 4.45357e-06 9.79345e-06 5.52937e-06 3.72496e-06 8.45449e-06 1.10525e-06 3.65491e-06 
4.4475e-06 -3.8175e-06 -1.13327e-08 -4.4328e-06 1.04721e-05 2.97222e-06 -0.000136018 0.000880918 0.00123334 
0.000303379 0.000427563 -3.60955e-06 -5.57505e-06 -2.40922e-06 -5.75061e-06 7.79697e-07 1.56945e-07 -5.56503e-06 
1.39388e-06 2.49427e-06 -5.72242e-06 2.67493e-06 5.70439e-06 -3.12031e-06 2.33642e-06 8.80972e-06 1.98784e-06 
2.98283e-06 9.92967e-06 5.51376e-06 5.39573e-06 1.28256e-05 2.53974e-06 1.16058e-05 1.14731e-05 -1.27542e-06 
8.90128e-06 1.06205e-05 1.13739e-05 1.53052e-06 7.87596e-06 1.44656e-05 -7.81411e-06 3.19578e-06 1.44152e-05 
-5.46321e-06 -1.4719e-06 1.21809e-05 -3.74373e-06 -3.18956e-06 1.23379e-05 -1.70885e-06 -7.28858e-06 1.02677e-05 
-2.22452e-06 -1.12744e-05 6.68464e-06 -4.77186e-07 -1.28479e-05 1.24163e-06 9.92352e-07 -1.3297e-05 -2.65038e-06 
1.31593e-06 -1.24553e-05 -6.71007e-06 1.81445e-06 -8.15763e-06 -7.3284e-06 1.93833e-06 -5.74693e-06 -8.22112e-06 
7.44763e-07 -3.77946e-06 -8.37888e-06 -7.88584e-07 -4.32239e-06 -9.34394e-06 -2.11005e-06 -3.3075e-06 -1.04998e-05 
-1.34603e-06 -2.07499e-06 -9.67446e-06 -1.37671e-06 5.70693e-07 -8.15034e-06 1.43505e-06 4.49666e-06 -7.28689e-06 
4.47699e-06 1.30165e-05 -8.11997e-06 6.35161e-06 1.02612e-05 -6.67138e-06 7.61647e-07 6.13232e-06 -7.07122e-06 
-5.0111e-06 8.7965e-06 -4.06414e-06 -4.41389e-06 1.20917e-05 -2.31262e-06 -5.18508e-06 1.66584e-05 3.86281e-06 
-1.02494e-05 3.08069e-05 1.11195e-05 9.82581e-07 3.09806e-05 8.05926e-06 1.75401e-06 5.83453e-05 4.18463e-05 
1.15356e-06 7.73381e-05 3.77414e-05 1.31593e-06 0.000111332 6.56825e-05 -2.20511e-05 0.000168645 0.000102186 
-1.45274e-05 0.00025477 7.02807e-05 -5.46981e-06 -5.66733e-05 0.000184657 0.000305039 -5.84464e-05 1.58717e-06 
0.00910742 0.00430978 0.00302344 0.000827164 -0.000192928 0.0090801 0.00993079 0.00724296 0.0065077 
0.00153162 0.0030111 0.00236042 2.31462e-05 0.00337171 0.00603414 0.000459154 0.00188003 0.00537051 
0.000153969 0.0022985 0.00494491 -0.000386676 0.00252176 0.00463248 -0.000527296 0.00257734 0.00481209 
-0.00048872 0.00246403 0.00483129 -0.000533479 0.002655 0.00451999 -0.000490093 0.00272239 0.00483622 
-0.000498821 0.00284225 0.00434826 -0.000516424 0.00294679 0.00447665 -0.000503872 0.00297644 0.00400506 
-0.000513263 0.00312659 0.00379112 -0.000467277 0.00332135 0.00369996 -0.000455493 0.00351693 0.00382824 
-0.000456595 0.00346057 0.0035989 -0.000439509 0.00366778 0.00373129 -0.000424054 0.00381595 0.00374382 
-0.000315831 0.00397945 0.00353047 -0.000294633 0.00485536 0.00299863 -9.4433e-05 0.00541582 -0.000216269 
-0.00228649 -0.000415029 -0.00130783 -0.0003401 -0.000153671 -5.11027e-05 -2.50458e-05 -2.26458e-05 -6.16135e-05 
3.13787e-05 4.12406e-05 -8.4808e-06 -8.08773e-06 6.33486e-05 2.35194e-05 1.92205e-05 8.32085e-05 2.09602e-05 
1.98081e-05 9.25587e-05 -3.23111e-06 -6.34061e-06 9.28354e-06 -0.000143283 -1.54862e-05 7.52698e-05 -0.000321579 
6.43296e-05 0.000506809 -0.000430116 -6.36539e-05 0.00174654 0.000627761 -0.000122538 -0.00054298 0.00292687 
0.00132322 -0.000735003 0.00289143 0.00071487 -0.000729711 0.000573155 0.000175318 2.40879e-05 0.000106921 
1.1244e-05 6.97131e-06 5.56009e-05 8.95201e-06 -5.20958e-06 1.70913e-05 5.8648e-07 -1.44428e-05 -2.41839e-06 
-2.63862e-05 -2.55536e-05 -3.88034e-05 -3.41441e-05 -4.40855e-05 -0.000101075 -9.6128e-05 -9.20761e-05 -0.000191393 
-0.000222106 -0.000199307 -0.000393724 -0.000523596 -0.000438693 -0.00118994 -0.000832074 -0.000702552 -0.000961472 
-0.00339206 -0.000165192 3.32328e-06 -0.000121497 -2.64733e-05 7.98708e-05 -5.45654e-05 -0.00055014 -0.000146811 
0.000342837 0.000128585 -1.32777e-05 9.09288e-06 -0.000140022 -9.33088e-06 -1.2491e-06 -8.16771e-06 3.69885e-06 
1.14376e-06 0.00081761 -0.00216425 0.00168687 -8.78446e-06 -0.000755046 0.000441934 0.00188342 -0.00125197 
0.00122948 4.95094e-06 2.12767e-06 -0.000356089 0.000580539 -0.000139402 -0.000202904 -0.00263096 3.71041e-05 
0.000511962 -3.99332e-05 -0.00020557 3.34322e-05 -1.93322e-05 -0.000204773 -4.18685e-06 4.14695e-06 -1.31695e-06 
-2.18556e-06 5.14388e-06 3.86688e-06 1.45282e-06 5.27067e-06 9.00562e-08 -9.94232e-07 8.31979e-06 -1.02686e-06 
-5.42809e-07 -8.68426e-06 -3.7663e-06 -3.90022e-08 -8.01157e-06 -4.11805e-06 -3.55321e-07 -6.46691e-06 -1.64403e-06 
-9.10058e-06 9.11835e-06 -1.61322e-06 -9.74402e-06 4.23171e-06 -2.33113e-06 -1.12385e-05 2.47801e-06 -2.85493e-06 
-1.29917e-05 6.69269e-07 -1.94824e-06 -1.03414e-05 -3.26299e-06 -2.18648e-06 -7.65192e-06 -4.88886e-06 -1.46937e-06 
-4.96272e-06 -5.14978e-06 -5.42758e-07 -4.37794e-06 -4.89883e-06 6.96501e-07 1.64439e-07 -6.49939e-06 1.44112e-08 
1.81332e-07 8.7092e-06 1.64524e-06 3.89354e-07 7.06018e-06 1.28101e-06 1.58261e-06 7.29743e-06 4.11905e-06 
4.29176e-06 1.00697e-05 2.92347e-06 3.39128e-06 5.07551e-06 0.000398446 3.68134e-05 -9.47805e-06 4.85906e-05 
6.92128e-05 -9.63168e-06 -6.37042e-05 1.60782e-05 2.42116e-05 -2.48202e-05 2.55469e-05 2.6649e-05 2.11432e-07 
9.68361e-06 3.66552e-05 -3.14508e-06 2.97742e-05 4.60815e-05 8.11767e-06 2.72077e-05 3.46232e-05 9.71134e-06 
2.89079e-05 2.14637e-05 1.18713e-05 2.82867e-05 1.74606e-05 1.25573e-05 2.87774e-05 1.9588e-05 1.76035e-05 
2.6761e-05 2.01086e-05 1.62368e-05 2.26631e-05 1.96875e-05 1.64507e-05 2.17014e-05 1.54488e-05 1.76925e-05 
1.70965e-05 1.2861e-05 1.24517e-05 1.0701e-05 7.88345e-06 1.18969e-05 1.17625e-05 4.27491e-06 1.32037e-05 
1.28676e-05 2.35079e-06 1.10995e-05 1.1203e-05 2.08717e-06 6.90058e-06 6.6373e-06 4.12249e-07 3.2502e-06 
3.28738e-06 -1.33003e-06 8.09083e-08 1.90048e-06 -2.36493e-06 -2.77668e-06 1.33906e-06 -3.79228e-06 -4.77769e-06 
-3.15608e-07 -4.90784e-06 -4.76228e-06 -4.40608e-06 -4.3717e-06 -6.55673e-06 -5.45859e-06 -4.90613e-06 -7.64835e-06 
-2.72556e-06 -5.10714e-06 -7.60717e-06 -6.18186e-06 -3.76532e-06 -7.73175e-06 -6.48273e-06 -3.19057e-06 -6.8587e-06 
-4.35453e-06 -2.90414e-06 -5.61542e-06 -1.99746e-06 -4.25308e-07 -2.57255e-06 -1.65251e-06 1.18024e-06 -6.84625e-07 
-8.02889e-07 3.63568e-06 2.04414e-06 2.13819e-06 4.56879e-06 3.68375e-06 3.22358e-06 6.05399e-06 5.32633e-06 
6.32459e-06 5.089e-06 2.70572e-06 4.20339e-06 4.62525e-06 3.59181e-06 2.20222e-06 3.95744e-06 4.13462e-06 
3.64241e-06 3.90964e-06 6.6979e-06 3.89972e-06 2.96631e-06 8.13553e-06 1.78984e-07 4.23315e-06 1.74971e-06 
-1.84309e-06 -1.50163e-06 -2.00165e-06 6.99757e-05 -8.32214e-06 0.000102729 0.00104323 0.00021378 -6.2562e-05 
-1.69536e-05 -0.000111397 0.000351631 -0.000188533 8.37297e-07 -5.5012e-06 3.24119e-06 -4.80651e-06 2.70123e-06 
6.76337e-06 -4.0076e-06 3.29926e-06 7.3521e-06 8.9023e-06 1.8123e-06 8.96879e-06 6.40491e-06 8.13266e-06 
6.35609e-06 2.30279e-06 6.83201e-06 4.54771e-06 -7.03813e-07 7.72612e-06 6.94207e-06 5.12198e-06 -4.6116e-07 
2.58683e-06 5.7959e-06 -1.00619e-05 3.43258e-07 1.05708e-05 -9.30553e-06 -2.47672e-06 1.24714e-05 -6.47635e-06 
-4.09797e-06 1.15134e-05 -3.30039e-06 -9.78779e-06 9.01136e-06 -3.3592e-06 -1.42463e-05 5.58341e-06 -2.29587e-06 
-1.65588e-05 -3.16381e-06 -2.9804e-06 -1.2065e-05 1.54557e-06 -3.68438e-06 -9.52089e-06 -3.28233e-06 3.33076e-07 
-6.31548e-06 -4.46029e-06 5.14975e-07 -4.45957e-06 -5.96196e-06 1.59294e-07 -3.3e-06 -6.94046e-06 -1.99444e-06 
-5.58872e-07 -4.76484e-06 -1.64519e-06 -5.47682e-07 -6.16637e-06 -2.27872e-06 1.91552e-06 -6.19269e-06 -2.49854e-06 
4.82395e-06 5.31719e-06 2.33714e-07 2.27677e-05 1.34815e-05 1.75042e-06 2.55431e-05 5.35804e-06 1.06404e-05 
3.06719e-05 9.10844e-06 1.88517e-05 2.52198e-05 4.90817e-06 1.92888e-05 1.23522e-05 -1.97309e-06 3.37488e-06 
1.68057e-05 7.30498e-06 -5.69225e-06 3.22562e-05 1.31659e-05 4.81345e-06 2.48441e-05 2.27359e-05 1.55052e-05 
6.23657e-05 2.06156e-05 1.85233e-05 5.65526e-05 2.25504e-05 -1.07649e-05 1.08293e-06 5.99596e-05 2.73609e-05 
8.79397e-05 6.2357e-05 -8.83479e-06 0.000128335 5.63367e-05 -2.27905e-05 0.000120508 -4.83686e-05 -2.20135e-05 
0.00049109 -0.000415672 0.000538275 0.000596602 0.000986359 0.00025562 6.41022e-05 -0.000281863 0.000332257 
0.000188974 6.98335e-06 0.000256721 0.00029921 -2.7716e-06 0.000181148 -6.7175e-05 4.27222e-05 6.51098e-05 
-4.72602e-05 1.13833e-05 1.70168e-05 4.38159e-06 1.3807e-05 6.39439e-05 -2.00339e-05 -2.90755e-05 9.17367e-05 
-6.88506e-05 -8.59735e-06 7.21909e-05 -2.96433e-06 -1.52945e-05 7.34976e-05 -8.041e-06 -2.81102e-05 7.7449e-05 
-1.21347e-05 -1.71913e-05 5.5737e-05 -1.85821e-05 -1.3898e-05 6.1024e-05 -4.87872e-06 -1.22647e-05 5.51786e-05 
6.20181e-06 -1.2527e-05 4.33155e-05 4.12065e-05 -1.33985e-05 4.06645e-05 6.8165e-05 -5.90469e-06 7.72954e-05 
9.6006e-05 -2.65958e-05 0.000125858 0.000141915 -1.69548e-05 0.000192242 0.000164982 -7.3171e-06 0.000236194 
9.90882e-05 -4.82624e-05 3.26596e-05 0.000102637 -0.000116671 -5.36255e-05 0.000205738 2.7959e-05 0.000173107 
0.000120786 -0.000815964 2.02735e-05 -2.49365e-05 1.85405e-05 9.11317e-05 -7.29638e-05 7.43457e-05 3.01561e-05 
3.70128e-07 -5.72523e-05 1.92825e-07 -4.07634e-05 1.13071e-05 -0.000107661 -9.59314e-05 3.50689e-05 -0.000194429 
1.6611e-05 8.99483e-05 4.30537e-06 -0.000181174 -7.41656e-05 0.000223942 0.000112512 -5.78042e-07 2.63167e-05 
0.000339516 -0.000220479 -0.000183103 -0.000336433 -0.000211673 -0.000103457 -0.000205499 -0.00052918 -8.15309e-05 
5.86003e-05 -9.14514e-05 1.58888e-05 -1.44691e-05 1.55299e-05 -1.21472e-05 -1.81766e-05 5.58228e-06 -1.60963e-05 
-4.52447e-05 -1.70924e-05 -4.89596e-05 -0.000100021 -7.98369e-05 -0.000187021 -0.000141135 -0.000208538 -0.000185105 
-0.00011294 0.000441601 -0.000660624 3.18252e-05 9.54303e-05 -0.000362676 0.000346032 -4.92564e-06 -1.04509e-06 
-4.34684e-06 1.4299e-06 -9.73605e-05 6.29424e-05 -8.15868e-05 0.000135561 4.58273e-05 -4.13846e-05 1.00476e-06 
2.87852e-05 -1.82816e-05 4.2213e-06 -1.42186e-06 -2.6501e-05 0.000180371 0.000280099 -5.02267e-05 -2.63895e-05 
-2.52371e-06 -2.8204e-07 1.54103e-05 0.00021177 4.10328e-05 0.000334956 -0.00014726 -5.99991e-05 0.000637807 
1.63128e-05 -1.13214e-06 -4.15175e-06 5.52923e-05 -0.000433219 -4.07534e-05 -0.000157243 -0.000191935 6.67386e-05 
-4.38378e-05 6.7454e-05 0.000675828 -1.0699e-06 -0.000129274 -0.000352361 6.3105e-05 4.91584e-05 -0.000337186 
4.57565e-05 -0.000659935 -9.89888e-05 -0.000363277 -2.63365e-06 4.1898e-06 1.80531e-06 0.000405769 5.9547e-05 
-0.000165175 -2.20852e-05 -6.54594e-06 0.000155428 -7.84077e-05 2.75345e-05 6.82673e-06 7.33722e-06 2.08444e-06 
-5.92963e-06 2.88745e-07 3.61798e-06 1.32999e-05 -6.2955e-07 1.96553e-06 -5.39138e-06 -4.03107e-06 2.4466e-06 
-1.07415e-05 -5.07536e-07 3.30262e-06 -5.35495e-07 1.8628e-07 -3.42641e-06 -1.41531e-06 -3.38279e-06 -7.7105e-06 
6.33655e-06 -2.79017e-06 -8.55005e-06 3.15599e-06 4.22047e-08 -1.10228e-05 3.16862e-06 -2.92678e-06 -1.15318e-05 
1.89918e-06 5.73338e-06 -4.85818e-06 4.25051e-06 1.1679e-06 -5.34209e-06 -5.80672e-06 2.19237e-06 -1.65424e-06 
-5.92766e-06 -2.70825e-08 -3.6565e-06 -8.09471e-06 1.61159e-06 -3.1358e-06 7.26569e-06 2.33879e-06 -2.31838e-06 
7.55181e-06 2.32258e-06 -1.18371e-06 7.0291e-06 1.35611e-06 3.15364e-06 6.53717e-06 8.61596e-07 1.35705e-06 
4.33134e-06 -1.06561e-05 -1.54792e-05 0.000101938 -3.62751e-05 -0.00013062 0.000165886 1.65036e-05 3.05261e-05 
-4.01245e-05 2.48981e-05 1.7812e-05 -1.9095e-05 6.63787e-05 2.40796e-05 1.6307e-05 1.76988e-05 -2.5438e-06 
-4.15258e-05 -1.41116e-05 8.18826e-06 -2.01259e-05 -6.72564e-06 -9.61663e-06 -3.76381e-06 2.92241e-06 7.89995e-06 
7.11952e-06 1.65262e-05 5.39765e-06 7.32545e-06 1.98524e-05 1.05488e-05 9.53167e-06 2.25949e-05 1.14404e-05 
1.50392e-05 2.57988e-05 1.67656e-05 1.77605e-05 2.65293e-05 1.66856e-05 2.09767e-05 2.32821e-05 1.53071e-05 
1.50646e-05 1.40236e-05 1.83715e-05 1.13648e-05 1.01809e-05 6.65898e-06 7.38274e-06 9.69219e-06 3.32299e-06 
6.5838e-06 6.23777e-06 1.34067e-06 5.52909e-06 6.24358e-06 -1.56724e-06 -1.07e-06 2.31056e-06 -4.93184e-07 
-4.51767e-06 1.38828e-06 6.5738e-07 -4.72816e-06 2.43591e-07 1.14065e-06 -5.11138e-06 -5.945e-07 2.66938e-06 
-7.52397e-06 -3.3133e-06 7.7467e-07 -6.59112e-06 -1.20636e-06 5.7513e-06 -7.17035e-06 -7.22055e-07 3.87352e-06 
5.09688e-06 9.33877e-06 3.50107e-06 -1.31241e-06 -1.94445e-06 -7.50406e-07 -4.82273e-06 -4.02224e-06 -3.86721e-06 
-2.88494e-06 -3.87456e-06 -1.92539e-06 9.89367e-08 1.10566e-06 -9.36604e-06 -7.48727e-07 3.7961e-07 3.77344e-07 
-4.79897e-06 -7.27978e-06 1.31277e-05 1.33456e-06 -3.66637e-06 7.12213e-06 3.27588e-06 3.77476e-06 3.53286e-06 
6.03863e-07 3.31352e-06 6.57791e-06 3.11212e-06 2.18695e-06 6.43636e-06 5.21326e-06 2.00798e-06 2.83041e-06 
3.06439e-06 3.21223e-06 1.94388e-06 6.3334e-06 5.39325e-06 4.33774e-07 6.56933e-06 3.76737e-06 1.67348e-06 
-0.000204414 6.52873e-05 -7.22766e-05 -9.38235e-07 -4.10053e-05 4.92014e-05 1.04553e-06 6.10771e-05 7.74717e-05 
-4.30558e-05 -6.51389e-05 5.20909e-06 -5.03466e-06 8.50454e-06 4.0052e-06 -5.04718e-06 6.59534e-06 2.30784e-06 
7.84415e-06 5.00827e-06 3.33526e-06 6.03363e-06 2.80768e-07 -6.69143e-06 5.04968e-06 4.50392e-06 6.79617e-06 
-2.62837e-06 -3.59946e-06 -1.0701e-05 9.8813e-06 -6.07609e-06 -3.79866e-07 -1.27001e-06 -6.45137e-06 2.70674e-06 
-8.54503e-06 -1.22549e-05 8.67337e-06 6.39493e-06 -1.2654e-05 4.72734e-06 -1.37253e-05 -2.04063e-05 3.26905e-06 
1.2016e-05 -1.6736e-05 -1.42789e-05 -4.17783e-06 -1.76805e-05 3.17977e-06 2.96469e-06 -2.59875e-06 2.55815e-06 
6.9397e-06 -1.05642e-05 -2.72726e-06 5.02613e-08 -1.69016e-07 -1.86686e-06 -8.41689e-06 2.10178e-07 -2.56174e-06 
-3.36415e-06 2.13386e-06 1.08683e-06 2.16432e-06 8.22386e-06 1.39277e-06 4.68358e-06 3.66169e-06 -8.14397e-07 
3.22278e-06 8.12859e-06 -7.05496e-07 1.06272e-06 -1.43418e-05 -2.15644e-05 6.23572e-06 -9.60048e-06 -5.66648e-06 
3.64907e-06 3.06548e-05 3.19764e-05 2.02227e-05 5.39283e-05 3.48925e-05 2.884e-05 4.96623e-05 9.42357e-06 
1.67407e-05 2.68774e-05 6.54153e-06 -5.74152e-06 2.18013e-05 1.88836e-05 9.7606e-06 3.77264e-05 1.70064e-05 
3.44383e-05 5.01485e-05 1.10346e-05 1.51833e-05 4.47857e-05 1.43187e-05 1.28696e-06 -2.71902e-06 3.14244e-05 
1.59479e-05 -9.24224e-06 5.5928e-05 -1.05074e-05 6.71976e-05 4.54659e-05 -2.19972e-05 6.67014e-05 1.09603e-05 
1.15604e-05 1.01467e-05 -9.95862e-06 -0.000148716 0.000262644 -7.40441e-05 -5.83117e-06 2.68588e-05 -3.92453e-05 
2.16214e-05 3.96044e-05 -3.29674e-05 -5.91842e-06 9.90304e-06 -3.07369e-05 2.06643e-05 7.36908e-06 -2.09202e-05 
-3.55724e-07 2.01143e-05 -1.87166e-05 -2.53258e-05 4.06077e-05 -3.22236e-05 -7.06224e-06 -8.94048e-06 -1.71396e-05 
-1.57553e-05 -5.30013e-06 -1.48468e-05 -1.44466e-05 6.28743e-06 -1.15061e-05 -1.23847e-05 2.46519e-06 -1.89984e-05 
-2.25626e-05 5.40512e-06 -1.91065e-05 -2.69557e-05 2.02324e-05 -1.45727e-05 -1.89349e-06 -7.56105e-06 6.19867e-06 
-2.99235e-05 9.13689e-06 -4.10237e-06 -5.91592e-05 -3.46783e-06 -2.83419e-05 1.5419e-05 -1.1566e-05 -1.79147e-05 
-3.38063e-05 1.78781e-05 -1.94529e-05 -0.000317062 0.000148054 3.07501e-06 -5.71091e-06 1.35375e-06 -2.88936e-06 
7.05294e-05 1.34985e-06 -1.69991e-06 8.3848e-05 -9.85828e-05 2.5536e-05 0.000116619 -1.41361e-05 1.44206e-05 
1.45221e-05 0.000146142 -3.58553e-05 -4.40815e-05 6.99091e-05 5.0298e-05 -3.12147e-06 -6.67659e-05 -4.5518e-05 
-2.38539e-05 -1.72475e-05 -5.81507e-05 0.000108286 1.04911e-06 -1.33558e-05 2.59053e-05 -5.11931e-05 -1.1225e-05 
-2.83928e-06 4.66734e-06 -7.22353e-05 0.000113822 -6.78043e-05 0.00031616 -7.81469e-07 0.00024726 2.39754e-06 
-7.32711e-06 4.1252e-06 -0.000270338 -0.000119872 0.000123926 0.000122839 -8.94812e-05 -1.16632e-05 -2.63655e-05 
-2.93459e-05 -3.41787e-05 1.17816e-05 -3.0389e-05 -3.20322e-05 1.27595e-06 9.39604e-05 -2.8273e-05 -8.39268e-05 
0.000128816 4.74281e-06 7.13019e-06 4.37527e-05 5.84168e-05 -2.20857e-05 0.000134233 -3.76377e-06 -0.000108142 
-1.1269e-06 -9.83479e-05 -0.00017342 -3.92014e-06 2.17633e-06 -2.51457e-05 5.2619e-06 -2.22246e-06 -6.54247e-05 
-7.97141e-05 -9.41715e-06 -0.000213347 5.3974e-05 -0.000156871 -1.70834e-05 8.93707e-09 -3.47824e-05 -7.30312e-06 
-3.81495e-05 1.89461e-05 0.000203238 -0.0003693 -0.000154382 9.86283e-07 3.27461e-05 -6.34276e-06 -4.06169e-05 
-0.000173681 -1.86376e-05 -7.32733e-05 3.86489e-05 -4.10648e-05 9.7941e-05 -0.000104214 1.57966e-06 0.000142969 
8.75645e-05 -0.00013305 0.000156303 8.66093e-05 1.15301e-05 -1.94905e-06 -2.48536e-05 0.000325196 8.71378e-05 
0.000342943 -0.000136086 5.99954e-06 0.000144142 2.65134e-05 -3.03128e-06 -2.10729e-06 2.0113e-06 -3.7221e-06 
2.02361e-06 -1.35422e-05 1.02724e-05 -1.87049e-06 -1.56113e-05 -1.57815e-06 7.65461e-06 3.71389e-07 -2.68536e-06 
-5.69545e-06 6.58421e-06 -2.60501e-06 -5.05295e-06 3.64981e-06 -2.75262e-06 -5.0541e-06 5.95169e-06 -2.4814e-06 
6.43181e-06 -1.37283e-05 5.3681e-06 -6.8923e-06 1.27899e-05 4.41758e-06 -1.80053e-06 -6.64496e-06 4.73063e-06 
1.73188e-06 5.60195e-06 9.47667e-06 -9.16607e-07 5.11889e-06 5.18079e-07 -3.50215e-06 3.88953e-07 1.78246e-06 
-5.0497e-06 -5.6678e-06 2.086e-06 -1.45791e-06 -9.10972e-06 -2.70997e-07 -2.52317e-07 2.38734e-06 -1.96954e-05 
8.43888e-05 -2.52802e-07 -7.4453e-05 -4.35835e-05 -2.51708e-05 7.18911e-05 -2.63749e-06 3.64038e-05 -6.12357e-05 
3.83238e-05 6.31072e-05 4.73807e-06 1.70907e-05 -3.45329e-05 2.0567e-05 -3.71622e-05 -1.634e-05 -2.5177e-05 
1.01321e-05 -7.82223e-06 -2.26894e-05 -5.3022e-06 1.26533e-05 -1.0283e-05 -1.74952e-05 7.15017e-06 -1.60191e-06 
2.56125e-06 2.85069e-06 -2.40966e-06 6.37858e-07 6.79387e-07 -2.71419e-06 2.20338e-06 1.27959e-05 4.19887e-06 
1.0354e-05 2.05951e-05 1.622e-05 1.10484e-05 3.41707e-05 2.96521e-05 3.44852e-05 2.53662e-05 1.07499e-05 
7.70486e-06 1.50706e-05 2.62296e-06 -3.31573e-06 1.27679e-05 -2.6081e-06 -1.38615e-05 1.03194e-05 -1.05632e-05 
-2.0028e-05 4.56835e-06 -1.10849e-05 -1.13161e-05 6.74824e-06 -3.34386e-06 5.27474e-06 8.15759e-06 3.32121e-06 
1.84931e-05 1.90291e-06 4.87675e-06 1.43365e-05 -4.38947e-06 4.38359e-06 1.874e-05 -8.17267e-06 9.55431e-07 
1.85456e-05 -9.08468e-06 2.60662e-06 1.24913e-05 8.66852e-07 1.54096e-05 1.34294e-05 8.97112e-06 3.85389e-06 
1.87559e-06 1.11642e-05 4.59159e-06 1.93178e-06 9.70202e-06 8.64798e-06 -3.42452e-06 -3.60776e-06 3.35914e-06 
1.29826e-06 -7.00764e-07 -6.47628e-08 1.12552e-06 9.89482e-06 -4.46384e-06 -6.22787e-06 2.21466e-05 -8.0043e-06 
-2.00996e-06 1.4429e-05 6.21126e-06 -3.62133e-06 -4.83848e-06 7.39122e-06 2.23705e-06 1.10334e-05 7.36376e-06 
3.5109e-06 4.52921e-06 7.66393e-06 2.11217e-06 1.25516e-07 6.21169e-06 2.47496e-06 5.64736e-05 -1.81566e-05 
0.000117513 -0.000143839 -8.34276e-06 5.43539e-05 5.19983e-05 -3.67639e-05 -4.68697e-06 7.94381e-06 -5.38092e-07 
4.12468e-06 9.4235e-07 -5.60222e-06 -0.00550154 -0.000880691 1.39759e-05 -8.79993e-06 5.95289e-06 -1.14927e-05 
1.39465e-05 7.75662e-06 -9.39246e-06 -0.000815401 -0.000405417 -1.67144e-05 -3.74633e-06 4.95564e-06 -1.13594e-06 
3.73512e-06 1.57829e-05 -1.62977e-05 6.48453e-06 -3.05286e-07 5.02193e-06 1.26302e-05 3.26421e-06 -6.82108e-07 
9.589e-06 2.64953e-05 -6.24368e-07 -0.0001794 -0.000273543 5.59617e-06 6.41177e-06 -7.86419e-06 7.18817e-06 
1.97979e-05 -1.27016e-05 6.67686e-06 -6.74539e-06 1.16164e-06 8.88265e-06 1.24119e-06 2.51818e-05 1.21744e-05 
1.03362e-05 -1.25545e-05 2.46665e-05 1.61239e-05 -1.12174e-05 1.84824e-05 8.56072e-06 1.33286e-05 4.94799e-06 
2.29739e-05 -4.78626e-06 3.5281e-05 1.81429e-05 -3.763e-06 -3.06582e-05 -1.37657e-05 -7.48728e-07 2.56037e-06 
1.39883e-05 3.09669e-06 4.80464e-05 3.7804e-05 5.98013e-06 2.18439e-05 2.02988e-05 2.32401e-05 -1.11728e-05 
2.63628e-06 6.4156e-06 2.83949e-05 1.98308e-05 6.05199e-06 2.45054e-05 -3.63399e-06 8.90775e-06 2.62428e-05 
3.16527e-06 1.03573e-05 2.78648e-05 -6.87075e-07 3.13674e-05 -9.7174e-07 2.59542e-07 -1.8268e-05 -1.1214e-05 
6.1511e-05 -3.61896e-07 9.99826e-06 -4.83406e-06 -3.31741e-06 3.12597e-06 -6.05432e-06 -1.44169e-05 1.63935e-05 
-3.41724e-05 -5.11441e-06 -3.30986e-05 6.31455e-05 7.76788e-05 -1.24309e-06 -1.04245e-05 -3.74345e-06 -0.000172412 
-3.25164e-05 4.99709e-05 -0.000102215 -4.08119e-05 1.45901e-06 2.56239e-05 -1.11257e-05 2.4519e-07 3.92394e-05 
-4.64156e-05 2.48146e-05 7.12409e-06 -4.3083e-06 -3.71413e-05 -2.43119e-05 -1.13322e-05 -2.05885e-05 -2.03019e-05 
-2.05524e-05 2.05452e-06 5.38015e-06 2.12378e-07 1.07006e-05 5.96671e-06 1.65059e-05 2.00192e-05 -4.76781e-06 
-6.83928e-06 -1.43378e-05 1.12868e-05 -1.86731e-05 -8.17511e-06 8.89186e-06 1.62808e-05 -7.72048e-06 -6.02561e-06 
1.57745e-05 -3.77829e-05 -8.032e-06 -6.92378e-07 -2.82108e-05 3.11486e-06 1.52606e-05 1.1569e-05 2.05828e-05 
1.11962e-05 5.63865e-05 3.0306e-05 3.31359e-05 -6.69912e-05 -4.27891e-05 -2.10345e-05 1.91644e-05 -1.75933e-05 
4.35445e-05 -4.88408e-05 -3.77638e-05 -0.000138807 7.41332e-06 -0.000126323 -4.65994e-05 -8.50363e-05 -1.69969e-05 
-3.32838e-05 -2.27543e-05 -9.40181e-05 -1.45525e-05 1.81218e-05 -2.24827e-05 -8.9655e-05 0.000149636 -7.54793e-05 
0.000103176 8.83161e-05 9.35374e-05 -1.42743e-05 -2.38162e-05 3.76129e-05 1.98193e-05 -1.85675e-06 6.89634e-05 
-1.20246e-05 1.31347e-05 -7.83717e-06 -3.68089e-05 2.36202e-07 3.39602e-06 -2.0076e-06 8.89387e-05 3.75603e-05 
7.54791e-05 3.23027e-05 3.9272e-05 1.35663e-05 -2.57057e-05 3.29182e-05 3.77153e-05 -2.61998e-05 0.000168916 
0.000153444 -4.57012e-06 9.94517e-06 9.488e-06 -8.61045e-06 3.91125e-05 -8.65725e-05 -3.50538e-05 1.94528e-05 
-3.30688e-05 -3.94676e-06 1.48883e-05 6.19001e-06 1.0015e-05 9.54908e-05 -4.74217e-05 -0.000407218 0.000574659 
-8.98788e-06 -6.59885e-06 9.8694e-05 -0.000165331 4.20658e-05 1.35995e-05 -2.61001e-05 -4.20927e-06 7.23745e-05 
4.01423e-06 3.83359e-05 2.98731e-05 4.78304e-06 -5.96006e-05 -3.72226e-05 -4.98849e-05 4.99818e-05 -2.38918e-05 
-1.96414e-05 0.000152802 -0.000100512 5.49565e-05 2.39794e-05 -9.08509e-05 5.78234e-06 5.88172e-05 -1.5094e-05 
6.8475e-05 -3.14064e-05 4.96923e-06 2.05599e-05 -2.00875e-05 -1.83805e-05 -5.57138e-05 -2.63235e-05 1.3364e-05 
-3.89396e-05 -4.97173e-05 -1.9322e-06 -3.09209e-05 8.76851e-05 5.96235e-06 1.25025e-05 -2.97792e-05 1.01236e-05 
-8.69852e-08 0.000137659 -5.01022e-05 -0.000155293 8.10133e-05 3.54104e-05 3.54058e-05 0.000178872 2.1979e-05 
-2.13306e-05 -6.26976e-05 9.39081e-05 4.76212e-06 -5.77309e-06 -3.66369e-06 1.25614e-07 1.03558e-05 9.09615e-07 
1.48401e-05 2.59585e-06 6.80976e-06 -1.08033e-05 1.67249e-06 -1.71268e-05 1.18963e-06 4.4241e-06 1.19027e-05 
-5.17284e-05 -2.10722e-05 1.64359e-06 1.42508e-06 1.72065e-05 -0.000428203 0.000573212 8.05581e-07 2.23371e-06 
-2.17891e-05 -2.31637e-06 -0.00050891 0.000481606 1.391e-05 -7.56911e-06 -1.14175e-05 4.95242e-06 4.25055e-06 
1.43694e-05 -4.21928e-06 -3.44509e-05 1.57129e-05 -3.51683e-05 -1.06508e-05 -2.19886e-06 7.06731e-07 -5.57903e-05 
-3.74244e-05 -2.57384e-05 -6.0718e-06 2.65902e-05 -6.68469e-06 1.52085e-06 7.74359e-06 -2.60542e-05 1.28104e-05 
2.41085e-05 1.33549e-05 1.12432e-06 -2.32751e-05 -0.000453378 0.000563158 7.91515e-06 -1.06753e-05 -5.87824e-06 
-1.93247e-05 -9.82399e-08 3.47746e-05 9.22317e-06 1.82989e-05 2.39336e-05 2.3692e-05 -3.35783e-05 -2.80037e-05 
-3.36095e-05 -2.67093e-05 3.71591e-06 2.55851e-05 -5.08548e-06 1.50646e-05 -3.75093e-05 -3.58279e-05 2.72232e-05 
-1.95375e-05 -1.43861e-05 4.13844e-06 1.08572e-05 -7.03203e-06 -2.4963e-06 1.18124e-05 -1.88286e-06 -1.60348e-05 
1.11539e-05 6.12315e-06 -2.71305e-05 -2.95124e-06 6.00951e-07 5.79472e-06 -1.57324e-05 2.18144e-05 1.35409e-05 
8.18471e-07 2.44636e-05 2.44645e-05 3.3077e-05 -4.88295e-06 2.16828e-05 -6.47848e-06 7.82725e-06 8.174e-06 
1.34501e-06 -3.18745e-06 2.71752e-05 1.91188e-05 2.23535e-05 6.52961e-06 -1.16474e-05 1.59946e-05 -6.54039e-06 
-7.55544e-07 3.78793e-06 -3.90577e-05 6.8206e-06 -2.1673e-06 6.52489e-06 -1.55207e-05 -1.98691e-05 8.53861e-06 
3.54209e-05 7.50941e-06 -7.53925e-06 3.35688e-05 1.92738e-05 1.46484e-05 1.45349e-05 8.72605e-06 -7.72812e-07 
2.75849e-05 -7.40232e-06 2.56124e-06 3.16789e-05 4.91036e-05 2.85749e-05 3.1373e-05 1.36864e-05 7.29676e-06 
1.1865e-05 6.63971e-06 -4.85575e-05 -4.39767e-07 1.15668e-05 8.00704e-06 3.18611e-05 -0.000515901 0.000421489 
1.63312e-07 -1.6338e-05 2.59528e-05 4.51245e-06 4.02296e-06 -2.49389e-05 1.04975e-05 -2.03827e-05 6.87027e-07 
-1.99195e-05 8.82662e-06 2.26944e-05 -2.63879e-05 -2.46203e-05 6.73996e-06 -2.89357e-05 -1.67512e-05 -9.50515e-05 
-1.94876e-05 -8.63308e-06 3.8031e-05 -8.76969e-06 1.02599e-05 -1.79142e-05 -4.93234e-05 -4.16414e-05 -5.95797e-05 
7.92437e-05 -9.36228e-06 -0.000260412 -0.000290445 3.15262e-05 3.43857e-05 8.78869e-06 -2.92251e-05 -2.16108e-05 
-2.71134e-05 2.28036e-05 6.49096e-07 3.50089e-07 5.33019e-05 -4.79119e-05 2.46296e-07 -8.4438e-06 -3.24656e-05 
-1.0307e-05 -5.62832e-06 -2.30287e-06 -1.27154e-05 -2.08957e-05 6.08305e-06 -4.97069e-06 5.09344e-05 -6.49377e-06 
2.3162e-06 -3.23479e-06 -2.57531e-06 -4.1741e-06 -2.25945e-05 -5.41096e-05 -7.58918e-06 -1.20175e-05 -5.32914e-05 
-3.57302e-05 3.01884e-05 5.52381e-05 5.16881e-05 -8.2257e-06 -2.70448e-05 9.6657e-06 -4.59492e-07 -9.74002e-06 
2.7471e-05 -1.26374e-05 -1.19011e-05 1.45172e-05 -0.000355659 -0.000693207 -4.00559e-05 1.51073e-05 6.44566e-06 
-1.04167e-06 4.00194e-05 2.66354e-05 5.83549e-05 5.36699e-05 -1.54373e-05 3.86439e-05 4.83977e-06 -8.90915e-06 
2.4618e-05 2.66443e-05 -5.01216e-05 1.54364e-06 -8.43458e-06 -2.39209e-06 4.02353e-06 1.84309e-05 3.06196e-06 
-5.83919e-06 -6.63075e-06 5.06229e-06 3.90762e-05 -2.61872e-05 -2.5139e-06 -0.00189019 -0.00290684 -2.4609e-07 
-1.8233e-05 2.55692e-05 3.84478e-05 -7.98968e-07 1.08555e-05 4.70033e-05 -5.96332e-05 2.30986e-05 -5.55101e-05 
2.44646e-06 1.46941e-05 5.97602e-05 1.02519e-05 7.16409e-06 4.61801e-05 3.4929e-05 4.91334e-05 -0.00368696 
-0.0209064 -3.4962e-05 -0.00429491 0.00432971 3.05807e-05 3.18707e-05 1.16668e-05 3.30351e-06 -9.28463e-06 
-1.99388e-05 -4.26928e-05 -2.19825e-05 3.60475e-06 3.14784e-05 -3.7602e-05 -1.75843e-05 -9.32658e-06 5.48207e-05 
4.66769e-05 1.47681e-05 9.22013e-05 3.98664e-05 -1.63141e-06 1.92491e-05 2.34805e-05 -3.4302e-05 -5.18134e-05 
4.63921e-05 9.00737e-05 -3.53041e-05 1.11742e-05 -3.61959e-05 2.18241e-05 -1.68362e-05 -3.37709e-05 -1.43681e-05 
5.613e-05 -9.16817e-05 -1.61634e-05 5.207e-05 4.01585e-05 -2.34092e-05 -6.81481e-05 4.42819e-06 -1.85868e-05 
3.87729e-07 1.36039e-05 -3.33301e-05 -3.14744e-05 -3.9964e-05 2.45133e-05 1.776e-05 -1.70502e-05 -2.36115e-05 
1.59675e-05 -2.07185e-05 -3.4142e-05 3.40974e-05 1.8825e-05 -6.70123e-05 -6.58571e-06 1.36856e-05 -4.03008e-05 
-2.44723e-05 4.7403e-05 1.68626e-05 -3.00394e-05 7.38716e-05 -3.97211e-05 0.000106596 -4.36052e-05 -1.16385e-05 
-3.32354e-05 -3.89873e-05 -1.10737e-05 -1.25934e-05 9.59088e-06 -6.13465e-08 7.45461e-06 -7.04598e-05 -4.84696e-06 
2.83909e-05 1.90023e-05 6.51251e-05 -3.38292e-05 6.20898e-05 3.97736e-06 5.26612e-06 2.99815e-05 2.13814e-05 
3.19362e-05 -4.32918e-05 7.91402e-06 7.8516e-05 -2.12829e-05 -5.52827e-05 3.4078e-05 -6.74033e-05 3.8636e-05 
1.61385e-05 1.81827e-05 4.53003e-05 7.0317e-06 -1.16001e-05 -1.68827e-05 1.2895e-05 4.97781e-05 -2.06396e-05 
7.99364e-06 -8.96044e-06 -1.61558e-05 2.90791e-05 4.46186e-05 -2.26052e-05 6.93367e-06 -7.41457e-05 -5.91741e-05 
5.94861e-05 -8.73793e-05 5.11781e-06 -2.132e-05 -5.55682e-05 -3.59859e-05 -1.53774e-05 -4.69427e-05 -2.54684e-08 
2.06236e-05 1.14776e-05 -6.34663e-06 -2.43915e-06 -3.35499e-05 -8.22086e-06 7.4189e-05 1.72433e-05 4.89793e-05 
-3.50177e-05 1.92903e-05 -1.8883e-05 -1.41507e-05 4.40266e-05 4.32205e-05 -1.48052e-05 -1.08393e-05 -2.00574e-05 
3.88255e-05 1.15235e-05 -1.52587e-05 2.86033e-06 6.26901e-06 -2.49324e-05 -2.91606e-05 2.03457e-05 -4.64684e-05 
1.12746e-05 1.53618e-05 1.45668e-05 3.67812e-05 -6.19546e-05 8.40185e-06 8.71722e-05 1.89231e-05 -1.40637e-05 
-6.01875e-09 1.01616e-05 2.10196e-05 -6.56292e-05 -5.84215e-05 -8.95688e-05 0.000130606 -1.33249e-05 7.91102e-06 
-9.3526e-06 4.08333e-05 -0.000124921 1.99731e-05 -1.74127e-05 -1.41083e-05 -7.77654e-07 -4.27258e-05 1.94938e-07 
-6.8113e-05 3.11785e-05 -1.14612e-05 7.77299e-05 -8.26497e-05 -5.82913e-05 5.58956e-06 5.19934e-05 -1.40913e-05 
-6.19e-06 -8.53319e-07 1.29191e-05 1.02872e-05 1.17086e-05 8.90251e-06 3.95602e-06 3.94472e-06 -1.07433e-06 
1.48976e-07 -8.55219e-07 -5.91189e-06 -3.05525e-06 -2.29136e-06 -1.28622e-05 -4.53988e-06 -2.32665e-06 -1.18626e-05 
-3.99955e-06 -3.70043e-06 -1.20333e-05 -2.96057e-06 -3.29314e-06 -4.95447e-06 -4.1842e-06 -3.93109e-06 -4.92865e-06 
1.72305e-06 -2.15167e-06 -5.5403e-06 9.90633e-06 1.1171e-06 9.6767e-06 -7.20081e-06 1.21972e-05 3.54687e-06 
-3.36054e-08 -4.21128e-06 5.49236e-06 -8.02327e-07 -5.60474e-06 7.1009e-06 -7.00217e-06 -5.30851e-06 4.02408e-06 
-7.80593e-06 -1.47174e-05 7.68967e-07 -7.08258e-06 6.96046e-07 -4.30965e-06 -3.363e-06 -1.13491e-05 -4.80131e-06 
3.82336e-06 -4.84349e-06 -9.08718e-06 5.26665e-06 -3.12666e-06 8.09716e-06 4.5668e-06 5.8753e-06 8.48415e-06 
6.27813e-06 3.80402e-06 6.36101e-06 4.98586e-06 3.47184e-06 7.09964e-06 -7.94399e-08 3.39441e-06 6.19433e-07 
1.23199e-05 1.03722e-05 5.25334e-06 1.06583e-06 7.83304e-06 1.121e-05 -2.46523e-06 -3.34286e-06 9.31065e-07 
-1.51021e-05 0.0221826 -0.00193311 -0.015282 4.86261e-05 0.000968061 -0.00434917 5.36437e-05 0.000188168 
-0.000370155 7.92492e-05 0.000139908 -0.000148354 6.05668e-05 4.4366e-05 3.47541e-05 3.68676e-05 3.31194e-05 
9.92031e-06 2.49803e-05 1.37162e-05 -1.96297e-05 2.82002e-05 4.04954e-05 -3.6549e-05 2.26519e-05 1.51236e-05 
1.93799e-05 2.13709e-05 1.77081e-05 3.49263e-06 1.9388e-05 1.51572e-05 2.32782e-06 1.44087e-05 8.64341e-06 
-5.0269e-07 2.8935e-05 7.65252e-06 7.18399e-06 2.1577e-05 1.5963e-05 1.09139e-05 1.1593e-05 7.32779e-06 
6.85517e-06 5.32725e-06 3.35898e-06 3.13926e-06 -9.3932e-07 -5.09666e-07 2.70926e-06 -3.61719e-06 -2.27819e-06 
2.0446e-06 -7.17901e-06 -4.87241e-06 9.93432e-07 -8.26681e-06 -6.94515e-06 -3.62183e-06 -1.02986e-05 -1.00248e-05 
-5.65275e-06 -1.35022e-05 -1.35787e-05 -4.95557e-06 -1.3137e-05 -1.52105e-05 -4.8037e-06 -1.43125e-05 -1.59147e-05 
-5.56241e-06 -1.40199e-05 -1.47759e-05 -4.72406e-06 -1.09131e-05 -1.06521e-05 -4.10275e-06 -8.44423e-06 -8.34299e-06 
-3.17077e-06 -6.18201e-06 -4.5218e-06 -1.48974e-06 -3.16267e-06 -1.70901e-06 -1.97126e-07 -2.52533e-06 9.26158e-07 
2.30777e-06 1.74764e-06 4.41798e-06 2.38396e-06 5.91666e-06 8.79729e-06 1.43845e-06 8.60872e-06 1.14004e-05 
3.37817e-07 9.69803e-06 1.0723e-05 1.75289e-07 1.02084e-05 1.0477e-05 -5.91651e-07 1.04739e-05 8.9945e-06 
-2.35683e-06 8.95524e-06 6.75537e-06 -2.46674e-06 7.40333e-06 3.65273e-06 -2.51665e-06 4.65578e-06 7.67334e-07 
-1.87222e-06 1.62708e-06 -2.07505e-06 -1.80571e-06 -1.17134e-06 -5.60749e-06 4.97636e-07 -4.5998e-06 -8.71135e-06 
1.241e-06 -5.90825e-06 -7.54407e-06 4.18262e-06 0.0275485 -1.13972e-05 -5.34623e-06 6.93189e-06 -2.16103e-06 
-5.53507e-06 -6.93501e-08 8.28976e-07 3.22447e-06 4.61484e-06 2.9047e-06 6.68781e-06 5.44415e-06 4.85946e-06 
9.68005e-06 6.00949e-06 6.87493e-06 1.28996e-05 5.27087e-06 7.56012e-06 1.29867e-05 2.63804e-06 5.97325e-06 
1.21001e-05 -2.89601e-06 8.22762e-06 1.12064e-05 -2.23656e-06 9.73068e-06 1.12434e-05 -7.95795e-08 9.21631e-06 
9.35095e-06 5.39626e-07 3.25614e-06 -1.50564e-06 -8.59073e-06 -1.55573e-06 -8.94731e-06 -1.21647e-05 -6.2372e-06 
-1.66419e-05 -1.29308e-05 -9.53037e-06 -1.92446e-05 -1.22656e-05 -1.45237e-05 -2.49148e-05 -1.1978e-05 -1.81607e-05 
-2.83711e-05 -7.93626e-06 -1.90287e-05 -2.99115e-05 -3.92008e-06 -1.87838e-05 -2.68501e-05 -6.00286e-07 -1.60384e-05 
-2.29453e-05 2.30507e-06 -1.26192e-05 -1.25225e-05 4.96575e-06 -8.25845e-06 -7.09156e-06 4.6872e-06 -3.0252e-06 
-1.3395e-07 4.56929e-06 3.26992e-06 7.35422e-06 4.46548e-06 8.38955e-06 1.13574e-05 7.09144e-06 1.11378e-05 
1.74331e-05 1.0016e-05 1.50298e-05 2.07647e-05 1.17289e-05 1.85915e-05 2.76976e-05 1.2947e-05 1.96739e-05 
3.21749e-05 1.38551e-05 2.18513e-05 3.41758e-05 1.21411e-05 2.33864e-05 3.03869e-05 8.31273e-06 2.46768e-05 
3.18446e-05 7.50725e-06 2.61008e-05 3.42236e-05 7.45622e-06 2.7996e-05 3.54248e-05 7.89648e-06 3.24279e-05 
3.81944e-05 3.68773e-06 3.84317e-05 4.45423e-05 3.48479e-08 4.55294e-05 5.6994e-05 -5.57095e-06 6.13429e-05 
8.03957e-05 -8.70157e-06 8.01347e-05 9.9091e-05 -1.12468e-05 0.000112703 0.000130566 -2.47309e-05 0.00014476 
0.000204916 -2.30401e-05 0.000550299 0.000269459 -7.26586e-06 0.000534563 0.000252886 -0.000472532 -0.0121763 
-0.00258501 -0.00266335 -0.00519884 0.0196114 0.0129019 0.0157215 0.0203734 -0.0229112 0.0101909 
0.0150369 -0.0156543 0.0233869 0.0260954 -0.0127348 0.0310145 0.0250158 -0.00957466 0.0222724 
0.0304252 -0.00466801 0.0210043 0.0246944 -0.00795785 0.0208656 0.0240439 -0.00871653 0.0207973 
0.0229292 -0.00848375 0.0203176 0.0222871 -0.00876472 0.0205004 0.0229171 -0.00913764 0.0219349 
0.023736 -0.00872613 0.0219471 0.0239029 -0.00879988 0.0224513 0.0245907 -0.00888504 0.0221343 
0.0238652 -0.00847705 0.0223206 0.0236057 -0.00841508 0.0220049 0.0225718 -0.00848924 0.0219247 
0.022282 -0.00895226 0.0220972 0.022056 -0.00896914 0.0225734 0.0227051 -0.00936182 0.0226806 
0.0222956 -0.00917237 0.0233284 0.0226019 -0.00921643 0.0244698 0.0229615 -0.0092369 0.0265367 
0.0231583 -0.00927487 0.0312184 0.0258264 -0.00968202 0.0338984 0.0319441 -0.00977276 -0.00467342 
0.028287 0.01379 0.00124051 -0.00125388 -0.00294898 0.000734201 0.00353402 0.000526858 0.000264435 
0.000756904 -4.64423e-05 -0.000232946 0.00028146 -0.000291909 -0.000208852 0.000120507 -9.71898e-05 -0.00017621 
9.90051e-05 -0.000117545 -0.000181857 0.000116352 -0.000131854 -0.000156002 9.08774e-05 -9.05142e-05 -0.000173567 
0.00010726 -0.000165115 -0.000179374 0.000120236 -0.000462222 -0.0003498 0.000108038 -0.000824926 -0.000801961 
-6.96035e-05 -0.00170979 -0.00230831 -0.000111255 -0.00509767 -0.0135528 -0.000189249 -0.0220878 -0.0209996 
-0.0118061 -0.00384604 -0.000620985 -0.00107389 -0.00068486 2.54012e-06 -0.0002593 0.000242861 -3.99377e-05 
-0.000175582 -2.7323e-05 -0.000113678 -0.00010005 -4.84711e-05 -6.10947e-05 -8.91112e-05 -1.37079e-05 -5.54726e-05 
-9.58536e-05 2.80689e-05 -6.60715e-05 -0.000111733 4.05947e-05 -3.58474e-05 -0.000113788 4.27304e-05 9.55784e-05 
-7.39346e-05 0.000155832 7.46155e-05 -8.36433e-06 0.000239495 -0.000132023 -0.00014478 0.000398478 -0.00122075 
-0.000813766 0.000534693 -0.00293297 0.00232301 0.00259693 2.0335e-05 -0.0189933 0.00163724 -0.0143254 
0.00986576 -7.31705e-06 -8.33919e-06 0.00976053 -0.0111896 0.0157782 -0.00630113 -0.00290103 0.0199943 
0.0016824 -0.0130747 0.0069666 1.17553e-05 -2.81327e-05 6.35081e-06 -6.2554e-07 2.25196e-06 -2.93229e-06 
6.36616e-06 3.44734e-07 2.67386e-07 -3.86556e-06 -2.32127e-07 -2.61697e-06 -1.39134e-06 6.594e-06 -6.63008e-06 
-2.37735e-06 5.73729e-06 -1.02457e-06 -5.3049e-07 -1.14937e-05 -1.41637e-06 -1.88736e-06 -7.37884e-06 -2.11313e-06 
-5.72857e-06 -5.64213e-06 -9.26642e-06 -1.0973e-05 -7.26955e-06 -1.23351e-05 -4.61525e-06 5.6105e-06 -1.361e-05 
-9.87875e-07 3.22587e-06 -1.19852e-05 -3.31309e-06 1.3188e-06 -1.19739e-05 -2.72227e-06 3.24399e-07 -7.63508e-06 
-3.24869e-06 -2.14691e-06 -8.1767e-06 -9.52999e-07 -3.23328e-06 -3.05413e-06 -3.30254e-06 -3.95798e-06 -2.53368e-07 
-5.1126e-06 -7.69926e-06 1.3356e-06 -3.55142e-06 4.75975e-06 8.16938e-07 -1.11897e-06 6.07223e-06 4.32969e-06 
8.27163e-07 5.04564e-06 1.48935e-06 4.86508e-06 4.71801e-06 2.89839e-06 3.8067e-06 9.1937e-06 7.0776e-06 
8.33553e-06 2.37153e-06 1.15132e-06 -3.31277e-06 4.92942e-08 -0.000105575 5.6514e-06 -1.22528e-06 -2.79046e-06 
0.00957387 0.000602763 -2.95372e-05 0.000162149 -9.83352e-05 0.000251426 -0.00256695 -0.00615752 0.000124835 
6.07653e-05 -7.03919e-05 -5.43431e-05 5.91963e-05 -4.98139e-05 6.01657e-05 4.70779e-05 -3.5864e-05 6.48254e-05 
-5.57246e-06 -1.47273e-05 2.3574e-05 2.00513e-05 -1.58068e-05 1.75227e-05 2.80137e-05 1.77617e-06 1.30964e-05 
3.14102e-05 1.17178e-05 1.62313e-05 2.51711e-05 1.39543e-05 2.03426e-05 2.90574e-05 1.1116e-05 2.15908e-05 
3.07668e-05 1.40952e-05 2.02953e-05 2.78172e-05 1.94733e-05 1.80248e-05 2.3695e-05 1.77334e-05 1.60979e-05 
1.97147e-05 1.5746e-05 1.13837e-05 1.55521e-05 1.64686e-05 7.00747e-06 1.24287e-05 1.84926e-05 4.68195e-06 
7.10884e-06 1.75382e-05 9.55773e-07 3.93052e-06 1.36552e-05 -1.34367e-06 1.02247e-06 1.17469e-05 -2.50104e-06 
4.52867e-08 1.0594e-05 -3.92938e-06 -2.50752e-06 8.13373e-06 -6.26475e-06 -4.41821e-06 4.97393e-06 -7.57264e-06 
-7.42395e-06 1.40628e-06 -7.30399e-06 -1.12887e-05 -2.70231e-06 -5.21951e-06 -1.24852e-05 -5.25236e-06 -3.41514e-06 
-1.16746e-05 -6.81203e-06 -2.31848e-06 -7.82272e-06 -7.68505e-06 -5.98955e-07 -4.7868e-06 -7.63919e-06 9.59186e-07 
-1.53215e-06 -7.79702e-06 4.75039e-07 -8.25647e-07 -7.57438e-06 6.60775e-07 4.00316e-06 -7.61285e-06 1.73579e-07 
8.19262e-06 -4.42823e-06 -2.88465e-07 9.22004e-06 -1.72541e-06 8.1902e-07 9.28289e-06 -3.10879e-07 1.13134e-06 
9.39772e-06 1.95044e-06 5.96834e-07 7.69703e-06 3.16665e-06 1.75305e-06 6.25202e-06 3.86808e-06 2.08088e-06 
5.57863e-06 7.36798e-06 3.48042e-06 3.42593e-06 1.05494e-05 3.29652e-06 -1.05784e-06 6.92393e-06 4.1965e-06 
0.000122588 0.00108777 -0.000451046 -0.0118147 -1.03879e-05 -0.00080244 -3.40566e-06 1.57644e-06 3.08562e-06 
-3.83685e-06 1.09777e-06 3.29541e-06 -5.30838e-06 2.28928e-06 4.09713e-06 -5.35882e-06 3.56137e-06 3.42923e-06 
-5.94809e-06 3.89325e-06 -1.05614e-06 -4.0369e-06 2.8229e-06 -1.00312e-07 -2.5963e-07 9.39758e-06 2.01354e-06 
-3.15536e-06 1.00668e-05 3.12396e-06 -2.32716e-06 7.63185e-06 2.18699e-06 9.10216e-06 2.07937e-06 -6.00305e-06 
1.11141e-05 2.74547e-06 -8.843e-06 1.14743e-05 -1.80907e-07 -8.9595e-06 9.32966e-06 -2.69334e-06 -7.36651e-06 
1.02535e-05 -6.91524e-06 -6.45159e-06 9.02868e-06 -9.23845e-06 -2.71687e-06 5.46882e-06 -1.02537e-05 1.18253e-06 
2.37755e-06 -1.06526e-05 1.73335e-06 -5.68276e-07 -9.17757e-06 2.99931e-06 -2.66238e-06 -4.77042e-06 3.40433e-06 
-3.36042e-06 -2.67091e-06 4.19957e-06 -2.27483e-06 -2.01825e-07 2.80455e-06 -1.80522e-06 1.70837e-06 2.02168e-06 
-3.10344e-06 1.65909e-06 3.14253e-06 -1.90666e-06 3.99385e-06 4.8551e-06 -3.2063e-06 5.84362e-06 6.77527e-06 
-7.219e-06 5.68146e-06 6.82493e-06 -7.73942e-06 1.0655e-05 7.5103e-06 -4.56562e-06 1.41092e-05 2.79215e-06 
-2.47153e-07 1.3229e-05 -1.61323e-06 2.89731e-06 1.54598e-05 -1.87935e-06 5.32891e-06 1.79528e-05 -2.98558e-06 
6.46491e-06 1.94351e-05 -7.62977e-06 -6.82325e-06 1.56177e-05 -2.23281e-05 8.39596e-06 2.03782e-05 -5.88038e-06 
2.68233e-06 3.13746e-05 -1.03662e-05 1.17965e-05 3.15911e-05 -3.63975e-05 -6.91204e-06 5.22809e-05 -4.17281e-05 
-9.04536e-06 4.92552e-05 -5.57899e-05 3.40612e-05 8.70975e-05 -6.20165e-05 0.00028384 0.000140868 -0.00011305 
-0.000271097 -0.000301573 -0.000190431 -0.0024217 -0.00129121 -0.0011961 -0.00925315 -0.00346963 -0.00253029 
-0.00213311 -0.00239073 -0.000149621 -1.71061e-06 -0.00570001 -0.00678993 -0.0065591 0.000262188 -0.00446691 
-0.00875431 -0.00130236 -0.00209734 -0.00511009 -0.000273967 -0.00227739 -0.00535215 0.000346878 -0.00250404 
-0.00484598 0.00032453 -0.00248251 -0.00457846 0.00045479 -0.00227356 -0.00463316 0.000446636 -0.00253093 
-0.00478945 0.000482639 -0.00267978 -0.00449436 0.000495499 -0.00281393 -0.004801 0.000445233 -0.0029954 
-0.00439262 0.000495042 -0.0029895 -0.00450918 0.000524461 -0.00314243 -0.00400444 0.000526875 -0.00324581 
-0.00373252 0.000527201 -0.00345545 -0.00364348 0.000546976 -0.00339677 -0.00372337 0.000488011 -0.00361452 
-0.00352392 0.00055381 -0.00378716 -0.00358234 0.000344652 -0.00403121 -0.0034167 0.000337716 -0.00511534 
-0.00323198 0.000336924 -0.00535675 -0.00288192 0.000654335 0.000146381 0.000987748 -0.00162435 0.0010994 
-0.00162605 0.00552884 -0.000734216 0.000191381 -0.000465682 -0.00013029 7.85814e-05 0.000253127 7.67131e-05 
-7.33249e-06 0.000204897 5.97176e-05 4.7345e-05 0.000109053 8.58883e-05 6.23985e-05 7.62435e-05 3.94795e-05 
2.9684e-06 -4.01044e-06 3.19646e-05 5.26502e-06 -5.99142e-06 -5.15099e-06 -2.34595e-05 -2.4131e-05 -7.9165e-05 
-0.00020938 -6.35014e-05 -0.000296295 -0.000401505 -0.000214534 -0.000586008 -0.000289306 -0.000422256 -0.00113753 
-0.00030274 -0.000443785 -0.000778328 -0.000559199 -0.000496321 -0.000168924 0.000107319 -0.000102013 0.000115593 
8.77787e-05 -0.000129584 7.13597e-05 6.06032e-05 -7.3004e-05 4.1899e-05 3.50801e-05 -3.39646e-05 1.71265e-05 
2.46436e-05 -1.43826e-05 -1.04778e-06 2.63748e-05 -4.60414e-06 -1.7649e-05 5.53953e-05 5.45196e-06 -7.7244e-05 
9.14835e-05 1.13476e-05 -0.000237787 0.000104546 -6.51222e-05 -0.000392151 0.00020659 -0.000121818 -0.000493386 
0.000298704 -0.000126361 -0.0113326 0.000103488 -0.00169733 4.41237e-06 7.42747e-06 -5.73483e-07 -1.22154e-05 
-0.000729526 -0.000728555 -0.000583106 0.00380823 0.000134842 -0.000764762 -5.30403e-06 5.11146e-06 1.50993e-06 
-0.00110543 0.000697144 -0.00168156 0.000978895 2.74541e-06 -0.000772153 6.77502e-05 0.000611775 1.73903e-05 
0.0010356 0.00039581 0.00195644 0.00101991 -0.00311516 0.000454416 -0.00361963 -0.00163454 0.000185367 
0.00141695 -0.0012159 -0.000760171 0.0020348 -0.000136102 -2.85383e-06 -2.43898e-06 7.85978e-06 -4.93878e-07 
2.08297e-06 -2.03711e-06 -9.09422e-06 8.47724e-07 -4.54214e-06 -7.82871e-06 -5.89786e-06 -7.85895e-06 -7.98888e-06 
-6.74931e-06 -1.98536e-06 4.23902e-06 -6.7429e-06 -2.34255e-06 3.46948e-06 -8.69355e-06 -1.07108e-06 3.60988e-06 
-9.22201e-06 -2.25839e-06 -2.37511e-07 -8.59956e-06 9.33686e-07 -4.162e-07 -5.46197e-06 1.11945e-07 -6.55452e-06 
-4.39736e-06 4.77048e-07 -2.77628e-06 -2.83368e-06 -6.11083e-07 -4.37012e-06 -3.20567e-08 -6.44757e-07 -8.03837e-06 
-1.17987e-06 -2.61952e-06 5.95343e-06 -2.0361e-06 -1.48821e-06 4.51966e-06 1.07992e-06 -6.774e-07 4.1996e-06 
-3.03384e-07 4.65957e-06 3.7721e-06 3.75057e-07 2.83946e-07 3.48265e-06 7.99195e-07 1.30017e-06 2.72881e-06 
1.28445e-06 0.000416847 4.97355e-05 -3.71594e-05 -7.02136e-05 -0.000535057 -0.000151752 5.33458e-05 -3.51954e-05 
-0.000102579 1.78785e-05 2.4662e-05 0.000204916 1.54941e-06 1.27749e-05 -2.03416e-05 1.28262e-05 -1.33289e-05 
1.75269e-05 2.23265e-05 -3.57722e-06 1.47205e-05 2.49242e-05 9.20597e-07 1.57344e-05 2.66165e-05 8.36945e-06 
1.53298e-05 2.36718e-05 1.11305e-05 1.91213e-05 2.72676e-05 1.29523e-05 2.16683e-05 2.57643e-05 1.50828e-05 
2.21955e-05 2.10938e-05 1.37081e-05 2.25298e-05 1.20052e-05 1.06416e-05 1.74784e-05 5.93875e-06 8.16934e-06 
1.22744e-05 3.54492e-06 7.7885e-06 9.18371e-06 -5.85487e-07 9.65941e-06 5.39665e-06 -3.07258e-06 7.4933e-06 
2.4206e-06 -6.19365e-06 4.66931e-06 6.16065e-07 -6.62708e-06 4.1238e-06 9.08614e-07 -6.72073e-06 3.44694e-06 
6.52704e-07 -5.58824e-06 1.54681e-06 -3.00903e-07 -6.14617e-06 3.91996e-08 -2.51598e-06 -6.27002e-06 -2.36114e-08 
-6.04951e-06 -5.76715e-06 -1.2421e-07 -5.27284e-06 -6.20325e-06 -1.49415e-06 -1.07664e-06 -2.81211e-06 -1.5695e-06 
-4.98932e-07 -1.20723e-06 -2.03997e-06 -8.43652e-07 5.22051e-07 -2.48024e-06 -3.82619e-07 3.48486e-06 -1.7014e-06 
-1.98259e-06 7.07694e-06 1.53128e-07 -2.24201e-06 7.39903e-06 -4.73932e-07 1.82849e-06 6.14663e-06 -7.93928e-07 
9.36403e-08 4.52278e-06 2.37431e-07 -1.45718e-06 2.35679e-06 1.60014e-06 2.00377e-06 3.40457e-06 4.45435e-06 
4.28337e-06 4.27814e-06 5.57905e-06 4.10874e-06 2.61325e-06 4.75122e-06 4.84997e-06 1.95584e-06 8.06464e-06 
4.08177e-06 1.92007e-06 7.22135e-06 5.87935e-06 0.000159313 -0.000287385 -2.44854e-07 -6.20073e-06 3.47837e-06 
-7.34861e-06 3.69262e-06 3.16105e-06 2.31479e-06 3.91115e-06 3.74997e-06 1.00282e-06 6.60863e-06 2.68056e-06 
-2.92609e-06 7.08455e-06 4.27007e-06 1.69349e-07 4.29553e-06 -2.31766e-06 6.75098e-06 3.03827e-06 -2.34975e-06 
7.43889e-06 3.84601e-06 -1.64731e-07 9.58616e-06 -2.36977e-06 -5.26822e-06 9.0684e-06 -5.08741e-06 -6.42265e-06 
1.22504e-05 -7.46504e-06 -8.23201e-06 1.38203e-05 -7.96587e-06 -5.558e-06 1.49122e-05 -5.98568e-06 5.05912e-06 
7.7406e-06 -1.46913e-06 -1.56083e-06 2.42547e-06 -8.25227e-06 1.35512e-06 1.24415e-06 -2.8933e-06 6.81577e-07 
-1.28782e-06 -1.95803e-06 2.23348e-06 -2.33962e-06 -8.41814e-07 -1.68824e-07 -2.82605e-06 6.57054e-07 -1.67155e-06 
-2.75234e-06 3.87192e-07 -1.34099e-06 -4.11935e-06 1.68899e-06 3.81715e-08 -4.48124e-06 1.44832e-06 2.35077e-06 
-1.58323e-05 -4.09791e-06 -2.51752e-06 -1.53357e-05 -5.70571e-06 -1.10854e-05 -2.50985e-05 8.58528e-07 -1.28579e-05 
-1.70908e-05 -7.88101e-07 -3.11621e-06 -1.96146e-06 6.22405e-06 8.39899e-06 -2.74868e-06 1.09831e-05 -3.39315e-06 
-1.32543e-05 7.88796e-06 -1.98494e-05 -3.28048e-06 5.76192e-06 -4.47128e-06 5.03423e-06 4.31403e-05 1.70639e-05 
-7.04696e-06 1.45948e-05 -1.98727e-06 1.26782e-05 2.24522e-05 -2.86548e-05 5.58463e-06 -5.13041e-05 -1.21357e-05 
7.96364e-06 4.53555e-05 -2.06146e-05 4.1523e-05 6.81192e-05 -4.82787e-05 0.000110718 0.000103779 -5.75653e-05 
-9.62559e-05 -0.000152259 2.38208e-05 -0.000510407 -0.000154419 -0.000532581 -0.000647107 -0.000468183 -0.00015085 
0.000297621 -0.000409199 0.00039117 0.000185929 0.000390598 0.000386649 1.96873e-05 -0.000206176 4.44137e-05 
-6.4319e-06 4.9209e-05 4.7165e-05 -4.01717e-05 -4.6361e-05 3.46423e-05 -6.67664e-05 -5.30379e-06 2.6032e-05 
-7.95724e-05 3.76659e-06 3.57626e-05 -7.93209e-05 5.29248e-05 1.51228e-05 -5.96584e-05 -6.59118e-06 8.62602e-06 
-8.35931e-05 -1.97169e-05 1.46244e-05 -5.55885e-05 -1.13593e-05 9.82609e-06 -7.37831e-05 9.59892e-06 8.54936e-06 
-5.04123e-05 1.06962e-05 8.35971e-06 -4.0674e-05 1.30908e-06 1.50468e-05 -2.28082e-05 -1.87918e-05 1.54924e-05 
-3.8541e-05 -3.70727e-05 3.56831e-05 -6.30444e-05 -4.01384e-05 1.01425e-05 -0.000115075 -1.86024e-05 4.77927e-05 
-6.77408e-05 4.35077e-05 6.20913e-05 -8.75323e-05 -4.35385e-06 -4.93379e-06 -2.60914e-05 -7.26978e-06 4.26184e-05 
-0.000428886 -2.29534e-06 -9.80537e-05 -9.54509e-05 -0.00010734 -0.000112868 9.76911e-06 -6.75606e-06 -1.97117e-05 
-2.89834e-06 1.48524e-06 0.000182655 0.000510564 -3.49927e-05 -0.000323793 -4.69637e-05 -0.000109453 -0.000123518 
-4.52015e-05 -8.24243e-05 3.54006e-05 0.00013698 -1.19461e-05 3.13155e-05 2.59095e-05 -3.57395e-05 -8.23229e-06 
2.37483e-05 -5.27784e-05 -3.27116e-05 -2.66769e-05 -8.02289e-05 -5.14123e-05 -2.33453e-05 -0.000114496 -9.52159e-05 
-3.23637e-05 0.000129077 -0.000200406 4.61711e-05 -0.000130632 -8.21799e-05 0.000146263 -0.000131243 2.56247e-05 
-2.41065e-05 -0.000230716 0.000507468 -1.09901e-06 4.68563e-05 -4.33265e-05 3.8098e-05 2.71498e-05 -4.52575e-05 
3.5023e-05 1.35413e-05 -2.05286e-05 2.05785e-05 2.76892e-06 -7.98079e-06 -7.01157e-06 1.40849e-07 4.99509e-06 
-3.59469e-05 6.7353e-06 9.95609e-06 -8.3282e-05 2.52185e-05 4.9111e-06 -0.000126341 5.60375e-05 -3.16143e-05 
-0.000115062 1.89816e-05 -3.40158e-05 -0.000208299 -0.000559392 -2.22976e-05 -0.000231084 0.000344379 -6.80973e-05 
-3.6191e-07 4.53606e-06 9.91394e-06 7.08956e-06 -4.48708e-06 2.26724e-06 3.04314e-06 -0.000254181 -9.68075e-05 
-0.000232584 -6.85897e-05 2.56561e-06 -3.01725e-06 1.81908e-06 2.28263e-06 -3.25735e-06 -9.52735e-07 -0.000844324 
4.43259e-05 0.000193326 1.91134e-08 -0.000245798 -8.90202e-05 -0.000624285 -0.000337196 0.000391523 0.000177003 
1.97048e-06 -0.000135455 0.000174769 -0.000215879 -6.14775e-05 0.000393098 0.00021669 -6.93835e-05 3.98758e-07 
-0.000580374 -0.000463903 5.20545e-05 -0.000158213 0.000673129 0.000110893 -0.000309407 0.000278191 9.69442e-05 
7.33684e-05 0.000146194 -0.000125406 -0.000356287 0.000258872 3.28558e-05 0.000188662 4.40802e-06 -1.61952e-06 
-1.76843e-06 -7.64277e-06 -5.83678e-06 -3.9958e-06 1.00974e-06 -1.89714e-06 -2.39489e-06 5.06318e-06 -8.32182e-06 
4.80037e-06 1.20117e-06 -1.03423e-06 -5.34445e-06 -4.35345e-06 -5.3456e-06 -3.10181e-07 -6.67352e-06 -3.66916e-06 
1.10337e-06 -8.31909e-06 7.59311e-07 4.76542e-06 -5.96664e-06 -3.40293e-06 1.896e-06 -4.92993e-06 -3.48852e-06 
-1.11376e-06 8.34081e-06 -1.98671e-06 -2.22973e-07 5.90839e-06 -3.30277e-06 -1.99783e-06 3.51786e-06 -1.03556e-06 
-1.00956e-06 6.60667e-06 3.57697e-07 -5.59614e-07 4.75161e-06 -1.30742e-06 -5.05066e-05 -8.12983e-05 -2.77365e-05 
-7.43696e-05 9.54523e-06 2.23799e-06 1.06825e-05 -1.52064e-06 2.47144e-06 -1.80668e-06 -7.75583e-07 -1.8702e-05 
1.62422e-05 -2.61731e-05 1.19861e-05 3.81679e-06 -1.22212e-06 1.07383e-05 1.85755e-06 4.0046e-06 1.24721e-05 
6.88882e-06 1.17387e-05 1.9589e-05 1.1741e-05 2.02239e-05 1.99566e-05 1.20224e-05 2.04138e-05 1.54295e-05 
8.63456e-06 1.6146e-07 1.00241e-05 -4.19453e-06 -6.13485e-06 4.45489e-06 -2.83228e-06 9.71627e-06 -2.39896e-06 
-2.62179e-06 6.89165e-06 -9.92292e-06 -1.02482e-05 5.52637e-06 -1.03664e-05 -7.65494e-06 3.8025e-06 -9.73002e-06 
-6.8211e-06 2.3396e-06 -1.13145e-05 -4.44331e-06 2.77778e-06 -9.88816e-06 -1.50805e-06 1.36743e-06 -3.46064e-06 
8.81108e-06 -3.06743e-06 -6.4086e-06 1.26355e-05 -7.43814e-06 -1.78932e-07 5.34832e-06 -7.79359e-06 7.14533e-06 
7.95939e-06 -4.68073e-06 1.78248e-06 5.3735e-06 -7.23182e-06 4.34665e-06 4.79861e-06 1.51885e-06 5.59719e-06 
3.71048e-06 -1.19455e-05 3.94114e-06 2.22937e-06 7.49212e-06 -8.06558e-07 -1.37543e-07 7.09493e-06 -5.62779e-06 
-1.1392e-06 -2.07284e-06 -1.14007e-06 2.60374e-06 -5.63063e-06 9.049e-07 4.66993e-07 6.36405e-06 -1.04201e-06 
4.39245e-06 6.94385e-06 2.15723e-06 5.41162e-06 2.96584e-06 3.92672e-06 4.99648e-06 6.04419e-06 2.56415e-06 
6.2742e-06 5.446e-06 3.89848e-06 6.22425e-06 3.76389e-06 3.11919e-07 3.98257e-06 1.76053e-06 2.64454e-05 
1.51428e-05 -6.42115e-06 0.000150409 -1.02052e-05 -4.33801e-07 7.03427e-05 -9.63038e-05 -6.02554e-05 -6.75241e-05 
5.79774e-05 6.34019e-05 -5.59507e-07 2.04845e-05 5.01444e-05 6.26327e-06 3.46035e-06 8.74776e-07 -7.45366e-06 
1.89896e-06 -1.07452e-07 4.68278e-06 -3.56177e-06 1.25656e-05 3.61506e-06 1.48358e-06 2.61113e-07 4.46061e-06 
3.46592e-07 -4.16234e-06 -3.98674e-06 -6.80686e-06 -7.26018e-07 6.18861e-06 -3.45488e-07 1.76484e-06 1.17944e-05 
-1.03287e-06 1.30806e-06 1.32507e-05 -5.80732e-06 -1.35131e-06 1.78616e-05 -2.87723e-06 3.09177e-07 1.63978e-05 
-2.20079e-06 1.035e-05 -1.28417e-05 -1.23305e-05 4.60552e-06 3.18162e-06 -9.0982e-06 -1.14624e-05 7.42291e-06 
-2.65855e-06 -3.14093e-06 1.70231e-08 7.51579e-07 -4.61952e-06 -2.26317e-06 6.97487e-07 2.0972e-06 -6.62113e-06 
-2.93413e-06 5.71131e-06 -1.05652e-05 -4.92317e-06 -7.57073e-06 -1.60927e-06 -6.45679e-06 -3.84189e-06 -1.14117e-05 
-1.53054e-06 -4.50668e-07 -3.53681e-05 -1.44696e-05 2.30152e-05 -2.99528e-05 -2.80706e-05 -2.21917e-06 -1.4704e-05 
-2.67418e-05 -5.45982e-06 7.23221e-06 4.46031e-05 -3.23863e-05 2.52286e-06 3.38292e-05 6.83996e-06 -4.3622e-06 
8.46646e-06 2.04997e-05 -3.95861e-06 1.13336e-05 -1.57778e-05 4.86906e-06 2.43172e-05 -1.30833e-06 -5.88144e-07 
2.93749e-05 1.43639e-05 1.10946e-06 2.1303e-05 1.19552e-05 2.58717e-05 2.41535e-05 -1.33378e-05 3.82128e-05 
-2.98424e-05 -4.10933e-06 5.89487e-07 -2.61094e-06 7.75892e-06 1.15673e-05 5.33534e-05 5.53968e-06 3.75548e-05 
3.31193e-05 -1.69193e-05 4.037e-05 -3.43763e-06 2.8844e-06 6.91643e-05 -7.2766e-05 -7.75964e-06 -3.43662e-05 
-3.32492e-08 -1.80268e-05 -4.1095e-06 -9.06463e-06 0.000120786 0.000101663 0.000159171 2.6838e-05 -4.09428e-05 
3.79583e-05 2.16251e-06 0.000252058 8.98057e-05 2.70116e-05 3.405e-05 3.73381e-05 -2.70719e-05 -2.72684e-05 
-3.05297e-05 2.74795e-05 -1.37498e-05 2.56588e-05 1.60008e-05 1.98415e-05 -3.22717e-07 -1.26606e-05 -4.05614e-06 
-2.20254e-05 9.98404e-06 8.27319e-06 -1.55797e-05 6.20786e-06 3.86764e-06 1.2805e-05 4.18349e-06 9.07733e-06 
7.00571e-06 1.24135e-05 6.01092e-06 -6.00648e-06 1.05175e-05 1.0447e-05 -5.35081e-07 2.8444e-05 1.68043e-05 
-3.99637e-06 6.20721e-06 -4.04995e-06 -1.61096e-05 -1.09774e-05 -2.12844e-05 3.58938e-05 9.50318e-06 -2.07824e-05 
-2.18257e-06 2.43272e-05 2.45445e-05 -1.83845e-05 -0.000106817 -6.73232e-05 -2.39227e-05 3.55286e-06 -4.75645e-06 
-1.12137e-05 -8.38531e-05 -5.71032e-05 -3.09896e-05 7.02266e-05 -5.34554e-05 -4.54411e-05 4.23189e-05 -5.45603e-06 
4.15947e-06 -2.40155e-06 1.77772e-06 -4.65405e-06 -4.56305e-06 -1.27581e-05 -3.93598e-05 0.000381473 -5.5489e-06 
-4.36016e-05 4.94193e-05 -3.56833e-05 6.36131e-05 3.06545e-05 1.06724e-05 4.19167e-05 2.7894e-05 5.77016e-05 
8.39152e-05 5.71626e-07 -2.31401e-05 3.9419e-05 -5.70588e-06 -7.40925e-05 2.50246e-05 -4.48811e-06 5.62819e-05 
-4.91507e-05 -3.35331e-05 0.000127137 -5.68713e-05 2.07841e-05 -0.000173735 -2.22741e-05 -4.38138e-05 -1.8183e-05 
3.31308e-05 2.8119e-06 2.6535e-06 1.60515e-05 1.14678e-05 -1.45487e-05 1.07928e-05 -1.19528e-05 -2.20029e-05 
1.19345e-05 -1.31204e-05 -1.37805e-05 2.52753e-05 -1.5961e-05 -1.25602e-05 1.08775e-05 -1.56631e-05 3.40122e-05 
-1.22057e-05 -3.01679e-05 6.16947e-06 -3.58528e-05 -0.000114283 -0.000144998 -6.89327e-06 -8.49148e-06 5.86093e-05 
-0.000188382 0.000120267 0.000390453 0.000137866 -9.57904e-05 -4.66928e-05 4.36653e-05 -4.57915e-05 -8.98589e-05 
1.08787e-05 2.53464e-06 -3.40488e-05 -1.88213e-05 3.68573e-06 2.63648e-08 -0.000240597 0.000169464 1.85697e-05 
3.43375e-05 -3.41649e-05 6.99334e-05 0.000300853 3.55412e-07 -3.04583e-05 -0.000158954 7.84708e-06 -8.64573e-07 
5.29576e-06 -2.12693e-05 -3.37941e-05 3.99785e-06 -5.69784e-06 5.38006e-05 5.81331e-05 -1.88743e-06 -8.92262e-05 
-8.23703e-05 -7.23796e-05 3.91021e-05 -0.000147561 6.7398e-05 -6.98306e-06 2.07829e-07 2.03926e-06 -2.22748e-05 
-1.68468e-05 2.7564e-05 -6.3117e-06 5.56484e-05 3.02535e-05 0.000180873 -6.41679e-06 -0.000289143 -7.0571e-05 
-6.66915e-05 6.40558e-05 0.000117569 -0.000153811 5.87591e-05 -0.00014929 7.83209e-05 1.90317e-05 -0.00024782 
8.7007e-06 1.31909e-05 4.6467e-05 2.27304e-06 -4.29325e-06 -1.30142e-05 6.90749e-06 -3.57407e-07 -3.93741e-06 
-2.51253e-05 -9.50441e-06 -1.88045e-05 1.28119e-05 3.98848e-07 8.95898e-06 -1.07699e-05 -7.37532e-06 -1.06966e-05 
-4.43743e-06 -2.15146e-06 -3.10865e-06 4.29944e-07 2.74432e-06 3.55397e-06 -5.19124e-06 -1.68721e-06 -5.45247e-06 
-6.8294e-06 2.32875e-07 -2.25415e-06 7.04796e-06 -2.89374e-06 -4.19434e-05 -9.95962e-05 -2.20181e-05 -3.83993e-06 
-5.76892e-06 3.25391e-05 9.16407e-06 2.83192e-06 9.31575e-06 -1.02481e-05 2.11784e-05 1.49005e-05 -6.68963e-06 
2.87881e-05 -9.44551e-06 5.90761e-06 1.85507e-05 1.09947e-05 2.51511e-05 -5.7196e-07 -1.25864e-05 -3.73036e-06 
-1.2386e-05 -9.19196e-06 1.23513e-05 -1.11737e-05 -4.0355e-06 1.18358e-06 -1.8822e-05 3.61243e-06 -1.11248e-05 
-2.06577e-05 4.51994e-06 1.24132e-05 -8.29443e-06 8.41273e-06 4.84306e-05 -8.105e-06 1.1055e-05 8.51305e-06 
-1.33696e-05 1.26562e-05 -2.4125e-05 -7.60616e-06 1.35371e-05 -1.68912e-05 -3.15925e-06 2.38246e-05 -3.66417e-06 
-2.5186e-06 2.13267e-05 -1.20118e-06 1.23965e-05 2.4597e-05 -1.50305e-06 1.49823e-05 2.9029e-05 9.65273e-07 
-9.05285e-06 -3.54596e-06 -3.49458e-06 2.2891e-05 2.09874e-05 4.31689e-06 3.43585e-06 1.49841e-06 2.6691e-05 
1.17347e-05 7.05978e-06 1.01801e-05 2.43161e-06 3.01061e-06 -2.80161e-06 -7.09522e-06 1.66421e-05 -1.35251e-06 
-2.66104e-07 5.92601e-06 7.50626e-06 3.23488e-06 -8.23404e-06 2.06524e-05 1.28816e-06 4.87932e-06 1.16024e-05 
2.84543e-06 1.54054e-06 9.00349e-06 -2.68057e-07 -1.91625e-10 1.19239e-05 2.47198e-06 2.61531e-06 2.70002e-06 
6.34627e-06 2.62536e-05 -0.000104445 -3.16333e-06 1.13074e-05 -8.00117e-07 -6.0002e-06 5.85456e-05 -2.39451e-05 
6.58808e-06 3.97868e-06 7.19537e-06 -9.21046e-06 -8.10667e-06 -3.97064e-07 6.55001e-06 -3.65348e-07 1.48236e-05 
5.57957e-06 7.12603e-06 -1.8563e-05 9.81412e-06 4.68161e-06 2.28446e-06 1.58092e-05 -4.46577e-06 -5.89213e-06 
1.73009e-05 1.80835e-05 7.9264e-06 2.35466e-05 -1.02689e-05 2.54254e-06 3.38038e-05 2.2417e-05 5.01142e-06 
-3.73044e-06 1.53646e-05 5.52963e-06 -3.32296e-07 -1.10754e-05 -5.77398e-06 1.77978e-05 -7.4982e-06 -8.78228e-06 
1.60338e-05 7.25647e-06 -1.74141e-05 -2.29905e-05 -5.60216e-06 -3.25342e-05 1.94559e-05 7.61617e-06 5.78152e-06 
3.65548e-06 -2.06387e-06 2.28807e-05 9.82621e-06 -1.42053e-05 2.22872e-05 9.43739e-06 -6.72727e-06 8.93416e-06 
5.75416e-06 1.56007e-05 -3.60002e-05 3.8759e-06 -3.31577e-05 1.53471e-05 -2.43265e-05 -1.55989e-05 -7.13812e-07 
4.89548e-05 6.0623e-05 1.80504e-05 7.48066e-06 4.33706e-05 -4.61999e-06 -1.85942e-05 3.66183e-06 9.66769e-06 
4.55493e-05 -1.86501e-05 -1.45897e-07 2.85631e-05 -9.39381e-06 2.45732e-06 1.26068e-05 -1.04744e-05 1.02048e-05 
1.2331e-05 5.22404e-06 1.6178e-05 -1.09099e-05 5.52951e-06 3.09725e-05 -1.14472e-05 1.17421e-05 -3.83108e-05 
2.13047e-05 4.5607e-05 2.2179e-05 2.96212e-05 -8.97412e-05 -4.49827e-05 -2.68434e-05 3.47545e-05 4.32032e-05 
-7.16908e-06 1.63764e-05 2.79705e-05 -3.76631e-05 0.000146279 0.000184257 -0.00012015 -5.11966e-06 -2.15608e-06 
-3.93862e-05 3.87194e-06 -1.13047e-06 3.92894e-05 1.46324e-05 -1.33112e-05 9.28666e-06 1.27666e-05 1.53517e-05 
-3.27271e-06 1.80263e-06 3.28615e-05 4.80406e-06 3.53455e-06 -4.06348e-06 1.52878e-05 1.67231e-05 3.2405e-06 
3.15993e-05 -8.23698e-06 -4.19965e-05 -1.10751e-05 -3.18153e-05 -1.36371e-05 -4.11808e-06 5.26066e-06 -2.03374e-05 
4.44776e-05 4.1044e-05 1.25759e-05 -2.18237e-05 0.000154268 -6.92964e-05 1.7798e-05 6.4545e-05 0.000140773 
4.24213e-05 -6.51376e-05 4.66594e-05 -7.89097e-05 1.2275e-05 6.70061e-05 -6.86744e-06 -5.46984e-06 -1.04557e-05 
6.34364e-06 -6.01407e-07 -2.3823e-05 -2.97336e-05 -1.14881e-05 -1.07588e-05 5.57069e-06 3.10952e-05 4.88029e-05 
-3.36691e-06 7.83552e-05 6.95831e-05 9.40715e-05 -2.62835e-05 -6.30986e-05 9.96049e-07 7.27049e-05 1.25279e-05 
-4.1296e-06 6.24738e-05 -8.83963e-06 4.40223e-05 4.908e-05 2.01717e-07 6.06685e-05 -2.03834e-05 -6.74047e-06 
-6.57919e-05 -5.15957e-05 7.06038e-06 1.45239e-06 -1.85324e-08 8.05494e-06 2.08982e-05 8.51672e-05 1.35068e-05 
-2.80354e-05 7.90874e-05 -5.26206e-05 0.000172747 2.89258e-05 -3.73017e-07 1.58379e-05 -6.66719e-06 -3.71532e-06 
2.56586e-05 -3.91657e-06 -2.79468e-05 3.16741e-05 7.41516e-06 -4.97114e-05 3.69751e-05 3.72507e-05 -4.87208e-05 
3.2127e-05 4.0305e-05 2.65826e-05 1.59729e-05 7.08608e-05 4.46234e-05 -2.25678e-05 -1.17589e-06 -2.02295e-06 
1.04153e-05 -1.06402e-05 -6.06002e-06 2.7023e-05 8.90616e-06 -2.69444e-06 -0.000104598 3.17372e-05 1.63691e-05 
2.04411e-05 -0.000145967 -2.6866e-07 8.67341e-06 -9.74897e-06 9.80346e-05 0.000123895 8.62828e-07 -4.18791e-05 
-1.38738e-05 4.7187e-05 -1.47643e-05 -1.00922e-05 8.63878e-06 2.69001e-05 7.04886e-06 1.06702e-05 -3.30282e-06 
1.32873e-05 -0.000107327 2.86371e-05 4.09456e-06 -1.10055e-05 5.78754e-06 2.02322e-06 -1.93671e-05 -3.38425e-05 
2.3755e-05 -1.46103e-05 3.58739e-06 -1.93631e-06 -5.69248e-06 2.89068e-05 -8.02843e-05 2.45468e-05 4.9463e-05 
3.88726e-06 1.51107e-05 -3.5309e-05 -7.503e-05 1.76571e-06 -6.65064e-05 5.24057e-05 0.00015549 -1.37962e-05 
-1.14457e-05 -0.000157567 1.09877e-05 -1.10028e-05 -1.02758e-05 -2.89809e-05 -4.13402e-06 -3.63034e-06 5.23514e-07 
-3.60999e-05 -1.29295e-05 -6.36586e-05 -0.000100136 -3.45293e-05 1.5176e-05 -4.88201e-05 6.59225e-05 -2.42803e-05 
3.60611e-05 -3.44034e-05 -0.000111908 -8.11788e-05 -3.83713e-05 2.408e-05 0.000131036 -6.96187e-05 5.31389e-05 
-4.04352e-05 5.58681e-05 -1.4652e-05 -5.7378e-05 -3.12603e-06 2.40784e-05 -1.02694e-05 -1.91234e-07 5.84577e-06 
-2.95418e-06 -0.0175161 7.43195e-07 -3.56709e-06 2.18317e-05 -2.09086e-05 -8.93215e-06 8.68598e-05 -4.12236e-06 
-1.8666e-05 -1.24283e-05 3.3816e-06 5.72348e-05 4.85898e-06 -3.57652e-05 -3.47543e-05 -3.77756e-05 -1.95375e-05 
-7.11885e-05 -4.51001e-05 1.15543e-05 2.18725e-05 -2.85331e-05 1.17579e-05 1.13806e-05 -1.26031e-06 2.65809e-05 
2.93137e-05 2.35398e-05 2.14869e-05 1.37628e-05 5.28864e-06 1.15211e-05 1.24045e-05 2.69177e-05 2.62405e-05 
4.83249e-05 1.89122e-05 2.59386e-05 -1.6744e-05 -2.55382e-06 -3.01291e-05 -2.47302e-05 -3.11773e-05 -2.73356e-06 
-1.07782e-06 1.93898e-05 -7.61482e-06 1.29185e-05 7.45578e-06 -1.51856e-05 -1.58476e-05 -3.19346e-06 -2.20208e-05 
9.05753e-06 1.66277e-05 -1.00107e-05 -5.2795e-05 3.63216e-05 2.56662e-05 8.44514e-06 3.69633e-06 2.60312e-05 
5.83269e-07 -5.34921e-05 -1.26308e-05 3.45953e-05 4.36981e-05 1.64649e-05 2.89823e-06 -1.80257e-06 -3.57355e-06 
-2.30199e-06 1.32355e-05 1.65745e-05 -6.68716e-08 -1.69094e-05 -3.53014e-06 -1.43987e-05 -6.66126e-07 3.22875e-05 
-3.73222e-06 1.49193e-06 -2.10116e-06 -2.69066e-05 -7.77097e-06 1.35372e-05 -5.42151e-05 2.27907e-05 2.44101e-06 
3.09906e-05 2.90509e-05 5.48618e-05 -1.56768e-06 -5.27861e-05 -2.0167e-05 -2.23411e-06 1.11778e-05 1.37639e-05 
2.20113e-05 2.11503e-05 1.00038e-05 0.000139577 -5.97851e-05 4.0398e-05 -9.93233e-05 0.000167442 1.90753e-06 
6.97597e-05 2.62645e-06 -1.97576e-06 -1.81713e-05 -6.00209e-06 -2.56533e-05 3.79658e-05 -8.96242e-06 3.49542e-05 
3.96824e-05 -4.06621e-05 3.93267e-06 -2.30149e-05 -1.85667e-06 3.96201e-05 2.8169e-05 -3.11136e-06 -3.2219e-05 
4.62011e-05 -8.50532e-06 -4.74843e-05 -6.84934e-05 7.15714e-05 -1.09531e-05 -7.78202e-06 -1.08486e-05 -3.11089e-05 
-5.36741e-06 -3.37931e-05 2.43249e-05 -2.6726e-05 2.29948e-05 2.82705e-05 2.05978e-05 -1.74714e-06 -8.27709e-05 
8.80129e-05 -4.48421e-05 4.5919e-06 -0.000148346 4.94768e-05 -1.13987e-05 -2.95099e-05 -2.04254e-05 0.000161952 
-2.18193e-05 2.82784e-05 -3.02443e-05 1.34695e-05 -1.06902e-05 6.63924e-06 -0.00414624 -2.07476e-05 -5.29401e-06 
-8.00902e-06 9.73576e-06 -5.27069e-06 0.000106442 1.9035e-05 8.91164e-06 1.5911e-05 1.67281e-06 7.29789e-06 
1.08788e-05 -1.02119e-05 6.53882e-05 7.12837e-06 3.59998e-05 -1.60898e-05 7.86812e-05 -3.24967e-05 2.50884e-06 
7.26154e-06 1.00836e-06 4.72852e-06 -6.38283e-06 -5.47123e-05 -9.18611e-06 -3.15621e-05 5.84422e-06 4.70988e-05 
2.70219e-05 -6.04822e-06 3.95449e-05 -1.55253e-05 -1.00607e-05 2.55278e-05 3.84286e-05 -2.26986e-05 1.74307e-05 
3.17466e-06 1.21854e-05 7.64748e-06 -1.48862e-05 -2.72779e-05 1.21276e-05 -6.03179e-06 3.97389e-05 -1.6444e-07 
6.96527e-05 3.80606e-05 2.71586e-06 1.34625e-05 1.84548e-05 7.84796e-06 2.09324e-05 2.72829e-05 1.19042e-05 
1.43137e-05 8.85006e-06 -1.82471e-06 3.28665e-05 1.58474e-05 6.49322e-05 -2.4733e-05 -2.44315e-05 4.02525e-06 
2.07366e-05 3.35703e-05 -2.15922e-05 8.74932e-06 -9.38448e-05 -1.31008e-05 0.00289272 -0.000601721 2.74861e-05 
-1.10498e-05 7.92232e-05 1.54191e-05 -8.09779e-05 5.70099e-05 2.65652e-05 0.00106356 -0.000638051 1.67458e-05 
-3.51101e-05 -0.000373145 -0.00028463 -3.27158e-05 -0.00015915 -0.000603976 -1.5425e-05 0.000603573 -0.000652138 
-4.34971e-05 -1.05154e-05 -3.80941e-05 3.57321e-05 3.77172e-05 1.07197e-05 5.05383e-07 8.34923e-05 8.50767e-05 
2.11513e-05 -9.67644e-06 1.85092e-05 3.76018e-05 1.20128e-05 1.47107e-05 -3.36942e-05 -5.40207e-05 -7.42407e-06 
2.04161e-06 3.36577e-05 3.09074e-05 7.10503e-05 5.6975e-05 8.81877e-05 4.57138e-05 4.6965e-06 -0.000152937 
-0.000115242 1.52856e-05 2.8121e-05 -8.22213e-05 -1.76543e-05 -8.1916e-07 -1.15835e-05 -8.57925e-05 4.4414e-05 
1.55723e-05 -1.04928e-05 1.06674e-05 2.93718e-05 1.04996e-05 2.87881e-05 -3.64291e-05 4.46512e-05 9.67338e-06 
-6.61174e-05 -2.34789e-05 -6.96579e-05 0.000137992 1.64152e-05 -3.89504e-06 2.44711e-05 4.44145e-05 -1.31203e-05 
-3.05883e-05 0.000656555 -0.000577332 8.58692e-05 -6.61211e-05 2.20972e-05 -4.93337e-05 -1.50484e-05 -5.72148e-06 
2.45117e-05 1.1762e-05 -3.32307e-06 7.91496e-05 3.34948e-05 -2.97704e-05 4.50562e-05 4.41988e-05 2.69693e-05 
-7.59566e-06 1.84067e-05 -1.81914e-05 -1.78614e-05 1.27582e-06 2.09352e-05 4.49193e-05 2.59788e-05 -5.19611e-05 
0.00095307 -0.000678352 7.77944e-06 0.00103079 -0.000710437 -2.04922e-06 -1.40203e-05 6.35076e-05 -6.23178e-05 
1.8276e-05 -2.79091e-05 3.3098e-06 -9.38848e-06 7.35757e-06 7.36646e-06 4.29052e-05 -2.94821e-05 -7.91779e-05 
4.68196e-05 0.000657543 -0.000395187 -5.15359e-05 6.10003e-05 6.74834e-05 -3.3202e-05 0.000103031 -5.09427e-05 
-3.92779e-05 6.51927e-07 0.000110536 1.09623e-05 -3.94015e-05 0.000113439 -0.000284526 -8.18032e-05 4.60659e-05 
-1.45771e-05 0.000904361 0.000569201 0.00324271 -0.00569182 3.6783e-05 0.00908927 0.00812197 -4.74036e-06 
0.0438258 -0.0100747 -1.26524e-05 1.07306e-05 7.99056e-06 8.3204e-06 7.04897e-06 6.0181e-06 3.02448e-06 
4.18984e-06 2.83476e-06 1.86776e-06 2.18485e-07 2.26923e-07 -1.12377e-06 -2.10946e-06 -2.58584e-06 -4.23597e-06 
-5.75711e-06 -1.04405e-05 -1.08473e-05 -1.60688e-05 -1.3897e-05 -1.88281e-05 -1.54989e-05 -1.7257e-05 -1.18688e-05 
-1.69359e-05 -1.0662e-05 -1.69888e-05 -1.04703e-05 -1.28394e-05 -8.21767e-06 -9.38968e-06 -7.80434e-06 -4.56312e-06 
-3.7828e-06 -9.51411e-07 -1.79077e-06 2.11634e-06 1.68022e-06 5.05093e-06 2.20429e-06 1.11038e-06 -1.19046e-07 
8.7117e-07 -3.7696e-06 -1.31898e-06 -7.54685e-06 -4.31766e-06 -6.42868e-06 -3.27117e-06 -6.5414e-06 -2.83056e-06 
-6.82571e-06 -6.46843e-06 -9.85971e-06 -8.61464e-06 -7.84463e-06 -1.22266e-05 -1.34256e-05 -1.43627e-05 -1.67214e-05 
-1.75731e-05 -1.77626e-05 -2.01411e-05 -1.82906e-05 -2.40794e-05 -2.08175e-05 -2.45842e-05 -2.19244e-05 -3.24577e-05 
-2.35569e-05 -3.81061e-05 -2.2127e-05 -4.66914e-05 -2.42175e-05 -5.23594e-05 -2.71225e-05 -6.11507e-05 -2.10202e-05 
-8.46117e-05 -2.23773e-05 -0.000131919 -8.09315e-05 -0.000231855 -0.000102639 0.000582088 0.00182454 -0.00385023 
-0.0424273 -1.34906e-05 -1.73593e-05 -0.0154522 0.004494 -0.00197996 -0.00054406 -9.18866e-06 -0.000247121 
-0.000105154 -0.000187692 -0.000106499 -0.000129065 -7.08065e-05 -7.39526e-05 -3.79997e-05 -4.92949e-05 -4.05961e-05 
-6.0948e-05 -3.97318e-05 -4.5763e-05 -3.6041e-05 -3.78535e-05 -3.0344e-05 -3.47868e-05 -2.42576e-05 -2.8484e-05 
-3.46565e-05 -3.99751e-05 -3.19849e-05 -2.61516e-05 -1.72609e-05 -1.7381e-05 -9.92582e-06 -1.02113e-05 -6.69829e-06 
-4.70815e-06 -4.81676e-06 -1.5586e-06 -5.66409e-06 2.79579e-07 -1.28565e-06 3.37497e-06 4.33177e-07 5.28386e-06 
1.61576e-06 5.33232e-06 1.77511e-06 5.00869e-06 1.60537e-07 4.33007e-06 -5.54143e-07 1.88366e-06 -2.0265e-06 
-1.72723e-06 -2.97252e-06 -6.24385e-06 -5.42148e-06 -8.50848e-06 -6.65289e-06 -1.08033e-05 -9.3781e-06 -1.39774e-05 
-1.00984e-05 -1.56857e-05 -1.29209e-05 -1.73553e-05 -1.32276e-05 -1.63367e-05 -1.26638e-05 -1.6136e-05 -1.09758e-05 
-1.24893e-05 -8.48476e-06 -9.74521e-06 -6.77517e-06 -4.82084e-06 -2.85181e-06 -1.03719e-06 -2.97051e-09 2.07951e-06 
2.53295e-06 5.47459e-06 5.21921e-06 1.0146e-05 8.39985e-06 1.13606e-05 8.85482e-06 8.1747e-06 9.44496e-06 
-1.01728e-06 -2.39401e-06 3.95956e-06 6.32801e-07 8.50222e-07 -3.58745e-06 -8.38718e-06 1.49865e-07 -1.23221e-06 
-1.97631e-06 1.21433e-06 -1.5662e-06 4.3793e-06 1.15345e-07 5.24708e-06 3.06421e-07 6.90347e-06 -7.59639e-08 
6.13079e-06 -8.5777e-07 6.41597e-06 2.94768e-06 4.77695e-07 -3.87014e-06 -6.60667e-06 -8.15758e-06 5.86775e-07 
1.32783e-07 -1.46226e-06 6.00865e-07 -2.5106e-07 2.86801e-06 1.72428e-06 1.26091e-06 6.96866e-07 7.35792e-06 
6.88048e-06 4.816e-06 2.60312e-06 3.51982e-07 -6.73408e-06 -3.08332e-06 -1.43273e-06 -5.01338e-06 -2.45971e-06 
-5.21932e-06 -7.05627e-07 -5.40473e-06 -1.48931e-06 -3.88444e-06 -3.99237e-06 -7.16443e-06 7.83135e-06 -9.72487e-06 
-1.70353e-06 1.27611e-05 0.0329041 0.0317547 0.00747658 0.00233785 0.00163841 0.000693532 0.00144825 
0.000182331 0.000720104 8.24146e-05 0.000454494 0.000128488 0.000408554 -5.11827e-05 0.000162547 -2.58013e-05 
-0.000204371 0.000621898 -0.00014672 0.000334655 -0.000756009 0.000204427 -0.00577617 -0.00855903 -0.0257021 
-0.00174796 0.000104769 -0.00614515 -0.0280322 0.00164294 -0.0159344 -0.000196097 0.00154158 -0.000461662 
0.000668522 -5.75206e-05 0.000903534 -9.20338e-05 0.000569549 -3.03328e-05 0.000592078 -0.000195595 0.000412251 
-0.000193215 0.000475461 0.000279924 0.00123365 0.000875303 0.00184987 0.00217818 0.00358585 0.0257564 
0.0142175 0.0407285 -0.00906188 -0.000488102 0.000412282 0.00220965 0.000188218 0.000939564 -3.75644e-05 
0.000686304 -0.000300378 -0.000320802 8.90803e-05 0.000552337 0.00101558 0.0196522 0.00619858 0.000535879 
0.00195113 -0.00476625 0.000402744 0.00118672 0.000161204 -0.00043202 -0.00037241 -0.00127333 0.000108966 
0.0102246 0.00265782 0.00894032 -2.87941e-05 1.71535e-05 -1.31153e-05 2.07968e-06 -6.27978e-06 -3.69978e-06 
-7.02055e-07 7.94036e-06 3.49784e-06 -2.58932e-07 2.26789e-06 4.20146e-06 6.56704e-06 -1.63827e-06 7.96755e-06 
4.99378e-05 5.35573e-05 -1.92709e-05 5.78331e-05 -4.08305e-05 -8.11935e-05 -0.000178377 6.05642e-06 5.55705e-06 
1.0096e-06 5.70577e-06 3.90263e-06 9.09877e-06 6.63794e-06 6.13715e-07 -8.91791e-06 2.75563e-05 6.86798e-06 
7.94248e-06 3.52554e-06 -1.14039e-06 2.31621e-05 -2.83587e-05 1.01939e-05 -1.47025e-05 0.00013994 -4.04199e-05 
-0.000158167 0.000148538 2.13192e-06 2.26025e-06 5.17494e-06 -1.00675e-05 3.23932e-06 -1.00522e-06 2.61593e-05 
6.84735e-05 -7.36395e-05 0.000159133 9.32811e-06 -1.2387e-06 -7.65803e-06 -1.18049e-05 1.98274e-05 9.52932e-07 
7.96256e-06 -1.23355e-06 -4.58e-06 -3.08953e-06 3.58472e-06 9.11324e-07 1.57774e-07 -2.04747e-06 -9.92388e-05 
-2.4654e-06 -4.51278e-07 -7.21373e-06 -1.17613e-05 -2.89363e-06 -2.35158e-06 -4.84024e-06 -2.04389e-05 -2.17612e-05 
-8.17082e-06 -5.65881e-05 3.34052e-05 -2.50137e-05 1.44899e-05 -2.53045e-05 2.82165e-05 1.06075e-05 3.22104e-06 
-2.92807e-06 3.37028e-06 6.87105e-06 -8.55104e-06 -3.15369e-05 4.98417e-06 -7.98538e-06 6.64161e-06 -1.19669e-05 
5.04904e-07 -3.10857e-07 -1.0576e-06 5.97561e-06 3.90582e-05 3.5454e-05 2.64605e-08 -2.01894e-05 -1.50082e-05 
-4.13417e-06 1.061e-05 3.41141e-05 -4.66134e-08 3.26968e-06 -2.23013e-06 1.5792e-06 -1.76468e-05 4.7763e-05 
-0.00013861 4.67331e-05 1.84296e-05 -2.39343e-05 2.23539e-05 -1.50675e-05 4.06701e-06 2.70201e-06 -1.3214e-06 
-3.64571e-06 -1.15074e-05 -2.14111e-06 -2.75426e-05 -1.20923e-05 -4.07671e-07 3.05868e-06 -6.00954e-06 3.0731e-06 
1.04389e-05 -2.01389e-05 4.18824e-06 -1.01945e-06 -1.87709e-06 -3.18914e-06 -7.16238e-06 -9.39091e-06 -7.7434e-06 
1.67007e-06 1.1286e-05 1.56866e-05 -9.6994e-06 -2.96919e-06 -3.46936e-05 1.07009e-05 -3.28615e-06 -4.07971e-06 
9.78924e-06 2.4791e-06 4.08632e-06 1.21609e-06 -1.83002e-06 -3.20103e-06 -2.75684e-06 -6.29958e-06 2.84203e-06 
7.80659e-06 -5.39453e-06 -3.51205e-06 -4.26371e-06 -3.60445e-05 -9.07879e-06 7.24191e-06 8.96246e-07 -5.32221e-06 
4.79312e-06 1.96682e-06 3.10304e-07 -1.5335e-06 -1.64467e-06 1.96312e-06 1.00748e-05 3.30885e-07 4.38705e-06 
-2.657e-06 -2.12102e-06 -4.11557e-06 -7.88286e-06 -5.7114e-06 -7.6041e-06 -5.43799e-06 4.27887e-06 -4.13344e-07 
-1.09995e-06 2.6592e-06 0.000456759 -0.00017299 1.68234e-05 -5.66421e-05 4.77172e-05 3.64734e-05 6.88305e-06 
0.000262459 -0.000251272 0.000221512 8.7591e-05 -9.92708e-05 0.000103627 7.1069e-05 -6.92856e-06 -9.55895e-06 
-1.73788e-05 -3.46958e-05 -3.80508e-05 -1.15173e-05 2.05534e-06 8.31956e-07 2.83344e-06 4.13612e-06 -8.87075e-06 
4.31046e-06 3.13173e-06 -2.77783e-06 2.3647e-06 3.16727e-06 2.62837e-06 -1.42424e-06 2.36838e-06 4.37631e-05 
1.84695e-05 1.47129e-05 -2.01115e-05 -3.62171e-06 2.34773e-06 -3.01302e-06 -5.80358e-06 -6.90142e-06 -3.52792e-06 
2.03359e-06 2.51692e-06 3.14055e-06 -4.81944e-07 2.91135e-06 -4.1905e-05 0.000116109 -2.30939e-05 -2.78439e-05 
-8.04521e-06 -1.20083e-05 0.000350436 -0.00432959 0.00447265 -2.64424e-05 -1.43795e-06 1.65754e-07 -4.66097e-06 
-2.92092e-05 -9.46992e-06 -5.68859e-06 -3.20801e-06 -1.13391e-06 -3.81356e-06 2.32005e-05 -1.37929e-05 1.17916e-05 
1.67775e-05 -3.29442e-06 5.08753e-05 -3.61414e-05 1.02181e-05 -2.83898e-05 9.68854e-06 -7.55112e-06 -3.82133e-06 
-2.3242e-06 7.11515e-06 -8.19266e-08 2.00995e-06 1.47258e-06 5.04812e-06 4.21129e-07 0.000486249 -9.70757e-06 
7.45543e-05 -3.58267e-05 -4.92231e-06 -1.03961e-05 -2.08405e-05 -3.51033e-05 -7.38061e-06 1.42561e-06 -2.70312e-06 
3.66445e-06 -1.05049e-05 -1.4792e-05 -2.15881e-05 -1.50358e-05 1.28757e-06 -2.90024e-06 2.12463e-05 -9.1014e-07 
9.03395e-06 1.10049e-05 8.04492e-06 8.52213e-06 7.06936e-06 -2.76184e-06 -1.8917e-06 1.70591e-05 8.236e-06 
-8.43017e-06 -1.67348e-05 -3.3827e-05 2.09185e-05 1.11576e-05 -5.65702e-06 -7.71633e-06 -6.71155e-06 -1.30517e-05 
-2.22304e-05 1.4147e-06 -1.12898e-05 1.71027e-06 -1.0007e-05 -2.95214e-06 -5.02582e-06 -1.07677e-07 -6.79218e-06 
-2.4124e-05 7.39395e-06 -2.87341e-05 0.000186245 -0.000144548 -0.000120761 -0.0189526 0.0103059 -0.022336 
3.31516e-06 0.000104769 5.42276e-05 8.50554e-05 0.000458682 -0.00422185 0.000139047 -2.04118e-06 -2.00973e-06 
-5.80833e-07 -3.07834e-06 -6.27989e-06 -1.51227e-06 -4.849e-06 -1.21613e-06 -4.26334e-05 -2.17475e-05 7.32669e-05 
4.93037e-05 2.08396e-05 4.93984e-05 -4.41408e-05 -5.51906e-05 -3.28444e-06 -1.43701e-06 -5.03251e-06 1.63233e-06 
-1.67859e-05 -9.97901e-06 -3.37665e-05 -8.01751e-06 -3.38901e-05 3.81822e-05 -1.76864e-06 -4.90355e-06 -2.54167e-06 
-3.61491e-07 -1.3168e-06 -3.57333e-07 2.46216e-06 2.24091e-05 -4.40081e-05 1.87857e-05 -2.73308e-06 -3.29324e-06 
-2.89627e-07 -8.21279e-05 -0.00020597 2.51646e-08 -6.53667e-05 -0.000321976 0.000510293 -0.0215298 -0.000534785 
0.0199878 -1.75333e-05 -2.195e-05 1.35e-06 -4.20205e-05 -2.12017e-05 -4.93638e-05 -2.36652e-06 1.26058e-06 
-9.48951e-06 -5.80706e-05 2.72437e-05 -1.33875e-05 0.000375063 -8.50795e-05 -7.83561e-05 1.44117e-06 1.67251e-06 
9.10714e-06 0.000890229 -0.000116852 0.000542511 1.70901e-05 5.79807e-05 3.36777e-05 4.55221e-06 -1.01232e-05 
-3.42231e-05 -0.0213283 -0.0253112 -4.66356e-06 3.50082e-05 -6.0507e-05 9.01495e-06 1.06245e-05 5.3415e-06 
2.07772e-06 3.35585e-06 4.26456e-07 -0.000145735 -0.00398438 -0.000586825 -0.00521354 -0.00955018 0.0132051 
0.00918958 -0.0213454 0.000191556 0.000280725 0.000205814 2.8017e-07 -3.27617e-06 -5.60678e-06 -3.7046e-05 
-1.15847e-05 -3.07505e-06 -1.7133e-06 -1.46346e-09 9.71982e-07 0.000521189 -0.000142607 -3.60051e-06 -7.49888e-06 
-5.42111e-05 -1.79148e-05 1.85464e-05 -8.04747e-06 -2.91406e-06 3.89852e-07 0.0212333 -0.0210387 0.000450694 
-2.45514e-06 -3.91032e-06 5.20089e-07 2.45999e-05 2.40094e-05 1.09929e-05 2.66491e-05 -5.09486e-06 -1.12301e-06 
-3.39568e-06 -0.000158138 3.89633e-06 9.07511e-06 6.18137e-06 1.48404e-06 -8.11064e-06 6.33817e-05 -0.000102238 
3.52339e-05 3.24175e-05 -1.60326e-05 2.07201e-06 2.67789e-06 5.46574e-06 1.29326e-05 4.41891e-06 -3.21363e-06 
-4.45693e-06 0.000265282 6.19445e-05 0.000103917 6.98299e-07 4.76055e-06 9.03555e-06 2.05824e-07 3.78636e-06 
1.00267e-05 1.27237e-05 2.89953e-06 -3.42739e-05 6.14956e-06 3.2386e-06 3.81596e-06 0.0223009 0.000226523 
-1.16539e-05 5.70104e-06 3.00227e-05 -9.53118e-06 2.70081e-05 4.63611e-07 -3.89681e-05 6.10337e-05 -1.51017e-06 
3.14567e-05 -1.2556e-05 2.4149e-05 2.2733e-06 -4.77516e-06 -2.73488e-06 -3.46027e-06 -1.82812e-06 -3.2743e-08 
9.23705e-06 -1.56473e-05 1.72598e-05 1.08984e-06 7.92005e-05 6.17919e-05 -2.18307e-05 4.13304e-06 2.15025e-05 
7.31602e-06 -6.67447e-06 1.05299e-05 3.37196e-07 -1.74297e-06 4.11433e-06 7.18885e-06 -5.57718e-06 -2.04742e-06 
-2.40157e-06 -2.27914e-06 -6.44255e-06 1.82318e-06 4.43939e-06 1.33905e-06 -1.44755e-06 5.1999e-07 2.99337e-06 
2.26433e-05 -2.17331e-05 -7.01129e-06 6.86192e-06 -4.23286e-05 -3.45937e-07 -1.00156e-06 -4.20631e-06 2.1685e-06 
-5.9577e-06 -1.27033e-05 2.94334e-06 3.98594e-06 -5.97823e-06 -3.28825e-06 -4.17758e-06 2.53391e-05 -3.2371e-05 
1.19578e-05 -1.2691e-06 -5.09097e-06 -2.85801e-06 -1.89253e-05 -3.33928e-06 -2.77763e-05 -7.34564e-06 2.35531e-06 
-1.73918e-05 4.5469e-06 -4.23278e-05 1.04038e-06 1.35861e-05 2.21345e-05 -3.69291e-05 -4.03624e-05 -5.13907e-06 
-1.37205e-06 -1.56965e-06 3.74094e-06 1.61059e-05 -8.88753e-06 -9.06209e-06 1.39746e-05 1.14567e-05 -9.58599e-05 
-7.21916e-05 4.87219e-05 9.39951e-05 -1.45249e-05 -2.47284e-05 -5.60271e-07 -4.02346e-05 -2.17423e-05 2.19458e-05 
-3.79077e-05 3.24501e-06 -3.37666e-05 -7.26244e-06 3.46638e-06 -4.33921e-06 -7.49828e-05 -9.78624e-05 -1.58923e-07 
1.83023e-06 -9.79364e-06 -6.49184e-06 -1.91415e-05 -6.50396e-06 -3.99904e-06 -8.95409e-06 -1.24835e-05 -2.92181e-06 
1.7633e-05 1.40155e-05 1.74218e-06 1.08649e-05 -2.47007e-06 5.92565e-06 1.51057e-05 8.49862e-06 -6.78255e-07 
-8.33396e-06 7.53529e-07 1.12064e-06 6.58017e-05 -3.06443e-06 8.99131e-07 -5.98436e-06 7.15278e-06 -2.56382e-05 
1.86325e-05 6.28032e-06 0.00138388 0.000374301 -2.89081e-05 -3.3772e-06 -1.10076e-05 -1.021e-05 1.34895e-06 
-3.17732e-05 1.13039e-05 -2.15015e-06 6.50029e-06 -4.15154e-06 -2.39176e-05 -7.42104e-05 6.36048e-05 -3.29018e-05 
-9.17116e-06 -1.40723e-05 -1.30164e-06 -4.27612e-06 5.87479e-06 -4.93051e-06 1.19205e-05 -2.61804e-05 -2.36983e-05 
-9.98571e-05 -7.66399e-05 3.42484e-05 -8.16075e-05 3.16035e-07 -2.79556e-06 -2.90287e-06 -2.43031e-06 -7.11792e-06 
-2.06326e-06 -1.4514e-05 1.71692e-05 -2.42726e-06 -1.29897e-06 -1.95188e-06 0.00032605 0.000335049 0.000336027 
3.48103e-06 -1.01483e-05 4.17068e-07 5.41112e-07 -1.54841e-06 3.15285e-06 1.41611e-06 -6.0588e-06 2.50834e-06 
5.16713e-06 5.08094e-06 -1.09793e-06 -1.35775e-06 -3.16676e-06 3.11862e-06 1.93014e-07 -4.60874e-06 -3.57745e-05 
-1.22509e-05 -1.36278e-05 -3.55016e-05 -2.67097e-06 -4.99406e-06 -1.43987e-06 3.81057e-06 5.18568e-06 1.24415e-05 
3.08485e-05 0.000100329 -9.68935e-06 -3.24843e-06 5.16738e-07 1.16184e-05 3.65558e-06 -9.07335e-06 -3.36534e-09 
3.4605e-06 1.55062e-06 -7.33095e-06 -6.07778e-07 -2.70825e-06 -2.7999e-06 2.91625e-06 -1.13222e-05 2.15833e-09 
1.468e-06 9.27001e-06 -7.00341e-05 -1.54219e-05 -6.45728e-05 -8.07794e-06 2.11682e-06 -1.04413e-05 -5.42539e-06 
9.58457e-06 -6.30823e-06 2.60716e-05 1.14164e-05 -7.2902e-06 3.14396e-06 -6.25917e-06 -1.30181e-05 -0.000162128 
2.96091e-05 2.45286e-05 0.000605881 0.00427244 0.00427459 0.000239088 -5.07176e-06 -0.00429302 -0.000259083 
-0.000180172 0.000411552 5.0025e-06 -7.96786e-06 5.92215e-06 -1.59266e-05 2.9477e-06 -5.47825e-06 -3.31279e-06 
5.71236e-07 -7.1666e-07 -2.29693e-06 1.97324e-06 5.89599e-06 2.97435e-06 1.09495e-06 -4.87879e-06 -2.55577e-06 
7.2067e-06 -4.30817e-05 0.000301889 -1.51501e-06 -9.8104e-07 -1.8869e-06 -2.49304e-06 -2.0018e-06 -3.58657e-05 
-0.000715955 -1.20355e-05 1.63954e-05 1.01032e-05 8.31523e-06 -3.55148e-06 -7.08885e-06 -5.49418e-06 4.15403e-06 
1.74078e-05 -1.21548e-05 -8.97776e-06 -2.35085e-05 3.61711e-05 -2.78096e-05 -1.11091e-05 -1.12313e-05 7.50537e-06 
1.38846e-05 -1.0682e-05 -4.10708e-05 4.34581e-06 -1.04834e-05 8.76776e-07 6.22531e-06 -3.82806e-06 -3.55619e-06 
2.90217e-06 5.64589e-06 3.19324e-05 -8.14386e-06 -1.65678e-05 -2.9916e-06 4.37244e-06 -1.88779e-05 2.01449e-06 
9.76977e-06 -2.66413e-06 3.24785e-05 5.34677e-06 7.85171e-07 -4.83529e-05 -0.000249496 0.000474964 -2.98904e-06 
0.000100235 3.13664e-05 -0.000111369 2.93688e-06 -0.000135205 -7.14273e-05 0.000106252 5.0396e-06 2.21073e-05 
-0.00019255 -9.68317e-05 -9.85856e-05 1.453e-05 -4.48583e-05 -2.81895e-05 -7.4866e-07 7.3596e-05 -1.72847e-05 
-1.01101e-05 -4.00027e-06 2.91248e-05 -2.05174e-06 9.41022e-06 -2.48958e-05 0.000184699 -0.000121937 -9.50044e-05 
7.86184e-06 -3.83849e-06 7.01135e-06 2.6893e-06 -8.31735e-06 4.10206e-06 -1.73951e-05 9.03675e-07 -1.86286e-06 
-4.12809e-05 5.42946e-05 2.68194e-05 1.737e-06 -2.94909e-06 2.07637e-07 -3.86717e-06 3.17497e-05 -2.33351e-05 
-5.75805e-06 -4.53412e-05 -7.39659e-06 -1.1084e-06 -4.27129e-05 -1.89187e-06 2.60299e-06 -4.68898e-08 0.000145989 
-4.09164e-05 1.86962e-05 -2.94857e-05 0.000390033 -5.10432e-05 0.000662212 -1.01659e-05 1.23064e-05 -2.75875e-05 
2.99014e-05 -2.68446e-06 3.541e-05 -1.38009e-05 2.03742e-05 -4.4393e-05 -0.000187465 -0.000102735 0.000523343 
5.65216e-06 -4.27479e-05 -2.52647e-06 2.12492e-06 4.74814e-05 -9.64779e-06 -1.20914e-06 5.86544e-06 1.47243e-06 
-4.00261e-06 -7.34928e-05 1.09754e-05 6.55808e-05 -0.000430274 0.000509403 -5.38258e-05 0.000494223 5.85654e-06 
1.8415e-06 2.29507e-06 -2.94049e-06 -8.54504e-07 1.47744e-05 -2.36089e-05 -7.57052e-06 7.5918e-07 -3.19791e-05 
-7.13041e-06 -1.1217e-05 2.85224e-05 1.05989e-05 -2.01424e-05 1.92812e-05 -2.53857e-05 8.28455e-06 -0.000453581 
5.22339e-05 -5.06677e-05 3.0406e-05 -3.28664e-06 -6.73677e-06 3.09999e-06 -2.51024e-06 5.33282e-06 1.93354e-06 
-2.19716e-06 3.12441e-06 2.55063e-06 1.23797e-05 1.85791e-05 4.03425e-05 3.81025e-05 -0.000123476 3.80841e-06 
-2.12461e-05 3.04956e-05 -2.80608e-05 4.58247e-05 -2.76258e-05 -3.74279e-05 -1.25752e-05 -1.14605e-06 1.3516e-05 
2.69072e-06 1.95693e-05 -1.0654e-05 -1.24956e-05 7.64864e-06 -1.33068e-05 -5.68946e-06 9.92533e-06 -2.6842e-05 
0.00113078 0.00191758 0.00549179 -2.14152e-05 1.34525e-05 -2.39548e-05 -1.23797e-05 1.61621e-05 8.48794e-06 
7.12806e-06 -1.8396e-06 0.00130216 -0.0127801 6.87804e-05 -2.07107e-05 -3.13808e-05 -1.33594e-06 8.11494e-06 
2.70921e-05 -5.85081e-06 -6.14386e-05 -4.57033e-05 6.17425e-05 2.96272e-06 -5.13881e-07 -6.66855e-06 6.38383e-06 
5.41663e-06 4.40889e-06 -2.40238e-06 4.42665e-06 -3.80836e-05 2.80689e-06 0.000484285 -0.000387775 9.12666e-06 
-1.57219e-05 -1.24787e-05 -3.4023e-05 2.12407e-06 2.95399e-06 -2.37723e-06 7.0462e-06 4.69658e-06 1.94711e-06 
8.33418e-06 -2.96819e-06 7.11456e-07 4.73989e-07 1.50379e-05 -2.80199e-06 -3.05664e-06 -5.71086e-06 -7.29992e-07 
1.69182e-06 2.31958e-05 -0.000405622 -0.000412276 -0.00111293 0.00197017 0.000100888 -0.000176244 -2.05153e-05 
-8.3453e-05 -7.19397e-05 0.00015877 -0.000583512 -0.000165438 0.00010342 0.000226945 -0.000196513 3.29447e-06 
1.7956e-05 -1.02298e-06 -0.000250424 -3.29734e-06 2.05288e-06 -5.30138e-07 7.31833e-06 3.1757e-05 -0.000131215 
6.88137e-05 -8.47486e-07 -3.30919e-07 -6.7625e-06 -2.64069e-06 -2.5641e-06 2.04556e-05 -6.29208e-06 -5.15413e-08 
-3.90486e-06 -2.7342e-06 3.14867e-07 3.19946e-05 7.47444e-06 -5.99231e-06 -1.5436e-05 1.34163e-05 4.18607e-06 
6.06994e-06 3.02423e-06 -5.678e-05 -3.98562e-05 -2.8199e-05 -3.27666e-05 5.46241e-05 -3.00461e-05 0.000252358 
-1.52147e-05 -2.51613e-06 2.91992e-06 6.64424e-06 -5.27994e-05 5.79695e-06 3.93565e-06 -1.93468e-06 -0.000142808 
-1.10069e-05 1.17571e-05 1.32611e-05 -2.09215e-06 -8.70417e-07 -5.72409e-06 -0.00122099 -0.000484659 0.000381644 
-6.75794e-06 -4.562e-06 -1.99288e-05 -2.09507e-05 -1.37762e-05 9.08767e-05 -2.56525e-05 -6.94883e-06 -0.000131792 
9.13403e-06 9.54135e-06 1.30292e-05 -4.16406e-06 4.26375e-05 -2.80359e-05 -4.66248e-06 1.01376e-06 1.13065e-05 
4.40518e-05 -7.69329e-06 1.43668e-05 7.23566e-05 -1.98417e-06 -2.62335e-07 -0.000373387 -3.12494e-05 -5.29461e-05 
-4.75573e-05 -5.4208e-06 4.01833e-06 2.50218e-06 -7.3505e-07 -2.38246e-05 0.000113636 -4.64416e-05 3.62376e-05 
2.0533e-05 -8.38948e-06 -2.95726e-05 -5.36883e-05 -1.65513e-05 2.74778e-05 3.17636e-06 2.95143e-05 -4.94909e-06 
-4.0284e-06 4.63573e-06 -3.01679e-05 -3.80016e-06 2.93097e-06 1.53887e-05 -7.51131e-05 -0.000293467 -0.000454429 
3.41707e-05 -4.66751e-05 -2.2399e-06 3.04442e-06 -1.50658e-06 4.21818e-06 7.49096e-06 4.57062e-06 3.95188e-06 
-7.99667e-05 1.11705e-05 -3.46118e-05 -7.06714e-06 -2.16281e-05 3.67221e-05 -2.53702e-05 1.33093e-05 -1.56479e-05 
6.29319e-06 -7.60413e-05 2.57199e-05 1.9001e-05 -3.07078e-05 -1.89633e-05 3.70057e-06 3.24036e-05 -1.65612e-05 
5.25543e-05 -5.16189e-06 2.5166e-06 1.32185e-05 1.82355e-05 2.41652e-05 -6.0594e-06 -2.05111e-05 9.52468e-06 
1.24259e-05 4.05387e-06 1.93385e-05 1.85672e-05 1.74415e-06 3.24538e-06 -3.48268e-07 -5.86083e-06 -2.558e-06 
5.5685e-06 8.5676e-06 -1.32023e-06 3.50241e-06 -2.26305e-06 2.71011e-05 3.28641e-07 -7.03185e-06 1.80863e-06 
1.0253e-05 -1.26887e-05 -5.31065e-07 -3.25963e-05 1.48321e-06 9.6233e-06 5.69789e-06 4.26466e-07 2.39419e-05 
-3.45949e-05 3.7906e-06 9.75806e-06 2.30276e-05 -8.1235e-05 -3.38392e-06 -5.18192e-06 -8.39936e-06 2.7368e-05 
2.82798e-05 -3.75219e-05 -4.15583e-05 -2.03034e-06 3.6847e-06 -3.5901e-06 5.35927e-06 3.82736e-05 3.89802e-05 
0.000333725 2.18758e-05 2.69791e-05 -2.52505e-05 -1.56213e-05 -1.69205e-05 -4.87678e-05 2.65615e-05 -4.8008e-05 
-2.39174e-05 1.65307e-06 -1.15777e-06 -2.75871e-05 1.39884e-05 -1.01631e-06 -9.38421e-06 4.61485e-06 -7.41244e-06 
4.00314e-06 1.83805e-06 5.30136e-06 -9.34957e-06 2.8088e-05 2.70777e-05 -0.00221302 0.000699485 0.000343108 
1.60008e-06 -2.13024e-06 5.76093e-06 1.03526e-05 -6.72961e-06 -6.37735e-06 -2.0619e-05 4.06751e-05 1.53481e-05 
-1.25573e-05 2.56165e-05 1.5264e-06 1.52903e-06 2.93268e-06 -5.28263e-05 1.42663e-06 8.15824e-06 0.000454694 
0.000188051 -1.48847e-06 -3.99129e-06 2.14709e-06 -3.37495e-05 1.2523e-05 6.10538e-07 2.43113e-06 1.04351e-05 
-9.18178e-06 -9.74986e-06 -9.31723e-06 5.90486e-06 2.86589e-06 -1.57756e-06 -8.79245e-06 -5.99922e-06 6.41867e-07 
9.84186e-06 -2.35425e-07 -8.49279e-05 -4.1809e-06 1.22017e-08 2.14324e-06 1.77546e-06 -6.58954e-06 -7.13325e-07 
4.93125e-06 2.02511e-05 4.5915e-06 5.98724e-07 -4.80598e-05 -0.000126308 -8.37003e-05 -0.00016963 8.20277e-06 
-1.47196e-06 -3.79048e-07 1.14405e-05 3.5606e-06 7.37632e-06 6.80234e-06 -6.15994e-05 4.23168e-06 -3.89362e-05 
-3.38847e-05 -0.00011452 0.000118609 -0.00015534 9.73091e-05 -1.09837e-06 7.86603e-05 -4.74363e-06 -1.06034e-05 
-3.08495e-05 -1.36626e-06 -1.55308e-06 0.000183405 0.000676552 0.0225452 3.59185e-06 -7.50504e-06 -1.12388e-05 
5.51489e-05 -2.03639e-05 7.19311e-06 5.08682e-06 4.39387e-06 -4.16182e-06 -6.45361e-07 2.06731e-06 -1.62804e-06 
3.22842e-06 1.31127e-05 1.88983e-05 -2.70157e-07 -2.64207e-06 1.27352e-06 -0.000145911 -0.000251373 -0.000151519 
5.32053e-06 -1.02429e-05 -8.89658e-06 -3.28125e-05 -1.13165e-05 -9.87484e-06 -2.27191e-06 -0.00387866 -0.00328424 
-0.00508319 6.11713e-06 9.52181e-06 9.56367e-06 -4.14774e-06 1.31246e-05 -5.29408e-05 5.51919e-05 0.000206848 
0.000112883 0.000364812 -0.000188539 -0.000101931 -2.71597e-06 -9.19955e-07 -2.82716e-07 -9.04169e-06 3.96891e-06 
-5.10059e-06 -1.46209e-05 -6.95387e-05 1.89664e-05 3.67214e-06 -4.694e-06 2.09681e-06 1.23428e-05 -8.68414e-06 
2.48933e-05 -2.86898e-05 3.05146e-07 6.89445e-05 3.52449e-05 -2.47477e-06 2.78919e-06 1.26325e-06 4.61877e-06 
-4.10099e-06 7.37924e-06 -2.75309e-06 1.70824e-05 1.33495e-05 7.39881e-06 -1.79853e-05 -8.67649e-06 -2.18413e-05 
1.23991e-05 -0.0020165 -0.0142003 0.0031763 1.51289e-06 -2.02125e-05 -8.60665e-06 0.00380731 -0.00234321 
1.62693e-05 -1.33753e-05 1.47071e-05 -2.3422e-06 -1.92116e-05 -8.20985e-05 5.00613e-05 -7.53279e-06 4.49718e-05 
-4.57941e-05 0.0315749 0.0253101 6.3979e-07 1.94372e-06 -6.75958e-05 -6.93368e-05 -0.000160052 1.4044e-06 
-1.3097e-05 5.01509e-07 1.27108e-06 0.000112164 0.000129585 -2.95768e-05 -1.92595e-05 -9.30273e-06 2.80238e-05 
0.000159702 0.000133088 0.00035233 -3.00196e-05 -2.51412e-05 1.84824e-06 -1.68767e-05 -4.93409e-06 -2.42987e-05 
-8.2799e-06 -1.09705e-05 -8.55869e-06 -2.67127e-06 -3.1096e-05 -2.02828e-05 6.46577e-08 1.25839e-05 8.15979e-06 
2.75405e-05 -6.25726e-06 -2.65765e-06 -6.07512e-06 -3.11743e-05 8.51869e-05 2.655e-05 -1.0903e-05 4.90867e-05 
3.38443e-05 -0.000424587 -3.58469e-06 6.13714e-06 -3.12924e-05 4.18748e-05 -0.000338645 4.04077e-06 -1.15844e-05 
1.83492e-05 -4.3822e-08 -1.41864e-05 -3.60859e-06 -2.09023e-05 7.63321e-07 -5.77254e-06 -7.99327e-05 -2.50442e-06 
1.2756e-06 -3.31303e-05 -2.67924e-05 -7.14492e-06 -0.000736427 5.52898e-06 3.26351e-06 0.000215269 0.00433142 
-0.00410131 -2.22747e-05 1.35518e-05 -3.45213e-06 -5.15187e-06 7.7749e-06 -4.48692e-06 9.63568e-06 -3.009e-05 
-2.44952e-05 6.65812e-05 6.7174e-05 -0.000167592 0.000140651 0.02188 -0.0220783 -5.18766e-05 -2.88874e-06 
3.32862e-06 -5.34462e-06 -1.17122e-05 -2.91413e-05 -1.00782e-05 1.26437e-05 -3.25123e-05 -5.24066e-05 3.4406e-05 
-2.81261e-05 -5.45782e-05 2.33346e-06 -7.29273e-06 8.36592e-06 3.36799e-05 -3.27693e-05 -3.77104e-05 4.21005e-06 
-4.33472e-05 6.50552e-06 1.04592e-05 -3.36185e-06 -1.65054e-06 -1.16986e-05 -3.80133e-06 0.000350478 0.000212386 
-8.69081e-05 1.77029e-05 -8.20811e-06 -1.30093e-08 -3.4112e-06 -9.93424e-07 -1.68356e-06 -3.76821e-05 3.08587e-05 
-2.55816e-05 -2.89081e-05 -1.50601e-05 1.0112e-05 -3.76348e-05 -9.03329e-06 -7.16953e-06 -2.29462e-05 -2.64642e-05 
1.80987e-05 1.14016e-05 -1.21748e-05 -8.07253e-07 -4.87702e-06 -4.79175e-07 1.83275e-05 3.41828e-06 1.05074e-06 
2.38692e-06 2.8376e-06 0.000311424 0.0006423 -1.0081e-05 -1.21551e-06 7.626e-06 2.90493e-06 3.50686e-06 
1.28368e-05 4.36724e-06 -4.47948e-06 -2.96604e-07 -4.86667e-06 3.32731e-06 2.05666e-05 -3.51984e-06 -2.39108e-06 
-4.92702e-06 -4.60752e-06 -4.07579e-06 -7.06193e-06 -9.50051e-07 -2.96321e-06 5.04755e-06 -8.70218e-05 -0.00024562 
0.0218455 5.02236e-05 5.5446e-06 -2.47957e-06 -6.14158e-05 4.74494e-05 -2.45237e-05 -8.34752e-06 8.75836e-06 
-7.15837e-06 -2.88063e-06 3.01467e-06 -4.18485e-06 1.15943e-05 7.12474e-06 0.0228993 0.00071139 0.000459101 
7.49865e-06 2.81424e-06 6.96707e-06 2.82962e-06 -4.84077e-06 2.74245e-06 1.44525e-05 -8.45368e-06 2.31384e-07 
3.66181e-06 -1.18377e-05 -0.000297094 -8.1554e-05 -3.64785e-05 6.65662e-06 -3.02081e-05 -3.97895e-05 9.30701e-06 
-3.9153e-06 2.02099e-05 -6.40404e-05 2.93548e-05 -2.10213e-05 -2.1548e-05 0.000320421 0.00017203 4.72895e-06 
-2.22062e-06 4.59942e-05 -3.94617e-06 0.000442875 0.000173149 3.74062e-06 -9.47944e-08 -1.49072e-05 -2.72871e-05 
-5.49838e-05 7.48322e-06 6.41415e-05 -4.49843e-06 -2.79712e-06 -5.83148e-05 -3.88983e-05 -0.000165781 -6.24619e-06 
-7.06502e-06 -4.76299e-06 1.11158e-06 2.40176e-05 -4.87657e-05 -0.00116341 -0.0162553 -0.000791345 0.000623408 
0.000165677 1.22703e-05 2.44603e-05 -8.39921e-05 0.000114734 -5.63343e-05 3.28697e-05 3.1452e-05 1.89959e-05 
2.55772e-05 4.44161e-05 7.49954e-05 -3.62837e-06 2.6009e-06 -4.7217e-07 -8.28757e-07 -0.000198272 -3.6016e-05 
-0.000226067 9.94206e-06 -2.50185e-05 5.43422e-05 5.20293e-06 3.37626e-05 1.08476e-06 -2.85942e-05 -5.85829e-05 
2.37869e-05 4.17067e-06 1.09213e-06 -1.1252e-05 1.09414e-05 9.75497e-05 -0.000853666 -0.000161345 1.29593e-05 
3.17046e-05 2.22593e-05 6.07979e-06 6.18191e-06 1.79258e-06 1.49502e-05 -0.000142985 -1.56701e-05 1.4532e-05 
-4.13329e-05 8.00236e-05 -0.000477335 2.21537e-05 1.20277e-06 -5.14505e-05 -1.08666e-05 2.8663e-06 -1.99538e-05 
-4.19183e-05 3.86613e-06 1.77835e-05 -6.12728e-06 -4.63422e-06 0.000751878 -0.000183368 0.000867932 -0.000470723 
1.93844e-05 -2.26533e-05 -6.40306e-05 0.000344684 8.32509e-07 -0.000446132 8.41154e-06 -2.21501e-05 -2.93582e-06 
3.37324e-06 8.31073e-06 2.40178e-06 -5.4085e-07 -1.40982e-05 2.17619e-05 9.68323e-06 -0.0095693 -0.000826553 
3.9957e-08 -5.21631e-06 -7.38738e-06 2.15239e-06 -7.89214e-06 3.17302e-05 3.62311e-05 -3.50486e-06 1.45795e-06 
-6.06261e-05 -5.50776e-06 -2.13217e-06 -1.78384e-06 -1.54247e-06 2.28637e-05 -6.35694e-05 -3.43212e-06 -3.19348e-06 
-5.09582e-06 9.91274e-06 1.11301e-05 -1.45739e-05 1.32508e-05 6.34555e-07 0.00175292 -0.00547702 -8.06413e-06 
2.44855e-05 -3.049e-05 -1.56813e-06 3.97163e-05 -9.70609e-06 1.70423e-05 -4.86243e-05 -5.4097e-06 -8.19753e-06 
3.3645e-06 -0.000504358 0.00323757 -0.0122046 -2.54826e-05 8.36148e-06 1.40963e-05 -1.5976e-06 -4.63173e-05 
4.87723e-05 1.79792e-05 5.64467e-05 -7.52133e-05 0.000109111 -3.26063e-06 -2.28645e-06 -2.4901e-05 2.90201e-05 
-1.78265e-06 1.52506e-05 2.92668e-06 -6.28158e-06 -1.26715e-05 9.56688e-06 6.07381e-06 3.51258e-05 -3.66248e-06 
-2.65326e-05 -1.27785e-06 3.66231e-06 1.174e-05 4.02502e-06 8.04047e-06 0.000130088 5.76849e-05 3.87797e-06 
-7.95233e-06 -1.9834e-06 1.82204e-06 -6.12285e-06 -1.12706e-06 1.23149e-05 1.56225e-06 -5.32724e-06 -2.5109e-06 
4.9207e-06 -8.79547e-07 3.22645e-06 1.37728e-06 8.82151e-07 0.00520431 0.00148774 1.53516e-05 -5.91485e-06 
6.82927e-06 -5.97807e-06 -2.55016e-06 -1.1842e-05 -3.01358e-06 -1.33522e-06 0.0205228 0.000224733 1.94719e-06 
2.55145e-06 -3.12215e-05 0.0272449 -0.00800723 -0.0106819 0.000280425 -0.00073195 7.96399e-05 -0.000132783 
-3.76625e-05 -5.95041e-07 -8.08678e-06 -2.02213e-06 1.95593e-05 1.47715e-05 -2.25445e-06 -9.70116e-07 -2.21357e-05 
-0.000633107 0.000155049 0.0049069 7.38668e-07 3.31769e-07 -2.19912e-06 2.00761e-05 2.55945e-05 5.06179e-05 
-3.44171e-05 5.638e-06 8.63116e-06 -3.2537e-05 9.96906e-07 1.41758e-06 -0.000155729 -0.000288034 -2.50995e-05 
-5.65345e-05 9.22329e-05 8.39459e-05 2.35264e-05 -2.67714e-05 -1.75647e-05 -1.78356e-05 -1.05225e-05 -2.06126e-05 
-1.69732e-05 -3.5791e-05 5.28243e-05 6.77989e-06 -7.52646e-06 -5.17054e-05 7.11753e-06 -4.34009e-05 -4.19241e-06 
3.74513e-05 4.57715e-06 4.67186e-06 -1.73534e-05 6.35421e-06 -1.17531e-05 -0.00128777 -0.00423985 4.89774e-06 
2.92551e-06 2.02544e-06 1.06037e-06 2.27273e-08 -7.16966e-05 4.20484e-05 -3.59794e-05 -3.26532e-05 -1.35772e-05 
2.92977e-06 -4.35278e-06 6.80747e-06 -3.386e-06 -2.11562e-06 0.000427979 -1.49005e-06 -2.16061e-07 0.000295231 
-0.000112453 0.000138731 -1.46368e-05 -2.05283e-06 4.42453e-07 2.1101e-05 -2.68009e-05 1.30625e-05 -1.87087e-05 
-3.48342e-05 7.10128e-05 -2.33299e-05 3.35637e-05 -2.86042e-06 -2.90019e-05 0.0127581 -1.6265e-05 -0.0221247 
0.00135514 0.000206797 -0.000918576 1.34916e-05 -5.96443e-05 1.34324e-06 6.643e-05 -0.0228698 -2.21158e-05 
4.37198e-05 -3.57214e-05 -7.90476e-06 -3.06047e-06 1.12824e-06 1.61284e-06 -7.68762e-06 -3.32428e-06 5.27296e-06 
3.36605e-06 -1.9253e-05 -2.48792e-05 -5.09357e-06 5.44312e-06 -1.353e-05 -1.39005e-05 4.6921e-05 2.8702e-06 
2.1917e-06 0.000331672 0.000157477 -1.98778e-05 0.0221967 -1.28194e-05 -2.85374e-06 -4.13842e-05 -0.00414781 
0.00433033 0.000181693 -0.00452027 0.00447165 -0.00027413 0.000205811 4.78894e-05 2.72305e-06 3.46091e-05 
-2.57328e-05 7.40609e-06 -7.27089e-06 6.45191e-06 -0.0229619 1.84401e-05 2.96455e-05 4.69272e-05 2.56994e-05 
-0.00028027 -0.00155942 -5.56499e-05 -3.7674e-05 0.000106602 -6.13743e-05 -6.46015e-05 -2.7158e-05 -7.11026e-06 
-4.00154e-08 -8.71142e-05 -0.00105468 0.000155279 8.86359e-06 -3.87875e-06 -1.69513e-06 -4.18105e-06 6.22485e-07 
-1.53368e-06 -0.000154908 3.11652e-06 -4.91966e-06 4.20761e-06 -0.000228184 -4.74445e-05 -1.67953e-06 -3.1231e-05 
6.60004e-06 1.4699e-05 2.53414e-07 2.14387e-06 -3.30588e-06 3.44502e-06 2.40951e-06 3.64603e-05 -0.0222164 
-1.52279e-05 3.82068e-06 5.07719e-06 -1.50071e-06 -3.2671e-06 2.37849e-06 -1.12017e-05 6.55575e-06 -5.15988e-06 
-2.15151e-06 -9.21535e-07 -4.16336e-06 -1.1999e-05 -1.80872e-05 -1.92958e-05 6.30394e-05 8.45802e-05 2.66889e-05 
2.2225e-05 -2.11833e-06 1.12323e-05 -7.8716e-06 4.79129e-07 5.63232e-06 3.64123e-05 -2.05123e-06 -4.48068e-05 
4.5679e-06 -3.79562e-06 -1.0403e-06 -5.68812e-05 1.49957e-05 2.00363e-05 0.0208479 0.02505 0.000159058 
-3.717e-05 -1.12166e-05 0.00023836 -0.000170293 -4.23995e-06 -4.66325e-05 3.45621e-06 -1.98995e-05 3.13678e-05 
-2.70332e-06 0.000213084 0.000253944 -1.06901e-05 -8.13567e-07 -1.06534e-06 4.77357e-07 -2.54815e-06 -2.91986e-06 
-5.23568e-05 -5.35539e-05 -0.000181853 -0.000275253 -3.57934e-05 -0.000472985 1.77039e-05 0.00423334 -0.00423597 
-3.30643e-05 -7.62215e-05 -8.96205e-06 4.76363e-06 -2.40692e-06 0.00571744 -0.00461209 0.0253168 0.000391911 
-1.18853e-06 2.32551e-06 -1.73618e-06 -2.64125e-06 0.00013289 0.000144385 0.000343716 -0.000215248 3.03465e-05 
2.15676e-05 -1.83474e-05 -9.32303e-06 0.000100494 5.99102e-05 -2.06867e-05 3.73131e-05 0.000118094 2.39713e-05 
-5.75471e-06 3.10319e-06 2.16637e-05 -6.48203e-06 0.000520427 4.73301e-05 -8.09441e-05 -6.09439e-05 -3.12387e-06 
-6.45483e-06 -1.09361e-05 -4.60129e-06 -9.20832e-07 2.29549e-06 -5.93093e-06 0.00436818 -0.00418923 5.86884e-06 
-1.77536e-05 -6.5072e-06 -1.0837e-05 -5.8469e-05 2.5631e-05 -5.73371e-05 4.81687e-06 -5.36063e-06 1.28127e-07 
2.53465e-08 -1.87587e-05 1.07857e-05 1.68556e-05 1.55548e-06 -1.52175e-05 -3.22415e-05 2.21871e-05 4.06938e-05 
3.31737e-05 -2.34202e-05 2.36691e-05 -2.04529e-06 -3.33212e-05 -1.68899e-06 1.26892e-05 -0.000894395 0.000270421 
-0.00166953 0.00264145 -4.35817e-06 -1.97149e-06 -4.65833e-06 3.96092e-06 -0.000949699 7.09088e-05 -5.41556e-05 
4.55114e-06 -2.10981e-06 -7.59915e-05 -1.36181e-05 -2.05051e-05 -3.62183e-06 6.7789e-05 3.01183e-05 -5.65507e-06 
-3.7495e-06 7.08546e-07 1.14483e-05 1.62379e-05 -9.76889e-06 -1.61487e-05 -1.65731e-05 2.92174e-06 -7.60647e-06 
9.23043e-06 -1.33657e-05 6.33626e-06 6.74374e-05 -2.19438e-06 6.48318e-06 2.62272e-07 -1.74469e-05 -9.33927e-06 
-2.39822e-05 8.45416e-06 -2.15314e-05 -8.62312e-06 2.02387e-05 -6.11552e-05 0.00014024 -1.7473e-06 -1.76032e-06 
-3.57163e-06 -6.41903e-06 -1.33614e-05 0.00112267 -0.00456956 -0.0013498 1.02872e-05 -1.24003e-05 9.52292e-06 
-2.65715e-05 -5.35813e-05 1.34609e-05 1.04542e-05 -6.53911e-06 4.92664e-06 3.33521e-05 -1.14196e-05 0.0222366 
0.000392663 0.00022621 4.61741e-05 3.76158e-05 -3.69733e-05 1.98344e-05 -3.57103e-05 -3.67873e-06 -5.79455e-05 
9.15133e-05 3.35695e-05 -7.87194e-05 2.74219e-05 2.68666e-06 -7.55101e-07 -1.00978e-06 -0.000157317 -6.81991e-05 
2.18696e-05 3.4263e-05 -0.00740959 2.56922e-06 3.68294e-06 2.21766e-06 -1.23793e-05 3.56501e-05 -2.18671e-06 
-1.33756e-05 -1.64151e-05 -1.7667e-05 -3.67752e-07 -5.94286e-06 1.31465e-05 4.00185e-07 -6.82006e-07 -6.3052e-06 
5.63851e-06 -3.81662e-05 1.97808e-05 -1.26502e-05 7.4199e-07 3.66911e-06 6.3386e-07 -5.55371e-06 0.000383692 
-0.000362963 0.000259003 2.73703e-06 3.8684e-07 -1.35842e-05 -4.94275e-06 2.04328e-05 4.76081e-06 1.05382e-05 
5.86839e-07 -3.91342e-07 1.17486e-05 1.29741e-06 -2.21044e-05 -3.60602e-06 -1.23317e-05 -2.71651e-06 -3.29256e-06 
-5.28977e-06 -5.70831e-06 -2.12259e-06 6.27697e-05 -5.81397e-06 5.92043e-05 2.65567e-05 1.34486e-05 -7.8421e-05 
-2.47789e-06 -1.76762e-05 -4.90678e-05 -4.22266e-06 -2.96959e-05 -2.29926e-05 1.13238e-05 0.000370419 -1.21998e-05 
2.82784e-05 1.1001e-05 -0.00392555 -5.55503e-06 6.57677e-06 6.96817e-06 -2.05636e-06 1.41601e-05 -5.25085e-06 
1.69082e-05 -0.0227088 0.0224305 0.000135202 0.00023256 0.0225109 0.000482805 0.000285767 0.00440072 
-3.09074e-05 -1.79445e-05 -3.04946e-05 -3.27851e-06 8.21094e-06 -2.44473e-06 1.54607e-06 5.42629e-06 -6.23303e-06 
-5.5983e-06 0.000205698 1.43086e-05 5.48024e-05 -5.1133e-05 -0.000208325 2.42336e-06 -2.8587e-06 0.000175708 
4.11436e-05 -1.27334e-05 8.63045e-06 -4.24904e-06 5.19678e-07 6.05733e-07 9.0868e-06 0.000619548 -1.24649e-05 
-1.01001e-05 6.08898e-05 -2.84076e-06 3.97095e-05 3.8456e-06 -1.8027e-06 -1.32107e-05 0.000216136 0.001285 
-6.803e-06 3.52781e-06 2.77961e-06 2.92271e-05 -3.12872e-05 -8.16418e-07 5.52548e-05 6.23702e-06 -0.000509123 
0.000711785 6.42454e-06 -1.91062e-07 1.29063e-05 -2.92174e-05 2.46388e-07 -1.03127e-05 0.000239159 3.58595e-05 
-0.000108822 -0.000831588 -2.33933e-05 2.36811e-05 -2.7041e-05 0.00430534 -0.000103782 6.90626e-05 2.19963e-06 
1.65817e-05 2.26209e-06 -2.35501e-06 -2.54173e-05 -5.15055e-05 -2.52926e-05 -8.62139e-06 2.58076e-05 7.53973e-06 
-2.17087e-05 3.05177e-06 -1.26565e-05 -1.56037e-05 -3.12138e-05 4.90633e-06 2.1465e-05 1.26733e-05 -1.85253e-05 
-3.80142e-07 -1.24356e-05 5.12438e-06 -2.91236e-05 1.76114e-05 -2.02494e-06 -6.82191e-07 9.59353e-06 2.09293e-06 
-6.58202e-06 -3.66274e-06 0.000235407 -3.52694e-06 -1.82303e-05 -3.08261e-05 0.000163972 0.000112648 -2.56897e-06 
-2.78338e-06 -2.33274e-06 -2.40856e-06 -0.00403897 0.000426502 0.000747432 0.000662202 0.00438486 -5.81668e-06 
5.62289e-08 2.65812e-06 -1.62014e-05 6.30604e-06 2.19511e-06 2.28951e-06 -0.00411095 -9.37529e-07 9.10798e-05 
-2.29527e-06 1.92595e-06 3.819e-06 2.44292e-06 -1.2389e-05 2.15991e-06 -3.81415e-06 -2.62022e-06 -1.77273e-05 
-4.37012e-05 6.45853e-05 0.000371425 1.73069e-06 2.29394e-06 -8.83759e-06 -3.71241e-06 -1.22842e-05 0.000177051 
-2.35797e-05 -5.55135e-05 -9.03649e-05 -0.0211675 6.05398e-06 3.55373e-06 -4.92688e-05 -3.06983e-06 -5.74837e-06 
3.37488e-07 2.84999e-05 3.08381e-06 -7.87197e-06 -2.66746e-05 -1.28251e-06 3.41496e-06 -0.022428 -1.64266e-06 
-1.00283e-06 1.76269e-05 -2.01891e-06 -1.71596e-06 2.08844e-05 -0.000300737 -0.000258978 -0.000347392 -1.8294e-05 
-4.9423e-05 -3.57707e-05 4.04673e-05 -5.04899e-06 3.51568e-06 -1.08078e-05 -2.76051e-05 6.56403e-06 -5.02411e-06 
-2.09619e-05 -0.000103273 -1.32976e-06 1.45758e-06 1.64248e-06 5.81176e-07 4.85722e-06 1.20612e-06 -8.65893e-06 
1.81264e-05 6.21228e-06 -0.000166653 -1.5242e-05 4.01874e-05 -7.40768e-06 6.30074e-05 1.61157e-06 4.32651e-07 
3.99692e-06 -7.15234e-05 4.81143e-05 2.32896e-05 -0.00135626 -6.80823e-07 2.74977e-05 -3.11769e-05 -2.57327e-05 
-1.80504e-06 1.88983e-05 -3.19687e-05 -2.32352e-05 4.22695e-05 1.73788e-05 -2.67308e-05 3.26483e-05 -1.97329e-06 
-3.42481e-05 5.91966e-06 4.32164e-06 -3.16327e-06 -9.22893e-05 1.15906e-05 -1.75052e-05 -1.86217e-06 -6.93299e-07 
3.26469e-06 8.76197e-07 3.87232e-06 -5.11053e-07 -3.09315e-06 -2.02977e-06 -5.32584e-06 -0.000173752 -0.000336989 
-0.00015043 -4.93938e-08 -3.98161e-06 -2.32749e-06 2.02158e-05 2.27566e-05 0.000118659 -1.72922e-05 1.1542e-05 
-1.48991e-05 2.3438e-05 -3.63254e-05 2.13528e-06 5.78448e-07 -4.99934e-06 -3.51232e-06 -2.20593e-06 5.35301e-06 
5.04322e-05 -3.20729e-05 9.38117e-05 -6.36943e-05 -8.06207e-08 -5.39306e-06 -3.33031e-05 1.48465e-05 -5.08115e-06 
-8.56651e-06 -5.68671e-05 -2.69648e-05 4.31202e-05 -1.78293e-05 1.04797e-05 3.30232e-05 -9.49689e-06 -7.44472e-06 
-3.22005e-06 -2.73806e-06 -9.83753e-07 0.0225468 0.00407333 3.9297e-06 -8.53454e-06 -1.35401e-05 -4.76262e-06 
6.02132e-05 6.84556e-05 -4.42964e-06 -2.28021e-05 -0.000149335 4.98801e-07 -2.08751e-06 6.95853e-06 -5.29735e-06 
-0.00768529 -0.0185269 -1.33829e-06 -0.000176897 -1.42894e-05 -2.76869e-05 -5.69879e-06 2.0946e-05 -6.72837e-05 
5.01308e-05 -7.94912e-05 -6.96509e-05 7.4286e-06 8.77115e-07 9.9725e-07 -1.12437e-05 -8.18249e-07 2.25461e-06 
-8.28103e-06 4.60981e-06 -3.2277e-06 -6.10339e-06 -4.13352e-05 4.72174e-07 -1.69256e-06 -1.22845e-05 -2.91771e-05 
1.4267e-05 -1.5292e-06 6.42352e-05 -3.66229e-05 1.51918e-05 2.84038e-05 1.26074e-05 1.75107e-06 -4.07155e-06 
-1.55878e-05 -3.85028e-06 -4.69477e-06 1.73303e-06 3.3368e-06 4.72004e-06 -1.72864e-05 -9.74419e-06 1.75697e-06 
1.01987e-05 -3.93055e-06 2.0975e-06 -1.08789e-06 1.31798e-05 -4.9378e-06 -2.55798e-06 3.8134e-05 1.10068e-05 
0.000432535 8.09535e-07 -1.77111e-05 -1.62636e-05 -1.69338e-05 -0.000431536 -5.2087e-07 0.000141341 1.85596e-07 
1.20875e-05 4.33461e-05 -5.31148e-07 1.96519e-05 -0.00418374 0.00431311 -1.0255e-05 -8.58183e-07 -2.66809e-05 
1.03925e-05 -0.00419921 -1.18104e-05 -2.87621e-05 0.000112521 -0.000156043 -0.000137872 -0.0223428 5.18537e-06 
3.9987e-05 -0.000138789 -2.19082e-05 -5.20046e-05 -6.64979e-06 3.38479e-06 -1.73032e-05 4.63554e-06 -7.1046e-05 
-1.30984e-05 3.69834e-05 -3.3739e-06 -5.12092e-05 -2.59318e-05 6.66222e-05 7.61797e-06 1.01063e-05 -1.54431e-05 
-4.60067e-05 -1.08879e-05 8.0926e-06 -1.49989e-06 1.20061e-06 -7.88256e-05 -0.000265138 0.00014691 -3.42207e-06 
-2.05769e-06 2.31809e-05 2.48752e-05 1.35481e-05 8.37682e-07 1.65034e-06 2.3434e-05 -1.63427e-05 -1.93563e-05 
-3.21942e-05 -2.9879e-05 9.56887e-06 -6.35633e-06 -1.19408e-05 -1.54109e-05 2.01531e-06 -0.00013424 -9.29284e-05 
-4.91406e-05 6.29984e-05 -1.96639e-06 -2.34503e-05 -3.46154e-05 9.55066e-05 -1.22251e-05 -6.63886e-06 0.000235381 
-4.9195e-06 -2.82579e-05 3.18697e-05 -4.11744e-05 -2.62747e-06 6.33727e-05 -0.000142176 -0.000211945 -2.73585e-06 
5.66794e-06 7.47701e-06 -2.20661e-06 8.30554e-05 9.38072e-05 -0.000231787 -1.20531e-05 -4.95029e-05 0.000152149 
9.14432e-05 0.0247081 0.0236842 -5.78215e-06 3.79557e-05 -0.000666148 -0.000292859 3.35248e-05 -0.00151167 
0.000597743 0.00111625 3.97237e-06 -8.7673e-07 -4.01764e-06 3.20801e-06 -5.64651e-07 -1.88839e-05 -4.41772e-06 
-1.52014e-06 -8.42586e-06 1.95857e-05 -4.65607e-06 -4.85266e-06 4.16983e-06 -2.88424e-05 4.71572e-06 -2.71457e-06 
-1.47364e-06 -8.3795e-07 -0.000133384 -8.03209e-06 -0.0043717 6.07893e-05 1.5628e-05 -8.34412e-06 -4.19001e-05 
-2.57723e-06 -3.96353e-07 -8.36295e-07 6.6538e-07 3.26433e-05 -1.05154e-06 -9.9407e-06 5.79729e-05 0.000106586 
-2.45314e-05 4.09641e-06 8.7739e-07 1.07627e-06 3.81283e-06 -2.76685e-07 2.55066e-06 1.98136e-07 -8.64952e-06 
1.75492e-05 4.63061e-06 4.25873e-06 4.7727e-05 -2.11093e-05 6.57758e-06 0.000475449 0.022019 4.82313e-06 
-2.81897e-06 -5.17219e-06 -4.27355e-06 6.13777e-05 -4.46822e-05 -1.61137e-05 6.94093e-06 1.74691e-06 -4.33552e-06 
2.20112e-06 0.000453451 -0.000937612 0.000259225 -0.000196547 -0.000662308 1.87954e-05 -1.28831e-05 4.10337e-06 
-4.80416e-05 -7.12657e-05 -4.70474e-05 3.2252e-06 -1.17539e-05 -1.58769e-05 2.34023e-05 -3.2919e-06 -3.26505e-05 
1.70173e-05 -4.44126e-06 8.90864e-07 -9.3423e-06 5.46148e-06 -7.28399e-05 5.11508e-05 6.87461e-05 -2.03044e-06 
1.66505e-05 -7.70437e-06 -0.000617813 -2.05743e-05 0.00115804 -1.96653e-05 3.59902e-06 4.52179e-07 -3.93809e-06 
3.1503e-06 -0.00414523 -1.80888e-06 -1.39003e-05 0.000179879 -2.09238e-05 -4.48164e-06 2.58834e-07 6.32908e-07 
7.36542e-07 -1.7586e-05 -2.078e-05 0.000100234 -6.15089e-05 1.08582e-06 -1.87203e-05 1.11691e-06 1.00566e-05 
-7.07501e-06 2.53632e-05 -3.81329e-05 -7.5066e-05 -5.55957e-06 5.23539e-05 -0.00013645 1.41804e-05 9.47325e-06 
-3.7041e-06 2.42413e-05 3.07675e-05 -4.16127e-06 -2.5028e-05 -1.81277e-06 -1.68774e-06 5.71658e-06 -1.35136e-05 
-6.77527e-06 -2.06549e-05 -3.68734e-06 7.95429e-06 1.37503e-06 -1.05609e-05 1.02551e-05 1.43565e-06 -2.0718e-05 
-4.20704e-05 -6.54614e-06 1.91087e-05 1.63043e-05 -4.51563e-06 1.60977e-06 -1.24266e-05 -7.8707e-05 0.000178345 
3.2306e-06 1.98293e-06 3.97925e-06 2.25764e-06 0.000286558 0.000331021 0.0217796 1.14027e-06 -1.32139e-05 
7.02848e-06 -5.26325e-06 9.50305e-06 0.000248343 2.34952e-05 0.000908577 3.48694e-06 -2.38484e-06 -3.8615e-05 
-1.36679e-05 6.96439e-07 6.38136e-06 4.3109e-07 -1.27268e-06 -3.74786e-06 -3.27478e-07 -4.39582e-06 9.56958e-06 
-6.27407e-06 -1.31212e-06 1.1949e-06 9.39149e-06 3.23093e-06 -3.69869e-06 1.86144e-06 -1.51267e-06 -7.61506e-06 
-7.26015e-05 -2.46922e-06 4.42276e-06 7.12434e-06 -1.88635e-05 3.47839e-06 -1.49155e-05 -3.2941e-06 -1.54658e-07 
-1.52211e-06 -0.0224541 -6.0613e-06 -0.000100176 0.000342621 0.000311715 0.000684662 0.000758293 8.89185e-05 
5.67888e-06 3.06693e-06 6.57285e-06 -3.46711e-05 -9.78278e-05 -5.37794e-05 -4.79426e-06 -1.12197e-05 2.31229e-06 
-1.01124e-06 -1.08308e-05 -2.60555e-06 1.25384e-05 -1.0788e-06 -4.33767e-06 -4.70407e-06 -1.12817e-06 1.22713e-05 
9.62513e-06 5.04592e-07 -4.03638e-07 -1.95736e-05 -5.37561e-06 -1.98341e-06 -1.6515e-07 -7.71254e-05 -0.000409739 
0.0220014 3.41893e-05 -2.9854e-05 1.60099e-05 -5.42495e-06 4.3641e-05 -0.000218598 0.00167384 -0.00676598 
-4.92955e-05 -2.99177e-06 4.29311e-05 5.70805e-06 -1.25139e-05 4.31742e-05 2.50737e-05 -3.65447e-05 3.92346e-06 
-2.51945e-05 4.61591e-06 -1.22763e-06 -2.89527e-07 -7.22359e-05 -2.01103e-05 -2.2794e-05 5.10532e-05 0.0242744 
1.52206e-05 -2.26873e-05 3.86335e-05 -2.15593e-05 0.000123561 -2.36217e-06 -1.51418e-06 -4.71424e-06 -7.80331e-07 
-2.4106e-06 2.71608e-06 7.91887e-06 -5.15321e-08 -7.04919e-06 3.76044e-06 8.33841e-06 -1.17457e-05 -0.000117871 
-0.0216083 6.82946e-07 -6.21083e-05 -7.98098e-06 0.000902708 -5.27586e-06 -2.57096e-05 -1.31038e-06 0.0215714 
5.055e-06 -1.98066e-05 1.62415e-08 -3.9315e-06 6.98381e-06 -1.98466e-06 1.42889e-06 -1.78409e-06 -3.84266e-07 
2.13795e-06 1.51373e-05 -6.85714e-06 2.37677e-06 0.000174571 9.85924e-06 7.06045e-06 -3.62904e-06 -3.48631e-05 
-4.50404e-06 -3.33736e-06 2.16862e-06 2.80407e-05 -2.76232e-05 -1.56114e-06 -1.35566e-05 3.87949e-06 9.65781e-06 
-5.56739e-06 -5.90533e-07 -4.03155e-06 4.56763e-05 -1.6027e-05 -5.56679e-05 -0.000647723 -7.73827e-06 -6.14837e-05 
3.58363e-05 5.02601e-05 -3.08444e-05 7.29723e-06 3.04961e-05 -1.06178e-05 -1.01303e-06 -3.9802e-05 0.00435105 
-1.58222e-05 4.01708e-05 5.75873e-06 1.90243e-06 -3.26979e-06 -0.000521626 0.00502222 1.59458e-06 0.000118144 
6.83607e-05 2.07978e-06 -1.24961e-06 -3.01111e-06 -0.0226718 0.0225309 -0.00284815 -0.00395405 1.87169e-05 
9.17813e-05 -0.000328926 -3.39663e-05 0.0220538 -0.000170228 -0.0220471 -1.85738e-05 -7.27753e-05 -8.60998e-06 
-5.60959e-06 4.0386e-06 -1.58826e-06 1.50623e-06 -4.18527e-06 8.56142e-07 -1.8364e-06 7.70706e-06 0.000153065 
-8.41923e-05 0.00436237 0.0260302 2.57677e-06 5.00027e-06 -0.00411406 0.000257286 -0.0227221 2.67627e-06 
-7.20578e-06 2.40775e-07 0.00011242 1.59518e-05 4.53109e-06 -1.82957e-06 -2.82345e-06 6.62654e-08 -1.42013e-05 
7.03476e-05 4.99751e-06 4.34772e-05 5.78918e-06 -6.69496e-06 -3.9903e-05 -6.70805e-05 1.71433e-05 -5.02803e-05 
-2.05363e-05 -0.000583179 -0.000169496 0.000143162 -0.000723423 8.43535e-05 -7.69241e-05 -2.08968e-05 2.23627e-06 
-4.29134e-05 1.95894e-05 -1.96579e-05 0.000188026 4.28016e-05 -9.39335e-05 -4.16888e-06 -1.22071e-05 -0.00075076 
-1.01329e-05 -2.74032e-06 5.25594e-06 6.51986e-06 1.70317e-07 5.73935e-06 5.48262e-06 6.72464e-06 -3.31274e-06 
-3.48244e-06 -1.03071e-06 6.42336e-06 -5.64365e-05 -2.0231e-06 -0.000272899 -2.26606e-05 -4.88584e-06 1.54319e-05 
4.16216e-06 -2.79004e-05 -9.54428e-06 1.88525e-06 2.45541e-06 -1.59965e-06 6.88311e-05 3.78593e-06 -0.00024997 
-4.32094e-06 3.42654e-06 -1.66937e-05 -6.16418e-06 -1.99217e-06 -1.13724e-05 1.71163e-06 1.99688e-07 -2.59097e-05 
3.14925e-05 0.00013776 0.00512315 9.07807e-07 -2.65669e-06 -1.42346e-05 -1.59249e-05 0.000365597 -6.97979e-06 
7.47202e-06 4.06183e-07 -1.00416e-05 -5.84879e-06 -0.000155298 9.20723e-06 1.3307e-05 1.97303e-05 -6.18154e-05 
1.66899e-06 -0.00028612 -1.5317e-06 -3.88084e-06 0.000129933 -0.000119319 -1.82921e-05 0.000192833 -0.000296576 
0.0005307 0.000161889 -7.17425e-05 -3.2098e-06 -4.00505e-06 1.24805e-05 -8.85029e-05 9.62422e-06 -7.14449e-07 
6.56187e-06 9.30504e-07 6.12158e-06 -9.45151e-07 2.41085e-06 9.83961e-07 -3.26208e-06 -5.27298e-05 3.77601e-06 
8.77831e-06 -3.67486e-05 -8.48542e-07 3.41167e-06 6.37995e-06 0.000353953 3.55043e-07 6.91334e-06 -8.55017e-05 
-1.04332e-05 8.19645e-06 -4.6664e-07 -4.29451e-06 4.78497e-06 7.4605e-07 -6.75691e-07 9.24111e-06 5.07044e-07 
-3.18871e-05 -2.93869e-05 -4.79983e-06 1.20655e-06 -6.58531e-06 4.47439e-07 1.67035e-05 -1.32264e-05 -5.3286e-05 
-5.41517e-05 0.000658162 -2.57789e-05 -2.57155e-06 -1.01696e-05 0.00376868 4.74918e-06 0.00427334 0.000146317 
-7.01039e-06 -3.46793e-05 4.34892e-06 -0.00407841 1.08466e-06 4.79377e-07 0.00212854 0.000145496 0.00437184 
4.06327e-05 7.11322e-05 0.00711573 8.96036e-06 -0.0203715 1.05607e-05 -2.15845e-06 4.22858e-06 -1.24777e-06 
-2.65872e-05 -1.96264e-05 -1.73218e-05 -1.9111e-06 -9.35888e-06 -5.01409e-07 6.14299e-06 -3.95615e-06 3.27906e-06 
-1.0751e-05 2.92665e-05 -7.05092e-06 2.25089e-06 4.47064e-06 2.83772e-06 -1.99612e-06 -4.67305e-06 0.00336363 
1.87146e-06 -3.83276e-05 -3.34075e-06 -2.5195e-06 1.17535e-06 4.41277e-06 -4.6949e-05 -8.47771e-06 3.92246e-05 
8.94047e-06 -8.32226e-05 2.79994e-06 4.96408e-07 0.000803222 -3.81727e-05 6.26639e-05 -4.39091e-06 -3.63629e-06 
-7.73517e-06 2.22249e-06 -8.23857e-06 -3.92393e-05 0.000641686 0.000183698 0.000595124 -0.00179055 2.52358e-05 
-7.77806e-07 3.11977e-06 -2.95406e-06 -1.96404e-06 3.83351e-06 -3.5563e-06 -2.16719e-06 9.77579e-06 1.93582e-06 
-2.95947e-05 1.21812e-05 8.18805e-06 7.18686e-07 -7.95756e-06 -3.70978e-06 -6.67212e-06 -1.92935e-06 -1.00038e-06 
-4.212e-06 1.58558e-05 -2.02642e-05 -7.15919e-06 -1.09403e-05 -1.8304e-06 -2.69136e-06 -1.19309e-05 -2.21219e-05 
2.46755e-05 -6.9528e-05 3.63293e-05 -0.000403047 1.26439e-05 -8.76923e-06 -2.25777e-06 -2.81406e-06 -0.00026192 
2.46646e-05 6.94598e-06 7.73251e-05 -3.30642e-05 2.87452e-05 -1.16758e-06 -1.11062e-06 1.56413e-05 2.66492e-06 
0.000157734 0.000130468 0.000188201 -3.22334e-05 -1.06527e-06 2.2779e-05 1.95645e-05 1.65377e-06 -0.000274977 
-1.99209e-07 -0.000426249 4.7329e-06 0.00324561 0.00474613 6.01901e-06 -8.85643e-05 8.69681e-05 6.38506e-05 
-0.000298342 -5.25944e-06 -0.000353449 5.23178e-05 3.43077e-06 1.47306e-07 1.02526e-05 -4.48616e-06 3.21723e-05 
2.49888e-06 3.87448e-06 -5.55618e-06 0.000207566 -8.47133e-05 0.000204764 2.67623e-05 -2.64182e-06 -5.53276e-06 
-1.6958e-07 -1.89916e-06 -1.06311e-05 -0.000109941 2.0745e-05 9.10197e-05 -1.10699e-05 -2.16774e-06 -1.27483e-05 
-2.0042e-05 -1.62243e-05 0.0248355 -4.42965e-05 -1.7159e-05 -3.1356e-05 -8.68079e-06 -6.21283e-06 -2.62457e-06 
-2.16478e-06 -1.47409e-05 2.93107e-05 8.55947e-05 0.000120969 0.000188122 6.92871e-07 -0.000173039 0.000128243 
0.000103117 7.00609e-06 -1.04665e-05 -0.000200697 4.19667e-05 1.65942e-06 -1.22545e-06 -2.39568e-06 2.24011e-06 
-1.02117e-06 5.18176e-06 4.82257e-05 -8.89974e-06 6.07892e-06 -4.40979e-05 -2.7888e-06 -1.70209e-05 -1.36345e-05 
1.60392e-05 3.09299e-06 -7.61781e-05 8.18006e-05 -1.7331e-05 -2.40741e-05 5.93465e-06 -2.40236e-05 -1.45614e-05 
-2.92511e-05 1.73107e-05 -9.98211e-05 4.6282e-05 0.000137448 -1.00971e-06 -1.1928e-05 2.60136e-06 1.12197e-06 
-1.67407e-06 -8.6107e-06 8.20768e-06 4.70461e-05 1.69829e-05 2.85774e-05 -4.56597e-06 0.00429598 -4.19239e-05 
-0.000442916 -5.23054e-06 4.94774e-05 -1.68043e-05 -8.52338e-05 6.86228e-05 -9.43333e-06 6.50997e-07 3.83017e-05 
-0.000171299 5.53065e-06 -5.23047e-05 4.0724e-05 0.000142419 -1.96842e-06 -0.00419079 3.72686e-05 -5.31866e-06 
-3.15083e-06 -5.74086e-06 1.72507e-07 4.07624e-06 -1.06504e-05 -2.45434e-05 -5.03949e-06 1.42317e-06 3.09467e-05 
-5.9028e-06 -3.59264e-06 2.84205e-06 -1.10599e-05 1.78329e-05 -3.54309e-07 6.36613e-05 -3.94418e-05 -1.16057e-05 
-1.33881e-05 2.19695e-05 1.21539e-05 3.1367e-06 5.38735e-05 2.70077e-05 1.73391e-05 -7.93986e-06 -3.19962e-05 
-2.2827e-05 2.965e-05 1.0569e-05 1.43265e-05 1.36484e-06 -2.73203e-05 -3.11714e-05 4.57658e-06 -5.41959e-06 
-0.00660334 -3.39828e-05 2.73469e-05 -3.76109e-05 3.4005e-05 -5.78978e-06 -9.657e-06 6.4295e-06 5.37563e-05 
-5.63537e-06 2.14044e-06 9.14081e-05 -1.70533e-05 -5.97572e-06 -2.25083e-06 1.3699e-05 6.28585e-06 1.04487e-05 
1.23853e-05 -2.17578e-06 -2.21214e-06 -3.10055e-05 -9.08273e-06 1.08507e-06 -2.39329e-05 -1.44454e-05 -8.42477e-06 
-2.4131e-06 6.60102e-07 5.17386e-06 6.83958e-06 -4.71336e-06 1.64139e-05 4.60529e-06 5.80679e-06 -1.39795e-06 
-3.98389e-05 -7.30537e-05 9.84306e-05 -4.74618e-05 1.61612e-05 -0.00016056 0.000232944 0.000499663 0.000176615 
5.50963e-05 2.72143e-05 0.0142982 8.27095e-07 4.62437e-05 -8.26383e-06 -4.18427e-06 7.2804e-05 -7.95175e-06 
-9.788e-07 -9.06233e-07 -1.98084e-05 1.26957e-07 -2.67751e-06 -6.97325e-05 -6.50718e-06 -7.51051e-06 3.79449e-07 
0.00433517 -4.04362e-06 6.78146e-07 -5.39347e-06 2.03008e-06 -5.50037e-06 -0.000726515 -7.31576e-05 3.20075e-05 
-3.70502e-05 3.25946e-05 -4.5246e-06 -0.0040817 -2.32657e-07 3.43081e-06 -2.86168e-06 -2.85518e-07 1.49759e-06 
-4.08544e-06 -0.000162077 -8.36769e-06 -9.028e-06 -2.74301e-06 -7.30495e-05 5.72519e-05 -1.44648e-05 -0.0221068 
0.0235318 -0.0254384 -1.80462e-05 4.46347e-05 -0.000110315 8.42494e-06 -3.03003e-06 -0.00425961 1.28636e-05 
-8.77807e-06 -9.6308e-06 -7.70638e-06 -1.64356e-05 2.09312e-06 3.91358e-06 9.65935e-07 -1.0431e-05 7.77253e-06 
3.1532e-06 0.000438057 3.26256e-05 -6.67422e-06 -9.46111e-06 0.000115491 -2.2014e-05 -4.35761e-06 2.13894e-05 
-3.85542e-06 0.000558019 1.88154e-05 -1.70181e-06 -8.53585e-05 1.78869e-05 1.72322e-06 3.66859e-06 3.06104e-06 
9.59149e-06 -6.88513e-05 -9.55892e-06 2.99358e-06 2.83893e-05 4.34426e-05 0.000107182 4.42664e-06 -6.62961e-06 
6.33472e-06 -2.17843e-05 1.11226e-05 -0.0227206 -1.25584e-06 -4.50412e-05 1.80542e-05 -0.000375183 2.22282e-05 
-0.000140642 3.25318e-05 -2.37122e-05 6.72179e-06 -4.61182e-06 -6.06038e-06 -1.18737e-05 -0.0101846 7.30519e-06 
2.3675e-05 -2.52594e-05 -1.78278e-06 1.58707e-05 -8.90461e-06 -1.79826e-05 -1.24331e-05 -2.77631e-06 -5.26484e-06 
5.74874e-05 -2.5515e-05 -4.45914e-05 1.99859e-05 -9.27358e-06 2.93884e-06 -3.10989e-05 -1.69364e-06 -0.0102917 
1.35478e-06 1.55489e-06 8.90594e-05 3.92655e-07 -9.74998e-06 1.41553e-08 -0.00351633 9.64022e-05 0.00498443 
-5.8023e-06 2.31671e-05 1.27857e-05 3.55408e-05 -1.05001e-05 1.54677e-05 -2.42793e-05 6.81193e-06 -1.76201e-06 
-2.26253e-06 -0.0218926 -0.022677 -0.000122439 
Stress%20zz%20component 1 12442 double
0.584415 0.432416 0.446952 0.601732 -3.28819e-05 -9.70898e-06 -2.921e-05 -7.31251e-06 -0.0149468 
-0.0253333 0.0304546 -0.0147374 0.00462864 0.00619009 -0.00582127 -0.0397445 0.129546 0.146938 
0.14403 0.15545 0.168309 0.203708 0.161925 0.163241 0.163234 0.16152 0.163287 
0.163599 0.164427 0.163944 0.164659 0.163447 0.162911 0.163423 0.161596 0.162204 
0.162327 0.162534 0.164186 0.1654 0.170081 0.177694 0.179846 0.218254 0.216981 
0.217215 0.173726 0.154451 0.135383 0.16492 0.165319 0.162523 0.160979 0.163836 
0.164795 0.163969 0.166321 0.164453 0.1643 0.163227 0.162496 0.160479 0.162801 
0.161226 0.162808 0.165596 0.170743 0.177074 0.1732 7.0065e-06 5.95177e-06 9.05514e-06 
1.13784e-05 1.07841e-05 1.11063e-05 1.11154e-05 1.06985e-05 1.26197e-05 -3.76121e-06 -9.47273e-06 -1.07606e-05 
-4.01226e-06 1.06662e-06 2.52336e-06 3.81019e-06 5.15219e-06 1.02506e-05 3.25805e-06 -4.35435e-06 -1.17595e-05 
-1.11569e-05 -6.22766e-06 -4.2535e-06 -4.79813e-06 1.78209e-05 5.11454e-06 -0.0891131 0.000800536 -0.00012589 
-7.02885e-05 -2.35213e-05 -1.25753e-05 -2.90296e-05 -1.54295e-05 -4.28611e-06 -9.74311e-06 -9.9373e-06 -3.65279e-07 
-7.68624e-06 -1.70116e-05 -1.64432e-05 -1.31111e-05 -1.04256e-05 -5.82582e-06 -6.77524e-06 -6.73478e-06 -6.1944e-06 
-2.16359e-06 -1.71754e-06 -4.43872e-08 1.89457e-06 5.48027e-06 8.45439e-06 9.63819e-06 9.05087e-06 1.10321e-05 
9.79172e-06 7.12731e-06 5.98443e-06 1.66588e-06 -9.84597e-08 -4.44302e-06 -7.86498e-06 -9.22074e-06 -9.86074e-06 
-8.90312e-06 -1.01583e-05 -4.5542e-06 2.29717e-06 1.11997e-05 1.50448e-05 1.06954e-06 1.07099e-05 4.65123e-06 
6.28753e-07 -1.40944e-06 -6.38241e-06 -7.39588e-06 -8.66232e-06 -1.00701e-05 -7.54179e-06 -3.48407e-06 -8.62268e-07 
2.49816e-06 6.99172e-06 1.04736e-05 9.83366e-06 1.41684e-05 1.96609e-05 1.54334e-05 1.57886e-05 1.11516e-05 
5.29093e-06 2.03268e-06 2.53017e-06 4.14449e-06 -4.79325e-07 -4.31848e-06 -8.05173e-06 -9.03322e-06 -1.89063e-05 
-1.9178e-05 -1.54353e-05 -1.59629e-05 -2.07659e-05 -2.16404e-05 -2.71172e-05 -3.23233e-05 -4.37445e-05 -6.57992e-05 
-7.17463e-05 -0.000116017 -0.000126621 -5.36419e-05 -0.00323676 -0.194331 0.0127361 0.00378333 0.0014926 
0.00150268 0.00311108 0.0032196 0.00207371 0.00355334 0.00453342 0.00142314 0.000800712 -0.000393436 
0.12921 0.024509 0.00217046 0.0022499 0.00257361 0.000107112 -0.000173364 -0.000430443 -6.53569e-05 
0.000173074 0.00255207 0.00222841 -0.00189025 4.2348e-05 3.26725e-05 2.12705e-05 -3.04181e-06 -1.80778e-06 
-4.26589e-06 -8.35176e-06 -9.6153e-06 -1.01487e-05 -9.93509e-06 -2.79428e-06 1.1642e-05 1.45124e-06 -2.88812e-07 
1.61513e-06 -4.82438e-06 -6.06799e-06 -7.31495e-06 -8.2022e-06 -4.07433e-06 -1.44778e-06 1.18683e-05 1.06602e-05 
1.09641e-05 5.7217e-06 9.26606e-06 6.48095e-06 -7.81916e-06 -0.177654 0.00905147 0.00061025 6.07204e-05 
0.000128929 7.53087e-05 4.45606e-05 3.02772e-07 3.86583e-05 3.02282e-05 3.0256e-05 3.17471e-05 -1.90541e-05 
3.92271e-05 2.55305e-05 2.45344e-05 1.5966e-05 1.11622e-05 4.19003e-06 8.80291e-07 -3.87445e-07 -1.16674e-06 
-7.44104e-06 -1.03337e-05 -1.28357e-05 -1.15335e-05 -1.10165e-05 -1.08643e-05 -8.90342e-06 -6.48435e-06 -7.60404e-06 
-6.1155e-06 -1.74302e-06 1.06792e-06 3.98568e-06 6.49304e-06 6.19597e-06 8.19639e-06 8.07738e-06 7.6567e-06 
5.92628e-06 7.87224e-06 4.83055e-06 1.049e-06 3.02752e-06 -9.133e-06 1.05174e-05 7.04591e-06 7.50027e-06 
8.62036e-06 8.72696e-06 8.29141e-06 6.8303e-06 7.54624e-06 5.45759e-06 4.73103e-06 -6.61649e-06 -9.95805e-06 
-1.34162e-05 -1.32726e-05 -1.40721e-05 -1.60719e-05 -1.21768e-05 -1.24617e-05 -5.59028e-06 -3.37044e-07 9.92616e-07 
4.07552e-06 3.08567e-06 6.38235e-06 8.25771e-06 8.95363e-06 7.92435e-06 1.8336e-05 1.28015e-05 8.52613e-06 
7.70213e-06 9.08881e-06 7.28534e-06 5.88293e-06 7.73654e-06 1.8445e-05 3.24603e-05 2.84951e-05 4.52406e-05 
5.67389e-05 0.000229832 0.000796749 -0.000344526 -0.0185113 0.14586 -0.00328791 0.00172983 0.00161596 
-0.00078193 -0.000381949 -0.000378926 -0.000360803 -0.000349444 0.0018959 0.00140239 0.00168193 0.0107573 
0.0112498 0.00175096 0.00221548 0.00236844 0.00370125 0.00376965 0.00380161 0.00394125 0.0042888 
0.0020566 0.00164195 0.00414768 0.0329477 -1.26914e-05 -4.83617e-06 -6.87438e-06 -4.20358e-06 -4.45887e-06 
-2.79185e-06 -7.68788e-06 -7.61157e-06 -7.21966e-06 1.46601e-05 9.3918e-06 7.27451e-06 8.72886e-06 1.58379e-06 
1.50109e-06 2.17241e-06 -3.5937e-06 3.85071e-06 1.70787e-08 3.27555e-07 8.47256e-06 -3.38822e-07 4.1403e-06 
-3.29151e-06 -4.23844e-06 6.44587e-07 -1.36546e-06 -0.00424618 0.000300948 8.00618e-05 3.64283e-05 3.00376e-05 
1.87471e-05 1.97933e-05 2.65825e-05 2.29815e-05 2.39019e-05 2.21895e-05 3.691e-05 -3.10839e-06 2.62626e-05 
2.06002e-05 1.73009e-05 1.20156e-05 1.33297e-05 1.29612e-05 8.64704e-06 5.69374e-06 3.75078e-06 9.78881e-07 
-3.85598e-06 -5.6808e-06 -7.70804e-06 -9.26644e-06 -1.03177e-05 -1.02752e-05 -7.60795e-06 -6.34788e-06 -4.3444e-06 
-2.99112e-06 2.69472e-06 2.79018e-06 6.17497e-06 6.45248e-06 6.62257e-06 5.94425e-06 4.51257e-06 3.25443e-06 
-1.34931e-07 1.71851e-06 2.24023e-06 -1.07308e-05 -2.58478e-06 -2.29692e-06 5.95873e-07 -1.05736e-06 -8.80143e-07 
6.61527e-07 5.52004e-06 6.02718e-06 1.75328e-06 4.80966e-06 7.09364e-07 5.43135e-07 1.12194e-07 3.20937e-07 
-3.02528e-07 -1.92385e-06 -4.84816e-06 -6.45405e-06 -4.23685e-06 -3.80632e-06 -2.66916e-06 -3.8342e-06 -5.06196e-06 
-3.40962e-06 -8.35791e-07 -2.90395e-06 -1.1189e-06 3.50456e-06 1.21639e-06 3.01942e-06 1.30344e-06 1.12487e-06 
1.34656e-07 8.06476e-06 7.54962e-06 1.35689e-05 1.11911e-05 2.04421e-05 5.58578e-05 -1.48797e-05 0.000462776 
-0.0246065 -0.0554458 -0.0559687 -0.0566545 -0.0332657 -0.00905007 -0.0338728 -0.0336683 -0.0332035 
-0.0330873 -0.0342949 -0.0340293 -0.0340263 -0.0349106 -0.0354128 -0.0346493 -0.0337816 -0.0335299 
-0.0329029 -0.0329182 -0.0324667 -0.0320157 -0.0326186 -0.0336745 -0.035902 -0.039416 -0.0114113 
-0.00159009 -0.000177348 -0.00196479 -0.00225384 -0.00232429 -0.00231353 -0.00204501 -0.00227142 -0.00226015 
-0.0023119 -0.00221463 -0.00215294 -0.000980823 -0.00194849 -0.0125835 -0.00162779 -0.00120589 -0.00180396 
-0.00248027 -0.00241862 -0.00233067 -0.00232889 -0.00235703 -0.00238906 -0.00246967 -0.00249235 -0.00240839 
-0.0019878 0.000615104 -0.00172704 -0.0061775 -0.00384778 -0.0245265 -0.000432499 2.81794e-06 4.86368e-06 
3.26851e-06 -6.57333e-06 -6.52409e-06 2.91309e-06 -1.85179e-06 -9.98102e-07 -7.74064e-06 -7.46776e-07 -7.69172e-06 
-3.10092e-06 -4.66671e-06 -2.10458e-06 -1.24495e-06 -7.9499e-07 1.48434e-06 -1.36994e-06 8.29222e-08 2.54634e-06 
-1.01069e-06 4.18179e-06 4.04928e-06 -2.98135e-07 -0.000136169 0.000946245 1.36827e-05 3.69665e-05 -0.000118581 
-4.18563e-05 -4.58507e-05 1.86864e-05 -2.25215e-05 -1.84893e-05 -1.35038e-05 -1.19918e-05 -5.2212e-06 -3.02523e-06 
-6.79805e-06 -7.74493e-06 -5.49477e-06 -3.33784e-06 1.17685e-06 7.00729e-07 3.84269e-06 5.22486e-06 4.59308e-06 
7.30691e-06 9.13891e-06 9.07986e-06 6.04948e-06 6.6017e-06 3.49123e-06 1.81335e-06 -3.29699e-08 -2.78346e-06 
-3.57742e-06 -6.16906e-06 -5.593e-06 -4.81151e-06 -3.54013e-06 -2.66271e-06 -1.84889e-06 2.06891e-07 2.20464e-06 
3.13593e-06 4.42292e-06 6.18478e-07 -3.06188e-05 0.00178844 2.7288e-06 4.2058e-07 -1.06771e-06 -3.57717e-07 
-6.56725e-07 4.23374e-06 -2.26552e-06 -3.37641e-06 -7.65562e-06 2.07685e-06 5.29022e-07 -4.69245e-07 -1.58891e-06 
1.12086e-06 -4.64034e-07 4.23685e-07 -2.40264e-06 -7.09532e-07 -1.95308e-06 -1.02528e-06 -1.09495e-06 -2.06728e-06 
-1.7426e-06 -8.27579e-07 7.25e-07 -2.45194e-06 -2.16539e-06 9.87912e-07 8.77449e-07 -1.88184e-06 -1.41923e-06 
1.25375e-06 8.16777e-06 1.54226e-05 1.00188e-05 1.17746e-06 2.17412e-05 4.74932e-06 2.62393e-05 -4.60353e-05 
0.000158346 -0.000238657 -0.00074747 0.0010681 0.000655898 0.000619026 0.0025771 0.00236466 0.00185955 
0.00191401 0.0020178 0.00190199 0.00207004 0.00204694 0.00201652 0.00183746 0.00177205 0.00168613 
0.00172372 0.00159847 0.00186723 0.00188073 0.00196145 0.00178265 -0.00093779 6.95224e-05 0.000191398 
0.0001188 9.61301e-06 0.000110768 0.000129311 0.000152836 0.000151277 0.00067234 -0.000194864 -0.000303799 
0.000509924 0.00020693 0.00153261 -0.000141377 0.000231325 0.000193485 0.000188537 0.000177381 0.000186846 
0.000182101 0.00019339 0.000199555 -3.55159e-05 -0.000239166 -0.000421929 0.000156932 7.98472e-05 0.000187273 
-1.98983e-07 0.000354829 -0.000325626 0.000505263 0.000244764 -0.000217419 9.0303e-05 -1.84425e-06 3.25077e-06 
-7.9561e-06 2.43845e-06 1.38064e-06 -3.43741e-07 1.40774e-06 1.61923e-06 -1.6374e-07 -2.02028e-06 -5.96965e-07 
-7.91279e-07 5.48907e-08 5.58549e-07 -4.57452e-10 -1.37026e-07 7.37665e-07 1.08685e-06 2.48467e-06 4.71559e-06 
-1.67065e-06 -4.56119e-05 3.19536e-05 1.95689e-05 -1.84842e-05 -3.15522e-05 -1.84172e-05 -7.25357e-06 -1.00834e-06 
-1.50295e-07 9.87699e-07 -1.0047e-06 -3.14261e-06 -2.89038e-06 -5.20206e-06 -2.2967e-06 -1.43744e-06 -2.67905e-06 
-3.6452e-06 -2.93047e-06 -2.04035e-06 -2.49547e-06 -2.80547e-06 5.72754e-07 1.48468e-06 2.70559e-06 1.71099e-06 
8.26536e-07 1.20033e-06 1.89477e-06 1.82461e-06 1.13943e-06 8.25486e-07 9.29095e-07 1.70151e-06 6.6786e-07 
-1.01888e-07 8.24624e-07 -4.77326e-07 2.9758e-07 4.62402e-09 1.49738e-06 -2.48054e-06 -6.26837e-05 6.83068e-05 
-4.74805e-05 -1.59866e-06 -5.85282e-07 -1.69469e-06 -3.57562e-07 -1.75658e-06 2.26323e-06 -7.35541e-07 2.8721e-06 
-6.17487e-06 -2.58113e-06 -4.15986e-07 2.63651e-06 2.8606e-06 4.29271e-06 -1.09545e-05 -1.92982e-06 8.34377e-07 
4.52862e-08 1.95027e-06 2.31137e-06 1.45563e-06 2.70778e-06 3.92876e-06 1.04063e-05 9.03434e-07 3.25396e-06 
1.12896e-05 1.28383e-05 -1.70296e-06 -2.19663e-06 1.28006e-05 -1.91827e-05 1.55466e-05 -5.95378e-07 -2.86043e-05 
1.43849e-05 -5.71357e-06 1.32309e-05 -0.000322081 0.000166288 0.000310127 -9.87116e-05 0.000128019 -3.3102e-05 
4.14091e-05 2.38339e-05 5.97032e-05 8.76968e-05 6.65458e-05 8.28132e-05 8.34965e-05 6.17863e-05 5.60475e-05 
7.01555e-05 8.62381e-05 7.45791e-05 8.53104e-05 0.00010307 0.000142208 0.000129643 0.000137686 0.000127144 
-0.000188985 0.000356871 3.28146e-05 -2.39058e-05 6.548e-06 -2.07706e-05 -2.6347e-07 -0.000155026 -0.000181113 
-2.08848e-05 0.000164351 -0.000100334 -8.06691e-05 2.28379e-05 2.17708e-05 1.71088e-05 2.35758e-05 -3.11536e-06 
2.13326e-06 2.51527e-05 1.3053e-05 -0.000263851 -4.87915e-06 -1.88613e-06 -7.57626e-05 1.90536e-05 1.17107e-05 
9.95405e-05 -8.20379e-07 -1.24776e-05 0.000180354 -3.65123e-05 0.000302076 -5.48798e-05 6.69504e-05 8.14163e-05 
6.02357e-05 1.91816e-05 -0.000201004 4.26269e-05 -3.08543e-06 -1.5067e-06 8.97292e-07 3.46727e-06 -6.88038e-06 
3.35402e-06 1.62333e-06 5.99687e-07 -8.9831e-08 -4.24777e-06 5.32004e-06 -2.65528e-06 2.0324e-06 2.53848e-07 
1.64195e-06 4.73856e-07 5.59479e-07 -2.57631e-07 -1.12067e-06 -1.90333e-05 -2.84816e-06 7.01125e-06 1.6468e-05 
-5.22699e-05 8.36546e-07 4.57963e-05 3.73231e-05 9.47026e-06 -7.80269e-07 -1.81957e-06 1.84293e-06 -8.67721e-07 
-7.69922e-07 -3.44078e-06 -1.76916e-06 -1.4037e-05 -8.71935e-06 -9.39974e-06 -1.04009e-05 -1.2943e-05 -9.72785e-06 
-5.24348e-06 -3.46128e-06 -3.07271e-06 -1.1082e-06 1.59872e-06 9.87553e-06 7.79732e-06 3.00566e-06 3.86603e-06 
7.85721e-08 2.6647e-06 -1.72753e-06 -5.28426e-06 1.85515e-06 1.34996e-06 -6.54235e-06 7.95822e-07 2.13113e-06 
-4.49853e-07 -5.20344e-07 2.43e-06 -0.000130298 4.75937e-06 -1.65235e-05 2.16699e-05 -1.93146e-07 -2.03022e-06 
1.34056e-06 6.45322e-07 7.64685e-06 -2.35632e-06 2.07517e-06 -6.14483e-07 -9.11359e-06 7.1859e-06 -6.79892e-06 
-1.42702e-05 7.52598e-07 3.81331e-07 -1.66358e-05 1.14424e-05 1.32059e-06 2.52453e-06 -7.36766e-06 8.92346e-06 
6.42526e-06 -4.73188e-06 1.56277e-05 -1.12273e-05 -1.58279e-05 -1.1236e-05 3.40679e-05 1.55733e-06 -1.30435e-05 
-9.45294e-06 1.73977e-05 -1.35849e-05 -9.84275e-06 2.62473e-05 -1.83644e-06 -2.05119e-05 -1.05631e-05 7.51624e-05 
-9.65808e-06 2.31958e-05 -8.75663e-06 3.73802e-05 5.95042e-06 -3.57007e-06 -6.05491e-06 -9.7313e-06 -7.99805e-06 
-1.03273e-05 -1.5168e-05 -5.89683e-06 -7.99064e-06 2.34635e-05 -4.06178e-06 -4.24374e-05 -1.26973e-05 8.91057e-05 
-1.77562e-06 -4.37255e-06 5.18504e-06 4.30011e-05 -3.41544e-05 -6.8235e-07 -5.06025e-06 0.000109922 -7.6095e-05 
7.78779e-06 -1.67799e-05 -3.48056e-05 3.31943e-05 7.93385e-05 7.04621e-07 0.000184879 -4.60464e-05 -5.76785e-06 
1.83338e-05 4.06165e-05 8.95819e-05 8.74917e-06 5.68367e-05 -1.16678e-05 6.54458e-05 -7.75285e-05 8.98514e-06 
1.83409e-05 8.41979e-05 -5.70392e-06 -9.31509e-05 -5.02931e-05 8.28942e-06 -0.00010829 2.13705e-05 -8.31485e-07 
8.61024e-06 3.56333e-06 1.8763e-06 -2.90259e-07 4.20491e-07 -2.27831e-06 8.10502e-06 -6.52175e-06 9.85316e-07 
2.9609e-06 2.55175e-06 -2.54192e-06 -1.49395e-06 -1.56376e-06 2.83124e-06 -2.34206e-05 1.19122e-05 -1.51464e-05 
3.55445e-05 2.12777e-06 -1.50028e-05 -7.39694e-07 1.08316e-05 6.13643e-06 4.73248e-07 1.38953e-06 9.28584e-06 
3.40838e-06 4.52054e-06 3.78642e-06 2.10736e-05 1.21565e-05 7.43419e-06 5.07249e-06 1.80499e-05 3.05572e-06 
-1.64557e-05 -1.21195e-05 -5.95555e-06 1.22866e-06 6.10961e-06 -7.40008e-09 -7.51201e-06 -4.47411e-06 -3.69558e-06 
4.46894e-07 -2.48404e-06 -1.31051e-06 5.09357e-06 4.63038e-06 1.18048e-05 6.37266e-06 -3.12393e-06 -2.52633e-07 
1.28065e-05 -2.56588e-05 -4.99356e-05 -9.93946e-05 -6.82617e-06 1.03846e-05 1.09097e-05 -1.23645e-05 1.57735e-06 
7.69665e-06 -1.00596e-05 1.51356e-05 -1.12583e-05 -6.80524e-06 2.43008e-06 -1.56473e-06 -1.31823e-05 -1.36699e-06 
7.27101e-06 -2.9876e-05 -1.23804e-05 6.13587e-06 2.92824e-06 2.75119e-06 6.11574e-06 1.14573e-06 2.74009e-05 
-1.62595e-05 -6.42637e-07 -1.46837e-05 2.17157e-06 7.09487e-06 1.71887e-06 -7.27978e-06 -1.90899e-05 -3.2413e-05 
-1.99783e-05 3.43295e-06 7.79814e-06 1.57208e-05 1.95852e-05 1.16199e-05 -2.05655e-05 -4.21956e-05 6.67172e-06 
4.41183e-06 3.5039e-06 1.76987e-05 1.96343e-05 -1.7461e-05 1.93237e-05 -1.98545e-06 -2.64942e-05 -1.08428e-05 
2.17816e-05 -8.60974e-06 1.5471e-05 1.35082e-05 6.59924e-05 8.90548e-05 -8.68887e-05 4.54815e-06 6.21598e-05 
-3.46508e-05 1.02985e-05 1.59793e-05 2.08883e-05 5.43201e-06 -2.02632e-05 -1.93068e-05 1.3394e-08 -1.1042e-05 
-0.000104452 -2.74263e-05 1.13782e-05 -6.04935e-05 -3.10153e-05 -3.77941e-06 -1.30635e-05 1.7288e-05 -2.78083e-05 
1.37269e-06 9.18591e-07 7.40308e-06 -7.51742e-06 2.66346e-05 7.93806e-06 9.27068e-06 3.57065e-06 -3.071e-06 
-1.50315e-06 -3.69932e-06 5.8565e-06 8.86144e-06 -7.17286e-06 3.62218e-05 3.8613e-05 2.21693e-06 -1.60814e-06 
-4.58438e-07 2.45274e-05 1.02815e-05 3.91158e-07 -4.52053e-06 -5.94157e-06 -4.79176e-06 -5.20411e-09 1.98731e-05 
-3.31673e-05 -2.00398e-05 1.41332e-05 2.86617e-05 1.7143e-05 1.02652e-05 1.26202e-05 4.94768e-06 3.15565e-05 
7.12821e-06 -1.65652e-05 -4.05518e-06 -1.987e-05 1.52646e-05 2.39323e-05 -2.77228e-06 1.5758e-05 -5.96017e-06 
-7.2634e-07 -3.45441e-06 1.35553e-05 9.28023e-07 -6.13484e-06 -8.69148e-06 3.52814e-06 1.35366e-05 4.54178e-06 
-3.65444e-05 -2.16533e-05 9.15621e-06 -2.21064e-05 4.40136e-05 -4.79301e-05 4.443e-05 -1.08008e-05 4.54476e-05 
3.55606e-05 3.71782e-06 -2.03266e-05 2.6562e-05 -3.60251e-05 -9.18634e-06 -3.75105e-05 5.50885e-06 -7.57001e-05 
5.42076e-05 -4.87409e-06 -8.84482e-06 1.0739e-05 3.63212e-05 2.91333e-05 1.73266e-05 -2.20414e-05 -2.48868e-05 
-2.76656e-06 -2.56433e-05 -5.74816e-05 -8.5475e-05 -6.97591e-05 1.06241e-05 3.83846e-05 -3.67365e-05 -3.09828e-05 
4.97524e-05 -1.27742e-05 -5.5462e-06 -3.09967e-05 -7.55937e-05 -7.55927e-05 -2.78556e-06 1.36476e-05 -1.65583e-05 
1.96791e-05 -1.04866e-05 -1.14371e-05 -1.33617e-05 -6.21974e-05 5.69888e-05 -9.25331e-06 -3.48034e-05 -1.47412e-05 
-1.30943e-06 -2.19876e-06 -3.15846e-06 3.43707e-06 5.59364e-06 3.00489e-06 6.2975e-06 7.84981e-06 -2.5789e-06 
-4.74738e-06 1.27945e-06 1.65396e-07 1.37617e-06 5.32128e-06 1.08345e-07 6.88035e-06 1.22712e-06 -1.65432e-06 
-1.17914e-06 -5.6118e-06 -3.19976e-06 -3.70188e-06 -5.83396e-06 -3.03928e-06 -6.35399e-06 9.98054e-06 -0.0256446 
0.000301733 2.55497e-05 -6.23776e-05 -1.28737e-06 -3.11186e-05 3.99999e-05 -2.04882e-05 -1.239e-05 -1.32695e-05 
-1.65856e-05 -1.19245e-05 -8.11905e-06 -1.55737e-05 -1.96164e-05 -1.07752e-05 -1.10873e-05 -1.04712e-05 -8.17592e-06 
-9.13055e-06 -7.06515e-06 -4.88596e-06 -1.43081e-06 -1.27618e-08 2.11935e-06 -8.97215e-07 2.91619e-06 5.94911e-06 
6.04663e-06 6.94214e-06 6.59347e-06 5.95125e-06 2.99458e-06 4.22239e-06 -9.25575e-07 -6.81929e-07 -3.34685e-06 
-4.34079e-06 -4.43545e-06 -4.57972e-06 -2.06735e-06 -4.05607e-06 -1.02426e-06 3.67755e-07 -6.86689e-06 -2.14817e-06 
-1.67187e-06 6.57076e-07 1.36597e-06 8.54835e-07 2.10531e-06 -3.20774e-06 8.776e-07 -1.22073e-06 2.96801e-06 
2.55204e-06 4.08188e-06 2.64071e-06 -3.91439e-07 -9.68416e-07 1.77041e-06 7.24674e-07 -2.16187e-06 -1.78178e-06 
-3.45326e-06 -2.67985e-06 -2.0625e-06 -1.74232e-06 -2.91172e-06 -4.37297e-07 9.93109e-07 -4.05532e-06 -9.19676e-07 
-6.67457e-07 1.35949e-07 9.3801e-07 2.29231e-06 9.18042e-06 1.40907e-06 4.22802e-06 8.89669e-06 -5.79181e-07 
1.49855e-06 0.000104703 8.6937e-05 0.000225 0.00106553 -0.0133113 -0.0110104 -0.0102404 -0.0356595 
-0.0535406 -0.03274 -0.0347191 -0.0364049 -0.0365571 -0.0351445 -0.0361473 -0.0353689 -0.0348712 
-0.0349351 -0.0353695 -0.0354626 -0.0355062 -0.035919 -0.0351708 -0.0352469 -0.0355942 -0.0358132 
-0.0359698 -0.036977 -0.0355117 -0.0428727 -0.0966833 0.00164177 -0.00332012 -0.00223766 -0.00206892 
-0.0021507 -0.00217599 -0.00250821 -0.00220571 -0.00225185 -0.00228676 -0.00249116 -0.00239949 -0.00195892 
0.00197173 -0.0858956 0.00143642 -0.00181425 -0.00220759 -0.0021177 -0.00208964 -0.00209031 -0.00211162 
-0.00212902 -0.00212009 -0.00217179 -0.00211523 -0.00209007 -0.00174414 -0.00247175 -0.00112313 -0.0228687 
-2.00892e-05 -0.0217894 -0.0181379 -5.61689e-07 -1.85459e-06 9.58856e-07 4.302e-06 5.99785e-06 5.4688e-07 
-1.46265e-06 -1.92486e-06 -1.56753e-06 7.34145e-07 -2.30126e-06 -2.48508e-07 -2.24441e-06 1.24923e-06 -5.78747e-07 
-4.03174e-07 -2.49147e-07 -1.03819e-07 -5.68558e-08 7.07421e-07 3.01184e-07 1.3235e-06 2.83131e-06 -2.40358e-06 
1.10087e-06 1.05789e-06 -0.000991627 6.54304e-05 0.00160846 2.27957e-05 6.73095e-06 1.04039e-05 8.41134e-06 
1.22986e-05 -1.25606e-06 -2.55414e-06 -1.47763e-06 -1.9735e-06 1.46511e-07 1.84836e-06 7.01707e-06 3.64775e-06 
2.30769e-06 2.22848e-06 5.56139e-06 4.01527e-06 3.32185e-06 2.42443e-06 3.27543e-06 3.93806e-06 2.15054e-06 
-1.44387e-06 -1.13149e-06 -1.6753e-06 -2.94351e-06 -2.02255e-06 -2.91496e-06 -2.57379e-06 -3.00185e-06 -1.26838e-06 
-1.476e-06 -1.3512e-06 7.74305e-07 9.21038e-07 4.81096e-07 1.58796e-06 -5.30772e-07 3.8931e-06 -0.000396028 
0.00161782 -0.000875346 1.14575e-06 1.95438e-06 1.52279e-06 1.37977e-06 6.62098e-07 -1.31012e-06 -1.40886e-06 
-1.77561e-07 -1.68002e-06 1.07686e-06 9.75441e-07 -2.20937e-07 -2.56688e-06 -1.4137e-06 -1.67127e-06 -1.57956e-06 
-7.4683e-07 6.91687e-07 -5.81932e-07 -5.48125e-07 -1.37926e-06 -2.4342e-07 -8.53163e-07 -2.70598e-07 -9.02029e-07 
2.55553e-06 5.57037e-06 6.47377e-06 8.40139e-06 4.17373e-06 4.16702e-07 5.92626e-06 1.62602e-05 -2.11331e-05 
1.71077e-05 -1.24314e-05 2.83477e-06 6.45343e-06 2.89444e-05 4.94002e-05 -0.000117085 -0.00104807 0.000758705 
0.000386504 0.00146273 0.000278464 0.0019099 0.00185074 0.00209753 0.00199741 0.00196047 0.00196925 
0.0019105 0.00197418 0.00205229 0.00212616 0.00202723 0.00197003 0.00195333 0.00184903 0.00187748 
0.00169762 0.00170751 0.00190374 0.00199758 0.000624588 2.89278e-05 -0.000207803 -0.000257974 0.000192488 
0.00020005 0.000143306 0.000248601 0.000170422 0.000191908 0.000206384 0.000115141 0.000481241 -0.000138144 
-0.000850088 6.47135e-05 2.54292e-05 5.8616e-05 6.15565e-05 5.76566e-05 6.30768e-05 6.9626e-05 6.9624e-05 
0.00010211 0.000107689 0.000121142 -0.000288083 -0.000456347 -1.98007e-06 -0.000350918 -0.000530691 0.000232589 
-0.000521116 5.32996e-05 0.000698177 0.000574866 0.0010265 1.55346e-07 6.14036e-07 1.47471e-06 -1.82959e-06 
-3.95864e-06 -3.66692e-07 6.92194e-07 -3.2514e-06 -4.5838e-07 -4.60701e-06 -1.45349e-07 5.60291e-07 -3.48753e-07 
-2.7582e-06 -1.05306e-06 -5.15797e-07 4.2243e-07 -3.63679e-06 5.64449e-07 1.10757e-06 0.000346765 2.75883e-05 
1.34064e-05 0.000223918 -2.58824e-06 2.08197e-05 -3.83448e-06 -1.13193e-06 5.87362e-08 -3.26199e-06 1.4606e-06 
-2.32224e-06 2.36323e-06 1.74463e-06 -2.50822e-07 -3.94969e-06 6.4561e-08 4.25921e-06 3.4359e-06 2.66562e-06 
2.10857e-06 2.34917e-06 3.62814e-06 2.05263e-06 1.27283e-06 -1.80823e-06 -3.93669e-06 6.53595e-07 -1.9034e-06 
-1.39109e-06 -5.99416e-07 1.35896e-06 1.51457e-06 1.49028e-06 2.07508e-06 1.09837e-06 -1.71349e-07 3.00362e-07 
5.52059e-07 -3.8499e-07 2.23269e-07 3.40891e-05 1.68145e-06 1.9917e-07 2.51858e-06 -8.1696e-07 9.53349e-06 
-3.56702e-06 3.10288e-06 5.40932e-06 3.34651e-06 -3.35838e-06 -4.10286e-06 -5.59759e-06 3.69832e-06 2.63326e-06 
1.68867e-06 -1.21697e-06 1.24564e-06 9.11331e-07 1.15859e-06 1.30107e-06 -1.96364e-06 -5.09732e-06 -1.42948e-05 
-1.18449e-05 7.11767e-06 -1.49572e-05 -1.04588e-05 8.02668e-06 8.1461e-06 -2.80249e-06 -7.81201e-07 1.16741e-05 
7.16878e-06 -3.21723e-05 1.72923e-05 -1.57538e-05 -3.19391e-06 8.63616e-05 0.000302199 -3.08782e-05 0.000253045 
-9.95166e-05 -0.000106704 -6.46498e-06 2.0698e-05 5.56521e-08 1.08654e-05 6.86734e-05 4.91965e-05 6.44087e-05 
6.20096e-05 6.37717e-05 6.00711e-05 7.04469e-05 8.34211e-05 8.46434e-05 5.59405e-05 7.47034e-05 5.97756e-05 
1.34507e-05 -1.12053e-05 -9.29921e-06 -7.4696e-05 0.00024217 -4.39983e-05 0.000151637 -7.33052e-05 7.82098e-05 
-3.46296e-05 -5.71352e-06 4.23684e-05 -1.1924e-05 -2.64359e-05 4.64069e-05 0.000110051 -0.000504918 -5.61776e-05 
6.04471e-05 -2.62472e-05 -1.35898e-05 -3.84009e-07 -9.5014e-07 -1.06749e-06 8.71962e-06 8.21506e-07 3.58567e-05 
6.60145e-05 -5.64235e-05 0.000459344 6.81356e-06 1.23899e-06 -8.86646e-05 9.77013e-07 -6.35919e-06 -1.48929e-07 
0.000133548 0.000115979 0.000163034 -6.78229e-05 0.000144756 4.99717e-05 -0.000105022 2.79979e-06 -2.55891e-06 
-1.16554e-06 2.80272e-06 9.45821e-09 -4.86525e-06 6.87037e-06 -5.28024e-06 -1.29753e-06 2.06451e-06 3.44392e-06 
5.75e-06 -2.0861e-06 4.56083e-07 7.01219e-07 -1.50234e-05 0.000152971 4.09233e-06 -6.88565e-07 7.29142e-07 
-7.64635e-06 2.37371e-07 -8.00383e-06 -1.30756e-06 -1.5847e-05 -1.31309e-06 5.26063e-06 9.66897e-06 5.57525e-06 
5.30964e-06 6.1631e-06 2.18537e-06 -1.46564e-06 -2.07916e-06 -3.357e-06 -3.16589e-06 -2.40747e-06 3.47656e-07 
2.67086e-06 1.43052e-06 1.90882e-06 -5.50655e-06 -3.12283e-06 -3.15532e-06 9.01783e-06 9.05212e-06 4.38469e-06 
-1.07289e-05 6.0564e-07 2.14351e-06 5.64349e-07 -6.79972e-07 1.1379e-06 -3.35434e-05 7.24178e-06 1.65809e-05 
1.85039e-05 -0.000190786 5.90359e-05 -5.37502e-07 -4.60405e-06 5.2739e-06 -1.05811e-06 -1.44489e-06 -8.9861e-06 
7.49371e-06 5.16796e-06 -2.51571e-06 1.28629e-05 9.94059e-06 9.70025e-06 2.37403e-06 5.56766e-06 4.02702e-06 
1.99589e-06 -1.23075e-06 8.97699e-06 -5.8772e-06 1.18166e-05 -6.78206e-06 1.13043e-05 1.15222e-05 -1.77635e-06 
1.10127e-05 -4.0809e-05 1.0552e-05 -1.02653e-05 1.09274e-05 2.34895e-06 -6.20323e-06 -8.04101e-06 -2.33377e-05 
5.45932e-06 -4.35477e-05 4.8636e-05 2.4891e-05 2.12091e-05 -2.32636e-05 -9.19363e-05 -2.89872e-06 -4.41168e-05 
2.13903e-05 2.01413e-05 -2.07788e-05 1.50504e-05 -5.89803e-06 -1.40531e-05 -1.03173e-05 -9.23584e-06 -8.49723e-06 
-1.0128e-05 -3.0694e-05 -1.04035e-05 3.11907e-06 4.31941e-05 2.6056e-05 3.25017e-05 5.60285e-06 2.00405e-05 
-3.63149e-05 1.90016e-06 -1.01629e-05 4.01195e-05 -4.22988e-05 -4.18858e-06 2.83614e-05 -2.50806e-06 1.06271e-05 
-2.9759e-06 -1.27628e-06 4.83657e-05 -1.92052e-05 -2.36875e-05 1.27914e-05 -6.12614e-06 -5.14136e-06 -2.66403e-06 
2.1488e-06 2.03101e-05 1.94996e-05 4.44254e-05 -2.30314e-05 0.000298943 -2.50759e-05 -3.26871e-05 -2.96279e-05 
5.77849e-05 -2.14897e-06 -4.67212e-05 8.12217e-06 0.000101988 -6.33283e-06 -5.18153e-07 -3.64846e-05 -2.35464e-05 
-2.84152e-05 2.81143e-06 1.08868e-05 5.31679e-08 3.13799e-07 -2.48618e-06 -2.26585e-05 -1.93709e-05 3.05261e-06 
-1.23714e-07 -8.01794e-06 -9.73674e-07 -5.63733e-06 2.04798e-05 -7.2296e-06 7.96298e-07 -1.01251e-05 -2.90104e-06 
-1.90418e-06 1.44894e-05 1.00655e-05 3.51396e-06 1.36388e-05 -1.72135e-06 -1.87872e-06 1.08668e-05 3.47481e-05 
1.84449e-05 1.34175e-05 -4.60784e-06 -8.07816e-07 3.5022e-07 5.30424e-06 -4.01825e-07 2.79049e-05 1.40844e-05 
1.76671e-06 -8.93241e-06 3.37649e-06 1.39902e-05 -6.5119e-06 2.89673e-06 4.16689e-06 5.41497e-06 -5.50011e-06 
1.29368e-05 6.20299e-06 -4.65401e-06 -2.45321e-06 -6.61192e-08 3.09121e-06 -1.24529e-06 -1.24245e-07 8.13138e-06 
-2.95213e-06 1.26239e-05 3.64515e-06 -1.36316e-05 1.20768e-05 -1.61771e-06 -2.85678e-06 2.60745e-05 -2.06725e-05 
-2.83123e-05 1.14639e-05 6.44862e-06 -4.161e-06 2.77359e-06 5.65835e-06 -1.38569e-05 7.00749e-06 1.48877e-05 
-9.32289e-08 1.97954e-05 -9.0832e-06 -1.13412e-05 3.87249e-06 1.42334e-06 1.70507e-05 -3.91441e-06 -6.96501e-05 
-1.20103e-05 2.75495e-05 6.26984e-05 -1.77029e-05 1.64238e-05 1.43495e-05 6.21846e-06 1.02505e-05 1.15708e-05 
-3.305e-05 2.17347e-05 1.79029e-05 2.01417e-05 -2.21056e-08 9.01125e-05 -4.81313e-05 -1.18997e-05 -2.00633e-05 
-1.12235e-05 1.37796e-05 -1.15913e-05 8.63388e-06 2.85021e-05 5.2076e-05 -3.30078e-05 3.43423e-05 -1.2669e-05 
3.16543e-06 -1.26979e-05 1.90306e-05 6.58453e-06 1.75329e-05 -1.33775e-06 1.18327e-05 -2.76336e-05 1.02398e-05 
4.0519e-05 -2.34748e-05 4.37551e-06 -2.02983e-05 -2.19166e-05 5.38265e-06 -3.13924e-06 1.50638e-05 -9.27653e-05 
9.50408e-05 -3.7946e-05 -1.50936e-05 7.32021e-08 -4.69239e-05 -3.04007e-05 1.47421e-05 2.75918e-06 -8.50648e-06 
-2.69941e-05 -2.79764e-05 -8.45744e-06 -3.89301e-06 -1.44426e-05 -1.85901e-05 -1.3423e-05 -4.06982e-06 4.58199e-06 
3.22579e-05 2.10267e-05 -2.96676e-06 1.77613e-05 6.4764e-06 5.63704e-06 -1.37415e-05 -8.23935e-06 -2.99254e-06 
-1.20162e-05 1.05516e-05 1.05418e-05 -3.34391e-06 -7.9277e-06 3.61886e-05 2.6836e-05 -2.22321e-05 9.59319e-06 
-2.80506e-05 9.87192e-06 -2.8903e-05 -6.60762e-06 7.28317e-05 -3.32495e-06 -8.369e-06 1.71508e-05 4.9559e-05 
1.83646e-05 -3.65759e-05 7.11674e-06 -4.63837e-05 6.1449e-05 -3.50813e-05 -3.77498e-05 8.98799e-07 7.85687e-06 
-2.18383e-05 6.40225e-05 -1.67677e-05 -1.54693e-05 -4.22695e-05 -1.31972e-06 -3.1497e-06 -1.6285e-05 7.34876e-06 
1.64109e-05 1.98201e-06 -2.89528e-05 -1.57014e-05 -2.8456e-06 -1.3959e-05 3.19185e-05 -8.01661e-06 -2.75694e-05 
-1.2421e-06 4.07799e-06 8.91507e-05 9.53022e-06 2.25258e-05 -9.66508e-06 -8.97432e-05 -7.64131e-05 -2.55019e-05 
-1.99597e-05 4.09616e-05 -5.0698e-05 4.00998e-06 2.8621e-05 -0.000199744 0.577227 0.59844 0.235927 
0.161118 0.145541 0.138353 0.264627 0.227812 0.240881 0.256615 0.258533 0.259911 
0.261205 0.262721 0.264018 0.264302 0.264757 0.264479 0.263422 0.262581 0.261441 
0.260195 0.259813 0.25894 0.259155 0.26058 0.265664 0.275391 0.28329 0.392982 
0.368894 0.235339 0.213773 0.221507 0.264057 0.135633 0.263806 0.266894 0.266097 
0.265151 0.267568 0.267678 0.267432 0.267366 0.266614 0.266309 0.266549 0.267642 
0.264915 0.266115 0.265502 0.265613 0.268107 0.270639 0.277203 0.293649 0.411515 
-3.28039e-05 3.74234e-05 5.40307e-05 3.86163e-05 3.77406e-05 3.44935e-05 2.7124e-05 1.42141e-05 6.35776e-06 
-7.86307e-06 -3.87591e-05 -5.70054e-05 -0.00010831 -5.83641e-05 -4.98947e-05 -4.01437e-05 -4.2576e-05 -1.51576e-05 
-1.30479e-05 -1.84003e-05 -1.95982e-05 -6.492e-06 1.07556e-05 1.90273e-05 2.73486e-05 3.94171e-05 6.42739e-05 
1.30271e-06 0.0977352 -0.00921748 -0.00151817 -0.000784825 -0.000400886 -0.000259667 -0.000174734 -0.000157667 
-0.000121923 -9.88682e-05 -9.77223e-05 -8.59765e-05 -9.17017e-05 -0.000105038 -6.94875e-05 -3.9428e-05 -1.6336e-05 
9.36137e-06 2.57652e-05 3.89807e-05 4.92145e-05 5.56905e-05 6.0777e-05 6.44152e-05 6.18207e-05 5.23047e-05 
4.2537e-05 3.09812e-05 1.37749e-05 -4.11307e-06 -1.7139e-05 -2.94918e-05 -4.09548e-05 -4.46881e-05 -4.79787e-05 
-4.31725e-05 -3.71441e-05 -2.89643e-05 -1.84495e-05 -6.09311e-06 5.68479e-06 1.38819e-05 3.27368e-05 5.19766e-05 
6.59079e-05 -2.23197e-05 -9.63162e-06 4.93965e-05 3.07829e-05 3.17022e-05 1.873e-05 5.16968e-06 -8.54614e-06 
-1.8882e-05 -2.85414e-05 -3.70356e-05 -4.20916e-05 -4.35841e-05 -4.91096e-05 -3.59519e-05 -2.24643e-05 -1.01386e-05 
6.88197e-06 2.46734e-05 4.67457e-05 6.02887e-05 7.09404e-05 6.80903e-05 6.81548e-05 6.17378e-05 6.26666e-05 
5.46809e-05 3.95688e-05 2.31242e-05 9.86078e-06 -1.78731e-05 -5.10719e-05 -5.11717e-05 -6.13562e-05 -6.50558e-05 
-7.45876e-05 -7.28602e-05 -9.30231e-05 -0.000117069 -0.000170693 -0.000231624 -0.000315169 -0.00049924 -0.000898495 
-0.00270241 -0.0335556 0.0153718 -0.0633706 -0.00895484 0.00302242 0.00173389 0.00184085 0.00556687 
0.006835 0.0060363 0.00600801 0.00691384 0.00199947 0.00292073 0.0124902 0.0742247 0.0548781 
-0.0439027 0.0111784 0.0146768 0.00448227 0.00314013 0.00254305 0.000619803 0.00112053 0.00157234 
0.00142919 0.00126793 0.00297091 0.00516909 0.00114789 0.0185061 7.82147e-08 7.75231e-05 8.88495e-05 
4.50426e-05 2.61733e-05 8.22242e-06 4.07085e-07 -1.3412e-05 -2.32372e-05 -3.55271e-05 -2.92694e-05 -3.70868e-05 
-6.49604e-05 -5.38342e-05 -6.03187e-05 -6.56376e-05 -9.59806e-05 -5.49576e-05 -5.42525e-05 -8.22426e-06 1.15384e-05 
3.14195e-05 4.08724e-05 4.64471e-05 5.08712e-05 7.66258e-05 3.10928e-05 -1.89696e-05 0.0118728 -0.0240439 
-0.00177676 -0.000762249 -0.000371244 -0.00025569 -0.000165829 -0.000117901 -6.15052e-05 -4.8551e-05 -4.3313e-05 
-2.07811e-05 -1.82012e-05 -8.93134e-05 -6.62192e-06 3.0416e-05 2.72719e-05 3.79277e-05 4.12169e-05 6.53542e-05 
7.06445e-05 7.6843e-05 8.22395e-05 7.16462e-05 6.11327e-05 5.04452e-05 4.39691e-05 1.93956e-05 -7.12783e-06 
-2.62494e-05 -3.88832e-05 -5.94917e-05 -6.58604e-05 -6.35437e-05 -5.97763e-05 -4.36677e-05 -3.1085e-05 -1.61428e-05 
9.83503e-07 1.52793e-05 2.55318e-05 3.57858e-05 4.66244e-05 4.65675e-05 2.9816e-05 -6.07946e-06 -1.64505e-05 
2.99809e-05 4.0646e-05 3.66965e-05 3.42665e-05 2.64286e-05 1.47179e-05 2.97562e-06 -1.20667e-05 -2.27751e-05 
-4.08174e-05 -5.65972e-05 -6.68943e-05 -6.97487e-05 -5.98777e-05 -5.46541e-05 -3.81041e-05 -1.91026e-05 -4.77936e-07 
2.42913e-05 4.56346e-05 5.75836e-05 6.90748e-05 6.65802e-05 6.13569e-05 6.66707e-05 5.75583e-05 4.47422e-05 
3.28753e-05 3.22458e-05 -1.17791e-06 -1.12602e-05 -2.33164e-05 -2.36623e-05 -3.78578e-05 -3.00417e-05 -3.04583e-05 
-1.81393e-05 -5.25051e-05 -8.31814e-05 -0.000105727 -0.000290452 -0.000500733 -0.000953085 -0.00902519 0.0282722 
-0.0987766 0.0613699 0.0180584 -0.00018918 0.00261231 0.00261474 0.000999251 0.000856092 0.000828887 
0.000933201 0.000735468 0.00268051 0.00321467 0.0209961 0.0275735 -0.134555 0.0932778 0.00683829 
0.00269376 0.0019514 0.00652584 0.0074338 0.00753255 0.00755322 0.00805417 0.00258416 0.00310109 
0.0123824 0.0211978 0.000532626 -1.03673e-05 -2.06424e-05 -0.0251706 -0.0238947 0.00815483 0.011172 
0.361707 0.29685 0.247187 0.231312 0.225743 0.211942 0.220288 0.215192 0.220274 
0.174017 0.21395 0.196864 0.206656 0.172219 0.208625 0.176176 0.210121 0.178775 
0.204302 0.181845 0.19713 0.183311 0.206148 0.182071 0.203485 0.186242 0.201541 
0.183538 0.204543 0.185833 0.204116 0.183995 0.201498 0.188149 0.195917 0.191594 
0.196171 0.190791 0.188736 0.191325 0.192661 0.192314 0.189134 0.193206 0.186861 
0.198166 0.187022 0.203172 0.182921 0.21572 0.185813 0.218746 0.201958 0.252844 
-3.35731e-05 -3.38143e-05 -3.03581e-05 -2.28014e-05 -2.02336e-05 4.62016e-05 -1.84191e-05 -1.71734e-05 2.63197e-05 
-1.01692e-05 -2.16679e-05 3.00286e-05 -1.07351e-05 -1.05855e-05 3.05399e-05 4.04902e-07 -4.48166e-08 3.05669e-05 
-8.8531e-07 9.53339e-06 -2.24009e-06 6.83939e-06 2.15979e-05 -1.29198e-05 2.4641e-05 -2.85261e-06 -2.79318e-05 
2.85345e-05 2.71499e-05 -3.60683e-05 2.52756e-05 2.9346e-05 -3.20281e-05 3.8229e-05 4.19143e-05 -4.51112e-05 
4.92338e-05 4.64041e-05 -3.6955e-05 4.32988e-05 4.40689e-05 -5.30667e-05 4.26084e-05 4.17663e-05 -5.37408e-05 
3.4657e-05 3.70144e-05 -5.25807e-05 1.7996e-05 3.50926e-05 -6.0503e-05 3.1115e-05 3.62288e-05 -3.73831e-05 
1.03648e-05 1.14658e-05 -2.50628e-05 -1.04796e-05 -1.2027e-05 3.61387e-06 -1.24123e-05 -1.83689e-05 1.76014e-05 
-3.14166e-05 -2.20944e-05 1.49778e-05 -2.39436e-05 -2.66553e-05 3.02472e-05 -3.91534e-05 -2.72813e-05 3.09768e-05 
-3.38671e-05 -2.95642e-05 5.13228e-05 -2.25039e-05 -2.31738e-05 4.97203e-05 -1.70619e-05 -2.46662e-05 8.51357e-06 
2.77995e-05 -0.0025244 -0.00454342 0.000487363 0.00208427 0.00017473 -0.00151849 0.000845395 0.000218605 
-0.000841916 0.000387728 0.000119108 -0.000573728 0.000220555 7.93993e-05 -0.000408945 0.000140505 3.94652e-05 
-0.000308414 9.67264e-05 9.12046e-05 -0.000207059 8.46849e-05 6.12558e-05 -0.000111175 6.46578e-05 5.30904e-05 
-0.00010808 5.24175e-05 5.84591e-05 -8.36669e-05 5.0573e-05 6.18896e-05 -7.03522e-05 8.22084e-05 9.54189e-05 
-7.06517e-05 1.17993e-05 2.13538e-05 -9.08057e-05 3.53577e-05 1.96755e-05 -3.64423e-05 2.24297e-05 -6.52537e-06 
-2.09792e-05 1.38782e-05 -1.54158e-05 -2.45679e-06 2.77865e-06 -2.96899e-05 1.56582e-05 -5.62595e-06 -3.49252e-05 
4.11438e-05 -8.41079e-06 -3.61958e-05 5.77428e-05 -2.42044e-05 -3.99635e-05 6.72707e-05 -3.45084e-05 -3.77767e-05 
7.14467e-05 -3.31873e-05 -3.55887e-05 7.21966e-05 -4.04402e-05 -3.39949e-05 7.22341e-05 -3.96711e-05 -2.60484e-05 
6.2333e-05 -3.36506e-05 -1.1297e-05 5.19973e-05 -2.6571e-05 -2.89053e-06 3.85216e-05 -1.66207e-05 8.51152e-06 
2.58229e-05 -9.73919e-06 1.7097e-05 5.61991e-06 -3.00799e-06 2.76519e-05 -1.75799e-05 1.72641e-05 3.09735e-05 
-3.71382e-05 2.48906e-05 3.65095e-05 -4.413e-05 3.10596e-05 3.76207e-05 -5.48213e-05 3.43794e-05 3.14938e-05 
-5.77579e-05 3.65024e-05 2.81247e-05 -5.09987e-05 3.31787e-05 1.74891e-05 -4.34477e-05 2.51327e-05 9.6785e-06 
-3.24459e-05 1.33663e-05 1.12512e-06 -2.06e-05 4.54514e-06 -6.99834e-06 -8.1596e-06 -2.75123e-06 -1.48633e-05 
2.93147e-06 -1.03693e-05 -2.46275e-05 1.4781e-05 -2.33066e-05 -2.90513e-05 2.52728e-05 -2.75404e-05 -2.85232e-05 
2.91864e-05 -3.0863e-05 -1.45658e-05 3.99812e-05 -1.24021e-05 1.23705e-05 4.24391e-05 -0.11372 -3.44715e-05 
-2.72126e-05 -2.21133e-05 -2.65234e-05 -2.07853e-05 2.4732e-05 -2.17078e-05 -1.66574e-05 2.54991e-05 -1.61209e-05 
-1.28781e-05 1.88211e-05 -1.31255e-05 -8.95511e-06 1.04078e-05 -5.26869e-06 -2.80536e-06 -5.11333e-08 2.30902e-06 
4.18096e-06 -9.48052e-06 7.70264e-06 2.11125e-05 -2.6738e-05 2.22032e-05 3.21722e-05 -2.93072e-05 2.9912e-05 
3.57987e-05 -3.90273e-05 3.87146e-05 4.48729e-05 -4.73409e-05 3.77565e-05 4.66341e-05 -5.08117e-05 3.56928e-05 
4.45092e-05 -4.85866e-05 3.56951e-05 2.73808e-05 -4.29033e-05 2.45978e-05 2.5131e-05 -2.57285e-05 1.54805e-05 
1.59621e-05 -9.17036e-06 -8.12162e-07 -1.08766e-06 1.09752e-05 -1.68146e-05 -1.35272e-05 2.55664e-05 -3.01044e-05 
-2.53138e-05 3.90001e-05 -3.49418e-05 -3.15661e-05 4.7791e-05 -3.54464e-05 -3.09078e-05 5.71165e-05 -3.97525e-05 
-3.29545e-05 5.87756e-05 -3.98345e-05 -3.03394e-05 5.76041e-05 -3.50369e-05 -2.77248e-05 5.08256e-05 -3.03307e-05 
-2.93142e-05 4.66763e-05 -2.70481e-05 -1.911e-05 3.807e-05 -2.06895e-05 -1.55935e-05 2.48922e-05 -1.13082e-05 
-1.4938e-05 8.11644e-06 9.15325e-06 -6.01632e-06 -6.19196e-06 9.83218e-06 5.45859e-06 -1.9927e-05 2.64422e-05 
7.74994e-06 -3.66757e-05 3.291e-05 6.1385e-06 -4.41635e-05 4.37254e-05 6.01482e-06 -4.92258e-05 3.78984e-05 
1.10823e-05 -5.73189e-05 5.73984e-05 2.17242e-05 -7.10913e-05 6.21209e-05 3.44998e-05 -9.75208e-05 8.89865e-05 
4.22071e-05 -0.00012494 0.00010459 7.88647e-05 -0.000166934 0.000140897 0.000148371 -0.000245037 0.000212813 
0.000329935 -0.000349455 0.000217909 0.000731776 -0.000675799 0.000501957 0.00326856 -0.00196905 -0.0100062 
-0.0832732 -0.0102768 -0.0847624 0.0369114 0.0199314 0.0270352 0.0252341 -0.0643014 0.0206138 
0.0271978 -0.0601393 0.0212369 0.022474 -0.00913633 -0.00536135 0.0050387 -0.0058851 0.0210976 
0.0158287 -0.0120752 0.0179892 0.0177407 -0.00915178 0.0141016 0.0149437 -0.00779214 0.0118209 
0.0129924 -0.00709035 0.0154543 0.0152311 -0.0084492 0.0133166 0.0138981 -0.00815227 0.014988 
0.0160638 -0.00819157 0.0156682 0.0158174 -0.00943825 0.0155115 0.0149696 -0.00956893 0.0141261 
0.013096 -0.00926963 0.013397 0.0124169 -0.00800841 0.0146246 0.0144086 -0.00781556 0.01213 
0.0132022 -0.00712826 0.0151517 0.0153685 -0.00768254 0.0142648 0.0147922 -0.00737291 0.0140394 
0.0152259 -0.00692943 0.0148605 0.0166587 -0.00672805 0.0130435 0.0168668 -0.00722861 0.0167447 
0.0231291 -0.00891504 0.020284 0.0301444 -0.0117151 0.00363717 0.0533619 0.00827911 -0.0157188 
0.00590175 0.0137483 -0.00379848 0.0021045 0.000245951 -0.00340547 0.00174667 0.000498708 -0.00110158 
0.00153802 0.000847833 -0.00081905 0.00160108 0.00111415 -0.000647725 0.00140304 0.00107499 -0.000563086 
0.00117941 0.00145668 -0.000662986 0.00127783 0.00167707 -0.000638082 0.000749244 0.00146676 -0.000928228 
0.000900444 0.0021476 -0.00140366 0.00219302 0.00443383 -0.00279352 0.013745 0.0115871 -0.00466106 
-0.0118432 0.0263918 -0.0123333 0.0165493 0.000683402 0.0325863 0.00326466 0.00675555 0.0121704 
-0.0107292 0.00317445 0.00264786 -0.00272599 0.00184946 0.00126802 -0.00123944 0.00133777 0.00137938 
-0.000621037 0.00124437 0.000871418 -0.000476122 0.00109446 0.000872095 -0.000353473 0.00107187 0.000962851 
-0.000266117 0.00103278 0.00100325 -0.000302043 0.000935727 0.00097903 -0.000410237 0.000845109 0.00201455 
-0.000567381 0.000708974 0.00296678 -0.000975343 0.00238128 0.00488123 -0.00191866 -0.0108937 0.011953 
-0.00297576 2.03391e-05 0.00954445 -0.0158048 0.0300057 -0.00433589 -0.0172058 0.0474073 0.00322701 
-0.00204287 0.00345213 -0.00143186 0.0164978 -0.00988389 -0.0208242 -0.00766413 -0.046659 -0.0185136 
-0.0171209 0.00797981 -1.66137e-05 -1.98895e-05 -1.11578e-05 -3.02989e-05 3.25284e-05 -1.6543e-06 -1.3022e-05 
2.56454e-05 -1.94474e-05 -2.63701e-05 1.83996e-05 -1.41795e-05 -1.93679e-05 8.99331e-06 -1.45372e-07 -6.05798e-06 
4.94204e-06 6.3726e-06 -1.07422e-07 -1.76432e-05 2.17215e-05 1.75345e-05 -4.59828e-05 2.21036e-05 4.09283e-05 
-7.8392e-05 4.2653e-05 5.11242e-05 -8.80765e-05 3.36826e-05 6.21919e-05 -9.66336e-05 3.67764e-05 5.85273e-05 
-0.00011139 3.10199e-05 5.58526e-05 -0.000106015 2.51678e-05 4.53477e-05 -9.85063e-05 1.95821e-05 3.73845e-05 
-8.01071e-05 1.18705e-05 2.57333e-05 -6.27353e-05 7.07914e-06 1.41306e-05 -3.58436e-05 9.17379e-08 9.77581e-06 
-1.47864e-05 -8.88103e-06 3.1805e-06 8.04308e-06 -1.4985e-05 -4.74963e-06 2.76347e-05 -2.83853e-05 -7.62164e-06 
1.71217e-05 -2.60136e-05 -1.23947e-05 3.85022e-05 -3.09425e-05 2.26819e-06 5.40171e-05 -1.35151e-05 -2.91573e-05 
4.10823e-05 0.00097567 0.00127812 -0.000398915 -0.00666036 -0.000791957 -3.95414e-05 0.00144928 -0.000416684 
0.00109895 0.000204097 -0.00051696 0.000598916 0.000127718 -0.000903542 0.000463499 0.000102975 -0.000849099 
0.000216384 8.28588e-07 -0.000585463 0.000172051 0.000138776 -0.000226625 0.000127809 9.14005e-05 -0.000279903 
0.000114489 9.1552e-05 -0.000269499 8.95948e-05 8.16901e-05 -0.000221764 7.56821e-05 8.2283e-05 -0.000188772 
7.5189e-05 6.29341e-05 -0.000167187 3.38594e-05 5.92207e-05 -0.000132388 3.97967e-05 4.14608e-05 -0.000115396 
2.36319e-05 1.86651e-05 -9.29613e-05 1.77201e-07 1.08566e-05 -7.04631e-05 -1.75625e-05 -1.89635e-06 -3.03162e-05 
-2.81023e-05 -1.75743e-05 3.26066e-06 -4.94321e-05 -2.02664e-05 2.41947e-05 -5.84512e-05 -2.27508e-05 5.42069e-05 
-6.20793e-05 -2.43688e-05 7.76275e-05 -6.38144e-05 -2.92362e-05 9.02871e-05 -5.86487e-05 -2.64446e-05 9.47755e-05 
-5.45921e-05 -2.41372e-05 9.8808e-05 -4.33975e-05 -1.59515e-05 9.16409e-05 -3.01993e-05 -1.18785e-05 7.99563e-05 
-1.6618e-05 -3.94015e-06 5.77367e-05 -9.91798e-07 4.97957e-06 3.18476e-05 1.87e-05 1.14502e-05 -3.92687e-07 
3.42302e-05 1.44681e-05 -3.47755e-05 4.47503e-05 1.6832e-05 -6.02967e-05 5.14499e-05 1.99179e-05 -7.84207e-05 
5.42835e-05 1.8664e-05 -8.45308e-05 5.35462e-05 1.68307e-05 -8.38405e-05 4.83354e-05 1.33603e-05 -7.25549e-05 
3.75409e-05 1.26326e-05 -5.75423e-05 2.30122e-05 8.13669e-06 -3.44247e-05 1.04095e-05 1.57619e-06 -1.45749e-05 
-1.74842e-06 -3.97436e-06 5.6216e-06 -1.06349e-05 -4.11932e-06 2.50468e-05 -1.73333e-05 -9.782e-06 4.30483e-05 
-3.08408e-05 -9.77253e-06 5.09383e-05 -1.74708e-05 8.62894e-06 1.87195e-05 -5.2554e-05 -0.000251165 0.00248396 
-0.00114997 -0.000591982 -3.73333e-06 -1.622e-05 -1.2997e-05 -1.23462e-05 1.69277e-05 -1.35131e-05 -8.57113e-06 
1.43338e-05 -1.12973e-05 -4.55011e-06 1.06922e-05 -9.67017e-06 -2.60149e-06 3.98662e-06 -1.98893e-06 1.32358e-05 
-6.78748e-06 -5.20465e-07 2.91803e-05 -7.20342e-06 1.88791e-05 4.86648e-05 -5.36356e-05 2.26586e-05 4.99555e-05 
-7.83124e-05 2.76236e-05 5.52143e-05 -7.68344e-05 2.48053e-05 4.47674e-05 -3.84731e-05 2.12651e-05 4.19404e-05 
-3.55556e-05 1.73985e-05 2.29801e-05 -2.86752e-05 2.09081e-05 1.72815e-05 -1.87847e-05 1.20202e-05 1.23333e-05 
-8.16723e-06 -1.34292e-06 6.91506e-06 6.36576e-06 -1.38793e-05 -1.01692e-05 1.68467e-05 -2.12771e-05 -1.68589e-05 
2.29515e-05 -3.03188e-05 -2.08439e-05 2.90001e-05 -2.63309e-05 -2.36676e-05 3.15512e-05 -2.92191e-05 -2.35655e-05 
3.52929e-05 -2.90012e-05 -2.46688e-05 3.55297e-05 -2.30945e-05 -2.21769e-05 3.39077e-05 -2.15492e-05 -3.12706e-05 
2.88687e-05 -1.13602e-05 -2.23907e-05 2.34629e-05 -1.12943e-05 -1.49141e-05 1.5432e-05 -2.11057e-07 -1.06704e-05 
6.86367e-06 2.15989e-05 -1.04343e-05 -9.9822e-06 3.2596e-05 -4.78399e-06 -2.52515e-05 3.76527e-05 -1.14891e-05 
-3.36502e-05 5.46596e-05 -1.15138e-05 -4.27149e-05 6.46686e-05 -1.05021e-05 -5.24101e-05 7.75068e-05 6.78747e-06 
-6.38118e-05 5.36423e-05 3.69638e-05 -0.00010787 8.67638e-05 6.16431e-05 -9.31898e-05 7.56478e-05 9.77692e-05 
-0.000145333 0.000143715 0.000164729 -0.000301599 0.000133235 0.000270806 -0.000232915 0.000105773 0.00050368 
-0.000310565 7.31241e-05 0.000873047 -0.000443784 0.000219892 0.00147814 -0.000135607 -0.000744222 -1.76857e-05 
-0.00964246 -0.00495278 0.00333367 0.000244078 -0.00619744 -0.012975 -0.0097308 -0.0121014 -0.00255918 
0.00152182 -0.00315473 -0.00389287 0.00121657 0.00117145 -0.00865124 0.00128937 -0.00241135 -0.00228037 
0.000413306 -0.00193802 -0.00210573 0.000614565 -0.00166836 -0.00201641 0.000636695 -0.00225645 -0.00204146 
0.000429279 -0.0019751 -0.00148896 0.000445903 -0.00228146 -0.00197749 0.000504962 -0.00217504 -0.00266578 
0.000462051 -0.00219233 -0.00274064 0.000450609 -0.00240381 -0.00280173 0.000429955 -0.00210132 -0.00233987 
0.000443642 -0.00196336 -0.00184308 0.000413826 -0.00184119 -0.00193281 0.000383981 -0.00243684 -0.00192239 
0.000375911 -0.00203121 -0.00210529 0.000413993 -0.00228525 -0.0021244 0.000521294 -0.00203493 -0.00263251 
0.000588594 -0.00184851 -0.00263767 0.000718656 -0.00255456 -0.00287998 0.000945377 -0.00230421 -0.00424385 
0.00331144 0.000794868 -0.00313856 0.00100097 -0.000973233 0.000219807 -0.000246162 5.75249e-05 -0.000205844 
-0.000658858 -8.28945e-05 -3.32896e-05 -0.000543671 -0.00016582 -2.39403e-05 -0.000485676 -0.000137195 0.000124847 
-0.000471316 5.36203e-05 0.000357196 -0.000557531 0.000753058 0.000472747 -0.000218625 0.00222865 0.000851138 
-0.000574368 0.00477173 0.000733187 -0.0013661 -0.000425892 -0.00197325 -0.00236318 -0.00017597 0.00908879 
-0.00133684 0.000420806 0.00492219 -0.00741291 -0.00311751 -0.00293011 0.000468689 -6.42864e-05 0.000159959 
-0.000171713 -0.000114888 -6.46545e-05 -0.000134474 7.78852e-05 -0.000186818 -0.000159313 0.000155497 -0.000264469 
-9.49504e-05 0.000150964 -0.000259916 2.05657e-05 3.99648e-05 -4.36428e-05 0.000210733 -0.000281157 0.000508943 
0.000604798 -0.000990952 0.0019662 0.000798472 -0.00244282 0.00523313 -0.000396224 -0.00416945 0.00106828 
-0.00388073 0.000275897 -1.51816e-05 0.000419681 6.65174e-05 -0.000437089 0.000534476 0.00243745 -0.00109908 
0.000882804 0.000885643 -0.00121332 -0.000618195 0.00103684 -0.00107141 -4.34072e-06 6.40832e-06 6.77469e-06 
3.17771e-06 0.00399294 -0.00712478 0.00035337 -2.27765e-05 -0.00206739 0.000336706 -0.0103995 0.00250135 
0.00190588 1.16336e-05 2.0349e-05 0.00180559 0.000481938 -0.000514182 0.000489918 -0.0111543 0.00263012 
0.00284995 0.000197808 -0.0009093 0.000409167 -0.000299206 -1.77666e-05 6.11513e-06 -8.31097e-06 2.32429e-06 
-1.04831e-05 -2.0772e-06 -1.3633e-05 -1.42216e-05 1.53104e-05 -1.90704e-05 2.404e-06 6.87076e-06 -3.65246e-06 
9.97058e-06 -4.39136e-06 5.92114e-06 1.35109e-05 -1.79298e-05 1.99329e-05 1.36827e-05 -3.76364e-05 8.59749e-06 
5.39104e-05 -6.58588e-05 2.38902e-05 5.68394e-05 -7.98917e-05 2.25187e-05 5.99793e-05 -9.03865e-05 2.80847e-05 
5.45048e-05 -9.78248e-05 2.6767e-05 4.59049e-05 -8.56347e-05 2.9202e-05 3.13318e-05 -7.64618e-05 2.32255e-05 
2.2673e-05 -5.37584e-05 1.79561e-05 6.73536e-06 -3.15124e-05 2.10306e-05 -1.76295e-06 -9.71375e-06 5.62368e-06 
-2.90473e-06 -4.52386e-06 -7.11697e-06 -3.07848e-06 1.13232e-05 -1.46933e-05 -6.97538e-06 2.32863e-05 -1.48739e-05 
-3.96347e-06 1.69577e-05 -2.33678e-05 4.77682e-06 1.71972e-05 -0.000572278 0.000696822 -0.00038374 0.000702536 
-3.50425e-05 -0.000258191 0.000436802 1.22359e-05 -0.000314724 0.000369375 8.59444e-06 -0.000463073 0.000256643 
4.35788e-05 -0.000415379 0.000193719 5.52856e-05 -0.000350882 0.00012787 5.92445e-05 -0.000261874 0.000100688 
6.27302e-05 -0.000209634 8.02214e-05 5.17588e-05 -0.000184373 6.09857e-05 5.91217e-05 -0.000168235 5.21622e-05 
3.82658e-05 -0.000149696 4.03024e-05 2.58895e-05 -0.000131835 2.21043e-05 9.97661e-06 -0.000121757 1.95771e-06 
4.1596e-06 -0.000104694 -8.54676e-06 -1.32582e-06 -7.26522e-05 -2.18609e-05 -6.84963e-06 -4.1085e-05 -3.53282e-05 
-1.10939e-05 -2.57471e-05 -4.47501e-05 -1.00295e-05 -1.54058e-05 -4.43482e-05 -8.72867e-06 -2.99641e-07 -4.09392e-05 
-8.73206e-06 1.32193e-05 -3.88447e-05 -8.29857e-06 2.11071e-05 -3.81226e-05 -7.50036e-06 2.82607e-05 -3.38655e-05 
-5.90207e-06 3.27377e-05 -2.51497e-05 -1.41445e-06 4.35207e-05 -1.45622e-05 6.89675e-06 4.73633e-05 -4.1842e-06 
1.32944e-05 3.06996e-05 7.6551e-06 1.80407e-05 1.29801e-05 2.50867e-05 1.74726e-05 -2.40437e-06 3.35718e-05 
1.32899e-05 -2.30334e-05 4.60333e-05 1.14523e-05 -3.53953e-05 4.97993e-05 8.34438e-06 -4.4605e-05 5.10141e-05 
3.41338e-06 -4.653e-05 4.69344e-05 -1.91638e-06 -4.092e-05 3.91658e-05 -3.7664e-06 -3.28727e-05 2.35152e-05 
-8.29767e-06 -2.144e-05 1.21868e-05 -1.0368e-05 5.6007e-06 4.30315e-06 -9.80287e-06 2.02211e-05 -6.57091e-06 
-1.03075e-05 1.27719e-05 -7.1567e-06 -2.75476e-05 3.40623e-05 -1.03475e-05 -2.21529e-05 3.35335e-05 -1.02741e-05 
-1.39939e-05 1.75231e-05 2.33793e-05 0.00016753 0.000460257 -0.00248156 0.00143515 -0.000166692 -0.000350604 
-0.000256135 0.000383464 0.000430745 1.01468e-05 -8.91969e-06 -7.10278e-06 -1.45354e-05 2.45383e-06 9.42926e-06 
-1.85332e-05 6.25441e-06 6.96522e-06 -1.41376e-05 1.71463e-05 6.98313e-06 1.23458e-06 2.88013e-05 -8.93814e-06 
-1.31327e-06 4.03811e-05 -2.26322e-05 1.00093e-06 4.47746e-05 -3.85229e-05 6.09857e-06 5.00976e-05 -3.87238e-05 
8.82689e-06 3.06999e-05 -2.72408e-05 2.22972e-06 2.78824e-05 -3.42045e-05 9.86986e-06 2.10365e-05 -2.49351e-05 
2.38685e-05 6.99489e-06 -1.78561e-05 2.52143e-05 -4.00716e-06 -8.19331e-06 2.05536e-05 1.97455e-06 1.37947e-06 
2.25907e-06 -2.46994e-05 1.1177e-05 -4.22812e-07 -1.65083e-05 4.6064e-06 -7.50451e-06 -1.70845e-05 9.57482e-06 
-6.68503e-06 -1.63819e-05 9.86323e-06 -1.12174e-05 -1.69377e-05 1.1422e-05 -1.02362e-05 -1.5273e-05 1.29049e-05 
-1.35476e-05 -1.58907e-05 1.11649e-05 -1.34894e-05 -1.20841e-05 1.45868e-05 -6.50381e-06 -1.23993e-05 8.39323e-06 
-8.18561e-06 6.05228e-06 3.63969e-06 -2.78645e-06 1.09528e-05 1.42124e-05 2.60975e-05 1.24543e-05 -4.85727e-06 
1.57743e-05 2.1396e-05 -4.42457e-05 2.37843e-05 2.00505e-05 -3.74202e-05 5.39257e-05 -6.99813e-06 -2.67233e-05 
5.78715e-05 -4.43199e-06 -4.95988e-05 5.32341e-05 3.31369e-05 -7.98801e-05 2.85725e-05 6.11347e-05 -8.29116e-05 
0.000102965 0.000129503 -0.00017981 3.70153e-05 0.00010901 -0.00013008 8.74691e-05 0.000199252 -0.000299409 
0.000116671 0.00034743 -0.00030512 -3.96739e-05 0.00054196 -0.000189368 -0.00014521 0.000811516 -0.000243964 
0.00203429 -0.00186441 -0.00167336 -0.00118454 -0.00701143 0.00422767 -1.69956e-05 0.000390227 -0.000114 
-0.00044823 0.00034825 0.000176524 -0.000335958 0.000306383 0.000165709 3.23108e-05 0.000126833 0.000178395 
-7.6527e-06 0.00016567 0.000140226 5.93259e-05 0.00015754 7.39455e-05 7.64835e-05 0.000103234 0.000112131 
0.000108083 0.000144234 4.67192e-05 0.000102182 7.30206e-05 3.46023e-05 7.57187e-05 5.25711e-05 9.12535e-05 
-3.51535e-05 5.48375e-05 3.8765e-05 -1.18473e-05 4.39476e-05 9.3642e-05 -5.87717e-05 4.7117e-05 8.69985e-05 
2.7354e-05 5.65615e-05 9.53995e-05 8.44036e-05 7.02719e-05 1.04767e-05 0.000115929 6.66916e-05 6.8079e-05 
4.22428e-05 0.000117576 0.000117017 0.000135685 0.000156143 8.59404e-05 -4.15281e-05 0.000436638 0.000172351 
-0.000168218 0.00065389 -0.00011824 -0.000631034 0.000923904 0.000784808 -0.000283883 0.000168115 0.00151893 
0.0034114 -0.00183541 0.000124843 0.000376299 -0.000608042 6.17013e-05 0.000319749 -0.000765934 0.000111313 
0.000279104 -0.000277826 0.000429823 0.000312784 -0.000577909 0.000407391 0.000342184 -0.000724339 0.000393544 
0.000311422 -0.000891376 0.00109156 0.000502623 -0.00055672 -0.000701265 -0.000448437 -0.00034362 -0.000865684 
-0.000252117 0.000599763 -0.000482187 0.00114227 -0.00108218 -0.000187142 -0.000245602 0.00177822 -0.00179312 
0.000459947 0.000250059 0.000167733 8.70826e-05 0.000206823 0.000118674 -0.00038039 0.000410224 0.000158704 
-0.000538863 0.000734635 0.000138918 -0.000931176 0.00120026 -0.000142217 -0.00121256 0.00189623 -0.000783225 
-0.00097239 -0.000938905 0.00060475 0.000925205 -0.00120311 -0.000265106 0.000523704 -1.30681e-05 -4.60723e-07 
-1.19635e-05 9.52916e-06 0.000477505 0.000298051 -0.000353244 -0.00074683 0.000312889 0.000113004 -0.000464729 
0.000201987 7.65833e-05 -0.000363849 -0.000319974 0.000227017 0.000647837 -1.18831e-05 -0.000326682 -0.000371391 
-1.31964e-05 3.68845e-06 -0.00215583 0.000693189 7.08698e-05 -0.00335786 -0.000308861 0.000165389 0.00141607 
-0.000879072 6.52354e-06 -1.73293e-05 -0.000317331 0.00131656 0.000199652 0.00102051 -0.00116761 0.000638683 
-7.3318e-05 -0.000157027 -0.00160859 1.79957e-05 0.000520306 -0.000577608 0.000220619 0.000424534 -0.000495378 
0.0010641 -8.68659e-05 0.000369773 -0.00318159 3.637e-06 -0.000154293 9.23764e-06 -7.03152e-05 0.000628538 
0.000511179 -0.000911283 -0.000653439 0.000651578 -0.00172657 -0.00064212 0.000555221 0.000496887 -1.38719e-06 
4.05332e-06 -3.48047e-05 5.85686e-06 1.29287e-05 -2.38563e-05 9.87667e-06 1.13491e-05 -1.77789e-05 2.03032e-05 
-1.04107e-06 -6.87855e-06 2.2964e-05 -2.10989e-05 1.7435e-06 5.22131e-05 -4.45958e-05 1.21835e-05 6.40196e-05 
-6.92833e-05 1.68802e-05 6.75758e-05 -8.56964e-05 2.30362e-05 6.10268e-05 -9.88086e-05 3.03018e-05 4.03466e-05 
-8.55488e-05 3.5794e-05 1.96671e-05 -7.75014e-05 2.99978e-05 9.2424e-06 -4.94475e-05 2.48792e-05 -4.22114e-06 
-2.70745e-05 1.95227e-05 -1.5992e-05 -9.22554e-06 1.91541e-05 -7.73354e-06 -7.21402e-06 4.65142e-06 -8.4027e-06 
7.60749e-06 -6.1699e-06 -3.77226e-06 1.38657e-05 -7.68871e-06 3.10792e-06 1.25747e-05 -7.83717e-06 3.29392e-06 
8.71238e-06 0.000408559 -0.000227943 0.000263052 -0.000233903 -0.000180451 0.000348608 0.00014269 0.000313408 
3.3842e-05 -5.45692e-05 1.29183e-06 0.000169724 -6.56823e-05 -7.96041e-05 0.000349416 1.14842e-05 -4.00256e-05 
0.000275653 -2.84602e-05 -5.69488e-05 0.000239428 1.92397e-05 -0.000149831 0.000169392 4.57672e-05 -0.000168838 
0.000116168 4.60529e-05 -0.00016746 9.12527e-05 4.57461e-05 -0.000161645 7.07643e-05 4.09053e-05 -0.000154091 
5.60038e-05 4.00894e-05 -0.000146916 5.08493e-05 2.04007e-05 -0.000139612 4.63679e-05 7.68945e-06 -0.000138556 
4.42708e-05 1.11358e-05 -0.00013134 3.22467e-05 6.21235e-06 -0.000119812 2.25222e-05 3.90832e-06 -9.99193e-05 
8.74995e-06 8.83987e-06 -9.40671e-05 -5.19362e-06 9.51995e-06 -9.44453e-05 -7.03073e-06 1.28608e-05 -9.37645e-05 
-7.74454e-06 1.43076e-05 -7.89482e-05 -6.92284e-06 1.37242e-05 -6.54867e-05 -7.95384e-06 1.26284e-05 -5.50382e-05 
-6.66494e-06 1.70431e-05 -5.50624e-05 -1.26333e-05 1.43653e-05 -4.39889e-05 -1.3516e-05 1.69194e-05 6.00901e-06 
-5.58773e-06 2.23221e-05 3.17054e-05 -1.02849e-05 2.11586e-05 1.64804e-05 8.35121e-07 2.05391e-05 2.68056e-05 
1.20605e-05 1.61662e-05 7.1224e-06 2.08307e-05 7.45414e-06 -1.1557e-05 2.68001e-05 -3.92219e-06 -4.7295e-05 
3.85437e-05 -7.70655e-06 -4.82304e-05 4.3601e-05 -1.14876e-05 -1.80805e-05 3.01061e-05 -2.02886e-05 -1.11388e-05 
2.2823e-05 -2.44151e-05 7.5084e-06 1.36994e-05 -3.76511e-05 2.60665e-05 4.20448e-06 -3.50339e-05 4.13653e-05 
-1.26538e-06 -1.58441e-05 3.64498e-05 -4.2875e-06 -2.89515e-05 3.82222e-05 -3.5624e-06 -1.59233e-05 3.3854e-05 
0.000735569 -0.000142569 -0.00021691 0.000265434 0.00024139 -0.000318644 0.000451552 -0.000227317 0.000197586 
0.00051507 -0.000311825 -1.92688e-05 7.41444e-06 -2.71733e-05 9.27637e-06 2.62768e-05 -1.50665e-05 1.61782e-05 
2.05582e-05 -1.64663e-05 2.09677e-05 5.34359e-06 -1.50248e-05 3.49237e-05 1.56939e-06 -3.19339e-05 2.99299e-05 
2.99588e-05 5.12774e-07 3.567e-05 -2.86989e-05 -1.09872e-05 2.82325e-05 2.74297e-06 -8.27388e-06 8.87839e-06 
-1.80545e-05 1.10169e-05 -6.13381e-06 -3.16963e-05 3.52457e-05 -2.23433e-05 -1.443e-05 2.90466e-05 -2.66379e-05 
-1.4055e-05 1.96458e-05 -1.56731e-05 -2.31112e-05 -3.77874e-06 -2.90798e-05 2.22243e-05 3.21813e-06 -1.32874e-05 
-1.60436e-06 1.99655e-05 -1.01659e-05 -6.74442e-05 1.44722e-06 -3.10725e-06 -3.62528e-05 1.39195e-06 -1.52362e-06 
-3.05629e-05 -3.41395e-06 3.29633e-08 -3.50239e-05 -1.0555e-05 7.90031e-06 -1.14627e-05 -1.0907e-06 8.66847e-06 
-1.87224e-05 -1.554e-05 3.977e-05 -4.23627e-05 1.52294e-05 1.34103e-05 -9.257e-06 -2.25716e-05 2.8731e-05 
-9.28386e-06 6.96462e-06 4.33146e-05 -4.125e-05 4.97423e-05 5.72058e-05 -0.000111264 7.87136e-05 5.53495e-05 
-0.00012307 6.88528e-05 9.27865e-06 -4.7744e-05 3.06683e-05 4.169e-05 -5.16049e-05 4.80812e-05 7.93675e-05 
-0.000157142 4.99955e-05 0.000135738 -0.000166693 -7.06315e-07 0.000148242 -8.60738e-05 6.47478e-05 0.000121844 
-0.000183315 4.99713e-05 0.0002209 -0.00017558 -3.4127e-05 0.000425482 -0.000106959 -0.000232404 0.000599829 
-0.000173996 -0.000144453 -0.000209183 -5.43719e-06 -0.000862739 0.00222223 -8.65883e-05 -0.00013843 -5.28689e-05 
-8.8658e-05 0.000371628 -7.83091e-05 -4.35201e-05 0.000276851 -4.47458e-05 -3.00558e-05 0.000212561 -7.38937e-05 
-4.76557e-05 0.000191998 -7.63438e-05 -1.60684e-07 0.000126572 -4.24911e-05 2.15792e-05 0.000109252 -2.14219e-05 
-1.23584e-05 5.37151e-05 -1.65464e-05 -2.64458e-05 9.34e-05 -2.82255e-06 -4.36123e-05 0.000107693 3.4846e-06 
-5.05783e-05 4.87164e-05 -8.4193e-06 -4.4124e-05 6.86336e-05 -2.65215e-05 -3.41788e-05 9.17199e-05 -1.77356e-05 
-3.65268e-06 0.000157954 -9.64809e-05 9.94154e-06 0.000225508 -0.000157145 -8.53927e-05 0.000178388 -0.000117723 
-0.000145458 0.000109423 0.00215795 0.000218774 -0.000782529 -7.22673e-06 1.14546e-06 5.71921e-06 -1.55167e-05 
0.000216469 0.000259362 -0.000272484 8.10622e-05 0.000447639 -0.000433461 0.000325018 0.000268891 -0.000376896 
0.000573152 1.17985e-05 -0.000237578 0.00074994 4.31936e-05 -0.000687034 -6.93011e-05 -0.000182482 0.000110621 
-0.000646601 0.000244512 -0.000430601 -3.73737e-05 0.000300301 0.000126645 0.000619869 -0.000184809 0.000390524 
-0.000367962 -0.000160712 -4.67288e-06 -4.71722e-05 0.000143652 -0.00297351 0.00177413 -0.000331498 0.000399634 
9.16967e-05 -0.000462362 -0.000853112 0.00164646 -0.000390402 4.074e-05 0.000167842 0.000615788 -2.64042e-07 
-0.000477732 -0.000409652 2.97036e-05 -0.000282411 -2.22507e-06 2.16155e-06 -0.000139507 0.000877427 -0.00053533 
-0.000600369 -4.4186e-06 -1.65321e-05 -0.00029585 -8.85776e-05 7.43893e-06 -0.00139181 -6.55568e-06 -0.000194558 
0.000152606 -5.21858e-05 -1.70716e-05 -0.00035071 -6.94835e-06 0.000161534 -0.000424684 0.000241017 0.000301214 
0.000139667 -4.55183e-05 0.000441054 -0.00166706 0.000824081 -0.00040786 0.000224741 0.000360244 -0.000238637 
0.000464587 -3.44178e-05 0.000498315 -0.00037012 -0.000205879 5.37754e-06 0.000183607 -0.000200101 -0.000315999 
-0.000483495 0.000366925 7.56246e-05 0.000430051 -0.00034394 6.67323e-06 0.000545975 1.8407e-05 -0.000878783 
0.00135021 7.00238e-05 -0.00115707 0.000200521 -0.000415396 0.000239931 0.000136148 -0.00139397 0.000776332 
5.79756e-05 0.000266958 0.000173419 -0.00127731 0.000574852 -4.60746e-06 -3.17702e-05 9.08017e-06 -3.03504e-05 
4.48477e-05 1.9172e-05 -2.89815e-05 9.00384e-06 3.18695e-05 -2.02943e-05 3.99378e-05 1.38629e-05 -4.60651e-06 
6.7769e-05 -3.81257e-05 7.5282e-06 7.79001e-05 -7.68053e-05 1.93973e-05 5.04045e-05 -8.10189e-05 2.80905e-05 
6.00399e-06 -6.08063e-05 6.65261e-05 -1.58792e-06 -2.43142e-05 4.2815e-05 -3.86533e-06 -4.01498e-05 2.37713e-05 
-1.76275e-05 -1.50519e-05 3.35602e-05 -2.09918e-05 -1.21629e-05 3.35418e-05 -2.01012e-05 -2.53339e-06 1.52439e-05 
-1.55478e-05 7.09049e-06 1.00615e-06 -7.55169e-06 2.94115e-05 -5.4347e-06 4.44504e-07 1.12277e-05 -5.41377e-05 
0.000132742 0.000420544 -0.000318985 5.53458e-05 -2.66764e-05 -2.06936e-05 -7.74608e-05 0.000140253 -0.000212897 
0.000154748 0.000156977 -7.21632e-05 -2.18442e-05 0.000139405 -2.27932e-06 -3.31695e-05 0.000105891 -1.5943e-05 
-3.69445e-05 0.00016698 2.90813e-06 2.13488e-05 0.000116543 2.70111e-05 -7.45664e-05 8.34884e-05 2.92135e-05 
-5.45104e-05 6.58839e-05 3.30517e-05 -7.45267e-05 5.1292e-05 3.28983e-05 -7.95294e-05 5.857e-05 3.24612e-05 
-8.49521e-05 5.05782e-05 5.78243e-06 -0.000107963 4.90968e-05 2.25941e-05 -0.000117882 3.4508e-05 2.36416e-05 
6.10383e-06 2.56283e-05 3.04503e-05 1.60519e-05 1.54093e-05 5.19091e-05 -9.53684e-06 6.28626e-06 6.23052e-05 
-4.12649e-05 1.11023e-05 7.07953e-05 -0.000120355 7.13289e-06 7.12707e-05 -0.000141724 9.02072e-06 6.86365e-05 
-0.000184128 1.63714e-05 6.91352e-05 -0.000186972 2.99234e-05 5.73826e-05 -0.000184769 2.0936e-05 3.45553e-05 
-0.000147174 6.20905e-06 2.38367e-05 -9.57694e-05 -1.74047e-05 5.69894e-06 -5.28532e-05 2.7644e-05 -9.42619e-06 
3.93515e-05 -5.7329e-05 -1.34802e-05 2.53202e-05 -4.59761e-05 -3.09716e-06 2.27473e-05 1.00622e-05 6.97634e-06 
9.04941e-06 -3.50772e-05 1.22527e-05 -2.11154e-05 -4.39137e-05 1.12048e-05 -3.79995e-05 -2.93104e-05 4.83261e-06 
-3.01467e-05 4.64979e-05 6.02545e-06 -5.75362e-05 8.2717e-05 1.03472e-05 -5.45202e-05 4.26827e-05 1.58884e-06 
-4.98654e-05 7.83387e-05 -2.33925e-06 -3.84775e-05 5.3422e-05 -1.29622e-06 -2.45322e-05 2.68943e-05 0.000179773 
-0.000396326 0.000192594 0.000105171 0.000320209 0.000204322 -0.00104599 -4.75503e-05 3.71991e-06 -1.71738e-05 
-3.18191e-06 2.53786e-05 -9.05404e-07 -0.00184898 -0.000664708 -2.47796e-05 8.37291e-06 4.54149e-06 -4.12078e-05 
-1.62338e-05 -1.12743e-05 2.07417e-05 -0.00101943 -0.000585937 -3.1819e-05 1.84772e-05 -2.23871e-05 -1.46459e-05 
-1.6492e-06 3.10254e-05 5.16273e-05 -2.22194e-05 1.01825e-05 4.15194e-05 -4.58061e-05 -3.12188e-06 4.26397e-05 
3.181e-05 -9.60568e-06 -5.53873e-05 -0.000859118 0.000676032 2.05676e-05 -5.06641e-07 -1.30147e-05 -3.56348e-06 
5.57293e-05 -3.31445e-05 5.37031e-05 3.18794e-05 -1.10469e-05 2.01688e-05 3.36567e-05 -9.36679e-05 3.32821e-05 
2.80766e-05 -9.84199e-05 2.70126e-05 2.79086e-05 8.47036e-06 3.01544e-05 2.32491e-05 -0.00010653 2.45406e-05 
6.33507e-06 -0.000116699 2.36712e-05 8.81905e-05 -2.87067e-05 3.98228e-05 5.69448e-05 -9.96826e-06 -4.91828e-05 
6.97952e-05 2.65046e-06 4.43489e-05 8.03275e-05 -0.00012679 5.8532e-05 5.83757e-05 -0.00011374 5.86053e-05 
6.50001e-06 2.03109e-05 5.20241e-05 -1.54613e-07 -4.06091e-05 2.74154e-05 6.42073e-05 -6.43193e-05 6.44936e-06 
0.000104799 -0.000120934 1.29664e-05 0.000147669 -0.000105155 2.59771e-06 0.000120644 -5.82416e-05 -2.81278e-05 
0.000127313 -7.29642e-05 -4.51442e-05 0.000320257 -5.81143e-05 -2.73916e-06 3.93888e-06 -0.000253144 -0.000100593 
0.00030365 0.000109581 -7.07114e-05 -0.000141579 -7.57532e-05 -7.78028e-06 1.60127e-05 -5.63322e-07 0.000236029 
-0.000495857 0.000752728 0.000529998 -0.000178651 -6.93123e-05 0.000333328 -0.000121518 -2.0473e-05 0.000230065 
-0.000134403 2.92666e-06 0.000125388 -0.00022412 -6.61402e-05 0.000148638 -0.000107728 -1.1572e-05 0.000161438 
-8.35296e-05 -5.70116e-05 0.000117811 -5.40045e-05 -9.6448e-05 3.72103e-05 -6.645e-06 -8.69637e-05 0.000148878 
2.19249e-05 -9.65643e-05 6.62118e-05 -1.51365e-05 -6.82466e-05 0.000176795 -1.41186e-06 -5.08283e-05 0.000127663 
-6.50961e-05 -0.000121509 0.000254497 -8.85488e-05 -0.000134066 0.000248515 -9.431e-05 -6.31945e-05 0.000256915 
-0.000120162 0.000367022 5.28384e-05 2.98311e-05 0.000298271 -0.000306335 -0.000155073 -5.20773e-05 0.000414423 
-5.3609e-05 -0.000126549 -0.000392824 0.000116729 0.00125761 -0.000497553 -0.00023565 0.000185742 -9.85893e-05 
-8.31995e-05 0.000135497 0.000296114 0.000150994 -0.00030072 -7.66579e-05 8.49009e-05 -0.00111708 0.0012924 
-9.84433e-05 -0.000285544 0.000218791 7.44738e-05 -0.000207537 4.94524e-05 -7.83791e-05 0.000210556 0.000218427 
-0.000389409 -0.000202905 2.20541e-05 -3.28138e-05 -1.52052e-05 2.14686e-05 2.20225e-05 -0.00104019 -0.000220246 
0.000258296 4.64203e-06 -0.000160935 -0.000137399 0.000323715 0.000434907 -0.000149274 -0.000139867 0.000158367 
0.000719515 -9.16462e-06 0.000114875 -0.000135374 2.2204e-05 -0.000595861 -6.59653e-05 8.69096e-05 2.3527e-05 
5.82042e-05 3.86817e-05 -4.8183e-05 1.75946e-06 -0.000397166 0.000389471 -0.000732983 -0.00144928 0.000534713 
0.000590795 -0.000128098 -0.000552513 2.48553e-05 -0.00022551 -0.000128307 6.82188e-05 -0.000290017 -2.40252e-05 
6.92016e-06 0.000224884 0.000144165 0.000228036 1.11383e-05 -6.85682e-05 -0.00013905 -0.000453189 0.0002772 
0.000139587 -0.000172535 -0.000183664 0.000153502 -7.3015e-06 -0.000613441 -0.000211517 0.00015575 7.28776e-06 
-0.000373312 0.000246043 -0.000120049 -7.75399e-05 0.00016888 0.000542933 0.000496853 0.000219438 0.000153636 
-0.000358871 -0.000115685 2.78426e-05 -0.000323742 0.000110861 -0.000102622 0.000155159 1.5488e-05 2.59399e-05 
6.91604e-06 0.000598183 -0.000191627 -0.000260091 0.000237846 -9.63594e-06 1.36459e-05 -0.000121742 -7.02923e-05 
-9.41508e-05 -5.19134e-05 -1.76444e-05 -2.10735e-05 3.31249e-05 -2.03809e-05 4.90833e-05 -2.58677e-05 7.08651e-05 
-2.146e-05 -2.25892e-07 7.12856e-05 -6.74685e-05 6.00967e-05 -4.70231e-06 -6.68297e-05 8.67535e-05 -0.000126203 
0.000101284 0.00010731 -2.54147e-05 3.18474e-05 -3.43767e-05 -0.0012461 0.000897994 1.90838e-05 -6.07793e-07 
0.00011972 -2.93404e-05 -0.000983909 0.000664148 2.81633e-05 -3.49518e-05 -8.21545e-06 7.10934e-06 -3.94338e-05 
-2.09386e-06 2.10194e-06 -3.57421e-05 0.000167486 -2.83917e-05 -7.91997e-05 6.23781e-05 -6.78917e-05 0.000144941 
-0.000114211 -0.000103827 -0.000101765 0.000151026 -0.000141328 -9.92054e-05 5.27183e-05 -1.85706e-05 -5.87929e-05 
2.18761e-06 5.64132e-05 2.06312e-05 -6.98546e-06 -0.00160382 0.00064047 5.41222e-06 1.07432e-05 -6.09466e-06 
2.90998e-05 -3.6759e-05 5.05097e-06 1.77735e-05 6.27854e-05 8.33051e-06 -1.85873e-06 4.08987e-05 3.61503e-05 
6.03459e-06 6.1507e-05 -0.000153463 6.47457e-05 7.35242e-05 0.000139359 8.67161e-05 0.000132471 -0.000104948 
6.05533e-05 0.000128729 -7.98942e-05 3.12674e-05 0.00011802 -0.000128908 3.86403e-05 0.000109218 -0.000129098 
6.83943e-05 0.000107816 -0.000148161 6.20744e-05 8.05777e-05 -0.00022554 1.70561e-05 1.7579e-05 -3.30611e-05 
2.47914e-05 -9.0232e-05 -2.35891e-05 3.52967e-05 -2.11515e-05 -5.16293e-05 1.94052e-05 2.76457e-06 -5.48303e-06 
1.75171e-05 6.19931e-05 4.41208e-06 -6.22949e-06 -3.49447e-05 1.35935e-06 -9.38341e-05 -5.88558e-05 -3.90295e-05 
-6.14845e-06 -8.18053e-05 0.00015425 -9.37171e-06 -4.10279e-05 4.19744e-05 0.00023522 0.000163462 -0.000334971 
-0.000431243 1.41769e-05 4.36521e-05 -4.5952e-06 5.55239e-05 -6.60953e-05 6.71667e-05 8.34492e-05 8.71425e-05 
2.59518e-05 3.94701e-06 0.000117933 -1.72131e-05 -2.3203e-05 -0.000140912 1.47583e-05 2.75714e-06 9.885e-05 
1.21425e-05 -2.63063e-05 5.3533e-05 -2.16067e-05 -1.5514e-05 8.23024e-05 3.44287e-05 -0.00174511 -0.00116333 
-1.50187e-05 -1.80388e-05 -3.29362e-05 -5.91229e-05 0.000134978 9.54943e-07 -6.24672e-05 0.000154349 -9.38713e-05 
-7.61094e-05 0.000163343 2.87184e-05 0.000367856 -0.000181447 -0.00024867 -0.000117133 0.000133324 -7.23807e-05 
-1.88439e-05 -0.000101688 9.10235e-05 0.000271511 -0.000117989 -5.03836e-05 5.84675e-05 -7.74043e-05 -7.8412e-05 
0.000215514 -4.41985e-05 -0.00120107 -0.000309074 -7.11248e-05 -7.70896e-05 0.000215784 1.39849e-05 -5.10507e-05 
9.10905e-05 -7.7833e-05 -7.77173e-05 -8.66774e-06 -0.00010012 -4.32431e-05 0.000185792 -7.27642e-05 -0.000177537 
0.000115542 -5.44657e-05 -0.000182941 0.000304431 -5.96463e-05 2.06037e-05 3.49435e-06 0.000149004 -0.000456199 
-6.01244e-06 -1.41593e-05 1.76655e-05 2.37266e-05 0.00072266 -0.0001002 -5.39826e-05 -6.0851e-05 2.79841e-06 
0.000123094 -5.87505e-05 0.000122989 0.000709745 4.58061e-06 0.00030696 2.08415e-05 -1.63355e-05 7.81706e-06 
-2.94105e-05 1.8501e-05 2.67414e-05 -0.000209205 -0.000811483 0.00121159 -4.18995e-05 -8.20062e-05 0.000209533 
8.23719e-05 -0.000472848 -1.35779e-05 -0.000109462 0.000117867 1.87389e-05 -4.89413e-05 2.25416e-05 -4.88526e-05 
4.21372e-05 5.25826e-05 -0.000138779 -0.000154058 9.42354e-07 6.72081e-05 7.56917e-05 2.58902e-05 1.2922e-06 
3.8077e-05 1.4457e-05 3.43693e-05 -0.000151498 5.05316e-05 -7.03516e-05 -0.00218864 -0.00533929 1.14013e-05 
-5.90177e-05 6.0234e-05 -0.000126782 -1.31944e-05 -0.000110887 -0.000141499 0.000496876 9.08344e-05 -0.000166822 
0.000232644 -0.000166623 -0.000197845 -4.70935e-05 3.85048e-05 -6.22169e-05 -0.00016211 6.48037e-05 0.0164913 
0.0193245 -0.000123422 -0.00180488 0.0102497 -1.69078e-05 -3.02524e-05 -5.54429e-05 5.33462e-05 5.10546e-05 
2.8812e-05 6.39311e-05 -8.23296e-05 0.000122472 6.37531e-05 2.94197e-06 9.29156e-05 -4.45596e-06 1.45089e-05 
-1.53194e-05 -1.28576e-05 -7.16159e-05 0.000123329 -6.03121e-05 -0.000157608 -5.19791e-05 -3.51078e-05 0.000662624 
-0.000147258 -0.000609435 0.000153286 6.88588e-05 0.000197301 0.000111136 4.74323e-05 5.38411e-05 -8.92413e-06 
6.31788e-05 0.000247476 0.000140118 9.3896e-05 -0.000249592 0.000223561 9.23855e-05 9.57718e-05 -0.000179872 
-0.000141403 5.39981e-05 -0.000177975 -0.000111762 -0.000210542 -0.00019986 6.88783e-05 0.000597338 -0.000507237 
-5.66772e-05 8.27641e-05 9.84899e-05 -4.93603e-05 6.06814e-05 -0.000176543 0.000152151 -0.000282589 -4.0915e-05 
-0.00012696 1.27813e-05 9.01417e-05 7.44918e-05 0.000182732 -0.000394806 3.98318e-05 9.00945e-05 -6.17542e-05 
-0.000162586 0.000191644 0.000289411 -6.51063e-06 -2.83691e-05 -8.85092e-05 6.21204e-05 -1.14253e-05 -6.99399e-05 
8.63183e-05 -1.70443e-05 -0.000135543 9.0563e-05 -6.84445e-05 -3.37108e-05 -0.000106154 0.0001614 3.46961e-06 
-7.78832e-05 0.000177396 -7.41116e-05 -8.91639e-05 0.000131635 -0.00024037 -1.13279e-05 0.00026164 4.8812e-05 
7.27641e-05 0.000112496 0.00015458 0.000132487 -2.44693e-05 1.91278e-05 9.43991e-05 -9.846e-05 -1.89605e-05 
-1.95167e-05 -0.000122786 -8.94278e-05 3.59823e-05 -0.000182106 5.99094e-05 1.0066e-05 -0.000178149 -5.68895e-06 
0.000148064 -5.20377e-05 -3.11332e-05 -4.45845e-06 -1.11194e-05 0.000101867 2.02623e-05 -1.42195e-05 4.88433e-05 
-8.19581e-05 8.62287e-05 -0.000199889 6.029e-05 -4.89705e-05 8.48602e-05 -4.36476e-05 -0.000115195 -7.47939e-05 
0.000387792 -0.000233807 -0.000226702 0.00010822 9.60756e-05 -1.18548e-05 1.79049e-05 1.5946e-05 -9.105e-07 
-0.000142328 -0.0001918 5.49854e-05 -4.92642e-05 9.56782e-05 -7.09977e-05 0.000181905 -3.73304e-05 -7.38694e-05 
8.78514e-05 0.000145647 -1.50216e-05 0.000245567 -6.00756e-05 -0.000110317 -7.74512e-05 2.51587e-05 3.76974e-05 
8.91031e-05 -0.000211084 -0.000277041 -0.00016296 0.000107034 9.91916e-07 -5.87487e-05 -4.57253e-05 -0.000374881 
0.000113667 0.000112001 -0.0002338 -2.2909e-05 0.00025077 -0.000136699 -0.000118396 -2.38326e-05 1.59357e-05 
0.000193492 1.02286e-05 6.81486e-05 -0.000314077 0.000297455 0.00015051 3.25159e-05 -0.000218138 7.75879e-05 
5.70263e-07 -3.49192e-05 2.6779e-05 -3.53895e-05 -1.98775e-05 3.64449e-05 -3.05542e-05 -3.63868e-05 4.24474e-05 
-2.75025e-05 -2.06311e-05 4.89927e-05 -1.99405e-05 -2.01256e-05 2.48263e-05 -1.0948e-05 -1.5934e-05 2.07208e-05 
-7.54867e-06 -8.62351e-06 1.74758e-05 7.29174e-06 2.37371e-06 -1.31305e-05 1.09065e-05 7.82238e-06 -2.85455e-05 
3.72686e-05 3.21517e-05 -6.00506e-05 2.95121e-05 5.13312e-05 -7.48244e-05 3.98479e-05 4.90535e-05 -0.000101168 
4.21253e-05 4.26916e-05 -0.000107345 4.09061e-05 4.48969e-05 -0.000113382 4.40962e-05 4.20183e-05 -0.000102789 
4.07764e-05 3.09659e-05 -8.98159e-05 2.48689e-05 2.05251e-05 -7.83222e-05 2.1352e-05 8.57105e-06 -5.28796e-05 
9.78498e-06 -1.15008e-05 -3.65061e-05 1.01973e-05 1.129e-06 -6.8229e-06 -8.72869e-06 -6.6531e-06 1.76396e-05 
-1.06806e-05 -1.71076e-05 2.14394e-05 -2.17782e-05 -1.96261e-05 2.10465e-05 -2.5997e-05 -2.89112e-05 5.09927e-05 
-3.51114e-05 -3.61265e-05 5.14163e-05 -2.24146e-05 -1.61944e-05 3.1089e-05 6.19244e-07 6.83097e-06 3.20105e-05 
-1.49753e-06 -0.0617613 0.0102169 -0.00859211 0.00148193 0.00848784 -0.00749856 0.000460847 0.00180977 
-0.00166034 0.000246146 0.000679478 -0.000859358 0.000192475 0.000366034 -0.000957863 0.000107218 0.000207055 
-0.000748039 7.71327e-05 0.000126167 -0.000439261 6.3266e-05 6.76997e-05 -0.00017498 6.50683e-05 5.66804e-05 
-0.000261227 5.77897e-05 4.40239e-05 -0.0002332 5.34193e-05 2.63221e-05 -0.000195412 4.5871e-05 2.34923e-05 
-0.000159486 7.06956e-05 -8.24702e-07 -0.000154922 3.57766e-05 3.80905e-05 -0.000115408 1.11628e-05 -2.05268e-06 
-9.36113e-05 -4.53741e-06 -3.46555e-06 -6.82378e-05 -1.61045e-05 -1.47701e-05 -3.61542e-05 -2.67061e-05 -2.12365e-05 
-5.76852e-06 -3.57409e-05 -3.11331e-05 1.98381e-05 -3.89057e-05 -3.57989e-05 4.63453e-05 -4.36303e-05 -4.12286e-05 
7.4675e-05 -4.68973e-05 -4.38993e-05 9.42714e-05 -4.27646e-05 -4.12469e-05 0.000107458 -4.24274e-05 -3.54723e-05 
0.000104749 -3.42815e-05 -3.28248e-05 9.8307e-05 -2.35514e-05 -2.88893e-05 8.60869e-05 -7.66962e-06 -1.79377e-05 
7.27153e-05 5.61488e-06 -4.05213e-06 4.26845e-05 1.58832e-05 6.06001e-06 1.3499e-05 2.2146e-05 1.42276e-05 
-1.93952e-05 3.28311e-05 2.46984e-05 -5.30712e-05 3.69114e-05 3.38359e-05 -7.38554e-05 3.63853e-05 3.6951e-05 
-8.77841e-05 3.71997e-05 4.024e-05 -8.83464e-05 3.0143e-05 3.57837e-05 -8.16171e-05 2.53938e-05 3.40383e-05 
-6.8417e-05 1.63076e-05 2.30812e-05 -4.91139e-05 6.32979e-06 1.22819e-05 -2.71378e-05 -3.41479e-06 2.50797e-06 
-3.87096e-06 -1.37515e-05 -4.68738e-06 1.32851e-05 -1.99022e-05 -1.03815e-05 2.73238e-05 -2.8279e-05 -2.29639e-05 
4.72631e-05 -2.58616e-05 -2.8792e-05 5.09048e-05 0.0460594 -1.10372e-05 -2.72103e-05 3.3507e-05 -1.56175e-05 
-2.41049e-05 2.01645e-05 -1.12931e-05 -1.79824e-05 2.67428e-05 -9.37579e-06 -1.4086e-05 2.35987e-05 3.36518e-07 
-4.76911e-06 1.63135e-05 6.54617e-06 2.92922e-06 7.99127e-06 1.30851e-05 9.43083e-06 -4.13743e-06 2.13447e-05 
1.92495e-05 -1.90974e-05 3.2628e-05 2.79008e-05 -4.55524e-05 3.92544e-05 3.69031e-05 -7.12026e-05 3.46461e-05 
3.82256e-05 -8.50362e-05 4.06877e-05 3.68967e-05 -5.24886e-05 3.5486e-05 3.30226e-05 -5.07413e-05 2.18506e-05 
2.27943e-05 -4.69096e-05 1.43821e-05 1.88374e-05 -3.32714e-05 -4.13008e-07 2.89607e-06 -2.17072e-05 -1.18413e-05 
-1.66936e-05 1.87199e-07 -2.10715e-05 -2.55734e-05 1.76187e-05 -2.68337e-05 -3.75657e-05 3.27746e-05 -3.03123e-05 
-4.12777e-05 4.21046e-05 -2.69512e-05 -3.10814e-05 4.78135e-05 -3.10355e-05 -3.73797e-05 5.56294e-05 -2.77692e-05 
-3.61072e-05 5.59653e-05 -2.44246e-05 -3.30481e-05 5.67615e-05 -2.88571e-05 -3.10485e-05 5.30871e-05 -1.92962e-05 
-2.51e-05 4.41248e-05 -7.25183e-06 -1.79166e-05 3.14422e-05 1.14291e-06 -6.10124e-06 1.87618e-05 1.16992e-06 
1.37783e-05 2.59508e-06 1.28753e-05 1.7544e-05 -1.3928e-05 1.18983e-05 2.13087e-05 -2.88096e-05 1.46079e-05 
3.40422e-05 -4.0291e-05 1.53315e-05 4.77544e-05 -4.88352e-05 2.93278e-05 4.92062e-05 -5.37115e-05 3.63475e-05 
5.93944e-05 -7.50229e-05 5.83491e-05 7.01785e-05 -8.46786e-05 8.61098e-05 9.8671e-05 -0.000117556 0.000138118 
0.000156204 -0.000136126 0.00022465 0.000179992 -0.000194708 0.000396257 0.000275416 -0.000295487 0.000892914 
0.000463514 -0.000446313 0.00198783 0.000693513 -0.000792813 0.00234345 0.00277364 -0.00182273 0.00304641 
0.00175311 -0.00538357 -0.00978192 0.0100448 0.016262 0.00146771 0.0151925 -0.0146804 -0.00619928 
0.00783357 -0.00958801 0.0231549 0.0244185 -0.00385033 0.0210712 0.0275789 -0.0130343 0.0196092 
0.0106056 -0.0506736 0.0176958 0.0197545 -0.0118536 0.0177731 0.0168713 -0.0117605 0.0154331 
0.0151143 -0.0124944 0.0117155 0.0136934 -0.0120949 0.0142711 0.0136541 -0.0104244 0.0156069 
0.0166812 -0.0113933 0.0140487 0.0150224 -0.0104149 0.0153033 0.0165532 -0.00997162 0.0150315 
0.0150891 -0.00938239 0.0155656 0.0163271 -0.0103384 0.0144096 0.0151761 -0.0105524 0.0153117 
0.0137182 -0.0104502 0.0132448 0.0137245 -0.0113553 0.0163341 0.0148923 -0.0106769 0.0164595 
0.0144844 -0.0114192 0.0171442 0.0160354 -0.0121387 0.0200517 0.0169642 -0.0121939 0.0199525 
0.0175808 -0.0130883 0.0215228 0.0167176 -0.0107983 0.0321887 0.0287317 -0.00828376 -0.0488141 
0.0139267 0.00340205 -0.006749 0.0277295 0.00609291 0.00808165 -0.0160994 -0.000284999 0.00374458 
-0.00491883 0.00125077 0.00216138 -0.00129203 0.00105887 0.00136291 -0.00074075 0.00081238 0.0012502 
-0.000686492 0.000807064 0.00104156 -0.000601259 0.000800521 0.000776723 -0.000502106 0.00113615 0.000723916 
-0.0007328 0.00126304 0.000625184 -0.000774435 0.00234646 0.000614135 -0.00114267 0.00300563 8.25294e-05 
-0.00125029 0.00575121 0.000872174 -0.00211443 0.0108199 -0.00500833 -0.00212488 -0.00197009 0.0615682 
-0.0105805 0.0117597 0.00266528 0.00393195 -0.00413829 0.000771774 0.00263747 -0.00170692 0.000488407 
0.00145156 -0.00144024 0.000838533 0.00155992 -0.00101198 0.00089323 0.00148643 -0.000705182 0.00103715 
0.00138481 -0.000581413 0.00121137 0.00131008 -0.000589578 0.00143925 0.00154225 -0.00061923 0.00135196 
0.000843686 -0.000855176 0.0019471 0.000819584 -0.00121975 0.00431429 0.00280399 -0.00223246 0.00915115 
0.0114818 -0.00442171 0.0411911 0.000258354 -0.0094494 -5.28454e-06 0.0185051 -0.00548145 -0.0814975 
0.0291199 -1.42658e-05 -3.06029e-05 -0.00964717 -0.00875274 0.0464206 -0.0884052 -0.0232983 -0.0171152 
-0.00412718 0.0613306 -0.0795381 -5.02463e-05 -0.0180047 3.71965e-05 -1.34622e-05 -1.92557e-05 -3.41492e-05 
1.28852e-05 -9.86171e-06 2.02743e-05 -1.91897e-05 -2.16407e-05 -1.2005e-05 6.62153e-06 3.16877e-05 -3.97305e-06 
1.93411e-05 1.39625e-05 1.52476e-06 5.34602e-06 3.30429e-06 8.49677e-06 5.92707e-06 -1.8517e-05 1.43876e-05 
2.03242e-05 -3.5209e-05 5.59587e-05 3.62442e-05 -5.30842e-05 6.67694e-05 3.21134e-05 -7.34868e-05 6.70494e-05 
2.95321e-05 -9.1121e-05 6.6696e-05 3.26297e-05 -9.68763e-05 5.79594e-05 2.76969e-05 -0.000101689 4.58939e-05 
2.69913e-05 -8.78539e-05 3.73264e-05 1.90973e-05 -7.17776e-05 2.43864e-05 1.75943e-05 -5.18102e-05 1.46598e-05 
5.5969e-06 -3.21354e-05 6.68868e-06 1.05513e-05 -1.71298e-05 6.34333e-07 -1.19502e-06 2.85291e-06 -3.57006e-06 
-1.10597e-05 1.60989e-05 -5.96725e-06 -2.76676e-05 1.97468e-05 -9.75132e-06 -2.80434e-05 1.93823e-05 -1.89098e-05 
-3.66365e-05 3.68143e-05 -1.36661e-05 -3.08894e-05 3.18352e-05 -0.00016671 0.00109611 -1.19025e-05 -1.48504e-05 
-0.0404927 0.0102448 -0.000364127 0.00247324 -0.000873037 -0.00269784 -0.00476166 -0.00208322 -0.00181547 
5.03228e-05 0.000879803 -0.000645473 0.000106707 0.000721859 -0.000761225 0.000159165 0.00045806 -0.000571952 
5.67136e-05 0.000245756 -0.000439227 8.17076e-05 0.000135413 -0.000313938 8.17041e-05 0.000160589 -0.00025657 
7.66366e-05 0.000124884 -0.000224212 6.88424e-05 8.49636e-05 -0.000194949 5.73075e-05 5.751e-05 -0.000169236 
4.38768e-05 3.48388e-05 -0.00013941 3.25284e-05 2.31058e-05 -0.000111839 1.87179e-05 6.58919e-06 -8.26701e-05 
7.94928e-06 -8.86885e-06 -5.06203e-05 -3.98297e-06 -2.72776e-05 -2.84249e-05 -1.17717e-05 -5.12167e-05 -1.05395e-05 
-1.36007e-05 -5.98272e-05 9.3451e-06 -1.65508e-05 -7.41012e-05 3.13598e-05 -2.1825e-05 -7.99898e-05 4.48812e-05 
-2.46905e-05 -8.39903e-05 5.35457e-05 -2.63006e-05 -7.88605e-05 5.89405e-05 -2.22079e-05 -7.21021e-05 6.50671e-05 
-1.77315e-05 -6.04745e-05 6.69797e-05 -1.25716e-05 -4.64754e-05 6.02073e-05 -4.3917e-06 -2.8383e-05 4.09308e-05 
4.97505e-06 -5.46457e-06 1.92489e-05 1.10176e-05 1.5663e-05 -3.91731e-06 1.47009e-05 3.73635e-05 -2.64303e-05 
1.62809e-05 5.64187e-05 -4.98146e-05 1.72633e-05 6.72979e-05 -6.29169e-05 1.65876e-05 7.27021e-05 -6.72854e-05 
1.25877e-05 7.11608e-05 -6.22367e-05 9.54055e-06 6.37295e-05 -5.1844e-05 6.21746e-06 4.9637e-05 -3.82432e-05 
3.68439e-06 3.33699e-05 -1.70046e-05 -6.4451e-07 1.69225e-05 1.90267e-06 -8.54145e-06 -1.04262e-06 1.35752e-05 
-2.82817e-05 -9.82171e-06 1.91752e-05 -2.6793e-05 -1.28236e-05 3.38507e-05 -4.27606e-06 -8.33134e-06 3.03468e-05 
0.00363958 -0.00118975 0.0143917 -0.0158233 -0.00842736 0.00383532 -1.3041e-05 -1.61249e-05 1.86622e-05 
-5.65249e-06 -1.35861e-05 1.8072e-05 -3.21041e-06 -9.11397e-06 1.58077e-05 5.83082e-06 -3.35086e-06 1.0175e-05 
6.55833e-06 1.74571e-06 -2.69412e-06 2.7689e-05 6.18442e-06 -9.89028e-06 4.41838e-05 1.42773e-05 -2.2716e-05 
5.93085e-05 1.13911e-05 -4.10737e-05 5.06868e-05 1.42535e-05 -5.79796e-05 3.88527e-05 2.15003e-05 -4.42256e-05 
3.49108e-05 2.12407e-05 -3.73156e-05 2.86571e-05 1.61128e-05 -3.34116e-05 1.07761e-05 1.7066e-05 -2.52805e-05 
6.6638e-06 7.10439e-06 -1.71924e-05 7.00355e-07 -5.41965e-06 -2.24147e-06 -8.75357e-06 -1.91732e-05 1.24068e-05 
-1.40273e-05 -2.38791e-05 2.00557e-05 -1.49948e-05 -2.8267e-05 2.51593e-05 -2.05465e-05 -2.49678e-05 3.03303e-05 
-2.0822e-05 -2.86617e-05 3.27663e-05 -2.04968e-05 -2.66189e-05 3.59731e-05 -2.33321e-05 -2.63889e-05 3.50459e-05 
-2.03485e-05 -2.58554e-05 3.41457e-05 -2.3473e-05 -1.25788e-05 2.72547e-05 -1.0173e-05 -1.07764e-05 1.94482e-05 
-2.64067e-06 -2.16222e-06 1.07272e-05 2.41526e-06 1.81396e-05 2.65504e-06 -1.78615e-07 2.69016e-05 -2.08128e-05 
2.72872e-06 3.3234e-05 -2.98966e-05 -3.23069e-06 5.31966e-05 -3.29127e-05 -5.11865e-06 6.43856e-05 -4.94273e-05 
2.63975e-06 7.67234e-05 -6.47286e-05 2.26999e-05 7.20788e-05 -9.61856e-05 4.07299e-05 8.72878e-05 -0.000171576 
0.000102642 0.000111203 -0.000116979 0.000117704 0.000131115 -0.000180289 0.00024627 0.000184932 -0.000216526 
0.000472124 0.000191605 -0.000271857 0.000914411 0.000220344 -0.000390054 0.000962622 0.000458556 -0.000589325 
0.00141174 -0.000112474 -0.00154715 0.00497681 -0.00190517 -0.00223907 0.000873718 -0.00289256 -0.00184566 
-0.00196766 -0.000628366 0.000750047 -4.12942e-05 -0.00317119 -0.0107628 -0.00448648 0.00158017 -0.00612969 
-0.011486 0.00118299 -0.00236472 -0.00195798 3.22096e-05 -0.00266374 -0.00374438 0.000225883 -0.00292641 
-0.00398743 0.000308773 -0.00243727 -0.00363295 0.000427928 -0.00232673 -0.00322678 0.000393968 -0.00208713 
-0.00422413 0.000363909 -0.00218102 -0.00348397 0.00040115 -0.00222128 -0.00343593 0.00037817 -0.00216129 
-0.00260519 0.000381407 -0.00248881 -0.00273637 0.000466884 -0.00271045 -0.0023704 0.000402168 -0.00262375 
-0.00273765 0.000323245 -0.00268816 -0.00307456 0.000395899 -0.00301412 -0.00299657 0.000396721 -0.00331414 
-0.00279299 0.000441153 -0.00364992 -0.00317751 0.000241613 -0.00423248 -0.00243322 0.00044899 -0.00489885 
-0.00228147 0.000521107 -0.00397497 -0.00300678 0.000833811 -0.0150605 0.00490877 0.00959583 -0.0134554 
0.00804456 -0.0277915 0.0019046 0.00150718 -0.00469501 0.000783495 0.00113987 -0.00195706 0.000312371 
0.000586208 -0.00075824 -0.000128287 0.000207585 -0.000359815 -0.000180862 -3.75242e-05 -0.000251949 -6.33244e-05 
-0.000104629 8.42367e-05 -7.56631e-05 -0.000218145 -0.000132207 1.59768e-05 -0.000269728 -0.00020462 0.000233186 
0.000116062 -0.000353301 0.000762927 0.000802245 -0.0014832 0.0012414 0.00239121 -0.00287495 -0.00155481 
0.00643509 0.00110111 -0.00501035 0.00129283 0.000480289 0.000651174 0.000498762 -0.0011737 0.000100328 
0.000298797 -0.000916401 -2.17673e-06 9.05527e-05 -0.000508403 -2.70681e-05 -5.36263e-05 -0.00030087 -2.2616e-05 
-0.00012176 -0.000212153 3.02008e-05 -8.25032e-05 -0.000198138 0.000131107 5.57142e-05 -0.000318224 0.00032973 
0.000545895 -0.000559413 0.000636336 0.00182277 -0.00107587 0.000426488 0.00351333 -0.00184887 -0.00238241 
0.00129342 -0.000978858 -0.034275 0.00799011 -0.00781539 -2.25072e-05 -3.27189e-05 3.79223e-05 2.72746e-05 
0.0028976 -0.00158167 -0.00068742 0.00794815 -0.0111328 0.000640781 -1.79413e-05 -1.95662e-05 2.54358e-05 
-0.00250502 0.000365122 -0.0143124 -0.000472747 1.69242e-05 0.00250082 -0.0010107 0.000848497 0.000679072 
0.000955432 -0.00157543 -0.00393837 0.00640843 -0.00426491 0.00073697 -0.00782808 0.00245154 -0.00106387 
-0.00798868 0.00601611 -0.00122476 -0.00254952 0.00130332 3.78857e-06 9.96159e-07 2.21878e-07 -2.23745e-06 
1.18147e-05 -1.40337e-05 1.81212e-06 1.70341e-05 -8.22032e-06 -1.57064e-05 5.65004e-05 5.92273e-06 -3.94399e-05 
6.32457e-05 1.15773e-05 -5.38365e-05 6.57363e-05 1.83293e-05 -7.88653e-05 6.01737e-05 2.54525e-05 -9.21879e-05 
4.99072e-05 2.59766e-05 -9.32005e-05 3.38491e-05 2.84792e-05 -9.95303e-05 2.67512e-05 2.82372e-05 -6.56364e-05 
1.18045e-05 2.21404e-05 -4.7088e-05 -5.15115e-07 1.60842e-05 -2.51046e-05 -4.45508e-06 6.52479e-06 -1.29445e-05 
-4.56868e-06 1.65418e-05 -6.23887e-06 -6.85564e-06 -5.99234e-07 8.42779e-06 -6.22128e-06 -8.92415e-06 1.43178e-05 
-8.84652e-06 -1.50188e-05 1.64828e-05 -1.65861e-06 -2.28184e-05 1.01658e-05 3.07913e-06 -2.21474e-05 1.05701e-05 
1.7004e-06 0.00266846 -0.00282707 -8.41773e-05 0.000692444 0.00135052 -0.00168522 0.00733455 -0.002901 
-0.000343653 0.000661053 -0.000373011 -0.000733106 -1.39977e-05 6.23205e-05 0.00048631 5.38253e-05 0.000335513 
-0.000327105 5.96312e-05 0.000224648 -0.000269774 5.85614e-05 0.00015883 -0.000220465 5.47732e-05 0.000114786 
-0.000195343 5.16968e-05 8.55068e-05 -0.000175011 3.91667e-05 6.16509e-05 -0.00016588 2.83998e-05 4.33486e-05 
-0.000138558 1.69299e-05 3.17769e-05 -0.000115605 1.04835e-05 2.50681e-05 -9.0838e-05 2.18943e-06 8.86422e-06 
-8.01347e-05 -1.16443e-06 -7.35364e-06 -6.7742e-05 1.45243e-06 -2.08246e-05 -5.11487e-05 1.76196e-06 -2.83592e-05 
-3.33456e-05 4.72449e-07 -3.19836e-05 -2.04453e-05 -2.212e-06 -3.45619e-05 -1.64956e-05 -3.70152e-06 -3.17937e-05 
-1.03588e-05 -2.17631e-06 -2.60011e-05 3.53087e-06 -5.0605e-06 -2.73854e-05 -4.0724e-06 -3.38561e-06 -2.88163e-05 
-1.10619e-05 1.73074e-06 -2.65947e-05 2.59127e-05 5.90916e-06 -1.77232e-05 2.19121e-05 1.35114e-05 -1.96262e-06 
1.16207e-05 1.29013e-05 1.1904e-05 -1.86168e-06 1.27093e-05 2.46193e-05 -1.88412e-05 8.79314e-06 3.58562e-05 
-3.00834e-05 3.44886e-06 4.71857e-05 -3.3137e-05 -1.16678e-06 5.40256e-05 -2.62165e-05 -7.19976e-06 4.99366e-05 
-2.10554e-05 -1.11392e-05 4.1562e-05 -1.09177e-05 -2.01484e-05 3.09701e-05 9.68846e-06 -2.40647e-05 8.46599e-06 
3.53376e-05 -1.49899e-05 1.55652e-06 3.42724e-05 -2.99012e-05 -9.09654e-08 2.11798e-05 -2.33823e-05 -2.86908e-06 
2.74223e-05 7.23762e-06 -5.5708e-07 2.07183e-05 -0.000562627 0.000171831 -1.43648e-05 7.46637e-06 -1.04086e-05 
9.64316e-06 -1.2025e-05 8.45495e-06 2.67282e-05 -4.92702e-06 1.90294e-05 3.59374e-05 -6.23545e-06 1.10852e-05 
5.58389e-05 -5.36405e-06 -9.01053e-07 3.77571e-05 -7.72876e-06 -1.27143e-05 4.1144e-05 3.65257e-06 -3.32097e-05 
3.08874e-05 1.4628e-05 -2.79649e-05 2.57008e-05 1.48128e-05 -2.23496e-05 1.91515e-07 1.3114e-05 -2.06282e-05 
-7.43475e-06 1.64911e-05 -2.01979e-05 -1.07702e-05 1.30402e-05 -1.13953e-05 -8.27908e-07 8.40113e-06 9.97065e-06 
-1.43757e-05 4.33055e-06 1.69009e-05 -1.14137e-05 -7.83806e-06 8.91657e-06 -1.63261e-05 -7.93691e-06 1.21343e-05 
-1.43522e-05 -1.12911e-05 9.16395e-06 -1.84723e-05 -1.43553e-05 1.17099e-05 -1.36663e-05 -1.50213e-05 1.42971e-05 
-1.29959e-05 -1.34265e-05 1.39352e-05 -1.05676e-05 -1.47144e-05 1.13194e-05 -6.4909e-06 -1.2884e-05 1.96988e-06 
1.58915e-05 -2.4949e-05 -6.6861e-06 2.91216e-05 -2.81877e-06 -1.18429e-05 2.41845e-05 1.29377e-05 -3.56591e-05 
1.33013e-05 1.37559e-05 -0.00010979 2.41598e-07 3.91971e-05 -0.00010637 8.64872e-07 6.15056e-05 -3.62585e-05 
9.28669e-06 6.14796e-05 -6.80165e-05 7.90891e-05 6.38701e-05 -0.000145993 5.96847e-05 7.9973e-05 -0.000165679 
0.000130565 7.07195e-05 -0.000114512 9.35363e-05 0.000121028 -0.000133601 0.000206055 8.10676e-05 -0.000284258 
0.000459601 7.41617e-05 -0.00024937 0.000662717 -6.29704e-05 -0.000244166 0.000755101 -0.000105963 -0.000295055 
0.000844465 -0.000378853 -0.000842548 -0.000281481 -0.000612942 -0.00132973 -0.00148649 -0.000460088 0.000446027 
-0.00139202 -7.23861e-05 0.000278575 -0.000809316 -0.00161568 0.0010635 -9.91216e-05 -0.000261733 0.000168724 
-3.14587e-05 0.000196327 0.000186401 -5.13768e-05 5.57964e-05 0.000201292 1.95395e-05 -0.000117179 0.000128247 
-1.63735e-06 -9.55248e-05 6.40935e-05 0.000161769 -0.00017382 5.78063e-05 0.000145949 -0.00019657 0.000107231 
0.000131663 -0.000163261 5.36516e-05 0.000110955 -7.10993e-05 4.57195e-05 5.40541e-05 -2.64695e-05 4.7237e-05 
-3.05213e-05 6.60966e-05 6.05983e-05 -4.7398e-05 5.85853e-05 6.70396e-05 1.78425e-05 -6.94005e-05 7.60107e-05 
-0.000100396 -6.78556e-05 9.79883e-05 -0.000183926 -5.14732e-05 0.00018631 -2.85219e-05 -0.000166884 0.000297806 
-0.000208309 -0.000242758 0.000216413 1.16782e-05 -0.000169404 0.000284775 -0.000540307 -5.96828e-05 0.000523337 
0.000299193 3.00201e-05 -7.2891e-05 0.000144231 0.000235453 0.000312994 2.27517e-05 0.000606993 -0.00045952 
-0.000397986 -0.000614816 0.000766476 0.000512107 -0.00116207 0.000768796 0.000401392 0.000651512 0.00047379 
-0.00104107 0.000383036 0.000391397 -0.000543444 0.00013482 0.000362726 -0.000760238 0.00011861 0.000297111 
-0.00059723 0.000117589 0.000216771 -0.00048033 0.000175999 0.000255188 -0.000638973 0.000368685 0.000789412 
-0.00077797 7.03305e-05 0.000968265 -0.000824702 -0.000364854 0.00114257 -0.000954332 0.00051404 0.000432135 
-0.000452517 -0.00641277 0.00168577 0.000375367 0.000540654 -0.000694404 0.000248911 0.000448417 -0.000612254 
0.000166016 0.00034619 -0.000502516 0.000137572 0.000306042 -0.000422464 0.000133196 0.000334066 -0.000424266 
0.000152195 0.000500235 -0.000465671 0.000207305 0.000815298 -0.000578683 0.000207781 0.00127824 -0.000708213 
-9.38426e-05 0.00155961 -0.000871521 -0.000882854 0.000990967 -0.000214879 0.00124488 0.00259494 -0.00195092 
7.27646e-06 5.77278e-06 1.60569e-05 7.85511e-06 2.65108e-06 -8.42328e-06 1.14904e-05 0.000568549 -0.000569255 
-0.000962397 0.00019512 1.18348e-05 -5.97343e-06 -5.53432e-06 1.01696e-05 -1.95661e-05 -1.42606e-05 -0.00348937 
0.00145437 0.00076716 -0.000398943 -0.000476078 -0.000512332 -0.000636194 -0.000225113 0.0001468 -0.00156633 
9.99245e-06 -0.000775115 0.000993346 -0.000383204 -0.00034433 0.000396115 0.00121792 -0.00430751 -6.89776e-06 
0.00199537 -0.00198457 0.00036527 0.00097382 0.000351183 0.00033285 -0.00070082 0.00161034 0.000946805 
-0.00131453 -0.000731315 0.000774597 0.0010214 -0.000781843 0.000477554 0.000255211 1.14986e-05 -2.07248e-05 
6.6432e-05 -5.67975e-06 6.97246e-05 8.06402e-06 -6.55956e-05 6.22718e-05 1.55197e-05 -8.35464e-05 4.39493e-05 
2.63479e-05 -7.60339e-05 1.03656e-05 2.69902e-05 -7.22284e-05 1.29417e-05 6.30115e-05 -6.28614e-05 4.94789e-07 
2.97416e-05 -3.93489e-05 -1.34551e-05 2.71853e-05 -3.17631e-05 -9.29626e-06 1.91241e-05 1.28488e-06 -9.47158e-06 
2.80262e-05 5.40094e-06 -7.57553e-06 1.52057e-05 2.41213e-05 -8.19847e-06 -3.69035e-06 2.23438e-05 -2.15961e-06 
-7.24615e-06 1.01762e-05 4.31577e-06 -9.19598e-06 1.60735e-06 -1.11025e-05 -4.53645e-05 -4.4453e-05 0.000268419 
-0.000362587 1.68558e-05 -3.11465e-05 4.55992e-05 0.000185761 3.82012e-05 0.000240271 -0.000166758 1.72427e-05 
0.000359145 -0.000197176 5.06508e-05 0.000146102 -0.00013406 4.98866e-05 0.000116274 -0.000128758 4.73471e-05 
0.000101288 -0.000153701 3.03551e-05 7.43448e-05 -0.000156875 1.21599e-05 6.06599e-05 -0.000146116 1.4574e-05 
5.71375e-05 -9.49389e-05 5.6556e-06 5.37698e-05 2.86779e-05 9.1799e-06 4.17666e-05 2.80238e-05 2.37871e-05 
3.43433e-05 1.45172e-05 2.7082e-05 3.14506e-05 -7.97769e-06 2.83988e-05 3.0029e-05 -4.15745e-05 2.75312e-05 
3.25421e-05 -6.43955e-05 2.21487e-05 3.51092e-05 -7.96946e-05 2.52488e-05 3.46126e-05 -9.19662e-05 3.93746e-05 
1.95284e-05 -0.000104388 2.69712e-05 9.33327e-06 -9.02431e-05 3.85788e-06 2.99734e-06 -6.45389e-05 9.91715e-06 
-1.65827e-05 -3.61572e-05 1.94305e-05 -6.12896e-06 9.61819e-07 1.95035e-05 -6.63647e-06 2.86157e-07 1.78898e-05 
7.0807e-06 1.07276e-06 9.20202e-06 9.41171e-06 -2.61331e-06 -9.97947e-06 2.12317e-05 -3.82269e-05 -1.87605e-05 
3.10768e-05 7.74179e-06 -2.76165e-05 3.17455e-05 4.30409e-05 -3.90298e-05 2.78286e-05 5.61315e-05 -5.41291e-05 
1.53899e-05 5.96651e-05 -4.80217e-05 6.92466e-06 6.62586e-05 -3.42443e-05 -8.88334e-07 6.83555e-05 -3.20203e-05 
-2.0504e-06 4.9683e-05 -2.70884e-05 -1.48259e-06 2.95588e-05 -7.19397e-06 -1.17112e-06 1.7701e-05 -0.000286534 
0.000284942 0.0027122 -0.00165987 -4.72374e-05 -0.000156032 -8.78054e-05 -7.28467e-05 -0.000148576 0.000166826 
0.00228708 -0.00100772 -7.93608e-06 0.000121511 -9.49793e-05 8.6605e-06 -1.45351e-05 1.68347e-05 5.16975e-06 
-2.40334e-05 1.16321e-05 3.75059e-05 -3.65491e-05 4.55451e-05 2.729e-05 -3.00277e-05 3.51501e-05 3.71025e-05 
-1.07676e-05 -2.23046e-06 2.48197e-05 -2.75495e-06 -2.6155e-05 2.61092e-05 4.33523e-06 -1.48634e-05 5.04133e-06 
1.68133e-05 2.51288e-07 -1.99202e-05 1.83694e-05 -2.99378e-05 -2.31908e-05 3.99696e-05 -5.15222e-06 -1.74005e-05 
3.09734e-05 6.92556e-06 -1.34215e-05 1.14317e-05 2.05923e-06 -3.60952e-07 1.73745e-05 6.72351e-06 -1.46939e-05 
1.61547e-05 -2.47982e-05 -1.18907e-06 9.86231e-06 -2.48157e-05 -7.22612e-06 1.07284e-06 -6.96099e-05 -1.37202e-05 
2.47306e-06 -7.70875e-05 -5.82451e-06 2.02326e-06 -4.65303e-06 -3.17827e-06 -6.83028e-06 -3.3871e-05 7.73048e-06 
-7.81734e-06 -1.76418e-05 -9.46838e-06 -3.96346e-05 4.22738e-05 1.03658e-05 -1.65248e-05 7.93799e-05 0.000113863 
1.62119e-05 1.04574e-05 8.53988e-05 4.26806e-05 -6.54464e-05 3.27468e-05 3.98391e-05 -8.11468e-05 1.34254e-05 
1.78168e-05 -8.95805e-05 6.04719e-05 5.85736e-05 -4.45613e-05 0.000101266 6.20223e-05 -0.000122392 8.79059e-05 
4.78391e-05 -0.000132079 0.000123652 1.6814e-05 -0.000142536 0.000109502 5.07471e-05 -8.43e-05 0.000140754 
9.4887e-05 -0.000212839 0.000321563 -1.14941e-05 -0.00030322 0.000467825 -0.00018269 -0.000232493 0.00053259 
-0.000376819 -0.000162708 -0.000320465 -3.41817e-06 -1.50203e-06 -0.000485469 -0.00030455 -0.000279264 -4.21644e-05 
-5.09842e-05 -1.36967e-05 0.000373037 0.000692672 -0.000144475 -0.00116187 0.00038702 -0.000461026 0.000517329 
-0.000250584 -0.00197658 0.000482658 -0.00011354 9.25391e-05 0.000197877 -9.27724e-05 -7.48006e-05 -0.000151102 
0.000266277 -5.31743e-05 -0.000130514 6.58146e-05 -2.6217e-05 -3.34248e-05 6.24248e-05 -1.87921e-05 -8.50327e-05 
0.000161192 -4.15797e-06 -7.11941e-05 0.000102227 -9.80492e-06 -1.70838e-05 4.59331e-05 -3.33631e-05 -3.42373e-06 
3.92333e-05 -5.42277e-05 1.6268e-05 6.58892e-05 -5.13084e-05 1.15766e-05 4.89279e-05 -4.97948e-05 -6.28527e-06 
8.65664e-05 -0.000124768 -3.82915e-05 0.000160705 -0.000180347 -9.53299e-05 0.000280628 -0.000176031 -6.69362e-05 
0.000388874 -0.000217311 -0.000196586 0.0004268 -6.93902e-05 -1.88127e-05 -0.00019463 3.4555e-05 -1.39685e-05 
-2.62491e-05 -8.35139e-05 0.000110303 -8.56314e-05 0.000129023 0.000180256 -0.0001405 -0.000290999 2.05807e-06 
-9.12983e-06 1.7474e-06 7.30174e-06 -3.71181e-05 2.32577e-05 -1.13209e-05 -0.00112496 0.001549 0.000254329 
0.000175035 7.81508e-05 0.000593129 0.000115703 -0.000704237 0.000368068 0.000163058 -0.000722882 0.000340476 
0.000209656 -0.000443263 0.000321609 0.000231617 -0.000531753 5.64318e-05 0.000758779 -0.000732036 7.59813e-05 
0.000711864 -0.000327355 -2.65262e-05 0.000785204 -0.000419595 7.42628e-05 1.62085e-05 -9.76962e-05 0.000213801 
0.000318038 0.000200007 0.000335679 -0.000401052 0.000178844 0.000354951 -0.000470267 0.000144366 0.000405273 
-0.000467443 0.000120566 0.000485105 -0.000500187 0.000102763 0.000635335 -0.000503663 6.11128e-05 0.000715289 
-0.000423956 -3.72294e-05 0.000653182 -0.000374551 -0.000235106 0.000153403 -0.000130814 0.00184188 0.000235517 
-0.000668147 -0.000571399 0.000218322 0.00140524 0.00032427 8.3521e-05 -0.000316157 -0.000412133 0.000215563 
0.000203621 -0.000416838 -0.000258397 -9.06368e-05 -4.94673e-06 9.59679e-06 -0.000543096 0.000500262 0.000257005 
-0.000339793 1.39328e-05 -0.00146468 -0.000529886 7.49539e-06 -0.000324612 -0.000378522 1.07529e-05 -2.64586e-06 
-2.3347e-06 -0.000213705 -5.37239e-05 0.000304499 0.000142538 -0.000541924 0.000128451 1.0601e-05 -0.000759141 
0.000494826 -0.000237015 0.000368405 -0.000596621 -3.12615e-05 2.05574e-05 9.04814e-09 -6.23491e-06 5.56492e-05 
0.00038201 -0.000354666 -0.000189779 0.000786939 -0.00166514 7.20159e-05 -0.000209518 0.00080741 0.000516242 
-0.000313089 -0.000104909 -0.000223886 0.00110852 -0.000505378 0.0010681 0.000186713 -0.00206246 0.000363226 
-5.96902e-05 0.000345558 -0.000228536 6.73239e-05 -8.93135e-06 1.59717e-05 5.30429e-05 -6.87565e-06 1.80721e-05 
1.71031e-05 -2.80835e-05 9.09297e-05 6.49377e-07 -2.46062e-05 3.84997e-05 -7.14483e-05 -2.6076e-05 4.7791e-05 
-1.18275e-05 -3.91954e-05 1.00682e-05 -1.29929e-05 -3.2994e-05 1.10145e-05 1.58609e-05 -8.3562e-06 8.03691e-06 
1.32653e-05 -7.60912e-07 -1.00126e-05 5.61248e-06 -5.37866e-06 0.000207463 -4.23658e-05 -7.05573e-06 -0.000343718 
4.42803e-05 4.23092e-06 1.58647e-05 8.33251e-05 1.96389e-05 6.3987e-05 4.25572e-05 5.87737e-05 -0.000119643 
-5.68481e-06 5.62337e-05 2.70455e-05 8.07005e-06 5.31365e-05 -8.90852e-05 -4.65839e-06 6.40564e-05 0.000103376 
1.48921e-05 1.96802e-05 1.16952e-05 4.86867e-05 1.56273e-05 -3.38742e-05 9.88434e-05 2.51041e-05 -5.62816e-05 
0.000136719 2.18264e-05 -0.000151267 0.000150586 2.27333e-05 -0.000309819 0.000162356 4.85567e-05 -0.000284968 
0.000163529 5.90132e-05 -0.000213139 0.000144288 5.47388e-05 -0.000190789 0.000108688 4.79766e-05 -0.000196201 
7.79015e-05 3.78884e-05 -0.00016652 4.76036e-05 1.26732e-05 -0.000119882 5.51031e-05 -1.69482e-05 -6.93724e-05 
5.974e-05 -3.71268e-06 -4.58836e-05 5.6161e-05 -2.67307e-05 -8.79958e-05 9.07264e-06 -1.22229e-05 0.000105938 
-1.64205e-05 8.54392e-07 -5.15621e-05 -7.55264e-05 8.87186e-06 -6.5172e-06 -0.000107866 1.83078e-05 8.90998e-05 
-8.41668e-05 9.78068e-06 0.000164993 -9.25369e-05 -1.35418e-05 9.10564e-05 -7.27184e-05 6.41848e-06 3.89716e-05 
-5.57245e-05 -2.62685e-06 0.000105856 -3.18748e-05 -5.71875e-06 8.71174e-05 -2.00456e-05 -5.29339e-06 2.43713e-05 
1.45163e-06 -0.000150613 0.000767547 8.36627e-06 -9.79266e-05 -1.59057e-06 -1.8224e-05 -0.00015926 -0.000160085 
-2.38608e-06 -3.22872e-05 6.82279e-05 -5.12382e-06 -3.37195e-05 3.85219e-05 3.12947e-05 -5.04865e-05 9.2335e-05 
1.5102e-05 -1.44089e-05 9.92408e-06 1.23027e-05 -8.10999e-06 -2.2902e-05 3.3195e-05 -2.45222e-06 5.00446e-05 
-1.63818e-05 7.75474e-06 7.80937e-06 2.42637e-05 5.20078e-05 -4.82052e-06 1.35955e-05 5.56466e-05 -3.52615e-05 
-3.35587e-05 2.86526e-05 -4.35202e-06 1.00361e-05 5.10934e-05 1.34614e-05 3.06121e-05 4.55282e-05 -2.68386e-05 
3.34436e-05 4.15623e-05 -0.000129937 9.78782e-05 3.33471e-05 -0.000115398 3.23144e-05 3.08687e-05 -0.000106593 
1.95174e-05 5.34197e-05 -0.000199892 -1.67689e-06 4.56523e-05 -0.000143345 4.24198e-05 -2.8564e-05 1.37364e-05 
5.97997e-05 1.84853e-05 -4.92038e-05 2.0056e-05 -0.00010444 1.51332e-05 0.000108871 5.51549e-05 2.36366e-05 
-5.38778e-06 -0.000198291 -3.29139e-05 3.68345e-06 -6.29258e-05 8.70765e-05 2.35699e-05 -1.62958e-05 8.21155e-05 
4.9529e-05 -3.81166e-05 8.31899e-05 2.35175e-05 -4.98898e-05 0.000108488 2.84958e-05 -3.68369e-05 9.41522e-05 
-1.27476e-05 -1.76668e-05 0.000114352 4.51455e-05 -0.00013413 0.000123731 -4.25975e-05 -0.000206182 0.000332431 
9.37823e-05 -7.36382e-05 0.000292995 -0.000383454 0.000325962 -0.000158049 -0.000220978 -7.87804e-05 2.71624e-05 
1.7616e-05 -0.000284026 0.00025198 -0.000932759 0.000131867 0.000204494 0.000483632 -3.31946e-06 -0.000113392 
7.7755e-05 -3.92942e-05 -0.000142777 0.000111386 -2.67078e-05 -7.14648e-05 5.54873e-05 -6.93499e-05 -2.26966e-05 
8.527e-05 -9.32286e-05 -2.94224e-05 6.61741e-05 -7.65736e-05 9.98553e-06 9.49418e-05 -0.000173119 -1.1081e-05 
0.000104163 -0.000167844 -5.64515e-05 0.000223185 -0.000197998 -6.8717e-05 0.00027654 -0.000307056 -1.81368e-05 
0.000261383 -0.000338045 -6.28878e-05 0.000410994 0.000608142 -0.00038794 0.000897433 0.000176727 -0.000279597 
-7.69327e-05 8.67547e-05 -3.88173e-05 0.000174093 -9.94953e-05 7.78162e-05 7.64758e-05 -9.7908e-06 -4.16639e-05 
-5.17293e-06 0.000105598 -1.74236e-05 0.000164529 0.000258267 -2.3788e-05 -1.15701e-05 0.000314306 -7.58341e-05 
0.000320955 0.000253079 -0.000122161 0.000151783 0.00021643 -0.000160922 0.000220404 0.000212089 -0.000135125 
4.20416e-05 0.000319921 -0.000291644 -9.64314e-05 0.000336553 -0.000181436 -4.96215e-05 0.000229722 -0.000116653 
3.79296e-06 1.93734e-05 2.63266e-05 5.12427e-05 -3.28172e-06 -4.60498e-05 0.00013031 -2.69904e-05 -0.000167668 
-4.84405e-06 -8.23669e-05 -0.000947844 0.000623488 0.000174862 0.000341296 -0.000490967 0.000154723 0.000371227 
-0.000436295 0.000130353 0.00042535 -0.000410495 9.46764e-05 0.000437795 -0.000445961 4.64406e-05 0.000431751 
-0.000407796 2.74868e-05 0.000294823 -0.000362709 -4.02945e-05 0.000163051 -6.97872e-05 3.81922e-05 1.31159e-05 
-3.50254e-05 7.63977e-05 1.69617e-05 -4.46198e-05 -0.000109575 -5.592e-05 0.000483749 -0.000512053 0.000981705 
-0.0010854 -0.000146978 0.000454054 -1.26169e-06 3.66075e-05 -0.000517869 0.00022397 8.77172e-06 -0.000165882 
-0.000209788 -0.000126988 0.000132835 8.98254e-05 1.35025e-05 1.23993e-05 9.92535e-05 1.1553e-05 -3.72771e-05 
-4.86613e-05 -6.6036e-05 0.000252205 -2.03892e-05 0.000136409 -6.76738e-05 8.87124e-07 2.63608e-05 -7.92076e-05 
6.12773e-05 0.000373719 5.31181e-07 -1.16536e-05 4.14492e-05 -0.000410884 7.86979e-05 0.000199495 -0.000364156 
-0.000163777 0.000165369 -0.000120504 0.00031513 -0.000149166 0.00121892 -0.00107794 -0.000539641 -0.000327996 
0.00034206 -0.000182899 -8.71134e-05 -0.000119955 0.000146733 -6.22495e-05 -3.17807e-05 4.12439e-05 -6.32154e-05 
-0.000258864 2.83966e-05 -1.02388e-05 -4.58933e-06 6.79177e-05 -0.000247632 -0.000169664 -9.78418e-05 0.000479422 
-0.000175605 0.000566237 -0.000170641 0.000302454 -1.30854e-06 0.00141826 -0.000338345 -0.000392058 -0.000115273 
-0.000375447 4.9042e-05 -2.08227e-05 7.15707e-05 -3.38682e-05 8.84017e-05 -4.48037e-06 2.12976e-05 -4.74111e-05 
-3.33354e-05 0.0388648 -9.16111e-06 2.53506e-05 7.75938e-06 -9.74841e-05 -3.31561e-05 -4.96931e-05 4.46299e-05 
-2.56555e-05 1.41979e-05 -3.27399e-06 0.000233784 -8.36605e-05 -6.37955e-06 8.21644e-06 8.16691e-06 7.54866e-05 
6.52983e-05 1.83483e-05 0.000186286 4.77512e-05 0.000141819 8.03063e-05 0.000153387 0.000206711 9.45538e-05 
0.00013329 5.92923e-05 9.72712e-05 0.000105043 0.000101439 8.94907e-05 7.00299e-05 3.32654e-05 1.35375e-05 
-8.43219e-05 1.75933e-05 -0.000205301 2.53458e-05 0.000132036 -0.000143631 2.44958e-05 0.000246462 -1.11392e-05 
6.31041e-05 9.39213e-06 -5.69579e-05 -6.36445e-05 -2.07055e-05 3.65888e-05 -2.72696e-05 4.23321e-06 6.80862e-05 
6.20521e-05 7.94054e-06 -0.000352385 0.000516261 5.6242e-05 0.000126152 5.9309e-06 2.65449e-05 -9.82982e-05 
-2.49659e-05 -0.000252965 0.00013349 -2.15211e-05 4.47933e-05 -2.86893e-05 -1.20202e-05 -6.20719e-05 -7.89036e-06 
-8.97014e-06 2.59166e-05 -8.03895e-05 7.37829e-05 -1.01486e-05 3.87487e-05 2.24796e-06 -3.94651e-05 7.19169e-05 
-4.39204e-05 -1.8649e-06 5.31027e-05 0.000196661 7.69098e-05 -6.29849e-05 0.00010259 0.000116862 -6.3178e-06 
-0.000129844 9.72654e-05 -4.68783e-05 -0.000130159 7.8043e-06 -0.000140597 0.000133813 -3.6853e-05 5.33702e-05 
-0.000187236 -4.91901e-05 -0.000731141 -2.98861e-05 0.000521846 -4.68211e-05 0.000457502 1.10357e-05 -0.00057837 
0.000228926 0.000268537 9.10157e-05 7.03583e-05 -0.000228911 -4.23834e-05 -3.55791e-05 1.30734e-05 6.62243e-05 
-0.000109784 1.34779e-05 -0.00014019 -2.83303e-06 -1.61086e-05 2.07159e-05 -0.000128363 -1.9692e-06 -0.000227828 
-6.73487e-05 0.000200666 -0.000106005 -3.30882e-05 6.04753e-05 -8.49658e-05 1.80763e-05 0.000254165 0.000476007 
0.000180062 -0.000139923 2.56056e-06 0.000218725 -2.19153e-05 3.66151e-05 -0.000175044 2.28144e-06 0.000260405 
-9.05118e-05 0.000157809 -7.9478e-05 0.000215841 -4.86764e-05 2.38201e-05 5.07354e-06 -6.12536e-05 -0.00018005 
-6.3366e-05 -0.000208508 0.000369628 5.88413e-05 1.21353e-05 0.000110836 -0.125131 -3.90804e-05 -4.30728e-05 
8.1897e-05 -3.38168e-05 -0.000303222 0.000207789 0.00013318 -3.66324e-05 2.33257e-05 -6.35508e-05 6.70547e-05 
1.51884e-05 -5.3822e-05 2.50798e-05 -9.03295e-06 1.09388e-05 -0.00019901 0.000137902 -0.000155432 5.56727e-05 
-4.46645e-05 -3.06913e-05 2.60207e-05 9.1872e-06 -0.000144614 0.000218734 1.57238e-05 5.06343e-05 -3.12987e-05 
-8.36137e-06 0.000127131 -7.02459e-06 -1.14162e-05 -5.65247e-05 2.26074e-05 -4.35176e-05 -9.20311e-05 -1.5878e-06 
-5.37372e-06 0.000309851 -1.97431e-05 -9.79933e-05 -1.85338e-05 6.3424e-07 -9.49229e-06 3.42554e-05 4.95461e-05 
-2.20463e-05 1.23133e-05 4.34591e-05 -6.55727e-05 2.38469e-05 5.24607e-07 -2.89219e-05 6.71956e-05 -5.31481e-05 
1.61638e-05 -8.59137e-05 3.49979e-05 8.11569e-05 8.57397e-05 0.000235408 0.000101849 0.000109876 9.08641e-06 
-2.766e-05 6.58778e-05 -1.0463e-05 4.05509e-05 -0.000152082 -1.2328e-05 -0.00746168 -0.00396616 -4.37463e-05 
-9.55694e-05 -9.73698e-05 -2.58225e-05 0.000160815 -8.36248e-05 -0.000339959 -0.00258671 -0.000917085 4.97252e-05 
-7.92777e-06 0.000499633 -0.000265043 0.000234596 0.00200885 -0.000686187 5.52739e-05 0.00128648 -0.00127712 
-5.3351e-05 -1.53282e-06 0.0001161 -0.00010942 2.92634e-06 4.62534e-05 -4.40543e-05 0.000134201 4.13638e-05 
-3.4838e-06 0.000120782 1.02914e-06 0.000487651 -0.000123504 0.000153978 -3.43029e-05 -2.06632e-05 0.00064823 
-0.000532685 2.8724e-05 7.75684e-05 2.71294e-05 0.000614039 -0.000452521 -0.000188162 -0.00081501 8.59533e-05 
0.000952346 -0.000516222 -0.000170044 -2.85649e-05 2.01098e-05 0.000151974 3.97608e-05 -8.78769e-05 0.000117182 
0.000223175 -5.25224e-05 5.47982e-06 8.60823e-05 -5.81598e-05 -2.03204e-05 8.22106e-05 2.01814e-05 -0.000139586 
-5.70269e-05 -0.000315108 0.000455841 -0.000419176 2.35365e-05 -6.02435e-05 -6.62677e-05 -2.39216e-06 -0.000171223 
-0.00010551 0.00128111 -0.000533366 8.65769e-05 -0.000182333 -1.96372e-05 -0.000132736 0.000210349 -0.000129124 
-0.000139726 -2.90497e-05 -0.000333522 -0.000209727 -3.96308e-05 -0.000143595 -0.000124301 -2.43146e-05 5.83361e-05 
-7.80803e-05 -8.62939e-05 -7.82961e-05 -0.00027092 -6.40354e-05 -2.40259e-05 0.000280782 9.44184e-05 -0.000234912 
-0.0012973 0.00196678 -2.57232e-06 -0.00226925 0.000836744 -8.4599e-06 1.68613e-05 -7.06884e-05 0.000105852 
2.07891e-05 0.00039071 -2.2234e-05 7.28443e-05 0.00017853 -0.000123317 -3.97326e-05 -9.1078e-05 -9.06602e-06 
-0.000131928 -0.00132625 -0.000559942 0.000173436 -0.000199858 -8.95156e-05 2.58816e-05 -4.76584e-05 -0.000116034 
-0.000121148 -0.000118862 0.000367754 -2.33563e-05 -0.000144119 0.00048392 -0.000367341 -0.000210899 4.1338e-05 
0.000148382 5.59422e-05 -0.000998525 0.0029358 -0.0185676 0.000412084 0.00939692 -0.00096748 -6.39636e-06 
0.0748616 -0.0303492 -4.86243e-06 3.6006e-05 1.76574e-05 4.63022e-05 2.14541e-05 3.25079e-05 1.52349e-05 
2.67074e-05 1.12897e-05 1.72773e-05 4.41744e-06 6.26516e-06 -9.09916e-08 -4.75304e-06 -6.19934e-06 -1.9051e-05 
-1.19118e-05 -3.74839e-05 -1.82653e-05 -5.34561e-05 -2.06752e-05 -6.03314e-05 -2.33776e-05 -6.74635e-05 -2.45559e-05 
-6.57935e-05 -2.33996e-05 -5.67471e-05 -1.96645e-05 -3.86306e-05 -1.25296e-05 -2.61109e-05 -3.71414e-06 2.03414e-07 
8.05448e-06 2.22956e-05 1.29699e-05 4.14446e-05 2.14147e-05 5.33355e-05 2.55895e-05 4.83318e-05 2.81994e-05 
4.95746e-05 3.22958e-05 4.86231e-05 3.37621e-05 4.47064e-05 3.03651e-05 4.51456e-05 2.63594e-05 4.31137e-05 
2.03118e-05 2.97312e-05 9.71155e-06 2.01736e-05 4.77712e-06 4.94558e-06 -6.4826e-06 -7.20226e-06 -1.34824e-05 
-2.16656e-05 -2.10329e-05 -2.97676e-05 -2.38234e-05 -4.06771e-05 -2.72599e-05 -3.91253e-05 -3.09831e-05 -5.84021e-05 
-3.59645e-05 -7.56166e-05 -3.83198e-05 -0.00011232 -4.71701e-05 -0.000159344 -7.26706e-05 -0.000215126 -9.99725e-05 
-0.000346345 -0.000165634 -0.000579555 -0.000225571 -0.000962279 -0.000341052 -0.00494155 -0.00309402 -0.00563655 
0.0323257 -9.99835e-06 1.24724e-05 -0.0388302 -0.0221842 -0.000699427 -0.00185233 -0.000437205 -0.000858554 
-0.000267806 -0.000456918 -0.000134149 -0.000285916 -9.30664e-05 -0.000163979 -6.61473e-05 -0.000124074 -5.29492e-05 
-9.9853e-05 -2.6696e-05 -8.83621e-05 -2.78834e-05 -7.07729e-05 -2.3504e-05 -6.80753e-05 -1.8343e-05 -0.000120337 
-2.20155e-05 -2.42357e-05 -1.36717e-05 -3.76887e-05 -1.53624e-05 -1.74813e-05 -7.56383e-06 5.95696e-06 -2.02404e-06 
2.06666e-05 8.31433e-06 3.61828e-05 1.3847e-05 4.03146e-05 1.94301e-05 5.2317e-05 2.42107e-05 6.2805e-05 
2.62204e-05 6.13287e-05 2.69164e-05 6.00063e-05 2.36406e-05 5.62881e-05 2.27687e-05 4.61165e-05 2.1106e-05 
3.20528e-05 1.64992e-05 1.41232e-05 7.82063e-06 -1.42518e-06 1.47215e-06 -1.38358e-05 -7.41226e-06 -3.41993e-05 
-1.35861e-05 -4.69323e-05 -1.98656e-05 -5.42769e-05 -2.1309e-05 -5.69903e-05 -2.14385e-05 -5.70831e-05 -1.9188e-05 
-4.94176e-05 -1.64639e-05 -3.87128e-05 -1.33143e-05 -2.27292e-05 -7.85075e-06 -7.44514e-06 -3.12341e-06 4.88872e-06 
1.75791e-06 1.82207e-05 6.99213e-06 3.44956e-05 1.532e-05 4.43434e-05 2.05692e-05 5.10918e-05 2.20663e-05 
1.99522e-05 -8.7181e-06 -3.07769e-06 -2.9616e-06 2.23716e-05 8.30249e-05 1.23993e-05 3.02354e-05 1.8649e-05 
4.02113e-05 2.08266e-05 3.1766e-05 1.49051e-05 2.66995e-05 9.04747e-06 1.40796e-05 4.14424e-06 2.36083e-06 
-7.23147e-07 -1.13701e-05 -5.28262e-06 -3.51073e-05 -5.939e-05 -1.40845e-05 -8.0646e-05 -2.31548e-06 -5.06605e-05 
-2.26437e-05 -7.04015e-05 -2.34748e-05 -7.0173e-05 -2.46292e-05 -6.80988e-05 -1.76704e-05 -3.68358e-05 -1.13044e-06 
-6.22116e-05 -9.07463e-06 -2.35967e-05 1.23255e-06 -2.24352e-05 -5.1092e-06 1.08001e-05 2.69242e-06 1.93353e-05 
7.49072e-06 3.16138e-05 1.34551e-05 3.882e-05 1.65247e-05 6.58867e-05 2.15643e-06 5.21816e-05 2.55819e-05 
2.5243e-05 -7.6631e-06 0.00274147 -0.00870877 0.00149974 -0.00323403 -0.00094808 -0.00100245 -0.000303977 
-0.0018089 -0.00167319 -0.0031341 -0.00180649 -0.00322209 -0.000964106 -0.00311303 -0.000612331 -0.0026003 
-0.000870658 0.00042343 -0.000629484 -0.000914042 -0.00200927 -0.00568406 -0.0118947 -0.0117214 0.0458984 
0.0244429 -0.00171569 0.0369921 0.0343013 -0.0123044 0.0278771 -0.00378062 -0.00503632 -0.00133572 
-0.00143592 -0.00252197 -0.000177354 -0.00353509 -0.0017433 -0.00385822 -0.00161602 -0.00369212 -0.00154927 
-0.00303629 -0.00179 -0.00176199 -0.00138206 -0.00116001 -0.000353007 -0.0023363 -0.000492681 -0.00912646 
0.00377134 -0.049678 -0.0275071 -0.00437567 -0.00443142 -0.00578368 -0.00380513 -0.00251595 -0.00441116 
-0.00342597 -0.00179235 -0.00263136 -0.00476344 -0.00351195 -0.00440665 0.00213566 -0.00757985 -0.00365865 
-0.0636263 -0.0746838 -0.00363851 -0.00445883 -0.00465083 -0.00321728 -0.00312628 5.06985e-05 -0.00500389 
-0.0402283 -0.0123842 -0.010108 -1.28514e-05 1.20287e-05 -0.000174262 2.44773e-05 2.51034e-05 8.14703e-06 
-6.26773e-05 3.85437e-06 -8.50745e-06 -3.12993e-06 -5.22199e-06 1.43444e-05 1.61557e-06 6.93443e-06 -1.42417e-06 
-2.16812e-05 -1.32222e-05 6.28655e-05 -2.2031e-05 -4.62401e-05 0.00174131 0.000786902 3.81909e-06 2.55836e-05 
-1.88981e-05 -3.45608e-05 1.45097e-05 7.95082e-07 6.08203e-06 2.06837e-05 -6.19149e-06 -2.61176e-05 -2.29429e-06 
-2.89984e-05 9.86559e-06 9.8515e-07 -3.10082e-05 1.71966e-05 2.53378e-05 -3.67811e-05 -8.89932e-05 -2.14536e-05 
-0.00134268 0.00100001 -1.98065e-05 2.74657e-06 1.88857e-05 1.72457e-05 1.82886e-05 -1.21123e-06 0.000117619 
6.39242e-05 -0.000146806 4.99824e-05 -1.09032e-05 -1.79052e-05 -1.23607e-05 -1.20098e-06 -0.000154178 -6.86488e-05 
0.000150886 4.88749e-07 1.06873e-06 2.66317e-07 1.21331e-05 -5.12609e-07 -7.11622e-07 -9.45776e-06 0.000548872 
-9.10235e-05 3.99145e-05 5.15113e-06 -1.35583e-05 -3.12858e-07 -2.15987e-06 1.69417e-06 5.47346e-06 3.97368e-05 
5.94098e-05 -0.000105313 0.000124508 0.000151603 9.86194e-06 -4.97895e-05 -5.14887e-05 -6.54314e-06 1.08822e-05 
-1.89238e-05 1.03158e-06 -4.73278e-05 -3.64359e-06 3.78289e-05 -1.76561e-05 -5.8201e-06 1.39913e-05 2.84667e-05 
1.82707e-06 6.87298e-06 -1.19799e-05 2.58255e-05 -0.000250105 -9.7875e-05 6.02967e-05 -2.58756e-05 3.38877e-05 
-1.7637e-05 -2.92144e-05 -8.81969e-06 1.47392e-05 8.58001e-06 -4.621e-07 -4.23683e-07 0.000176024 -6.17402e-05 
-0.00018329 -2.10443e-05 4.40236e-05 -4.33033e-05 5.65782e-05 4.30456e-05 -5.24509e-05 4.67418e-06 4.76277e-06 
4.00321e-05 -2.3831e-05 3.31535e-05 6.10243e-06 -3.28656e-05 -1.83587e-05 4.02074e-05 -1.3266e-05 1.02918e-05 
3.05514e-05 -1.94592e-05 1.01918e-05 -2.62434e-05 3.61496e-05 -9.78956e-06 4.42259e-06 2.98712e-05 -2.16314e-06 
1.07175e-06 -8.26152e-06 -8.25612e-06 -8.56569e-06 -9.36603e-06 1.84403e-05 3.48783e-05 3.33669e-05 -2.29496e-05 
-4.70893e-07 5.62877e-05 2.20645e-06 -5.74523e-06 3.22771e-05 1.99969e-05 -1.3384e-05 -2.3319e-07 -5.12465e-07 
1.58301e-05 8.30979e-06 2.6466e-06 1.43556e-05 -2.73956e-05 4.85228e-05 1.87686e-05 1.74847e-05 -1.55616e-06 
-7.37967e-07 2.707e-05 2.67193e-05 -8.649e-06 -5.27496e-07 -6.26295e-06 1.32881e-05 -2.38158e-05 -5.54778e-06 
1.98585e-05 1.18606e-05 -4.15205e-05 2.91535e-05 -4.86164e-06 1.47367e-06 -1.81423e-05 2.53324e-05 5.41583e-06 
-4.96044e-05 1.19037e-05 -0.00244181 -0.000564138 0.000497144 8.0862e-05 2.84635e-05 3.27569e-05 -7.95314e-05 
0.00149313 -9.10159e-05 -0.000593604 7.7926e-05 0.000816205 -0.000245402 -5.13043e-05 4.96413e-05 -7.34995e-05 
3.63144e-05 2.46571e-05 -1.74371e-05 2.25275e-05 9.22196e-06 2.29841e-06 1.9812e-06 1.22717e-05 -2.92413e-05 
3.54389e-05 1.79427e-05 -7.26777e-06 7.45483e-06 -1.30365e-05 2.72936e-05 -7.10694e-06 -3.01666e-07 -5.2248e-05 
7.25329e-05 0.000104601 -2.70055e-05 1.49769e-06 1.8703e-06 6.85755e-06 2.76078e-05 -3.37416e-05 4.05143e-05 
6.17418e-06 -2.68343e-06 4.33259e-06 -7.25834e-06 1.54802e-05 5.36623e-05 2.34857e-05 9.97806e-05 8.73315e-06 
8.14253e-05 -9.51217e-05 0.00296329 -0.00125414 -0.00228862 -0.00674376 -4.54195e-06 -4.59474e-06 -4.91338e-07 
2.38414e-05 8.57084e-05 -0.000134608 -3.43432e-06 9.34333e-06 -2.41632e-05 0.000167199 -2.81683e-06 7.88964e-06 
0.00112656 0.0014663 -4.6966e-05 0.000162481 -8.66953e-05 2.53705e-05 2.40751e-05 -4.72973e-05 -1.20479e-05 
1.28591e-05 -5.96333e-06 1.11281e-05 2.30449e-05 2.39339e-05 -1.09934e-05 1.32923e-05 0.00136025 -8.21577e-05 
-0.00030271 2.43351e-05 2.97666e-05 2.78223e-05 -3.81013e-05 6.12992e-05 6.81203e-07 8.85928e-06 7.99578e-07 
1.8576e-05 -2.37866e-05 -8.53963e-07 4.14509e-05 -4.10607e-05 -6.2018e-05 -2.24802e-05 1.89934e-05 -1.47032e-05 
-4.74213e-06 1.02782e-05 1.48671e-05 4.2229e-06 1.25345e-05 -1.25553e-05 -0.000116246 0.000211193 -2.39683e-05 
2.83678e-05 -8.87355e-05 -1.69349e-05 5.53015e-05 3.38782e-05 9.14862e-07 2.04136e-05 3.3216e-05 3.51721e-05 
-3.57557e-05 5.91698e-05 -3.89641e-05 7.42729e-06 -3.29973e-05 5.68667e-05 -1.82507e-05 2.08279e-05 -4.85783e-06 
-5.05714e-05 6.75231e-05 -0.000139746 -0.000101652 -0.000435563 0.000761663 0.0307847 -0.00706256 0.0246614 
-3.1862e-05 6.48084e-05 -6.36553e-05 -0.000128629 -0.0101317 -0.00176023 -0.0154725 -3.01968e-06 -1.39729e-05 
-1.27288e-05 2.13392e-05 7.46316e-06 1.98947e-05 -1.40649e-06 -1.45474e-06 7.87399e-07 7.66502e-06 1.99487e-05 
-5.24642e-05 7.87418e-05 -1.68278e-05 -2.77579e-06 -1.74254e-05 7.1655e-06 -7.86155e-06 7.62538e-07 5.33989e-05 
6.50796e-05 -9.18898e-05 2.59858e-05 2.41698e-05 -0.000106147 -0.000125598 -1.2686e-05 -1.82343e-06 1.51863e-05 
3.21842e-07 2.03715e-05 -3.91604e-06 -0.000100723 2.14171e-05 5.5748e-05 -5.30994e-05 7.16257e-06 2.64053e-06 
1.20325e-05 0.000203521 5.50895e-06 1.92413e-05 0.00150711 -0.000546703 -0.00133147 0.0216399 -0.00290329 
0.0167965 2.82037e-05 2.08592e-05 0.000273274 -0.000214482 0.0002463 -4.06731e-05 8.78803e-06 3.1001e-05 
-2.11202e-05 -7.40453e-05 -4.23076e-05 2.54215e-05 -0.00157847 0.00152461 -0.000442015 4.79074e-05 3.2409e-05 
-9.47876e-05 -0.00818674 -0.0025927 -0.000425847 -4.78769e-05 -1.87637e-05 -4.6907e-06 8.54948e-05 -5.63494e-05 
-4.19795e-06 0.0387414 0.0567586 6.84335e-05 1.2071e-05 1.53535e-05 -7.0453e-05 -4.44923e-05 -9.24948e-05 
7.43888e-06 2.46608e-05 -8.46012e-06 -0.00683373 -0.00226876 -0.0197453 0.000898676 0.000670589 0.0395368 
-0.00965781 0.0489313 -0.000286157 -2.08113e-05 2.15186e-05 -1.39357e-05 1.64524e-05 -3.08336e-07 1.98398e-05 
-4.31743e-05 -4.62718e-07 -1.28465e-05 1.30432e-05 -5.95626e-06 -0.00153757 0.000307271 -2.98392e-05 9.6489e-06 
0.000405748 -0.000142193 0.000136771 3.14103e-05 2.58664e-05 -7.88877e-06 0.0152976 0.014404 -0.00756459 
8.99462e-07 -4.72914e-08 1.11458e-05 1.9264e-05 6.36031e-06 9.11733e-05 6.19886e-05 -6.4203e-06 -7.94016e-06 
3.35979e-05 0.000982917 -9.02139e-06 -1.26459e-05 -3.48389e-05 0.000125336 -0.0002243 -5.36099e-05 0.00014501 
-3.59561e-07 -6.81629e-06 7.35808e-06 3.20977e-06 1.54029e-05 -2.71856e-05 -7.13477e-06 1.24047e-05 -1.41039e-05 
3.52115e-06 0.000149844 0.000187388 0.000170838 -3.22289e-05 -6.10266e-06 -3.14482e-05 2.2074e-05 -7.30447e-06 
3.13769e-05 6.00952e-05 -9.05885e-05 2.52415e-05 2.29093e-05 -3.60382e-05 5.21655e-07 0.0137076 -0.0129437 
-3.22191e-06 -5.74839e-05 9.04745e-05 -8.1286e-05 -3.19841e-05 2.12187e-06 -1.00779e-06 -5.53471e-06 -6.38951e-05 
-0.000258678 7.90747e-06 3.11914e-05 5.90263e-06 9.44214e-07 -1.57612e-05 -2.25609e-07 9.58905e-06 4.79475e-09 
-1.79209e-05 2.7234e-06 1.21353e-06 3.4682e-05 -7.76801e-05 -0.000165696 -4.98929e-05 6.37361e-06 -3.98393e-06 
-3.80004e-05 0.000117537 5.94429e-06 -1.59842e-05 1.44053e-05 3.08656e-05 6.58646e-06 1.92979e-05 -5.05009e-05 
2.17404e-05 -1.12213e-05 2.33439e-06 -5.54021e-06 5.16406e-06 1.61387e-05 3.46437e-05 4.51171e-06 8.09823e-06 
2.85934e-05 -4.61308e-06 -0.000165122 8.95235e-05 -2.11474e-05 -9.93077e-06 5.06372e-06 2.57786e-07 4.89501e-06 
1.09544e-05 1.77057e-06 -3.43382e-06 -2.40028e-06 -3.57287e-06 3.11403e-05 5.64078e-06 -3.54159e-05 -0.00012476 
-8.05818e-05 -3.37469e-06 -4.27354e-07 2.06134e-05 6.25832e-06 2.73647e-05 2.88775e-06 2.83714e-05 3.10073e-05 
1.31019e-05 -3.00726e-05 3.68839e-05 -6.38525e-05 -1.9552e-05 4.24198e-06 1.0809e-05 6.33178e-05 -2.01276e-05 
-2.02739e-05 2.43498e-06 7.50805e-06 -7.89751e-05 2.17311e-06 1.86902e-05 5.75564e-06 5.36276e-06 -0.000510004 
9.11438e-05 -0.000158606 0.000215428 -7.84903e-06 8.53613e-05 0.000100652 3.34921e-05 -0.000109288 2.73429e-05 
3.06397e-05 3.6484e-05 1.59825e-05 1.61894e-05 1.54379e-05 0.000426121 -0.000387566 -0.00013377 6.35439e-06 
2.24048e-05 -2.43347e-05 4.01298e-06 1.47648e-05 8.87902e-06 -2.70733e-05 4.65436e-07 -1.94982e-05 2.9887e-05 
4.88324e-06 -1.65678e-05 -6.01736e-06 -7.23646e-06 8.12828e-06 -1.5732e-05 -2.05354e-07 -1.57626e-05 1.23354e-05 
3.48017e-05 -1.03166e-05 5.26998e-06 0.0010888 1.77381e-05 -8.66439e-07 -1.48112e-08 6.75675e-05 7.47016e-06 
-0.000246156 0.000109455 0.00173877 -0.00189399 -0.000203098 6.68842e-06 2.35456e-05 2.91617e-05 0.000135362 
5.34985e-05 2.04826e-05 1.19663e-05 1.64598e-05 -2.10312e-05 8.70613e-05 0.000122404 8.67798e-06 0.000113969 
1.41856e-05 6.81701e-05 9.00437e-06 -5.96641e-06 -8.66872e-05 -2.26419e-05 6.32569e-06 0.000170869 -0.000291999 
0.000310381 8.40332e-06 3.09696e-05 -0.000435982 -2.34296e-06 -1.80846e-06 -1.01851e-05 1.32221e-05 2.9993e-05 
-3.90565e-05 -1.64217e-05 3.7009e-05 2.3406e-05 -5.13353e-05 3.38711e-05 -0.00651428 -0.000555304 -0.000936945 
-5.97164e-06 1.75898e-05 1.05567e-05 1.2797e-06 -9.6852e-06 1.78227e-05 1.42493e-05 -1.56034e-05 -2.45122e-06 
7.51963e-06 -8.05304e-05 -1.24506e-05 1.77325e-06 -4.28066e-06 -5.94548e-06 -7.1207e-06 -0.000110226 2.28871e-05 
6.4535e-05 -0.000113519 7.73774e-05 1.9539e-06 4.638e-07 -8.36022e-06 4.95166e-06 -7.33188e-07 -8.75752e-06 
7.02942e-06 3.27383e-05 7.10057e-05 -1.23494e-05 2.28896e-05 -1.74373e-07 2.99847e-06 -1.46279e-05 -1.68534e-05 
3.66728e-05 9.52873e-06 -2.08054e-05 1.53398e-05 -2.29833e-05 -1.86925e-06 3.661e-06 1.35286e-05 -1.58012e-05 
-8.31194e-06 2.27383e-05 -7.89804e-05 0.000285965 -0.000276782 3.65549e-05 -4.65556e-08 -3.11011e-06 -3.37975e-05 
2.31949e-05 -1.05614e-05 -3.74466e-05 9.47466e-05 1.45661e-05 -5.632e-06 3.14928e-05 1.27324e-05 0.000529977 
0.000161928 -0.000259905 -0.0174211 -0.000449203 -0.00139052 -0.00887866 0.00195758 -0.00167791 -0.000429051 
0.000774175 -0.00162101 1.16841e-05 -2.21669e-05 2.9139e-05 -1.383e-05 -3.97252e-06 -1.0933e-05 1.97134e-06 
-4.55896e-06 -8.79605e-06 -7.07536e-06 6.69487e-06 2.86937e-05 1.44352e-05 -5.56099e-06 -4.43299e-05 1.25128e-05 
1.92143e-05 0.000457438 -0.000706158 1.27465e-05 -1.80288e-06 -3.30973e-07 2.00058e-05 -4.52509e-06 -0.000159821 
0.000924333 0.000121114 -9.9919e-05 1.03069e-05 -6.79222e-05 -7.15966e-05 4.8098e-05 2.95847e-06 2.73686e-05 
3.15974e-05 -1.11452e-05 -8.10755e-05 -1.26384e-05 3.84876e-05 -2.62681e-05 7.02636e-05 -3.43722e-05 -2.25814e-05 
1.28865e-06 -4.7881e-05 -1.60347e-05 -3.31267e-05 5.0293e-07 -4.32212e-05 8.248e-06 5.45673e-06 -3.33054e-06 
2.49378e-05 5.04475e-06 -5.10496e-05 -0.000160357 -1.10902e-06 -5.74118e-05 6.12577e-05 5.01756e-06 -2.16455e-05 
1.04401e-05 -4.22468e-05 0.000350476 -0.000396055 3.21288e-05 -0.00146457 -0.000158722 0.000852054 3.05306e-05 
-0.000171627 0.00149565 -0.00056044 3.22051e-06 -0.000725315 -2.23934e-05 0.000399816 -3.49621e-05 -7.26699e-06 
8.7577e-06 -0.000702402 0.000621816 8.99854e-05 5.03549e-05 -9.37398e-05 -1.54823e-05 6.11033e-06 -0.000138855 
5.10942e-05 -8.92014e-06 -1.279e-05 3.87316e-05 -2.64511e-05 3.68664e-05 -7.6064e-07 -0.00107654 0.000466513 
1.27674e-05 -2.20452e-05 3.54994e-05 2.29937e-05 -1.40389e-05 2.90952e-05 -1.78191e-05 -3.78189e-06 2.81398e-06 
-5.7336e-05 5.62886e-05 -0.00016575 2.31259e-06 1.21706e-05 -1.3497e-05 1.01335e-06 6.04676e-06 1.99185e-05 
7.55782e-05 -0.00030931 0.000170911 2.59958e-06 0.00143212 -1.47678e-05 -5.55926e-05 1.11638e-05 3.30841e-06 
0.000903237 -0.00141679 -5.36832e-05 0.00621696 0.00198271 -0.00230484 -3.25497e-05 -8.36341e-05 3.21408e-05 
-9.06697e-07 7.09249e-05 1.40755e-05 -8.07189e-05 -7.2122e-05 0.000172288 0.00159533 -0.000502431 -0.00196055 
1.63384e-05 -5.98754e-05 -1.46175e-05 1.36262e-05 -0.000110613 -2.24083e-05 -5.48672e-06 5.28361e-06 3.81066e-05 
-1.04778e-05 -5.07704e-05 0.000286671 8.79063e-05 -0.000649236 -0.00151165 0.00141822 -0.00110935 1.16706e-05 
3.56719e-08 5.02954e-06 -4.24003e-05 -9.24138e-05 -0.000114099 -9.57211e-06 -4.62806e-06 -1.98564e-05 2.38325e-05 
1.07646e-05 1.86826e-05 -0.000280523 1.91525e-05 2.96934e-05 2.44557e-05 -3.41696e-05 7.60022e-05 0.000228223 
-0.00144989 0.000465184 -2.91931e-05 -1.6667e-05 9.46708e-07 1.12421e-05 2.78729e-05 -7.03656e-07 2.74901e-05 
5.51158e-06 2.39442e-05 2.20342e-05 -4.99299e-05 1.7147e-06 -1.49596e-05 -7.26414e-05 -3.50349e-05 6.69149e-05 
6.50463e-05 3.86858e-05 -6.69218e-06 1.57459e-05 -3.80638e-06 2.00566e-05 -3.33931e-05 2.94187e-05 2.73671e-05 
3.47013e-05 2.60182e-05 -3.32066e-05 -6.12515e-05 5.64706e-05 -8.20982e-06 -3.54969e-05 0.000104105 8.126e-05 
-0.00285105 -0.00357051 -0.00099505 -1.91231e-05 -5.78697e-06 1.10354e-05 -1.98729e-05 -6.57563e-06 -3.28887e-05 
1.36418e-05 -1.0039e-05 -0.00670843 0.0473576 2.20762e-06 2.75886e-05 2.95158e-05 -3.07166e-05 -2.88181e-05 
1.81034e-05 -6.5199e-07 2.14484e-05 1.54581e-05 8.13636e-06 6.73244e-06 2.51465e-05 -2.34353e-07 1.668e-06 
-1.11328e-05 6.16619e-06 1.15215e-05 -7.40745e-06 1.81121e-05 8.67563e-05 -0.00123562 -0.000560883 -2.2992e-06 
-6.61806e-06 -1.71264e-05 2.35963e-05 -4.01939e-05 3.52681e-06 -9.87244e-07 -1.25442e-05 -8.0701e-07 1.48423e-06 
-2.94639e-05 9.11149e-06 3.2497e-06 -5.33171e-06 -5.36026e-06 -5.62651e-06 -1.65637e-07 -1.12462e-05 2.034e-06 
1.27632e-05 3.02087e-05 0.00045453 -0.0017973 -0.00294117 0.00385275 -0.000211599 -1.4895e-05 -0.000798794 
0.000158966 6.44331e-05 0.0019476 0.00135302 2.95812e-05 -0.0007692 -6.54565e-05 0.000105962 0.000906208 
0.000328807 -0.000716586 0.000130784 -2.23182e-05 -9.57303e-06 3.27353e-06 2.16079e-06 -2.09501e-05 -3.78693e-05 
-2.6297e-05 -1.49393e-05 2.23124e-05 9.8788e-06 1.43412e-05 6.1987e-05 0.000166815 -1.71556e-05 -1.12648e-05 
-5.84692e-06 -1.75627e-05 3.26754e-05 0.000396396 9.74427e-06 -6.1397e-05 -5.89e-05 3.74388e-06 -1.10123e-05 
-4.25859e-05 9.75644e-06 8.6056e-05 5.09302e-05 -1.00096e-06 -2.61646e-05 0.000139386 -0.000268243 -0.000212665 
2.03468e-05 7.36993e-06 8.79042e-06 5.63037e-06 0.00106217 8.60586e-07 2.57683e-05 2.09999e-05 -0.000207087 
-5.71987e-06 -4.5914e-06 0.000150541 -9.86074e-06 2.80341e-05 -3.01843e-05 0.00105388 0.00207803 0.00443394 
-4.09015e-05 -1.45201e-05 -2.80945e-05 1.04078e-05 5.69844e-05 -0.000200442 -0.000132567 4.93029e-05 0.000225309 
1.0135e-05 -4.26549e-06 -2.77776e-05 3.02487e-05 5.1146e-05 -7.50679e-05 1.49184e-05 -1.61032e-05 1.31418e-05 
8.66808e-05 -0.00055792 6.43409e-05 0.000312303 9.18292e-06 -1.98374e-05 -0.000625686 -0.000429826 0.000282014 
2.28884e-05 -2.19998e-05 -7.14914e-07 1.16905e-05 6.8761e-05 -0.000355793 0.000596118 5.19488e-05 0.000161346 
-0.000123575 7.83064e-05 1.70658e-05 -5.67933e-05 -1.57082e-06 8.18231e-05 -8.11197e-05 -3.76008e-05 3.72377e-05 
2.19907e-05 3.13636e-05 -2.43358e-06 -8.66552e-06 2.34797e-05 -0.000180244 -0.000208768 6.22886e-05 0.000166131 
-1.369e-05 -0.00032178 3.01198e-05 -2.22439e-06 2.5313e-05 -6.68362e-05 5.70424e-06 4.01718e-05 -1.43474e-05 
-0.000181774 0.000196504 2.82601e-05 6.48905e-06 -1.70832e-05 -5.47217e-05 -2.68025e-06 7.37004e-06 0.000175979 
-0.000109152 -1.88094e-05 -9.65434e-06 -0.000158555 2.254e-05 7.04367e-05 7.27241e-05 1.0186e-05 -0.000348306 
-0.000141825 -5.79044e-06 2.62271e-06 -6.15409e-06 -9.48579e-05 0.00107466 3.28096e-05 -9.34176e-05 -2.52105e-06 
-4.53042e-07 2.52072e-05 -4.49909e-05 7.96703e-07 2.57093e-06 8.77131e-06 4.39389e-06 -4.56257e-06 -2.33018e-05 
3.46122e-05 3.98431e-06 -1.3694e-05 -1.10905e-05 -3.17594e-06 3.50896e-05 -1.53295e-05 3.80703e-05 3.05024e-05 
1.9776e-05 -1.02823e-05 2.88979e-05 1.66936e-05 -4.90598e-05 3.80074e-05 4.18977e-06 -2.00411e-05 -9.15706e-05 
9.08707e-05 3.17399e-05 2.77109e-05 0.000330022 0.000340725 0.000157497 0.000100445 -0.000466753 -7.34656e-05 
1.06492e-05 -3.64781e-05 1.04018e-05 -6.12834e-07 -3.66517e-05 1.9987e-05 -7.06428e-07 -0.00013095 4.37373e-05 
-0.00139523 -0.00012263 -0.000431072 -1.11645e-05 0.000191186 2.64698e-05 -0.000217604 -6.08285e-05 0.00196644 
4.339e-05 -5.52082e-05 -1.43464e-05 2.42966e-06 4.36662e-05 4.61433e-05 -4.04391e-05 4.88876e-05 -2.00168e-05 
-2.67248e-06 1.97225e-05 -1.40888e-05 -0.00011272 -6.10244e-05 5.06369e-05 0.00135412 -0.00657021 -0.000964383 
6.24944e-05 -1.01662e-05 2.61645e-06 4.13601e-05 1.14304e-05 -3.26996e-05 1.15335e-05 -1.03084e-05 2.12921e-05 
-8.62349e-05 -9.11646e-05 1.29139e-06 4.98163e-06 6.72826e-06 7.69865e-06 -5.5084e-08 1.37207e-05 0.00220626 
3.73943e-05 3.9541e-06 2.38441e-06 -1.84558e-06 -8.49793e-06 0.000176241 1.8212e-05 2.60356e-05 6.67521e-06 
-1.37084e-05 2.39054e-05 -2.65464e-05 2.38703e-05 -4.3563e-05 -2.75843e-05 5.17232e-06 -1.72665e-06 1.113e-05 
2.75269e-05 -6.36727e-06 -5.16009e-05 1.00369e-06 1.15795e-07 8.89289e-06 1.74251e-05 -1.00604e-05 4.84458e-07 
4.55896e-06 1.00383e-05 1.54901e-06 6.63564e-05 2.71444e-05 0.000316402 -0.000325658 -0.000112969 2.18449e-06 
-1.72493e-06 -1.84813e-05 1.47585e-06 -4.73659e-05 5.13629e-06 2.97458e-05 0.00029853 0.000218755 6.17447e-05 
-0.000305727 -0.000119346 -2.0844e-05 -1.97234e-07 -4.56701e-05 1.15391e-05 -0.000286133 -0.000145494 9.07646e-05 
2.3764e-05 -3.47811e-06 3.41627e-06 -0.0121226 -0.0104827 0.0148452 -3.00488e-06 -3.3033e-05 -1.29629e-05 
-1.40764e-05 2.24842e-05 -2.63999e-06 -6.45541e-05 3.11665e-05 3.74017e-05 1.6504e-05 9.64962e-07 -5.88108e-06 
-6.7976e-05 -1.82536e-05 4.48904e-06 1.26854e-05 1.68172e-06 6.62875e-06 0.00136156 -0.000383128 0.000519196 
-7.02676e-06 8.31356e-06 6.33607e-06 3.09214e-05 -1.64963e-05 -7.83425e-06 -2.80152e-05 -0.0151142 0.0085372 
-0.00109707 -9.009e-06 -4.84892e-05 -8.47417e-06 -0.000140283 -0.000162018 0.000130466 -1.71714e-05 8.56426e-05 
0.000721965 -0.00142687 0.00116064 0.000712077 2.49566e-05 1.93022e-06 -2.09591e-06 2.75693e-05 4.85289e-06 
1.65651e-05 -1.54877e-06 1.5049e-05 2.96419e-05 -1.96885e-05 -1.57859e-05 3.61789e-06 7.70731e-05 -0.000140216 
1.50855e-05 7.08293e-05 4.92885e-05 -4.54551e-05 3.96769e-05 2.87094e-06 1.18949e-06 -5.08551e-05 -1.31117e-06 
4.55008e-06 -7.90822e-05 3.94104e-05 -7.97082e-05 4.67319e-05 -8.6157e-06 -1.28402e-06 -7.65437e-06 -4.79602e-05 
-0.000132338 -0.0447773 0.0445071 -0.0059208 7.00813e-05 0.000103031 7.17159e-06 -0.00181962 -0.00214483 
-2.81446e-06 8.93111e-06 5.89153e-05 -1.75522e-05 -0.000351977 -0.000234496 0.00127931 4.62408e-05 8.04716e-05 
-6.32682e-05 0.0318419 0.0479627 6.86329e-06 1.01545e-05 -0.000389024 4.44995e-05 -0.000625846 -6.96235e-05 
1.39024e-05 1.21713e-05 -9.11334e-07 -0.00174445 0.000206663 -0.00153364 -1.85788e-05 4.09792e-06 1.69053e-05 
1.9844e-05 5.44504e-05 -0.00112574 5.81842e-05 8.80204e-07 7.40045e-07 -5.79092e-06 -6.47545e-08 1.84766e-06 
-0.000112565 4.74513e-05 -0.000148941 0.000163465 0.000112407 -6.63338e-06 1.08673e-07 -2.25947e-06 -2.99059e-05 
0.000106366 -3.91203e-05 7.55267e-06 7.54546e-05 0.000212835 3.85462e-05 1.0855e-05 8.74678e-06 -0.000292763 
-3.28934e-05 -0.000667769 5.51425e-05 8.13159e-06 0.000153976 -1.96549e-05 0.00247418 7.9542e-05 5.7692e-05 
-7.08538e-05 3.96502e-05 -1.1229e-06 -8.18611e-06 1.26384e-05 2.80517e-05 -1.01389e-05 -1.51038e-06 1.23185e-05 
-3.15348e-05 7.87099e-05 6.10985e-05 -0.00125559 0.00316415 -2.41482e-05 -2.675e-05 -0.0145046 -0.000474761 
-0.0023791 0.000940081 -1.08859e-06 -1.39158e-05 5.81731e-06 -2.08918e-05 1.82975e-05 -5.83539e-07 6.20167e-05 
9.45458e-05 1.48455e-05 0.000181205 2.7761e-05 0.000180972 0.0136052 0.0134881 -0.0167306 -2.12279e-06 
2.84067e-05 -1.49871e-05 6.16941e-05 -0.00019662 3.80203e-05 2.35878e-05 1.91965e-05 -4.51449e-05 3.59105e-05 
-7.1559e-05 -5.16488e-05 4.37263e-06 1.87833e-05 7.33614e-05 5.37945e-05 7.05001e-06 0.000503219 2.34615e-05 
0.00021066 -3.87319e-05 8.82596e-07 1.63734e-06 -6.09848e-06 3.92845e-06 -4.65159e-06 -0.000476489 0.00298136 
1.65211e-05 -3.78187e-06 -1.40597e-05 -7.17342e-06 -2.20747e-05 1.80769e-06 2.26608e-06 7.49082e-05 2.36836e-05 
-5.5794e-05 9.18604e-05 -0.000117427 5.72712e-05 2.17263e-05 -9.9915e-05 3.0836e-05 6.6235e-05 2.25365e-05 
4.1932e-05 2.77919e-05 1.37157e-05 -7.3708e-06 1.30391e-06 -7.50377e-06 9.58798e-06 -1.75724e-05 -1.61988e-05 
1.83627e-06 4.74133e-06 0.00100185 -0.000476405 3.47685e-06 -7.07146e-06 2.51402e-05 -4.79165e-06 2.77295e-05 
-6.42731e-06 1.5867e-05 -5.49955e-05 2.0128e-05 -2.71584e-06 -1.29567e-05 -2.60125e-06 2.15833e-05 -6.95514e-07 
8.49886e-07 -5.5874e-06 2.06197e-06 -6.15956e-07 1.13338e-05 -2.20934e-05 -4.8094e-05 0.000298091 0.00102397 
0.0135823 9.24279e-06 4.78041e-06 4.31274e-07 -1.08028e-05 -4.39357e-06 -0.000254677 -5.33912e-05 2.29808e-05 
-1.31031e-05 -1.08855e-05 5.28301e-06 -1.32898e-05 1.78664e-05 -3.51571e-05 0.0160916 -0.00750714 -0.0162265 
-4.60982e-05 -2.08314e-06 -2.28576e-05 -8.4327e-07 -4.31206e-07 2.95862e-05 7.97784e-05 -3.81284e-05 1.23353e-06 
-5.30688e-05 5.52529e-07 0.00064163 -0.000486553 0.00143746 6.01431e-06 -5.60395e-06 -2.99649e-05 2.71349e-05 
7.21083e-05 -0.000202234 7.3997e-06 6.03056e-05 6.12053e-05 0.000753718 0.000312926 -0.00104388 2.79458e-05 
1.36734e-05 -3.00458e-05 -3.11365e-06 0.00078841 0.000671915 0.000220931 -1.65964e-06 2.89964e-05 7.50103e-05 
4.16657e-05 2.96616e-05 -3.76745e-05 -1.80586e-05 -8.6855e-06 -7.26062e-06 -5.70195e-06 0.00107689 5.18021e-05 
-4.96894e-05 3.03908e-05 -0.000161889 9.52994e-05 -0.000446276 0.00272479 -0.0104873 -0.00302157 0.00356391 
8.99907e-06 0.00019231 0.000109534 1.37767e-05 -4.31528e-05 -9.24788e-05 -9.3929e-06 -0.000107111 0.000190109 
-6.32604e-05 0.000120816 -1.18779e-05 -2.62856e-05 3.57464e-05 1.42672e-05 -1.91612e-05 -0.00046848 0.00165593 
0.000720044 -2.67776e-05 -0.000153594 0.000202051 -0.000407063 0.000166746 2.48251e-05 -0.000315037 4.585e-05 
0.000197203 1.92353e-05 2.5223e-05 -2.74754e-06 -0.000435336 0.000155486 -0.000207274 -0.00188127 -3.32414e-05 
-9.70388e-05 0.000156055 1.30581e-05 -1.1199e-05 -9.25859e-07 7.30894e-05 0.00097081 -0.000223329 -3.67372e-05 
0.000391791 -0.00107497 -9.77472e-05 -6.47074e-05 -7.51755e-05 -6.5079e-05 2.02993e-05 -1.70152e-05 7.36966e-06 
-3.47887e-05 0.000115804 2.25405e-05 -4.23929e-05 -1.15571e-05 0.00138344 0.00132442 0.000205294 0.00194249 
0.000161149 0.000175061 3.59572e-05 -3.47156e-06 -3.14862e-06 0.00698025 -0.000100066 1.48099e-05 2.74886e-05 
-4.49741e-06 1.74448e-05 -2.86263e-06 -2.34997e-05 -8.82168e-06 -2.36339e-05 -8.00976e-05 0.0030766 0.00186257 
2.5616e-05 3.1831e-05 -3.54584e-05 7.13603e-07 3.15628e-05 -2.9191e-05 3.92734e-06 -2.93586e-05 3.25511e-05 
0.000333858 1.84625e-05 -4.45339e-05 -2.12652e-05 4.4214e-05 2.69093e-05 2.29121e-05 -2.84511e-05 -2.92592e-05 
2.82104e-05 -1.11312e-05 -1.12097e-05 -1.71912e-05 5.04474e-06 5.16346e-05 -0.00348578 0.00873954 4.90579e-05 
4.30932e-05 1.51026e-05 2.51375e-05 -8.1319e-05 2.18272e-05 1.85384e-05 2.75285e-05 -1.69252e-05 -4.87373e-06 
-3.3625e-05 -0.00536369 -0.00152115 -0.0061357 6.11307e-05 3.71606e-06 -1.45458e-05 3.88346e-05 0.000191997 
8.71312e-06 -0.000169477 9.21373e-06 -0.000326421 6.33573e-06 -4.96873e-05 1.83163e-05 2.91606e-05 -1.80154e-05 
3.00146e-05 3.41494e-05 4.14048e-06 -4.34247e-07 -2.01595e-05 -2.34095e-06 -1.52322e-05 -4.52668e-05 1.18053e-05 
1.37074e-05 4.9977e-05 -5.00352e-06 -2.45237e-05 7.86022e-06 -6.0654e-05 0.000203048 0.000483173 1.95171e-05 
5.94026e-05 -3.10333e-06 -2.37975e-06 -6.87576e-06 -2.58098e-06 -8.17006e-06 -9.02978e-06 -2.20979e-06 -1.33512e-05 
-5.18532e-06 -4.10058e-06 1.7642e-05 -2.13251e-06 -2.12438e-06 -0.0111717 0.00377355 4.54402e-05 -2.31387e-05 
7.17975e-06 1.0372e-05 -7.17572e-06 -1.37093e-05 3.45809e-05 -1.14146e-05 0.0157265 -0.0198522 3.11432e-05 
2.59383e-05 -6.15006e-05 0.0426516 -0.00613446 -0.00846289 0.000521681 0.000203076 -2.93163e-05 0.000197417 
0.000408386 5.0091e-05 -2.29669e-05 -8.09616e-07 -2.02239e-05 1.40938e-05 -1.56145e-05 1.02533e-05 -4.91414e-05 
0.00243599 0.000245449 0.0122112 -1.12741e-05 3.44625e-06 -1.68925e-05 9.83565e-06 3.61098e-05 5.54909e-06 
2.46557e-05 -1.93694e-05 4.39526e-06 -4.05011e-06 -3.55392e-06 -1.54555e-06 0.000605882 -0.000519833 -6.24574e-05 
0.00303199 -0.000266921 0.000721981 -0.000338505 -0.000233251 6.82599e-05 -8.32905e-05 7.5901e-06 -7.71807e-05 
2.68163e-05 6.98104e-06 1.18105e-05 9.7962e-05 6.74278e-05 8.70816e-07 -0.000148265 0.000149924 1.06045e-06 
-7.64949e-05 6.66833e-05 4.73667e-05 -0.000107151 -8.63531e-06 -3.2234e-05 -0.000258869 0.00415309 -6.00309e-05 
2.70777e-05 -1.61927e-05 -2.18009e-05 1.61058e-05 -7.83153e-05 0.000250347 0.000210222 -1.88898e-06 7.89854e-06 
4.00043e-05 4.13468e-05 -5.1775e-06 2.77025e-06 1.83227e-05 0.00143053 -6.40793e-07 -6.46792e-06 -0.000182802 
-0.000438982 0.000545991 2.31396e-05 -5.23526e-06 4.31506e-05 3.81801e-05 7.93657e-05 -0.000100505 1.47878e-05 
7.35435e-06 3.09728e-05 6.03363e-06 -8.24118e-05 -1.33788e-05 -3.38845e-05 -0.00724586 -4.05634e-05 0.0134713 
0.00463135 -0.00265071 0.00232506 -0.000361748 0.000243669 -2.11141e-05 0.000160693 0.0340802 -4.84495e-05 
3.83634e-05 3.50634e-05 -5.78e-05 -1.59989e-05 2.5806e-05 2.3072e-05 -9.26462e-06 3.69185e-05 2.77996e-06 
2.42249e-05 -4.91339e-05 0.000153525 0.000146068 5.92516e-06 2.59987e-06 -1.4954e-05 0.000103785 1.82994e-05 
3.43821e-05 -0.0164931 -0.00878218 6.40014e-05 0.0141598 -3.21728e-06 -0.000100078 0.000971909 -0.00202699 
-0.000582348 0.00210054 -0.00354481 -0.000215928 -0.0193324 -0.000179335 -4.76641e-05 8.33412e-06 -5.47772e-05 
-2.80682e-05 8.33099e-06 4.65807e-05 4.738e-05 0.0164031 -3.03113e-05 -0.000114588 -6.78228e-06 0.000183494 
0.00036217 -0.00209152 -1.66641e-05 -0.000321272 -8.19671e-05 0.000278396 0.000152849 -0.000147647 2.13344e-05 
-2.51664e-05 -0.00582726 -0.000161898 0.000297932 2.68511e-05 -7.08912e-06 -2.94957e-05 4.32772e-05 -9.40128e-07 
2.62954e-05 0.00142188 1.79071e-05 -6.94134e-06 -4.839e-05 0.000696187 0.000393164 2.53595e-06 -4.9081e-05 
-1.00466e-06 -1.79494e-06 1.4427e-05 -4.71532e-06 -1.41201e-05 1.90746e-05 0.000937973 -2.35879e-05 0.0139773 
-0.0157274 2.11906e-05 3.54376e-05 -6.91431e-06 -6.36435e-05 2.4604e-05 -1.95782e-06 3.21868e-05 -3.77586e-05 
8.27659e-06 -3.16126e-06 4.29886e-06 2.0363e-05 0.000144585 -2.17079e-05 -6.7425e-05 -4.73647e-05 -5.01491e-05 
-0.000127393 -1.45244e-05 -9.65841e-05 -0.000195688 2.21658e-05 1.23546e-05 -3.07407e-05 -9.21282e-05 4.95715e-05 
7.40682e-06 -3.57097e-07 -1.16831e-05 -0.000116845 -0.00018294 -2.96235e-06 0.0325347 0.0293419 0.000458145 
2.05911e-05 6.21762e-05 0.000192966 0.00211862 4.92398e-06 2.61881e-05 6.18669e-05 -0.00014455 -7.08795e-05 
-1.59252e-06 0.000769539 -0.000486545 -1.24826e-05 -1.77319e-05 2.99534e-05 1.02811e-05 -1.28228e-05 6.7339e-06 
0.0028009 0.000733821 0.000457935 -0.000968437 -0.00107873 0.000828294 0.00186173 -0.0017014 -0.00136319 
-0.00907747 0.000856238 8.64605e-05 6.49734e-06 5.41194e-05 -0.00250275 -0.00272661 0.0216544 -0.00071753 
-8.47421e-06 7.40631e-06 -8.62376e-06 -4.20085e-06 0.000208054 5.74035e-05 -0.00143596 -0.000455397 0.000117796 
-1.443e-05 4.33532e-05 1.84417e-05 2.53494e-06 0.00128429 -0.000280129 1.58347e-05 0.000187501 8.58835e-05 
-3.40929e-06 -1.39574e-06 2.577e-05 6.99725e-06 -0.00118236 -0.00029711 0.000357385 0.00137597 -0.000158992 
0.000100831 6.65939e-05 -1.49382e-05 -7.46438e-07 8.89204e-06 -1.41501e-05 -3.96939e-05 -0.00261645 0.00136627 
6.74035e-05 7.18952e-06 -0.000119044 -5.89164e-05 0.000191071 -0.000291476 2.87101e-05 -6.1512e-06 -2.78919e-05 
1.49607e-05 -2.6421e-05 2.06696e-05 -4.73819e-06 -3.68856e-05 -2.38961e-05 -3.2383e-05 -6.44167e-05 -1.2822e-05 
0.000242243 0.000309161 4.81701e-05 2.04172e-05 -3.49464e-05 2.32593e-05 2.67082e-05 0.00701891 -0.00112554 
0.0164885 -0.00418784 -9.53465e-07 1.09632e-06 -5.32544e-07 4.80083e-06 0.000690765 -8.47715e-05 0.000150227 
3.02569e-06 -6.37246e-06 7.19116e-05 2.63868e-05 1.30921e-05 4.08381e-05 0.000125501 0.000212793 -2.7603e-05 
9.05283e-06 -5.03587e-05 -2.88521e-05 5.16485e-06 -5.63753e-06 4.61007e-05 -2.07997e-05 -1.55485e-05 6.0788e-06 
-2.28449e-05 -2.09386e-05 6.94736e-06 9.03937e-05 6.2822e-05 0.000123553 1.91315e-05 3.87864e-05 2.76488e-05 
1.99788e-05 1.65023e-05 7.95662e-06 -6.05266e-05 0.000308026 -0.000100667 -0.00152232 -3.73227e-06 1.19423e-06 
5.03009e-06 -3.58826e-05 -3.86695e-05 -0.00660888 -0.00494778 -0.0287983 -4.10194e-06 -3.0014e-05 -0.000100846 
2.42625e-05 0.00019854 -0.00027592 -1.60241e-05 -5.3721e-06 -7.64282e-05 0.000167867 -5.34212e-05 0.0136942 
-0.0129618 -0.0114069 -9.14968e-06 7.63692e-05 2.63135e-05 -4.76887e-06 -3.47389e-05 0.000120677 4.21642e-05 
4.26866e-05 -4.73332e-05 -0.000159976 0.000538673 1.46216e-05 -3.71082e-06 5.03135e-05 0.000261412 6.73336e-05 
-3.74582e-05 -1.84205e-05 0.00763616 -4.16002e-07 9.59957e-06 1.01058e-05 9.71073e-06 9.47813e-06 3.86907e-05 
1.80286e-06 -9.07557e-05 -4.95122e-05 -8.34261e-07 8.39387e-05 -0.000253107 7.67538e-06 2.07256e-06 -1.27713e-05 
-4.69206e-06 8.36263e-06 2.50277e-05 1.75596e-06 1.51067e-05 -8.6834e-07 -2.55159e-05 -1.30382e-06 -0.00200949 
7.60003e-05 -0.000316456 2.85893e-06 1.61275e-06 -4.84821e-06 -8.83707e-06 2.47277e-05 5.97119e-06 -1.00824e-05 
3.23948e-05 9.26898e-06 9.79498e-05 4.35323e-05 -4.70761e-08 -3.12688e-05 2.46621e-05 4.28728e-05 -1.42001e-05 
-8.56907e-07 9.89607e-06 -1.87321e-05 -5.20175e-05 -0.000185887 -9.554e-05 9.38714e-05 -0.000103307 0.00106038 
5.2423e-06 9.73924e-05 -0.000280789 -0.000153693 -7.17149e-05 0.00112052 -5.85653e-05 0.000124397 -3.51475e-05 
0.000408424 0.000113105 -0.00289302 -2.17772e-05 -1.0189e-05 -2.48945e-05 -2.50949e-05 -1.25275e-05 -8.60762e-06 
-6.40073e-06 0.0119377 0.0140556 -0.0117009 -0.0112751 0.0139622 -0.0107002 -0.0118341 -0.00017651 
-3.62844e-05 2.78125e-05 3.86317e-06 -1.34096e-05 2.6204e-05 -5.2544e-06 -4.42461e-05 2.4567e-05 6.47245e-06 
-4.76998e-06 0.00041241 5.07177e-05 0.000410692 -0.000642657 -0.000267876 4.70839e-06 -1.54099e-05 -5.09572e-05 
-0.000312013 5.2182e-05 2.05041e-05 -2.3507e-05 -1.3335e-05 4.07718e-06 -1.68463e-05 -0.00239023 0.00062372 
1.73042e-05 3.18555e-05 -2.89084e-06 -8.22013e-05 2.15048e-05 -1.78573e-05 5.35637e-06 0.000554352 -8.7418e-05 
0.00144488 -7.09433e-06 -8.97862e-07 0.000193016 -0.000432529 -5.02211e-06 0.000172534 5.41614e-05 0.00059692 
0.00042947 3.82709e-06 -6.82745e-06 4.957e-05 8.39957e-06 -3.34747e-05 3.64061e-05 -0.000738489 -0.000907031 
0.00115201 -0.000300557 2.44953e-05 5.11391e-06 8.88795e-08 -0.000948406 -0.00131494 8.92355e-05 -2.31717e-05 
7.22274e-05 -8.97938e-06 -1.89065e-05 -4.75966e-05 2.95365e-05 9.14877e-05 2.1037e-05 0.000198754 1.87768e-05 
-0.000275774 6.68507e-05 -8.28122e-05 -5.25487e-05 4.15031e-05 5.22462e-05 4.6373e-05 1.79094e-05 8.65475e-06 
-1.11767e-06 -3.71038e-05 -2.86945e-05 -1.95343e-05 -5.64516e-07 -1.63424e-05 -4.10755e-06 4.48959e-06 -9.47893e-06 
3.85593e-05 -1.10546e-05 -0.0075613 -2.80446e-05 -1.60274e-05 -1.58467e-05 1.21842e-05 -0.00014149 3.62605e-06 
2.24641e-05 -3.60955e-06 -1.34255e-05 -0.00327216 -0.0143617 -0.00983347 -0.00942991 0.000223697 -2.99182e-05 
2.77418e-05 1.68465e-05 -8.55107e-05 -1.77872e-05 1.29762e-05 2.93151e-05 -0.00314928 2.89256e-05 0.000585754 
-9.22811e-07 2.48646e-06 9.31047e-06 1.44234e-05 -9.19661e-06 -1.69678e-05 1.00335e-05 1.39116e-06 -2.4373e-06 
-1.27484e-05 0.000912741 4.535e-05 8.81222e-06 2.58636e-05 -2.2943e-05 -4.15542e-06 -0.000390566 -5.00224e-06 
-0.000588207 0.000479044 3.79884e-06 0.0166316 1.68966e-05 2.04288e-05 0.000219207 -9.37091e-06 -3.40526e-05 
1.96756e-05 -2.3505e-05 -0.00012178 -3.2315e-05 1.36458e-05 5.86287e-06 9.09949e-06 0.0116597 -0.000137345 
8.94088e-06 1.94517e-05 -1.81074e-05 -3.04294e-05 0.00112953 -3.33705e-05 -0.000709754 0.000135836 -0.0001587 
0.000294231 0.00182455 -6.22711e-05 3.49274e-05 1.78559e-05 -0.000196683 0.00083363 -2.58457e-05 2.62699e-05 
0.000128306 0.00201289 -1.54507e-05 3.93668e-06 -5.6796e-06 4.01992e-06 3.22867e-05 -8.22092e-06 -5.09092e-05 
2.28381e-05 0.000545238 0.000183643 0.000190133 -0.000901298 0.000497809 -8.04335e-05 -1.88639e-05 2.98014e-06 
-3.44239e-05 -0.000386352 -2.96851e-05 -0.0001542 0.00412057 -2.80502e-05 0.000193133 0.000223848 -0.000134174 
-4.81024e-06 -0.000168847 -0.000174289 8.87778e-05 4.50137e-05 7.30076e-05 -0.000124045 -7.51179e-05 4.82974e-05 
3.55161e-05 -4.03559e-05 1.91753e-06 -1.33986e-05 -0.000367346 -0.000237956 2.10879e-05 -1.76966e-05 -1.31567e-05 
7.47299e-06 -9.03048e-06 2.4175e-05 -1.03509e-05 8.88619e-06 1.69936e-06 -5.6309e-06 0.000482119 -0.000423659 
0.00126195 1.78157e-06 -5.53607e-06 4.91416e-05 -0.000324424 0.000107941 0.000282422 -2.30962e-06 0.000133206 
8.69276e-08 0.000169555 0.00016386 -1.73103e-06 -4.35575e-06 3.57524e-05 4.71594e-07 -1.12996e-05 -2.06463e-05 
-6.00961e-06 -3.06007e-05 1.41404e-06 -0.000149132 4.00361e-06 -0.00010882 2.35135e-05 1.43289e-05 -0.00019409 
-8.07102e-06 -0.000104138 -5.16305e-05 -0.000153216 6.63313e-06 -0.000229046 -6.61319e-05 0.000156258 -0.000164454 
-1.22474e-05 -2.20217e-05 -2.70669e-05 0.0159102 -0.000786185 -0.000355399 -7.7202e-06 -5.69743e-07 3.84084e-05 
3.45509e-05 4.06985e-05 1.74768e-05 4.2685e-06 0.00131637 1.3077e-05 6.42148e-06 -3.82787e-06 -1.39113e-05 
-0.00926825 0.0361389 3.28905e-05 0.000444882 2.26778e-05 -2.41604e-05 -2.2284e-05 3.05046e-05 -3.84426e-05 
6.604e-06 2.24615e-05 3.11347e-06 -4.62499e-06 -4.15517e-05 -1.20341e-05 5.06021e-06 9.27256e-06 -7.79815e-06 
5.22181e-05 3.87698e-06 -1.16219e-05 -1.37469e-05 1.39317e-05 -2.62561e-07 -1.91883e-06 1.06633e-05 0.000163624 
4.77755e-05 5.66596e-05 -1.59924e-05 0.00141304 0.00123448 0.000109424 -6.11664e-05 -1.2561e-05 -5.4799e-06 
1.61172e-05 -0.000142746 4.56309e-05 5.24101e-06 3.63002e-05 1.57356e-08 -3.66575e-05 -7.41063e-06 -6.83755e-05 
1.34399e-05 1.42639e-05 -4.42725e-05 -7.1574e-05 6.04753e-05 2.5681e-06 -2.49377e-06 1.34026e-05 -0.000189589 
-0.00157665 7.7834e-06 -5.39261e-06 5.72181e-05 -2.19006e-06 0.00114628 -7.60006e-06 -0.00048299 -6.72847e-05 
-6.71835e-05 7.50869e-06 -1.35422e-05 3.04591e-05 -0.00249763 -0.000225472 -2.8591e-05 2.04903e-05 1.44053e-05 
0.0010518 -0.00180966 4.2608e-05 -0.000231384 -0.000198954 -2.80943e-05 0.000478909 0.0127578 3.84227e-05 
-1.84548e-05 0.000547586 -0.000353682 -7.77558e-05 -1.84079e-05 2.73553e-06 4.53347e-05 3.39849e-05 6.24758e-05 
-0.000108703 -0.000198322 0.000118692 0.000352945 -0.000497302 0.000112649 2.1267e-05 5.50989e-06 1.98983e-05 
-7.25086e-05 -3.32515e-06 -2.57068e-06 -2.21799e-07 2.70675e-05 0.000737528 -0.000377474 0.000156538 2.00191e-05 
-1.11584e-05 -1.1222e-05 -0.000114577 -0.000253359 6.29142e-06 -1.56349e-05 0.000125265 -2.0337e-05 -3.88746e-05 
3.26745e-05 1.98894e-05 9.02556e-06 -2.65113e-05 1.74556e-05 2.81852e-05 -8.34432e-06 -0.000281847 2.72938e-06 
1.86036e-05 4.40832e-05 7.06719e-05 -3.38212e-06 0.000641213 0.00104918 -6.99156e-05 -3.24643e-07 -0.000606896 
-6.67082e-06 0.000283351 9.88059e-05 -0.000187137 5.62871e-06 -0.00170312 0.00136997 0.0012589 2.58751e-05 
2.38236e-05 2.38641e-05 8.3633e-05 0.00125243 0.00207492 0.000966207 5.86053e-05 2.15518e-05 -0.000190777 
-0.00189472 0.0557762 0.0453603 -1.40946e-05 -4.42987e-05 0.00160669 -0.00426389 -0.000214585 0.000709205 
-0.00283601 -0.000776804 -6.9046e-06 2.15208e-05 -5.74453e-05 1.11565e-05 6.83035e-07 0.000151158 2.19476e-05 
-1.72109e-05 5.51873e-06 -0.00010449 1.43222e-06 -1.21497e-05 5.25722e-06 0.000222411 -1.47073e-05 -1.09497e-05 
-4.20241e-06 -1.159e-05 0.00116556 3.59433e-08 0.0132137 0.000879498 -5.57948e-05 3.01648e-06 3.15905e-05 
-6.07268e-06 -8.52198e-06 -1.56634e-05 5.61855e-05 6.36577e-05 1.31114e-05 4.16295e-05 2.59396e-05 4.43308e-05 
8.58285e-05 8.93556e-07 -3.96707e-06 -3.19964e-06 -5.74837e-05 1.71833e-05 -2.791e-06 1.46045e-05 -1.20194e-05 
5.49295e-05 1.60568e-06 3.80742e-05 0.000353066 1.47634e-05 -0.000262377 -0.00785684 0.013956 -6.04942e-05 
-7.0177e-06 3.10654e-05 -0.000144401 -5.11043e-05 -2.42587e-05 0.000108064 -0.00023909 2.88772e-05 3.68028e-05 
-6.439e-05 -0.00278752 -0.00392567 -0.000333625 -0.000909171 0.000187263 0.000209433 -8.43564e-05 4.02188e-06 
-0.00035325 0.000318783 -0.000197025 -1.01452e-05 -6.11952e-05 1.68122e-05 9.98302e-05 3.05366e-05 -1.78109e-05 
-6.40699e-06 2.40329e-05 -1.40009e-09 -1.50383e-06 4.21756e-05 0.000382702 -0.000896008 -8.7305e-05 2.61646e-05 
-2.10597e-06 -1.16886e-06 0.00290878 -8.25722e-05 0.000201388 -9.62767e-06 -1.09533e-06 6.52271e-05 4.36178e-05 
7.16222e-06 -0.00209864 -9.87259e-05 2.00998e-05 -0.000227109 2.04563e-05 -1.55712e-05 1.16586e-06 -2.03211e-05 
1.50043e-05 1.69754e-05 4.58941e-05 4.12881e-05 -3.73821e-05 2.69238e-05 1.83402e-05 1.37285e-05 1.02381e-06 
-1.05477e-05 0.000157622 0.000183873 -0.000163463 5.00227e-06 8.18911e-05 0.000110647 1.15377e-05 2.94479e-06 
2.78684e-06 2.13668e-05 1.19307e-05 -7.50879e-05 -6.10901e-05 6.56854e-05 -5.43928e-06 3.66115e-05 -7.83336e-05 
3.02635e-05 1.39e-05 1.04021e-05 -2.1624e-05 1.25421e-05 1.4388e-05 -9.79413e-05 0.000132926 1.79523e-05 
-0.000156999 3.97678e-05 1.03796e-05 6.36333e-05 -1.21521e-05 9.21031e-06 1.47442e-05 0.000746391 -0.000800056 
-3.43231e-05 0.000228085 -1.4918e-05 -1.29279e-05 -8.09467e-06 -0.0267343 0.0189647 -4.21804e-05 9.59894e-05 
-2.15913e-05 -0.000116922 0.000149993 -0.000382716 -0.000271282 -0.000172919 5.12754e-05 2.3464e-05 2.43707e-05 
5.85496e-05 -1.30176e-05 1.45788e-05 8.71413e-06 -5.11728e-07 -1.96622e-05 -1.85847e-05 6.54176e-06 -2.79566e-05 
5.27407e-06 -1.3224e-05 1.11339e-05 2.43138e-05 8.53317e-06 3.76068e-05 2.61338e-05 -1.07403e-05 -2.18102e-05 
-1.64591e-05 -1.52443e-05 1.01789e-05 8.42305e-06 -9.22234e-05 4.14573e-06 -1.41359e-05 1.24174e-05 -9.87893e-06 
1.56908e-05 0.0122756 2.21314e-06 0.00233419 0.00266756 0.00122675 0.00218063 -0.00418207 -0.000449356 
1.16202e-05 2.69626e-05 2.33845e-05 0.000346588 -0.000161446 3.24503e-05 -1.11505e-05 -6.82193e-06 1.94569e-05 
2.42831e-05 1.68988e-05 -2.15124e-05 1.26869e-05 -1.10787e-05 -2.57365e-05 -1.42755e-05 -1.44856e-05 4.27972e-05 
8.46993e-06 -2.47333e-06 -1.66032e-05 -2.43453e-05 2.30163e-05 1.1676e-05 -3.42229e-05 0.000419277 -0.00061316 
0.0137215 0.000140672 5.68283e-05 0.000162019 1.94852e-05 6.10203e-05 -0.000163983 -0.00152678 -0.0104587 
0.000118033 9.6238e-06 0.000175431 6.48246e-06 0.0010632 0.000490981 -0.000293244 5.63521e-07 3.70842e-05 
5.01891e-06 -2.4398e-05 4.9351e-06 -2.32482e-07 0.000325337 -6.97709e-05 8.611e-06 0.000106057 -0.00128567 
-0.000599919 -3.67305e-05 -0.000566031 0.000195518 -5.50745e-05 1.2735e-05 1.01193e-05 5.72486e-05 -4.3482e-07 
-2.30767e-05 -5.52128e-06 -5.86595e-06 7.85063e-06 -2.30013e-05 -1.86115e-05 9.16337e-05 -8.99252e-05 0.000357882 
0.0127951 -1.35059e-05 0.000201651 4.34723e-05 0.00189005 6.73015e-05 -0.000467744 -0.0172393 0.013091 
5.01121e-05 -1.59921e-05 -2.38573e-05 -1.69742e-07 6.29436e-06 -1.09147e-05 2.23455e-05 -1.5912e-05 1.47576e-05 
-1.94129e-05 1.37636e-05 4.70072e-06 1.36893e-06 -0.000393897 2.95169e-05 -8.23447e-06 6.48259e-05 0.000122717 
1.48846e-05 -1.32399e-05 8.59671e-06 -4.99581e-06 1.69195e-05 3.27801e-05 5.96079e-05 -6.33889e-06 2.16366e-05 
0.000112584 1.90756e-06 2.68587e-05 4.01121e-05 2.4736e-05 -7.15218e-05 -0.00237679 3.26131e-05 -6.18874e-05 
5.16852e-05 2.17396e-05 -0.000166597 0.00168455 -7.4927e-05 3.65775e-05 2.14114e-05 0.0019913 -0.000491509 
-6.52292e-05 3.5749e-05 1.47986e-05 -7.94542e-06 5.25485e-06 0.00394843 -0.00199988 2.14242e-07 6.89788e-05 
6.98919e-05 2.59009e-05 -2.33518e-05 -2.58637e-05 0.0130477 0.0156744 0.00118853 0.00303133 3.46665e-06 
3.23513e-05 9.36772e-05 5.00823e-05 0.0135309 -0.0169554 0.0145733 -1.18229e-05 -0.00810289 1.63556e-06 
-3.04416e-06 1.81757e-05 -1.16613e-06 -7.41142e-06 -1.16281e-05 1.27506e-05 9.7508e-06 -6.41091e-05 -0.00813143 
-6.24865e-05 -0.00310777 0.0310488 2.44309e-05 -6.1418e-05 -0.00306315 -0.0127001 0.0122733 2.24325e-05 
-1.33189e-05 -5.36169e-06 0.00176916 0.000175536 -1.84385e-05 7.11739e-06 -1.79241e-05 2.91946e-06 3.77237e-05 
0.0003206 -2.81457e-05 -1.21379e-05 2.54995e-05 3.46627e-05 -0.000419068 -7.40704e-06 2.11546e-05 3.34729e-05 
-8.33377e-05 0.00164549 -0.000621114 -0.000873554 0.00332809 -0.000134234 1.23113e-05 0.000241346 4.65421e-05 
1.72089e-05 4.50125e-05 -3.22435e-05 0.0010951 4.96685e-05 0.000101467 -3.45247e-05 2.26633e-05 0.000249215 
0.000247454 -6.93632e-05 5.02347e-06 -1.45996e-06 2.05044e-07 9.01659e-06 -5.23896e-05 1.45947e-05 -3.04265e-05 
-3.52658e-06 -0.000513684 9.63791e-06 4.54338e-05 4.14954e-06 0.000509539 2.6024e-05 1.29077e-05 -3.52133e-05 
-8.61671e-06 -0.000173459 -1.79425e-05 -7.89988e-06 2.01488e-05 -2.57888e-05 -4.30665e-05 -2.80736e-06 -4.72023e-06 
6.31854e-05 -0.000149052 8.02962e-05 2.00935e-05 4.89955e-05 -6.25916e-05 1.95261e-06 -9.19502e-06 6.67718e-05 
-0.000607876 -1.10417e-05 0.00146745 -3.55111e-06 -6.66142e-05 3.12856e-06 3.31882e-05 -0.00163315 -2.50412e-05 
1.5192e-06 6.17453e-05 -3.95247e-05 -1.02107e-05 0.00177797 -3.60168e-05 -8.03904e-07 4.14379e-05 -3.68842e-06 
0.000147701 -0.000905419 3.87799e-06 3.04664e-05 0.000769134 -0.000587005 0.000273877 6.27709e-05 0.00092992 
-0.00261291 0.00084067 -1.19567e-05 -0.000107304 -6.00202e-06 -5.25227e-05 0.000268619 4.34914e-06 -1.43854e-05 
1.11877e-05 -1.88383e-06 2.81187e-06 3.89829e-05 -2.79725e-05 3.22296e-05 -6.94405e-06 -1.34623e-05 2.85511e-05 
1.44876e-05 6.61525e-05 1.74552e-06 -2.05014e-06 -5.01781e-07 0.0019134 -1.21052e-05 -0.000161879 -0.000160964 
-3.26549e-06 -1.21015e-05 2.38689e-05 -4.70894e-06 -5.67637e-06 2.10681e-05 -2.54856e-05 1.67038e-05 4.42276e-06 
2.2977e-05 4.46813e-05 6.21806e-05 8.5997e-06 1.16929e-05 5.34132e-05 2.93368e-05 -2.61145e-05 -1.06333e-06 
-0.000739328 -0.00176919 -2.93685e-06 -5.26652e-05 -1.16156e-05 0.00530586 2.10943e-06 -0.000882068 -0.000536046 
3.02213e-06 4.4286e-06 -3.51831e-05 -0.00254621 3.29619e-05 -5.92075e-05 0.00505086 -9.38153e-05 -0.000359953 
0.000165688 -8.50378e-06 0.000893311 0.000413243 0.0181982 5.36495e-05 -1.12352e-05 -7.1021e-05 -2.8316e-05 
2.21287e-05 0.00024059 5.80475e-05 -3.54984e-06 -1.98895e-05 -6.41948e-06 7.55458e-06 -3.28128e-05 -0.000146894 
3.09792e-05 0.000518562 1.16179e-05 -3.41511e-05 -9.977e-06 -3.67996e-06 -2.11506e-06 1.49761e-06 0.00340661 
-1.42529e-05 -6.07803e-05 -2.58025e-05 -8.682e-07 7.82659e-06 0.000298766 -0.000270972 -0.000108825 0.00136337 
-3.07324e-05 6.48863e-05 7.29268e-05 -7.66772e-06 -0.00408757 0.000144592 9.23375e-05 6.64708e-06 -1.30224e-05 
-0.00102149 -3.21697e-05 0.000127 -0.000161207 -0.00237262 -0.000161921 0.00151578 0.00248978 -4.96801e-05 
-1.15115e-05 -1.71065e-05 2.5404e-07 -8.11839e-05 3.00637e-05 3.3086e-05 1.66427e-05 -3.4261e-06 -3.46227e-06 
2.3704e-05 4.66541e-05 1.19706e-05 7.29315e-06 -1.81819e-05 2.39004e-05 -1.49055e-05 3.40903e-06 -0.000104329 
2.91418e-05 4.37005e-05 -1.42195e-05 7.04819e-05 1.86059e-06 -7.65818e-06 -1.16723e-05 -7.99669e-05 -0.000412187 
0.00125875 0.000291067 0.000175288 0.0022983 5.83119e-05 8.11346e-05 3.42954e-05 -3.01155e-05 0.000115282 
9.27394e-05 1.0013e-05 -5.20758e-05 0.000241768 0.000212261 -1.60653e-05 -2.3064e-05 1.87688e-05 -3.54031e-05 
0.000231532 -0.00100215 -0.00088475 -0.000186802 -2.71106e-06 0.000156778 4.36521e-05 9.92846e-06 0.000524341 
0.000196978 0.00107733 8.3684e-06 0.0121434 -0.0487347 2.86444e-05 -0.00034156 -0.000110034 0.000524589 
-5.10157e-06 6.97141e-05 -0.000827797 -0.000186627 -9.52165e-05 2.65905e-05 -0.000159685 -1.30417e-05 -0.000197649 
-1.78366e-05 2.55581e-05 1.42002e-05 -8.85692e-06 -0.000227003 9.15948e-05 3.8566e-05 7.84924e-06 -4.9207e-06 
1.61318e-05 -2.05574e-06 -0.000134174 0.00131728 -5.08026e-05 4.98145e-05 -2.63e-06 -1.0315e-06 7.93942e-05 
3.24137e-05 -3.6551e-05 0.00416817 4.41239e-05 5.9892e-05 -8.31321e-05 2.11448e-06 -9.23461e-08 1.29281e-05 
-1.79763e-06 3.46936e-06 -0.000376839 0.00207389 0.000261316 -0.000564952 -0.000172575 0.000208647 -3.4689e-05 
0.000101613 -2.85842e-05 -1.47071e-05 -5.48486e-05 0.000103881 -1.03065e-05 -1.96624e-06 -2.66643e-05 -5.25272e-06 
-8.67738e-07 0.000105839 6.61609e-05 8.75957e-05 0.000152329 1.78249e-05 -6.33573e-05 -2.9042e-06 6.11538e-05 
1.87237e-05 -1.21276e-05 6.16614e-05 0.000273874 3.1342e-06 -6.35639e-05 -7.09582e-06 0.000149654 -0.000272059 
-4.29457e-05 -0.000410703 -2.89905e-05 5.94399e-05 -3.59927e-05 -4.17893e-07 -1.04412e-05 -1.44188e-05 3.89669e-06 
1.34449e-06 3.40648e-05 5.76024e-06 -1.66345e-05 -6.27439e-05 -1.40138e-05 -4.31091e-06 -0.00138589 0.00196202 
0.000526408 -3.46907e-07 -2.50124e-05 0.000108821 -6.63391e-05 8.86039e-05 4.49689e-05 6.47083e-06 -6.62618e-05 
5.08618e-05 -4.02595e-05 -0.000943911 -3.28907e-05 1.48069e-05 -3.50779e-06 -0.00250165 -0.000190239 2.30215e-05 
2.07727e-06 -1.42428e-05 3.93475e-05 1.96047e-05 3.53872e-05 4.98433e-05 -0.000103801 -3.12454e-05 -9.40831e-05 
-1.61938e-05 -8.30085e-06 2.42515e-05 -1.33614e-05 0.00017031 2.03715e-06 -1.10411e-06 -2.33272e-05 6.05986e-05 
-0.000140888 -8.77022e-05 3.70202e-05 -8.27863e-05 5.07711e-05 -5.10461e-05 -5.88021e-06 1.89772e-05 -9.69587e-05 
4.2213e-05 7.59105e-05 1.08398e-05 -5.13225e-05 3.16004e-06 -4.73081e-05 5.72544e-05 -1.57588e-05 4.81176e-05 
0.00721559 -2.38065e-05 2.63511e-05 -8.02223e-06 9.53303e-05 -5.21946e-05 -7.86017e-05 0.000102404 -2.90557e-05 
-5.85832e-06 1.37697e-05 -0.000457143 6.4229e-06 0.000146958 7.12273e-06 4.57218e-05 -2.76454e-05 8.0347e-05 
2.49869e-05 4.78527e-05 -3.11497e-05 0.000162821 4.21898e-05 1.1434e-05 -9.7031e-07 -0.00011471 -1.46696e-05 
-2.01997e-06 -2.83189e-05 7.25362e-06 1.58528e-06 -7.32217e-05 -0.00021157 -7.00221e-05 2.45732e-07 4.19797e-05 
-6.69295e-05 -1.10717e-05 0.000434164 -5.23497e-05 -0.00012435 0.00022261 0.000208711 0.000770066 -0.00184261 
-0.000742047 0.00127001 0.0386703 -2.42036e-05 7.06361e-05 -1.02601e-05 -0.000127252 0.000116504 -2.23655e-05 
3.86326e-05 -1.34301e-05 4.67165e-06 2.09317e-05 -2.03345e-06 1.29343e-05 -1.42607e-05 2.59057e-05 2.96042e-06 
0.000285817 -4.64745e-06 -8.63975e-06 -7.52905e-06 6.28317e-06 -1.93927e-05 -0.00152213 0.000340274 -8.56018e-05 
-0.000784902 0.000202312 2.28345e-05 -0.00267001 3.06542e-05 3.76635e-05 2.60685e-05 -1.20506e-05 3.2397e-05 
-2.08014e-05 0.00047767 2.8486e-05 6.99215e-05 -3.89053e-05 -6.04168e-05 -0.000151401 -1.723e-06 0.0122603 
0.0169914 0.0207518 -0.000169779 0.000157107 0.00296703 3.06396e-05 -2.24338e-05 0.0107902 4.99612e-06 
-2.54048e-05 -8.39353e-05 -4.42764e-05 -0.000113324 1.7155e-05 -1.80558e-06 -2.00952e-05 -2.6538e-05 -1.16374e-05 
2.55385e-05 -0.00115434 -1.08145e-05 -3.2317e-05 -0.000104598 6.19158e-05 6.65561e-05 -2.74954e-05 -8.18582e-06 
4.6207e-05 -0.00191656 1.5449e-05 3.47044e-05 -7.10053e-05 8.03352e-05 -3.62234e-05 2.16973e-05 -3.29296e-05 
3.81558e-05 -3.53511e-05 1.89936e-05 5.88531e-06 -1.35851e-05 -1.28989e-05 0.000251301 -0.00017214 8.54572e-06 
6.10788e-06 -6.66566e-06 -2.7212e-05 0.0143802 4.51668e-07 -0.000116718 -2.95006e-05 -0.0173335 -6.08781e-05 
-0.000885508 7.99745e-05 -1.47102e-05 -1.76715e-05 -1.83829e-05 -9.32378e-06 -0.000192499 -0.00543472 -0.000132353 
3.8573e-05 4.98021e-05 -1.80182e-05 7.32156e-05 -1.06567e-05 -2.99554e-05 -1.17896e-05 -6.73923e-07 -2.59066e-05 
6.80181e-05 -1.70884e-05 -0.000456046 8.27974e-05 -3.15641e-05 1.83074e-06 -0.000106934 1.0872e-05 -0.00937289 
-5.77539e-05 2.12849e-05 4.26328e-05 -8.64038e-06 -1.87917e-05 4.62265e-06 0.00501187 -5.121e-06 -0.00496365 
-1.64145e-06 8.4622e-05 -8.57514e-05 -8.88245e-06 0.000148067 6.14486e-05 0.000108544 -0.00022275 3.07125e-06 
-8.5705e-07 0.0118407 0.0128322 2.26951e-05 
Major%20Principal%20Stress 1 12442 double
1.0431347655 0.97412468977 0.90324398339 1.0673854482 0.33340600977 0.3333470006 0.3333650024 0.33335100174 0.71175607309 
0.65808332328 0.74778276677 0.66385796317 0.66552974525 0.75871899967 0.66703281572 0.67886217824 0.47164900222 0.40354716687 
0.36708564591 0.36172385618 0.34764035196 0.35802481024 0.33280192414 0.3304845929 0.32916053212 0.32770948641 0.32803505697 
0.32826290821 0.32969341827 0.32976758594 0.33112227939 0.33046298406 0.33074999834 0.33123782133 0.33118101132 0.33351943294 
0.33634220017 0.339211585 0.34529368504 0.35266422956 0.36727638933 0.39491469752 0.44821051423 0.43223835713 0.40351305378 
0.39379803073 0.35923436108 0.35125879184 0.33960676429 0.34372233242 0.34058063067 0.33658194322 0.33390066085 0.33453144532 
0.33378696272 0.3320061503 0.33263126943 0.33120550048 0.33266156268 0.3339844617 0.33569238953 0.33614605582 0.34096409015 
0.34362905345 0.34964387802 0.35823440037 0.37266220124 0.39349369918 0.45245184059 0.3333640139 0.33334800024 0.33337500071 
0.33335800074 0.33335500227 0.33334500478 0.33333600849 0.33332301204 0.33330801554 0.33330801304 0.33329200135 0.33327300156 
0.33326700322 0.33327600662 0.33327101116 0.33327001362 0.33332200903 0.33329201634 0.33332800374 0.33332200736 0.33334601327 
0.33335501508 0.33336101343 0.33336700866 0.3333420007 0.33337100116 0.3333490184 0.45600981029 0.34018260743 0.31024024271 
0.29493613519 0.28554523295 0.28063720302 0.27813315375 0.27743408894 0.27779606517 0.27915906117 0.28127805101 0.28427205303 
0.28754906584 0.29201407112 0.29669909087 0.30240311282 0.30776810998 0.31316708819 0.3175350843 0.32184805078 0.32504103496 
0.32739702083 0.3289340063 0.32949800456 0.32925400007 0.32809400801 0.32635901625 0.32420302444 0.32198202876 0.31976902713 
0.31804602702 0.31673902058 0.31605701327 0.31608200456 0.31672800223 0.31806000033 0.31990500225 0.32211100579 0.32440200919 
0.32682101173 0.32910001302 0.33100001212 0.33257500437 0.33343600057 0.33348602531 0.33356701488 0.33336000124 0.33257700145 
0.33112500394 0.32923200573 0.3267300088 0.32437400788 0.3220420066 0.31978100333 0.3178000007 0.31648900081 0.3157480042 
0.31576601397 0.31650602364 0.31780602593 0.31966302795 0.32183302711 0.32436402248 0.32649301462 0.32820600366 0.32911500164 
0.32932100002 0.32854600411 0.32692300966 0.32455201059 0.32091503035 0.31682204754 0.31172006978 0.30664608178 0.30079309295 
0.29597509076 0.290897082 0.28678607978 0.28318306742 0.28052807715 0.27830406485 0.27714108244 0.27700809088 0.27801411563 
0.28056014733 0.28570811674 0.29448228068 0.31036751755 0.3431015708 0.44638492862 0.74685076352 0.81339615838 0.87220989278 
0.90810038932 1.038031159 1.0530058045 1.0088900275 1.0528535762 1.0795169464 0.90482491522 0.86810600354 0.81666730235 
0.75243790226 0.66024916541 0.80290314453 0.86704252842 0.90732860702 0.68903557387 0.79801169252 0.88375304969 0.79816976229 
0.78637570477 0.90462773901 0.86578656985 0.68241308333 0.59043081942 0.33328600448 0.33336900009 0.3333750082 0.33336700775 
0.33336400936 0.33335100999 0.33334101154 0.33332901046 0.3333150087 0.3332990067 0.33328701644 0.3333130045 0.33326001371 
0.33327600472 0.33327300202 0.33327600082 0.33328600567 0.33330500362 0.33331301573 0.33332601251 0.33333400884 0.33334500367 
0.33335300139 0.3333630002 0.33336700007 0.33337900346 0.33333001362 0.41442669377 0.3404047972 0.31159582599 0.29571886829 
0.28589160659 0.28099164964 0.27819632247 0.27713916441 0.2773781295 0.27859009386 0.28076109224 0.28367009632 0.28726404638 
0.29125711101 0.29591809115 0.30092108208 0.30607007032 0.31091505914 0.31587504396 0.32028502456 0.32394600948 0.32672600078 
0.32850600049 0.32945001049 0.32941602352 0.32859402877 0.32713903283 0.32496304426 0.32277503927 0.3206010317 0.31861001995 
0.31715501007 0.31630200321 0.31614100088 0.31669300282 0.31797801056 0.31958900857 0.32182001052 0.32408000939 0.32639100792 
0.32870300502 0.33081900092 0.33233900048 0.33336400817 0.33356402488 0.33362301608 0.33334700456 0.33234500066 0.3307210004 
0.32884500118 0.32641000367 0.32406200582 0.32175900828 0.31955800888 0.31780401064 0.31653400991 0.31582000224 0.31592900162 
0.31672400287 0.31820400958 0.32012101726 0.3224080286 0.32481403935 0.32679704804 0.32845703286 0.32926702986 0.32913200243 
0.32806800087 0.32601300068 0.32287000668 0.31934200992 0.31500701878 0.30973003264 0.3048240382 0.29966905362 0.29428705401 
0.2895880543 0.28568005089 0.28243804705 0.27981404466 0.2780520704 0.27708812704 0.27704723445 0.27829637069 0.28111573226 
0.28633365842 0.2962570322 0.31343579874 0.34490613929 0.42184611608 0.83770383744 0.80938201686 0.86563978981 0.90281725626 
0.78484590646 0.79673712512 0.80194296623 0.79887486879 0.78804578552 0.90829270173 0.87108336529 0.80838831283 0.65600721435 
0.84827001825 0.82981718664 0.88069243684 0.91724661355 1.044734586 1.0569177755 1.0580207699 1.0497884269 1.0311975145 
0.9007066797 0.8611255838 0.88471876987 0.70523317246 0.33313916921 0.33315838566 0.33318994594 0.33319892174 0.33323424672 
0.33328475445 0.33333926082 0.33339805087 0.33345995449 0.33349138504 0.33354515923 0.33359147373 0.33359433899 0.33358721521 
0.33357411305 0.33353476487 0.33349534465 0.3334344616 0.33337935411 0.33333424789 0.33327345927 0.3332279793 0.33318596597 
0.33316316063 0.33316452052 0.33312233334 0.33319700319 0.4190243214 0.3587284324 0.32952852363 0.31260952875 0.30330498713 
0.29689254498 0.29359009674 0.29185918545 0.29073880766 0.29113237829 0.29232168759 0.29403161506 0.29632848157 0.29943072329 
0.30296444316 0.30674154807 0.31025496633 0.31378926224 0.31697192077 0.31962949403 0.32173645297 0.32333636018 0.32428302904 
0.32459506417 0.32426086068 0.32361391025 0.32264939369 0.32132875864 0.31998426518 0.31891204843 0.31808288346 0.31766765338 
0.31773805334 0.318290632 0.31925974831 0.32061115636 0.32221384092 0.32407978083 0.32605104536 0.32794432439 0.32958782074 
0.3310761005 0.33215300793 0.33285430942 0.3320696159 0.33105589442 0.3295500149 0.3277701092 0.3257648957 0.32379542174 
0.32194370321 0.32017958332 0.31878812674 0.31785732777 0.31739000521 0.31743187123 0.31792245403 0.31879844988 0.32006257619 
0.3214130438 0.32260640569 0.32356121254 0.32410719584 0.32428200531 0.32387279286 0.32297540852 0.32137372906 0.31885577002 
0.31592123492 0.31261251852 0.30891438853 0.304950532 0.30145301648 0.29796937811 0.29502410969 0.2926905214 0.2908566362 
0.2897174607 0.28944171505 0.29076493806 0.29347178154 0.29763178011 0.30335326213 0.31332975943 0.33161338213 0.36241701838 
0.44612880491 0.40597376665 0.37518629339 0.3501239373 0.33351601025 0.31595132831 0.32230553404 0.31987277165 0.31910813296 
0.31898796088 0.31791079358 0.31857925958 0.3185693766 0.31906602457 0.31967188885 0.31958404245 0.31925753742 0.31817525768 
0.31937511 0.31952207778 0.32172014017 0.32472124271 0.32985599823 0.34067227403 0.35896687941 0.3860804595 0.55146870983 
0.32148750907 0.27326584818 0.24071809627 0.22595797295 0.22007742302 0.21782665668 0.21733553985 0.21701224966 0.21823662546 
0.2215420549 0.23073575399 0.24641736406 0.28502717599 0.34666053447 0.54602938624 0.34689272306 0.27471311775 0.23973489429 
0.22496970446 0.21874234381 0.21568848229 0.2146359024 0.21441368477 0.21507368046 0.21728739785 0.22299694917 0.23661518056 
0.26957151828 0.33056256677 0.40014398859 0.39566750349 0.42109277718 0.39037064624 0.44917503281 0.33277327051 0.33274396768 
0.33282407027 0.3329863122 0.33320246957 0.33343578362 0.33367962142 0.33393310253 0.3341324604 0.33428685369 0.33436661854 
0.33441600288 0.33434931111 0.3342659278 0.33408353477 0.333881772 0.33364868224 0.33342649188 0.33319976684 0.33297897766 
0.33279698609 0.33268263356 0.33263515958 0.33266714256 0.28398659045 0.38546028283 0.35271341919 0.33489267736 0.32332173392 
0.31545881631 0.30930501111 0.30512941497 0.30281002842 0.30145368921 0.30096217305 0.30104651096 0.30192303024 0.30323082694 
0.30516208027 0.3073495619 0.30947306806 0.31177293914 0.31402526083 0.31589523877 0.3174058123 0.31865596504 0.31957851467 
0.32021900463 0.32057798345 0.32050497775 0.32015119851 0.31965182405 0.31908254431 0.3184845607 0.31815275906 0.31807080626 
0.31832500052 0.31896138181 0.31988995003 0.32112546116 0.32252153671 0.32408505558 0.32572637672 0.32743744722 0.32889216989 
0.33027762068 0.33148112629 0.33252314359 0.32186079131 0.3772695532 0.33138861984 0.33015671151 0.32872123518 0.32706819968 
0.32531472029 0.32370026924 0.32204094512 0.32060555729 0.31944386751 0.31854618239 0.31801009929 0.31784497261 0.31799417151 
0.31838096252 0.31896704666 0.31956597507 0.31993609605 0.32009512176 0.32019508148 0.31994130175 0.31935482132 0.31838200593 
0.31684681527 0.31491459729 0.31284252829 0.31047560935 0.3080107194 0.30562202757 0.30354735931 0.3017637087 0.30036554584 
0.29947041695 0.29937881744 0.30044005738 0.30259274564 0.30582977048 0.31008677785 0.31613083051 0.32497498877 0.33879915134 
0.35909842479 0.43915571133 0.3624305053 0.34676923642 0.33840923411 0.33339305675 0.3314400293 0.32985282754 0.3288671064 
0.32825242797 0.32845691067 0.32839828259 0.3282748792 0.32855774787 0.32817479428 0.32826013355 0.32808607473 0.32810525693 
0.3285900835 0.33005082843 0.33265415541 0.33717167127 0.34471104224 0.35683549256 0.44522679953 0.30370011067 0.24952721864 
0.24364978626 0.24038270413 0.23895747742 0.24063119826 0.24555231409 0.25389257877 0.26922363944 0.29107430267 0.3152526498 
0.33527786914 0.3221617257 0.32923720442 0.31281466689 0.24789631589 0.2402609156 0.23658461438 0.23440756871 0.23488198375 
0.2382091818 0.2453692666 0.25882367199 0.2817622809 0.30448137787 0.43948361653 0.26268034139 0.28537254898 0.26230369777 
0.33246987324 0.37264595767 0.36114109558 0.35877801955 0.35995064101 0.30440338187 0.30841628815 0.33207908644 0.33229127505 
0.33272138417 0.33325250933 0.33382319114 0.33440628916 0.33488895013 0.33530650577 0.3355910916 0.33577776892 0.33582179653 
0.33563076835 0.33528741667 0.33481196335 0.33431668124 0.33376816979 0.33325376466 0.33275143068 0.33231493188 0.33200503733 
0.33185788938 0.34583586542 0.33681703134 0.32882978463 0.32309047098 0.31768799276 0.31384190273 0.31152223688 0.3098714595 
0.30868890719 0.3079548712 0.30798278225 0.30831318806 0.30894411515 0.30988686875 0.31103565233 0.31222645772 0.31331172536 
0.31424254842 0.31506527343 0.31572531116 0.31621899637 0.3165651656 0.31682857918 0.31717306207 0.31737488184 0.31732970236 
0.31716196073 0.31722409146 0.31745433282 0.31800201599 0.31885129804 0.31999540408 0.32125563532 0.32267098021 0.32417893945 
0.32573036773 0.32730354736 0.32874693981 0.32998936509 0.33111935227 0.33205658687 0.26327648983 0.39663133253 0.35564375266 
0.32249578701 0.3297569245 0.32842800147 0.32687808787 0.32531210458 0.32376373934 0.32219202405 0.32083195677 0.31947316004 
0.31843990724 0.31768123924 0.31717889287 0.31687596249 0.31680946697 0.31694715562 0.31694050342 0.31663851911 0.31650153938 
0.31619186543 0.31594285557 0.31544825631 0.314664656 0.31365588357 0.31248147513 0.31126448124 0.30999013096 0.30876222704 
0.30776842523 0.30706623696 0.30667795634 0.30674608006 0.30740134888 0.30948285858 0.31200446798 0.31561265421 0.31955574923 
0.32421130278 0.330619289 0.33926071821 0.38191539931 0.34938890907 0.38544407877 0.28714425976 0.34294964395 0.33842536728 
0.3353419826 0.33379018084 0.33311819393 0.33289775241 0.3330714343 0.33324567928 0.33326871679 0.33334289045 0.33325556145 
0.3331073826 0.33286490015 0.33259069268 0.33230816856 0.33278501201 0.33401362693 0.33663888964 0.34126522666 0.34771653385 
0.31790795722 0.40805472649 0.25997694664 0.26896992179 0.25974035246 0.26343002251 0.27050341147 0.28049264237 0.29224810069 
0.3072954343 0.33249110991 0.32841411216 0.316834088 0.38601658688 0.26350004887 0.25273599681 0.25464620548 0.26057019979 
0.27152148007 0.28555419256 0.29900400511 0.41229969426 0.3221578923 0.3309676536 0.2730617769 0.25688188771 0.25373893075 
0.35078448435 0.33192010855 0.34366155935 0.34237092399 0.30808474388 0.36980960165 0.28936298736 0.29991077241 0.34584145691 
0.34608265484 0.27413221319 0.35705948424 0.31185476394 0.33161602012 0.33263502402 0.33357106969 0.33467828083 0.33570248708 
0.33648786262 0.33718525472 0.33769336492 0.33792402158 0.33778664657 0.33717325484 0.33642262538 0.33554826577 0.33454356777 
0.33358882182 0.33265373066 0.33183536523 0.33125093411 0.3309314268 0.34222499362 0.32213497996 0.32189667249 0.27699010905 
0.31214290589 0.33690371145 0.33224894957 0.32789057517 0.3237163475 0.32067923506 0.31853947936 0.31616343646 0.31413010921 
0.31282727854 0.31191610934 0.31137215709 0.31115768289 0.3111656524 0.31125924359 0.31140497082 0.31156880554 0.31178323445 
0.31198437954 0.31217797743 0.31242446791 0.31292406273 0.31351667179 0.31427441366 0.31521130865 0.31504326496 0.31541496583 
0.3160064127 0.31680000027 0.31801743222 0.31949323153 0.32111334782 0.3226960979 0.32435711389 0.32601603469 0.32755780094 
0.32892087114 0.33011676116 0.33118972468 0.36055115332 0.27530735141 0.34461107142 0.27915395032 0.32860386823 0.32711965546 
0.32547008786 0.32389585103 0.32257938261 0.32061146218 0.31904117768 0.3177363574 0.31654100059 0.31558724642 0.31483682153 
0.31430070433 0.3144288712 0.31327434049 0.31251690886 0.31244494102 0.31227155576 0.31199437988 0.31194645776 0.31170642424 
0.31135690203 0.31108619968 0.31084069399 0.31063904537 0.31064038759 0.31095330528 0.31156268883 0.31255898145 0.31382541463 
0.31615187187 0.3195751935 0.32319263647 0.3263113668 0.32968605669 0.33391191505 0.33879395858 0.30020620652 0.37884545674 
0.33890793863 0.33791581799 0.33768498703 0.33817510056 0.3390307775 0.33946091479 0.3394929817 0.33975993659 0.34002068054 
0.34004130863 0.33955536519 0.33872119789 0.33768233422 0.3370961903 0.3371541638 0.33809175832 0.33980594274 0.37709437258 
0.32984277558 0.27825610587 0.28415798872 0.28273704908 0.28931207464 0.29659530276 0.30476786792 0.32605536682 0.30502641544 
0.26954388738 0.28946590407 0.29829978001 0.31166489524 0.35650294134 0.27270343928 0.37420747081 0.31898966818 0.28046942415 
0.30608222795 0.33683492147 0.33475595499 0.30324130119 0.31076434089 0.27149062362 0.289710994 0.3563281619 0.28266328739 
0.34107787612 0.31787894616 0.32653615469 0.3819088216 0.33514324699 0.26902891062 0.38675160065 0.34252454721 0.33278698418 
0.3343862528 0.33666285565 0.33749948671 0.33885667004 0.3398844414 0.34050362304 0.34075945751 0.34030049851 0.33860312568 
0.33761467298 0.33589233491 0.33447320109 0.33283327473 0.33144608788 0.33038683844 0.32253339658 0.29388704347 0.31590939732 
0.33920035715 0.33737639084 0.33511059257 0.33228290269 0.32806704614 0.32696991251 0.32422721993 0.32083903506 0.31799536526 
0.31602423198 0.31429057307 0.31276756854 0.31160854052 0.31067196307 0.30974078774 0.30891992823 0.30857199713 0.30819112571 
0.30776694803 0.3076272882 0.30812556307 0.30901900653 0.31036628215 0.31208117747 0.31274974882 0.31383894788 0.31503443176 
0.31654895151 0.3184589383 0.32077717153 0.32295983409 0.32455901004 0.32665319475 0.32823971247 0.32942270739 0.33043980104 
0.31503349243 0.35884035579 0.29182471841 0.34443683026 0.32735502205 0.32569505283 0.32352172097 0.31915478958 0.31672244395 
0.31454155407 0.31334411389 0.31155881965 0.31053913066 0.30810906707 0.30630024007 0.30833413625 0.30758638784 0.30774258736 
0.30898721156 0.30867410766 0.30934639954 0.3100724372 0.31102762428 0.31193755322 0.31315261003 0.31493296426 0.316977664 
0.31934264122 0.32063459904 0.32534309164 0.32940897138 0.33173418483 0.33411007937 0.33644332673 0.33904151015 0.28380842659 
0.32361697503 0.32934371013 0.33745950473 0.36557462953 0.34004736278 0.34112055256 0.34355174693 0.34520760124 0.34612404123 
0.34551075737 0.34766891943 0.34772232238 0.34692314028 0.34550750181 0.34305487021 0.34105393998 0.33976577662 0.33894949027 
0.29687804101 0.29492092046 0.30079139471 0.30974835343 0.35856515392 0.30513556705 0.36293319709 0.30918997688 0.35744639798 
0.2933834778 0.31092751089 0.28930724858 0.30722468008 0.3317285225 0.31361514571 0.33873794246 0.32423412934 0.37225878611 
0.31841389348 0.33121478686 0.30486165554 0.3465684025 0.34629527112 0.30501239233 0.28874179424 0.30926236328 0.28283035413 
0.33040076133 0.28614683534 0.29921457387 0.28730702756 0.30009279149 0.3035875876 0.36874462351 0.29511748203 0.3239221181 
0.33440946776 0.33978835761 0.34205391178 0.34351701154 0.34384883286 0.34493432293 0.34111644017 0.33704538736 0.33389491832 
0.33143607214 0.29701827486 0.31371935561 0.33905532084 0.33856711929 0.33543896924 0.32883769026 0.32374692654 0.32115456574 
0.31485580713 0.31013772421 0.30835951523 0.30516680852 0.30441028188 0.30353409533 0.3022681739 0.30155226894 0.30166662252 
0.30263038986 0.30717004284 0.30921233095 0.31125309767 0.31259255325 0.31481108969 0.3169312969 0.32697030707 0.33004365794 
0.33081843768 0.28366379952 0.30051877406 0.3049379964 0.31350455373 0.31673383829 0.31966016705 0.3247097754 0.32763441649 
0.33481845291 0.3384670483 0.33794780465 0.33904108365 0.33059885421 0.33488871383 0.34892014177 0.35144815402 0.35433901068 
0.35672474786 0.35414173671 0.35375502478 0.34841531612 0.34449553076 0.34171354241 0.33830947521 0.33121931997 0.35431141595 
0.35987898079 0.33271114514 0.32957635786 0.30354798565 0.33907484186 0.33298086862 0.31786212915 0.31229600948 0.30446963321 
0.32926111447 0.31993287816 0.35370193256 0.35035240588 0.34323175474 0.30208265401 0.30704249685 0.3094172379 0.31162683794 
0.34539550587 0.29360818914 0.29436219605 0.34679606157 0.36273577662 0.34646099678 0.2976446797 0.34404153727 0.35077037304 
0.3422980486 0.29364330111 0.34424872699 0.29811123546 0.34877980318 0.33313017423 0.33840708947 0.29506781798 0.33311311023 
0.33308265652 0.33312756679 0.33318612726 0.33322740735 0.333270822 0.33332300989 0.33338152206 0.3334403129 0.33350531182 
0.33354390724 0.3335653345 0.33358218038 0.33359236578 0.33358069989 0.33354346781 0.33350386808 0.33345276845 0.33339241242 
0.33333024856 0.33328161646 0.33321731296 0.33317921506 0.33314887107 0.33313470453 0.33315519174 0.3332750053 0.44153181857 
0.36398512732 0.33565220501 0.31746900156 0.30668360734 0.29971225073 0.29520677596 0.29253265123 0.29164853939 0.29146827853 
0.29243001801 0.29425361188 0.29643075084 0.29907371375 0.30235601091 0.30582056344 0.30915979155 0.31248035801 0.31542326318 
0.3182742898 0.32057385817 0.32220274477 0.32335566877 0.32385604083 0.32380928385 0.32329993244 0.3225266819 0.32143228573 
0.32032001481 0.31922009327 0.31839163211 0.31793930933 0.31792300193 0.31840624971 0.31931859344 0.32062471922 0.32225124527 
0.3240175471 0.32592493894 0.32774622686 0.32946185867 0.33095000356 0.33212312154 0.33284837421 0.33206465953 0.33080840168 
0.32925035816 0.32752904262 0.32553419405 0.32360173574 0.32183813903 0.32018791641 0.31886970839 0.31797099491 0.31749100581 
0.31758318545 0.31813175227 0.31916109108 0.32038191606 0.32163423695 0.32288197154 0.32376370318 0.32429280071 0.32416218367 
0.3235161105 0.32217559934 0.32022378557 0.31771796422 0.31476223187 0.3112797857 0.30766467828 0.3039050355 0.30036596108 
0.29691103125 0.29420671928 0.29203260736 0.29035315346 0.28981257898 0.2900651117 0.29142233364 0.29367257936 0.29789637735 
0.30413913863 0.31484937156 0.33258479872 0.36627259607 0.41017932797 0.36054975085 0.35206592813 0.33736575394 0.33646623198 
0.33493733204 0.33021023431 0.32473216799 0.32284826984 0.32195824235 0.32214432288 0.3212928006 0.32005981817 0.32006913692 
0.31893201864 0.31943955355 0.31948259057 0.320313204 0.32128080387 0.3227290215 0.32369749267 0.32758551096 0.33236895218 
0.33932759408 0.35031923839 0.37144549347 0.39705578077 0.59044802025 0.34450412266 0.27095067645 0.23772641303 0.22532517735 
0.21922215776 0.21734185981 0.21623241895 0.21702169884 0.21883659552 0.22146152946 0.22735116411 0.24275285026 0.27536438964 
0.34396282962 0.61192958393 0.33198272339 0.26835422637 0.23963340797 0.22777250782 0.22121507782 0.21828049746 0.21702790263 
0.21686673528 0.2172370045 0.22010461712 0.22638726827 0.23906780895 0.27223529894 0.331859472 0.37674589965 0.37689402248 
0.33290025973 0.4285338533 0.40411201624 0.33244652497 0.33255023771 0.33283447487 0.33299437852 0.33317928805 0.33343334352 
0.3337035799 0.333961447 0.33417893218 0.33437738081 0.33449147836 0.33448101 0.33447219831 0.3343619859 0.33416952719 
0.33395549628 0.33371720347 0.33345230717 0.33320128123 0.33297030095 0.3328039759 0.33265424081 0.33258663848 0.33261880486 
0.34168229482 0.33205296898 0.45466012982 0.35980934515 0.38395537003 0.32843833216 0.31923140173 0.31276260747 0.30837704204 
0.30529312736 0.30355700954 0.3023583386 0.30195474742 0.30236726178 0.303464632 0.30509051597 0.30692230824 0.30894332486 
0.31092854412 0.31279903391 0.31453842778 0.31610196322 0.31738810226 0.31828266253 0.31886100825 0.31921904323 0.31936980197 
0.31938749345 0.31912135145 0.31871634229 0.31831483263 0.31812926441 0.31813987847 0.31844800961 0.31909042724 0.32006780995 
0.32127500346 0.32267235711 0.32426567948 0.32588551963 0.32741366822 0.32895383186 0.33037263408 0.33157893461 0.30705873368 
0.45019130787 0.32142824469 0.33111311559 0.32991197951 0.32844518083 0.32690504633 0.3252248603 0.32365458906 0.32209406462 
0.32064333543 0.31950128985 0.31862961496 0.31811432218 0.31798006341 0.31816542706 0.31859013298 0.31911828285 0.31965145295 
0.32004363294 0.32021179265 0.3201020922 0.31962934919 0.31886460985 0.3176488487 0.31603501971 0.31410939388 0.31198019294 
0.3095935814 0.30715180852 0.30497774094 0.30298951211 0.30119617344 0.30016245226 0.29964858271 0.300168643 0.30147766317 
0.30328993379 0.30602156191 0.31056671037 0.316417759 0.3260959979 0.33915789972 0.36063168001 0.38282534161 0.34740656416 
0.36025337703 0.33825205822 0.33322307081 0.33178054847 0.33019000821 0.32942045437 0.32900549743 0.32911055064 0.32873417645 
0.32860080487 0.3282760188 0.32845502233 0.32840615685 0.32871821826 0.32922156 0.32949496984 0.33070220576 0.33294640782 
0.33613424359 0.34177847407 0.34965736919 0.3627814913 0.32286238617 0.33093993065 0.45555069772 0.28167088137 0.26205654026 
0.25042245015 0.24253630772 0.23947081073 0.2387628564 0.24055308949 0.24444985798 0.25385587975 0.26866341886 0.28696390589 
0.31283060557 0.28198981591 0.26298693343 0.25165130414 0.24424896309 0.24084230369 0.23947284839 0.24015360371 0.24401572509 
0.25073559729 0.26290942741 0.28302089354 0.30637820067 0.43605169619 0.33263147365 0.30679789499 0.33026127225 0.37789016455 
0.37255555804 0.33025328655 0.36983287245 0.35869993796 0.40299269751 0.33323247103 0.33236284485 0.33380935371 0.33441372037 
0.33499224552 0.33545473329 0.33578976345 0.33596971536 0.33597736749 0.33580433781 0.33544777673 0.33499330099 0.3344232594 
0.33384944232 0.33327709392 0.33277406499 0.33233431189 0.33200460602 0.33179562078 0.33179454947 0.39539066779 0.33373681486 
0.31140572888 0.39243906601 0.34203836817 0.32245364422 0.31815231397 0.31460878711 0.31220098761 0.3104096869 0.30919005648 
0.30861020618 0.30858326467 0.30906758835 0.30985344189 0.31064008951 0.31144517045 0.31214697731 0.31283896828 0.31333109865 
0.31386343191 0.3143939393 0.31488515228 0.31528955033 0.31566481553 0.3160235354 0.316246052 0.31643881985 0.31673511113 
0.3172079408 0.31788503899 0.31886977142 0.32009764505 0.32145249395 0.32295842263 0.32458272065 0.32616839091 0.32754727413 
0.32889405717 0.33018299418 0.3315365758 0.3131543304 0.32826239561 0.32676281096 0.32536643209 0.32384731019 0.32227928088 
0.3207507356 0.31953268292 0.31847791219 0.31773099345 0.31724683019 0.31703110261 0.31695309187 0.3169194931 0.31675483705 
0.31654137939 0.31639500941 0.31594771822 0.31547919451 0.31483438062 0.31411738864 0.31309316298 0.31189670747 0.31076742857 
0.30939765955 0.30821870852 0.30769369885 0.30713286966 0.30661593132 0.30699021437 0.30859088261 0.31042487693 0.31270923297 
0.31530608289 0.31941828714 0.32486722512 0.33205462161 0.34152821356 0.35255706916 0.33811575034 0.34257480323 0.30977209263 
0.32892147018 0.32888536692 0.33568244685 0.33475588553 0.33380664877 0.33312817941 0.33310566682 0.33356772665 0.33364288988 
0.33337495005 0.33334193579 0.33346708822 0.33346265081 0.33335734292 0.33318909351 0.33360879856 0.33483271262 0.33690824032 
0.34017696975 0.34490848898 0.35184048442 0.30205875009 0.32280446127 0.32752055815 0.42373153527 0.28769874031 0.27684713377 
0.26832714372 0.26213064657 0.25932218664 0.25961430849 0.26311077264 0.27009071826 0.28136551495 0.29368704839 0.28829197355 
0.37972966563 0.27684903526 0.26870610191 0.26386083936 0.26086443519 0.26063433563 0.26327322544 0.26853552215 0.27738472371 
0.2885963131 0.30039854664 0.40759037462 0.33274334493 0.32959069568 0.300030035 0.33077597953 0.33214101208 0.35295597042 
0.31510710259 0.34652055455 0.34775765605 0.35302411112 0.34298874929 0.30462458688 0.37571707936 0.3335227305 0.33674461701 
0.33740091334 0.33787265707 0.33813204191 0.33798660623 0.3375277281 0.33673328585 0.33582425677 0.33467742667 0.33360915362 
0.33266943594 0.33187184536 0.33122115174 0.33083207021 0.30007387994 0.30662846925 0.32582990469 0.32261555258 0.32546804105 
0.32909283373 0.31952304336 0.31702903899 0.31478024887 0.31316391647 0.31205326161 0.31143054774 0.31110431007 0.31075326633 
0.31039759345 0.30991347049 0.30949245437 0.30937143043 0.30943527173 0.30984261664 0.31045917184 0.31110328598 0.31182969148 
0.31267191205 0.31367674089 0.31441735463 0.31525058919 0.31649042768 0.31795357855 0.31966127393 0.32148520958 0.32318873893 
0.32500783469 0.32679535467 0.32813660553 0.32934465067 0.33040042144 0.33136682653 0.31200947999 0.36297944398 0.33849874566 
0.30599327462 0.39301651375 0.32182002954 0.32721042495 0.32856208258 0.32421383573 0.32238476093 0.32063707469 0.31904961878 
0.31767727209 0.31651964011 0.31569368899 0.31502569596 0.31438681885 0.31373884144 0.31311690398 0.31254813034 0.3120316332 
0.31176889734 0.31151271431 0.31138265359 0.31134478906 0.31097565167 0.31080025481 0.3104962707 0.31012307828 0.31078025333 
0.31132593563 0.31176605237 0.31287250349 0.31523702666 0.31780075314 0.32032652867 0.32288468247 0.32583830825 0.33039688781 
0.33503737785 0.3404731189 0.32500009326 0.34134990602 0.33867193106 0.31637781994 0.32686450038 0.34066882898 0.35521641563 
0.33882959475 0.33854367741 0.33785424675 0.33965007038 0.34053874453 0.34024028909 0.33981678374 0.34013318422 0.34033548379 
0.33978172988 0.33903190144 0.33827662559 0.33807186 0.3385395699 0.33921223403 0.30916254906 0.33575119158 0.3158913941 
0.31417699518 0.3297647954 0.33467717133 0.37644181192 0.28899316101 0.28247718547 0.27832240948 0.27700018629 0.27782750452 
0.28309947487 0.29066441542 0.29964867599 0.30172400387 0.28690585723 0.28204279592 0.27894633669 0.27806343671 0.27959615475 
0.28249652564 0.2875835868 0.2940256413 0.30094866686 0.379708324 0.39311931831 0.29425808596 0.2939088921 0.32859517501 
0.37073049355 0.33181043342 0.33295394921 0.33348356809 0.3353149468 0.30826614938 0.33257614163 0.33643308514 0.34134316091 
0.35528170553 0.34478343344 0.33897357519 0.33965201376 0.34060164157 0.34072804312 0.33915159369 0.33830129515 0.33620139721 
0.33432883294 0.33271899707 0.33143653336 0.33036861426 0.30770447759 0.33997382664 0.32892378853 0.32128490915 0.3176046739 
0.31588497387 0.31365140816 0.31229636218 0.3105982382 0.30873381112 0.30684769614 0.30530647922 0.30373149691 0.30303398583 
0.30292213189 0.30324309047 0.30441357045 0.30617781997 0.30781108747 0.30949974369 0.31148861233 0.31229922574 0.31470583471 
0.31647325796 0.31906492831 0.32187097142 0.32422186371 0.32574832208 0.32770870263 0.32931267849 0.33044695523 0.33117609654 
0.32502602243 0.32818541339 0.32209567919 0.32687285691 0.32939713621 0.32249422023 0.32008496701 0.31822213791 0.31641936525 
0.3147726625 0.31331739216 0.31217573139 0.31076890459 0.30911361801 0.3078703206 0.30719885664 0.30652877534 0.30620930057 
0.30707947539 0.30801880681 0.30914221748 0.30930600831 0.31114332728 0.3131899036 0.31523918921 0.31632423336 0.31977984059 
0.32363388705 0.32691754666 0.32964421797 0.33160627866 0.33328017344 0.33743755128 0.31279926924 0.31076575599 0.31647751985 
0.342002355 0.34253748727 0.37218863749 0.34667347657 0.34806425019 0.34623958253 0.3459216895 0.34773515482 0.34645849028 
0.34468454623 0.3430306243 0.34099771626 0.33986590805 0.33811962871 0.37298983181 0.38014684481 0.34382350362 0.30863189235 
0.31424514567 0.33796477673 0.33192203937 0.29627574069 0.29865015297 0.29157154155 0.29540959543 0.28931893759 0.29257322553 
0.29734708795 0.30346908875 0.30804500811 0.32499022141 0.31809187628 0.32050234706 0.3566040486 0.29374781955 0.29291630028 
0.29274787081 0.2942175058 0.29686294166 0.30047156421 0.30403421221 0.34135296892 0.3400516481 0.32945304949 0.35565979353 
0.32523304663 0.30937732503 0.33752277861 0.33419937267 0.32841048314 0.33337458267 0.32921987766 0.33247269757 0.299743639 
0.30627170017 0.34797051457 0.3015081903 0.3361200274 0.30451366226 0.30389236974 0.34225885788 0.36443481607 0.36052109683 
0.33524533332 0.3119799124 0.33881212507 0.33380787355 0.33094456343 0.3417681472 0.36638960663 0.3179659394 0.32335792126 
0.32765206044 0.3293181033 0.33088005123 0.33241413197 0.3294660533 0.35200638142 0.32231206475 0.32671865155 0.31605930649 
0.32978216732 0.31529031919 0.32099472991 0.32720058342 0.33306906441 0.3361610596 0.33721264824 0.33758181095 0.33363082252 
0.35568804176 0.34534162109 0.34183957887 0.31397606102 0.35065512723 0.34450309844 0.3545322802 0.350154751 0.34757917998 
0.34302142745 0.33984886921 0.3402616152 0.36558781427 0.35550567847 0.34291990922 0.33837863374 0.34614669625 0.33349310254 
0.35332467328 0.33563318115 0.34573158923 0.31244218111 0.31837221334 0.31028665626 0.30875604626 0.30066845574 0.30221229712 
0.3055685903 0.35534261064 0.35060428057 0.29950100775 0.33736176183 0.34793101328 0.33912618475 0.35918358614 0.3344030595 
0.34572502443 0.34359699047 0.354497535 0.33980241874 0.34713334685 0.28105998718 1.0130454138 1.0397322727 0.68775220403 
0.4398888314 0.39201451975 0.36136635476 0.44405661156 0.39116585683 0.40467636175 0.42153367541 0.42181083307 0.42309646067 
0.42445541798 0.42502433715 0.42741964208 0.42841765146 0.42905822207 0.42882078196 0.42805762003 0.42779249323 0.42737716224 
0.42809120224 0.42987975918 0.43106025794 0.43420048799 0.43966176266 0.45137479556 0.47554684224 0.50570637398 0.72179932689 
0.69508637278 0.44029674347 0.39386604323 0.39507459037 0.45314052378 0.34775412881 0.44134756399 0.44080831942 0.43760780703 
0.43432308925 0.43454569999 0.434333555 0.43372125884 0.43271741578 0.431322636 0.4317339605 0.43354088556 0.43600639342 
0.43506737576 0.43872704451 0.44130327013 0.44545798436 0.45334497485 0.46368322772 0.48213317137 0.52127150809 0.73202288291 
0.33330000864 0.33340700688 0.33340500009 0.33338200187 0.3333840038 0.33337600641 0.33335901033 0.33333301386 0.33331101719 
0.33329301511 0.33327600599 0.33324100317 0.33317400018 0.33322200664 0.33322200998 0.33322901435 0.33324500988 0.33327401327 
0.33328401229 0.33331700777 0.33333301181 0.33335601692 0.33337901704 0.33338801267 0.33338500421 0.33338000019 0.33340500524 
0.33339801497 0.626624623 0.36431809973 0.31943429277 0.30017288703 0.28884552608 0.28222343056 0.27879131212 0.27732016787 
0.27724911787 0.27816110057 0.27994408411 0.28250907698 0.28572507414 0.28955909791 0.29417210759 0.29943813771 0.3050571432 
0.31053012816 0.31546510914 0.31985708482 0.32364405213 0.32643403067 0.32839001292 0.32943500515 0.3295890021 0.32886200439 
0.32736001831 0.3253560298 0.32310903703 0.32083103906 0.31881203479 0.31726102835 0.31624101866 0.31589500886 0.3162450036 
0.31725000135 0.31887100262 0.32093600629 0.32322201047 0.32561301373 0.32800301552 0.33012201436 0.3319000087 0.33314100101 
0.33357201265 0.33343400691 0.33346801089 0.3335630008 0.33307900007 0.33194200296 0.33024700593 0.32802200989 0.3255530113 
0.32318301042 0.32085200768 0.31869200399 0.31702200154 0.3159700019 0.31558800737 0.31599101993 0.31703602845 0.31864503403 
0.32069703539 0.3231100364 0.32551602895 0.32749501587 0.32883700659 0.32942500187 0.32915500021 0.32794500676 0.32594201277 
0.3229360224 0.31903104836 0.31439507955 0.30925110192 0.30372112267 0.29831112339 0.29332512579 0.28869711389 0.28481910633 
0.28169110075 0.27922410825 0.27749211334 0.276777144 0.27712318225 0.27875825498 0.28235930408 0.2888655086 0.3001443546 
0.31886894263 0.33639712153 0.59670920279 0.79857411224 0.62202375543 0.77044478438 0.84929158361 0.89477119305 1.166928179 
1.1922069274 1.2032196156 1.2032104537 1.191459516 0.9244906939 0.89253781866 0.86367735086 1.041754879 0.96647988575 
0.80844912818 0.86310861271 0.78875921111 0.84535661813 0.89355037982 0.92576666947 0.94399790807 0.95383631386 0.95415443449 
0.94453077814 0.92254567342 0.89059791177 0.84527842817 0.79070296171 0.78296931064 0.33327600219 0.33340700348 0.33344600143 
0.33342701119 0.33340101144 0.33337301163 0.33335701409 0.33333201425 0.33331001287 0.33328401087 0.33323801782 0.33324301075 
0.33321100597 0.33322001082 0.33320900498 0.33321300374 0.33319600159 0.33325000614 0.33325400929 0.33333301622 0.33334601213 
0.33335600887 0.33338200463 0.33339700208 0.33341100125 0.3334300008 0.33338500712 0.33335800639 0.60224833407 0.33858692848 
0.31977147413 0.30085691085 0.28918120249 0.28247329127 0.27891963284 0.27722832444 0.27695717546 0.27774413918 0.27947411495 
0.28206711273 0.28529010983 0.28913207504 0.29350012806 0.29841210771 0.30352410099 0.3085650849 0.31352407132 0.31828604306 
0.32235502293 0.3256010061 0.32788600049 0.32924500458 0.3296650199 0.32920203073 0.32803103754 0.3261450516 0.32386905273 
0.3216300459 0.31949003518 0.31771202 0.31653400922 0.31600700205 0.31622400262 0.31717200789 0.31866801135 0.32062801199 
0.32292901272 0.32525401171 0.32760500945 0.32985800483 0.33170300137 0.33299100249 0.33359101968 0.33343000906 0.33344200862 
0.33359200839 0.33295100227 0.33162800054 0.32986300182 0.32768500425 0.32526000719 0.32290400966 0.32060801139 0.31859401197 
0.31704701263 0.31600600607 0.31569300393 0.31614200485 0.31730101022 0.31902401875 0.32116903082 0.32358504509 0.32582805278 
0.32773005087 0.32899903717 0.32941601665 0.32881400245 0.32726200019 0.32465800507 0.32130101203 0.31735202368 0.31250104142 
0.30736205685 0.30230606629 0.296968081 0.29188608141 0.28755307633 0.28396207036 0.28100006844 0.27880808204 0.27743612952 
0.27691522549 0.27741038356 0.27933769261 0.28316242375 0.29010570524 0.3025626768 0.32471482168 0.36955786563 0.60494036087 
0.81206906028 0.90757714713 0.81562054019 0.84396678514 0.89006375542 0.92351680859 0.94284258487 0.95303288963 0.95455289423 
0.94597456857 0.92540859268 0.8954311464 0.84936200279 0.80883817278 0.84814766646 0.7907632416 1.030006783 0.82095950105 
0.86142536191 0.90429399197 1.1771432444 1.1988793031 1.205770105 1.2018766197 1.1867405617 0.91945515629 0.8876427115 
1.0583489306 0.9671616898 0.83114888288 0.33337600296 0.33336200094 0.71282099802 0.69884929297 0.73641502487 0.71241352094 
0.66175135545 0.63841059865 0.45690390352 0.40374898008 0.3887413123 0.36391923979 0.36686120407 0.36312993756 0.36029094239 
0.34130720429 0.35383853484 0.32262503797 0.33353399271 0.33089257195 0.33962092375 0.32786390671 0.33879949788 0.32541748657 
0.33305467311 0.32415641683 0.32637237767 0.32404807908 0.33227260127 0.32188280571 0.32841279548 0.32342838589 0.32625820688 
0.32061549231 0.32835554178 0.32257533527 0.32908162289 0.32089510463 0.32901428816 0.32441855814 0.32786529985 0.32792027774 
0.33090495865 0.32846264681 0.3272681542 0.33081582273 0.3339339467 0.33478142668 0.33559254082 0.33842512769 0.33903581817 
0.34666754974 0.346769418 0.35553790936 0.35370870815 0.37396704576 0.36901945005 0.39119096785 0.41090887174 0.46941280854 
0.33332901192 0.33322901906 0.33320305829 0.3332553056 0.33323937568 0.33321164205 0.33326294614 0.33325005446 0.33321357807 
0.33327002851 0.33324813722 0.33324582131 0.33328316509 0.33326926918 0.33326101875 0.33330982007 0.33329791099 0.33329961011 
0.33333425398 0.33333028322 0.33331275221 0.3333672439 0.33336322233 0.33335333063 0.33340472341 0.33338766138 0.33339014551 
0.33341684563 0.33341662264 0.33343510788 0.33344368394 0.3334495389 0.33346518655 0.33344972555 0.33347055519 0.33349910587 
0.33347109509 0.33348205881 0.3335231744 0.33346805083 0.33348108337 0.33349700309 0.33345854428 0.33347062768 0.33349094113 
0.33343148215 0.33343961201 0.33346974756 0.3334214204 0.33342752843 0.33344053235 0.33338427421 0.33339730046 0.33340899768 
0.33335172283 0.33334987497 0.33336657667 0.33332298026 0.33333004241 0.33337098927 0.33329282711 0.33329880373 0.33332606814 
0.33325619506 0.33327411459 0.33328034856 0.33324516515 0.33325305361 0.33325702338 0.33322913672 0.33323101039 0.33322596337 
0.33325241726 0.33322632387 0.33322068857 0.33325211434 0.33321602647 0.33318679807 0.33326600426 0.33329000198 0.33338800424 
0.33317808498 0.44077410712 0.43920211639 0.38354809705 0.35401428929 0.33547600332 0.38237313574 0.32164692115 0.31295622544 
0.34056185926 0.30481626927 0.29952427134 0.31932505029 0.29504662836 0.29222287409 0.30686727743 0.28917725912 0.28766621676 
0.2993186912 0.286096399 0.28567913273 0.29460761345 0.2849030104 0.28498300006 0.29236226524 0.28444960803 0.28504875039 
0.29100326419 0.28529444952 0.28630365564 0.29070663001 0.28694116984 0.28839150617 0.29152428064 0.28930243329 0.29090999577 
0.29298162469 0.29200793623 0.2942013965 0.29501765768 0.2957971467 0.29808148802 0.29772847597 0.29987890792 0.30264312348 
0.3011153607 0.30458633834 0.30719118019 0.3048160652 0.30898487482 0.31160643446 0.30851759015 0.313412467 0.31554309347 
0.31211126236 0.31718156099 0.31927993657 0.31550902977 0.32063177744 0.32219836748 0.31845614146 0.32326675315 0.3244384435 
0.32085470287 0.32525055168 0.32601632173 0.32271799715 0.32648331501 0.32677924855 0.32398975556 0.32693300531 0.32683302572 
0.32461113547 0.32665543717 0.32612157828 0.32457468804 0.32577228938 0.32495741525 0.32405532798 0.32445897414 0.32343608055 
0.32320728406 0.32274939419 0.3216904272 0.32201232409 0.3209913325 0.31994327691 0.3206257814 0.31939673559 0.31856766982 
0.31936829874 0.3181398749 0.31750978958 0.31839543786 0.31729723719 0.31697218281 0.31773962755 0.31700200226 0.31701201433 
0.31755809055 0.31729035382 0.31759942152 0.31787656926 0.3180821187 0.31872026134 0.31865701607 0.31940202854 0.32029216427 
0.31984142482 0.32109776753 0.32216787406 0.32135056955 0.32310831784 0.32422437512 0.32311893411 0.32522043258 0.32639943314 
0.32506607619 0.32735401325 0.32846296865 0.32702832773 0.32928837114 0.33021729531 0.32882715337 0.33096541668 0.33174126979 
0.33041095046 0.33227954586 0.33273042031 0.33171841131 0.33308908182 0.33320302894 0.3325679491 0.71846804797 0.33319400901 
0.3326723721 0.33227043045 0.33174795033 0.33103505381 0.33162661875 0.33027676601 0.32934487296 0.33037742182 0.32845159737 
0.3272216981 0.32871562919 0.32621311041 0.32505413013 0.32680218549 0.3240682958 0.3229222587 0.32478534729 0.32199488285 
0.32088677119 0.32284671894 0.32000404317 0.31904888544 0.32099721758 0.31835211117 0.31772199118 0.31940277677 0.31725736835 
0.31690428123 0.31821955251 0.31667200526 0.31668300135 0.31749836511 0.31670722669 0.31707430103 0.3172631964 0.31732093824 
0.31796303748 0.31753401713 0.31839975178 0.31929685929 0.3182319946 0.31993634651 0.32099638294 0.31933774369 0.32167254323 
0.32289947644 0.3206961009 0.32348613759 0.32452100275 0.32202849038 0.32499228302 0.3258221008 0.32315491413 0.32607840102 
0.32652131663 0.32395058986 0.32660500214 0.32669700285 0.32433928346 0.32648336831 0.32610152273 0.3242504777 0.32563855067 
0.324843794 0.32360776356 0.32402543418 0.3228567499 0.32236380786 0.32158016519 0.31978777897 0.32029804207 0.31829760698 
0.31627715319 0.31754809723 0.31460271818 0.31210028301 0.31439936788 0.31022573034 0.30773107219 0.31085989707 0.30571648124 
0.30284557416 0.30696910624 0.30110071822 0.29871556634 0.30319385574 0.29696329647 0.29446291023 0.2996581576 0.29299531704 
0.29095291484 0.29639446949 0.28978629792 0.28799682311 0.29372272073 0.28708524931 0.28575095824 0.29162316965 0.28517395557 
0.28408363529 0.29011141562 0.28396140646 0.28338128761 0.28935875855 0.28405105076 0.28402215006 0.28979400297 0.28538092843 
0.28593446534 0.29173129899 0.28799247041 0.28938086526 0.29504890449 0.29220219328 0.29498708753 0.29979891999 0.29988169378 
0.30469647045 0.30725449534 0.3132227327 0.32264273579 0.32010462857 0.33738452972 0.35984752542 0.34294041438 0.37918551484 
0.43104397238 0.38102027733 0.36881074523 0.40128537148 0.3676960841 0.36302433265 0.35363908694 0.38153978848 0.34194482651 
0.33543819033 0.36146149092 0.32042652791 0.32368367644 0.35297348845 0.29108210086 0.2927837429 0.33026552243 0.31775733104 
0.30289436953 0.31344129473 0.30511086528 0.30106695385 0.3282402897 0.30036562782 0.29844038389 0.32742566367 0.29819337194 
0.29663889335 0.3270546575 0.29966447105 0.29733471113 0.32644013432 0.29746629827 0.29649235002 0.3262729947 0.29764175122 
0.29753326033 0.32657151437 0.29770225552 0.29773609851 0.32656323116 0.29762223522 0.29806483661 0.32723458824 0.29619576051 
0.29731126553 0.3282888349 0.29609967966 0.29760604281 0.3279486316 0.29677229211 0.29976162599 0.32703011454 0.29617263795 
0.30064686897 0.32703482081 0.29888472986 0.30360349398 0.32758611513 0.30041613627 0.30648763214 0.32827111297 0.30293070209 
0.31052217552 0.33113644715 0.30840052273 0.31757621905 0.33539136031 0.31575503558 0.32882901859 0.34260245536 0.33241316446 
0.35036032855 0.35567069425 0.35853844158 0.39628785538 0.37699337905 0.59438478394 0.65420331984 0.29691344272 0.3360662044 
0.24267973823 0.26670728091 0.29690969793 0.21825573204 0.21913160099 0.25155916494 0.21094762865 0.20882291011 0.23200079801 
0.20868880294 0.20676273581 0.22323641918 0.20829166796 0.20708261616 0.21968660113 0.20810414977 0.20754763207 0.21827822334 
0.20741047548 0.20815004541 0.21785640061 0.2071160827 0.20871308389 0.21829966841 0.20752640801 0.20985036109 0.22002367655 
0.21177908647 0.21433843184 0.22524460514 0.2246563335 0.22543411012 0.2351131908 0.27397573297 0.25757652198 0.25642908247 
0.37854960311 0.32790540882 0.30087115077 0.62541682444 0.61338486674 0.33550992282 0.35231880295 0.24477766797 0.26613867247 
0.28974744775 0.21943529537 0.21948949283 0.24971382171 0.21120633709 0.20910711392 0.2304661805 0.20836979369 0.20676236562 
0.22221178167 0.20724056147 0.20611028167 0.21791988579 0.20684756021 0.20637841007 0.21609712729 0.20638315184 0.20661188457 
0.21563054393 0.20579014721 0.20670477349 0.21581624368 0.20554844758 0.20695863772 0.21710977597 0.20750715473 0.20955792355 
0.2206978788 0.21643390257 0.21683762316 0.22934762128 0.24938716139 0.23924159027 0.24992812673 0.33015630483 0.29954483087 
0.29514089832 0.33327600716 0.39902781237 0.4734322303 0.49283342812 0.47071800737 0.46076678249 0.44829226595 0.3522193773 
0.48556851695 0.50180995047 0.36618734727 0.48909419608 0.46969671019 0.35410113378 0.34732512758 0.42423460313 0.39403259866 
0.48663100051 0.44742500739 0.33295803118 0.33296903075 0.33296289092 0.33294194455 0.33278112971 0.33300185391 0.33302521822 
0.3328172211 0.33308670294 0.3331197737 0.33292010614 0.33323070124 0.33327502063 0.333102701 0.33337800265 0.33343092609 
0.33331394739 0.33353093766 0.33359232173 0.33352857624 0.33370085172 0.333742703 0.33375108948 0.33381928499 0.33387077322 
0.3339587301 0.3339414031 0.3339684056 0.33413483098 0.33400015843 0.33402536616 0.33423260166 0.33403512366 0.33403507893 
0.33428597837 0.33400224132 0.33399190086 0.33427478248 0.33395025496 0.33392527625 0.33420736618 0.33384931461 0.33380541759 
0.33408543735 0.33371643544 0.33366697352 0.33391107671 0.33357345944 0.33350811015 0.33371996092 0.3334061101 0.33336397592 
0.33352891117 0.33325901518 0.33321546789 0.33333202469 0.33312191336 0.33308888454 0.33312766643 0.33298483982 0.33296871266 
0.332914658 0.33291927612 0.33290217262 0.33278759697 0.33288048082 0.33288810924 0.33270697966 0.33290076366 0.33286664881 
0.33268419001 0.26469294736 0.28218308393 0.40252948063 0.38876479482 0.37277285655 0.33295321395 0.35757914404 0.34166784551 
0.33368694767 0.32427360669 0.34198185926 0.31885230687 0.31400161505 0.32783191602 0.31007559445 0.30662359999 0.31820683818 
0.30353742933 0.30174414253 0.31152842759 0.29971760334 0.29875421709 0.30656806485 0.29754778028 0.29700304265 0.3035672423 
0.29629854095 0.29649300316 0.30173509201 0.29620737576 0.29679773648 0.30087199415 0.29681935726 0.2976975595 0.30070408039 
0.29810454032 0.29923209848 0.30123364942 0.29983854463 0.30140673675 0.30235360924 0.30236744429 0.30410081789 0.30402193264 
0.30521374202 0.30703682368 0.30611991867 0.3081233613 0.3098240336 0.30832119719 0.3110162123 0.31270859989 0.31059466968 
0.31389768137 0.31540347921 0.31291770515 0.3163896066 0.31765619338 0.3150084077 0.3184555012 0.3194566457 0.31673325206 
0.3201247118 0.32088191818 0.3181437555 0.32137815224 0.32182332903 0.31924691608 0.32217715985 0.32232009438 0.32003342884 
0.32251732773 0.32235154251 0.32053100098 0.32232286335 0.32201521245 0.3206624348 0.32183789732 0.32138496087 0.32042451101 
0.32111898113 0.32050917682 0.31996623538 0.32019725983 0.31957391148 0.31939662234 0.31925137534 0.3187597804 0.31875586016 
0.3185721224 0.31820387561 0.31825412821 0.31813212102 0.31795953523 0.31801186919 0.31806021926 0.31811602056 0.31807769292 
0.31841392576 0.3187024889 0.31851687854 0.31915431584 0.31963807936 0.31931009878 0.32025098431 0.32091503446 0.3204074381 
0.32160942841 0.32239784946 0.32174958288 0.32317538591 0.32409013259 0.32326052406 0.32491182914 0.3258731585 0.32489254837 
0.32673742989 0.32765711077 0.32659977242 0.32840489544 0.32919777464 0.32821450323 0.32991008296 0.33061694135 0.32965489653 
0.33123389222 0.33177128971 0.33094350632 0.33229316414 0.33267759066 0.33204196553 0.31948817374 0.35110758298 0.39866220053 
0.36798714084 0.36324956303 0.3317147001 0.33118160248 0.33057420031 0.32981676219 0.33081734144 0.32910791954 0.32821344898 
0.32948141781 0.32739865853 0.32639712992 0.32793002865 0.32553197166 0.32454529917 0.32621097344 0.32375896583 0.32283857234 
0.32449833329 0.32201661372 0.32115198148 0.32283545766 0.32044441928 0.31976040933 0.32124277521 0.31919176653 0.31871932015 
0.31991589907 0.31827379962 0.31805751463 0.31888839135 0.3177710106 0.31781645864 0.31816233292 0.3176970768 0.31797588135 
0.3178163875 0.3179996807 0.31846489905 0.31782332359 0.3186268765 0.31927156897 0.31811229574 0.31952563093 0.32021794691 
0.31862811785 0.32046870718 0.32109844611 0.31926309848 0.32122275965 0.32172849173 0.31978775547 0.3217603072 0.32206231714 
0.3200828838 0.32206650288 0.32218300266 0.32022941296 0.32202783672 0.32183866056 0.3201735546 0.32152756004 0.32108455442 
0.31976300431 0.32059152931 0.31978774317 0.31899294797 0.31902916638 0.31777039997 0.31773809502 0.31681361564 0.31531958204 
0.31599512492 0.31433757497 0.31264759867 0.31396663747 0.31150703462 0.30963473431 0.31172515994 0.30845433974 0.30644869068 
0.30927988262 0.30533158599 0.30350387036 0.30680016073 0.30256594328 0.30075073478 0.30452594858 0.29995289868 0.29839230811 
0.30255627614 0.29781228203 0.29654070234 0.30094181257 0.29620359369 0.29518509929 0.29975344137 0.29527064779 0.29460862343 
0.29922108876 0.29524086365 0.29509321707 0.29961543675 0.29623532093 0.29685521898 0.3012473213 0.2984958929 0.29989696491 
0.30370398086 0.30216346098 0.30423932908 0.30741377342 0.30732367699 0.31034781058 0.3123988858 0.31467828378 0.32015555093 
0.31957751234 0.32667191768 0.33706285651 0.33031997925 0.34574272927 0.36433971829 0.37022385971 0.34704510879 0.33283739242 
0.36635655823 0.37162910947 0.43622668643 0.49838591147 0.43579065293 0.35400541623 0.34317796252 0.33514638092 0.34188633254 
0.35475283707 0.32948847038 0.32794265573 0.34312567385 0.32986355709 0.32218734125 0.33663720365 0.32361009323 0.3264082987 
0.33085121744 0.32252449156 0.32384908604 0.32940839002 0.3213049244 0.32244408164 0.32850959392 0.31973307967 0.32259578056 
0.32763549397 0.32070724732 0.3226021641 0.32732348319 0.32041881766 0.32202293508 0.3275072553 0.32085789614 0.32157347517 
0.32738717107 0.32180596312 0.32166729032 0.32715105339 0.32195181389 0.32065469123 0.32715999823 0.32214590174 0.32032524524 
0.32720823805 0.32197786597 0.3203596712 0.32723614298 0.32219780385 0.31993274922 0.32730666721 0.32208001056 0.32070933728 
0.327454824 0.32415680655 0.32180639221 0.32860043028 0.32628684285 0.32437794338 0.33059378478 0.33069577156 0.32902845993 
0.33438330802 0.3380560411 0.33794602494 0.34044550746 0.34925081524 0.35340129344 0.35024782975 0.37039991817 0.49182498325 
0.45549880234 0.29007046112 0.31091462468 0.31201743936 0.29288413696 0.23596419107 0.23831047342 0.23133898635 0.23231176203 
0.24559239227 0.22911311845 0.22965149027 0.24100997769 0.22831686542 0.22864080709 0.23883465865 0.22987716697 0.22953990929 
0.23887890267 0.23425461014 0.232937188 0.24185251531 0.24395009162 0.23933002657 0.24876725476 0.26073309212 0.25174336072 
0.259229882 0.29164817379 0.27195121086 0.2777613121 0.32741950011 0.29946287718 0.30186888086 0.37026691757 0.34226607125 
0.34612188427 0.32193903404 0.33886757624 0.35128367321 0.29141412117 0.32295115849 0.23446212586 0.23743736592 0.22866126801 
0.23005816568 0.2433540313 0.22604774019 0.22652339705 0.23806998002 0.22476859884 0.22479725595 0.23526499804 0.22528632076 
0.22494775008 0.2344185326 0.22818628358 0.22710990403 0.2360934385 0.23492290712 0.23224633032 0.24079049671 0.24909098156 
0.2427374405 0.24999697 0.27715103898 0.26232767853 0.26634349608 0.31810021503 0.28936471249 0.2894207469 0.43875182033 
0.49341150111 0.44323556909 0.33283369329 0.24588156589 0.25310406111 0.25433085695 0.2652603024 0.28301457223 0.29660828102 
0.24562324743 0.25334764532 0.27033619154 0.25343444737 0.36601548272 0.27103556319 0.33279591995 0.33285045114 0.3328424236 
0.33255793257 0.410924341 0.38184833741 0.37452123241 0.33224180835 0.37469421412 0.341674082 0.35976112863 0.3981806797 
0.40988335913 0.33197799562 0.33265808751 0.32515360915 0.35782585124 0.31136662718 0.34751277974 0.36612818687 0.32312637143 
0.39855825992 0.34100744106 0.29319630832 0.30857144729 0.31351310536 0.3054743325 0.33242074028 0.3324494639 0.33255578576 
0.33264926174 0.33218154779 0.33282417219 0.33296323382 0.33252206987 0.33318892313 0.33338134134 0.33300266498 0.33360218715 
0.33379803069 0.3335269834 0.33402143449 0.33421720326 0.33408785869 0.33440623203 0.33455298583 0.33460122961 0.3347092174 
0.33485079587 0.33504339688 0.33495323875 0.33503113854 0.3353718611 0.33509479068 0.33514542164 0.33559589302 0.33515435115 
0.33511764247 0.335701 0.33503512905 0.33497057072 0.33563512971 0.33483291096 0.33468856572 0.33537622099 0.33450205239 
0.33434339676 0.33498585275 0.33415226081 0.33396073898 0.33452292938 0.33374456471 0.33356135585 0.33402249488 0.33335816267 
0.33319239437 0.33352106741 0.33298024151 0.33283108366 0.33302573338 0.33264268954 0.33253790722 0.33256497152 0.33238821014 
0.3323235738 0.33217835939 0.33225027032 0.33224370339 0.33195533874 0.36050346378 0.34984462224 0.34028678611 0.33691501925 
0.3301097845 0.34038204671 0.32663088239 0.3224875021 0.33217353098 0.31975497287 0.31642348226 0.32536322467 0.31380206366 
0.31167482828 0.31981287298 0.30979999466 0.30855043962 0.31529341563 0.3073527787 0.30668415453 0.31230656627 0.30581288625 
0.30559290249 0.31037623031 0.30495323459 0.30500162971 0.30898673257 0.30460561522 0.3050811807 0.30804863916 0.30504796938 
0.30569043717 0.30773485721 0.30584862654 0.30678982891 0.30793951271 0.30709885978 0.30816194301 0.3084424854 0.30863224901 
0.30967061563 0.30927625907 0.31025820157 0.31137425652 0.31036902313 0.31198666583 0.3130723393 0.3115891177 0.31363380637 
0.31455138199 0.31274428281 0.31502185581 0.3157746182 0.31376528971 0.31618951023 0.31681583725 0.31466101272 0.31714851539 
0.31761068463 0.31541847747 0.31785690146 0.31818083047 0.3160037694 0.31834551492 0.31854112355 0.3164308278 0.31865808329 
0.31864745964 0.3167436019 0.31880284161 0.3186520441 0.31705680846 0.31874389757 0.31852725368 0.31732854006 0.3184852787 
0.31825192789 0.31737967854 0.31813161177 0.31788328415 0.31723390369 0.31789108805 0.31774931986 0.31716264325 0.31784859517 
0.31782492773 0.31728377447 0.31809287898 0.31822200118 0.31765352743 0.31864424696 0.31895737444 0.31834517526 0.31953619879 
0.31997744258 0.31935010957 0.320623265 0.32120611071 0.32056897192 0.32193718373 0.32259789585 0.32192272416 0.32337337562 
0.3241201203 0.32340637726 0.3249211942 0.32570143733 0.32495828729 0.32651585762 0.32733437813 0.326537991 0.32808513186 
0.32878590188 0.32806469033 0.32943234183 0.3300993417 0.32941583271 0.33067179935 0.33126528273 0.3306015926 0.33175578227 
0.33224957966 0.33244276906 0.331622347 0.25230536375 0.25402831933 0.41389006122 0.39179486477 0.36473548536 0.35357278986 
0.35007099816 0.35587155324 0.34033962374 0.32209456845 0.32993986557 0.32921311197 0.3285568813 0.32773260428 0.32911554464 
0.32695844688 0.32609015937 0.32767778137 0.32530761391 0.32452144456 0.32611547081 0.32373471208 0.32292434794 0.32453591073 
0.32212424142 0.3214412396 0.32294912939 0.32074079672 0.32019231004 0.32145656177 0.31948900105 0.31909331201 0.32010110658 
0.31853652388 0.31829140879 0.31887722071 0.31787716062 0.31783168893 0.3179883554 0.31754031147 0.31765014325 0.3173555656 
0.31746537487 0.31766874055 0.31696523473 0.31761254673 0.317910389 0.31679684664 0.31795804894 0.31827034328 0.31685122153 
0.31823169387 0.31842190993 0.31696368694 0.31825377441 0.3183505629 0.31681282918 0.31825290617 0.31831923109 0.31659817847 
0.31814947285 0.31802520691 0.31637319962 0.31789306553 0.31760058528 0.3161017222 0.31735881647 0.31686450306 0.31573803543 
0.31647687712 0.31569639156 0.31510091761 0.31521383302 0.31423431355 0.31420762049 0.31368105292 0.31259982727 0.31309616563 
0.31206369823 0.31084894202 0.31191040456 0.31024634496 0.30900428892 0.31063727812 0.30842967546 0.30719977201 0.30935225458 
0.30676526573 0.30569797462 0.30817513743 0.30539265153 0.30445910197 0.30732302969 0.30434849632 0.30353320566 0.30678050136 
0.30368840375 0.3031536152 0.30654902506 0.30358958901 0.30350917436 0.30685198692 0.30457512872 0.3051214425 0.30816407744 
0.30641228792 0.307523429 0.31048010711 0.30929741227 0.3110265967 0.3133466328 0.31282867845 0.31528773065 0.31698868862 
0.3175542876 0.32077157071 0.32138070837 0.32366393226 0.32863595133 0.32673263243 0.33234901346 0.34012743227 0.33405627687 
0.37787156904 0.40448929563 0.3539130828 0.34663380184 0.40568093339 0.38047641959 0.27508830924 0.28622454653 0.34344914609 
0.33987449223 0.34668091509 0.33800465347 0.33530254093 0.34097817861 0.33393161767 0.33240890672 0.33705747413 0.33188275036 
0.33092283696 0.33463333418 0.33071509645 0.33032298603 0.33354795672 0.3301289762 0.32993829451 0.33309509731 0.33000539219 
0.33012418359 0.33309931213 0.33009366914 0.33019784653 0.33322516043 0.33010179789 0.33013321268 0.33329500667 0.33015538313 
0.33017020743 0.3333622937 0.33015014456 0.32998976585 0.33332845029 0.32998768237 0.32992108849 0.33323363882 0.3298719875 
0.32980258909 0.33303295521 0.32969610557 0.32975315448 0.33280645243 0.32945450573 0.32986620838 0.33249722676 0.33003392773 
0.33079560622 0.33266450188 0.33139080775 0.3326686006 0.3335529598 0.33378140007 0.33609316747 0.33552472239 0.33842765646 
0.34192777126 0.33945327789 0.34514989656 0.35047329718 0.35328152971 0.34505404387 0.32546405525 0.31661116987 0.42603782757 
0.43183288395 0.39296959637 0.24989454236 0.25074775548 0.26070588319 0.2566333249 0.25955706862 0.26467336294 0.25055902183 
0.2496560046 0.25890348438 0.25519946258 0.25250710486 0.26059556173 0.26299585832 0.25875204936 0.26568769358 0.27577677737 
0.26793858491 0.27387809921 0.29289770722 0.28136883117 0.28554138384 0.31082925148 0.29901834898 0.29985265447 0.35149449976 
0.33313521622 0.32937070869 0.34536168047 0.31514061562 0.32152243213 0.32182573207 0.31039960552 0.37946754483 0.40867779395 
0.25251026325 0.25634975539 0.24400776677 0.24381018044 0.24662589617 0.24509726498 0.25303358043 0.25339662744 0.24991324724 
0.25667376565 0.2657175058 0.25921738843 0.26477481549 0.28415173044 0.27270614691 0.27699359368 0.3038649677 0.28953345832 
0.29131111538 0.42506724701 0.43272223554 0.40516143101 0.3965718051 0.32175192967 0.33979202344 0.33238191825 0.33116620614 
0.33053263131 0.33038530795 0.26247272929 0.26823993871 0.27942843988 0.27000475808 0.24714730918 0.248911899 0.25930741223 
0.24432115756 0.24538461794 0.25462748173 0.25261530384 0.30341110965 0.35599285294 0.35620859237 0.34950311674 0.34434396396 
0.33225530774 0.3323038641 0.34833872564 0.33410919354 0.33295119367 0.34516845978 0.31389392338 0.31462841058 0.38608315864 
0.37214378039 0.33219414096 0.33161736788 0.34411903994 0.36237853056 0.27601175515 0.28859295999 0.29574754185 0.36534970508 
0.29358701338 0.29171784338 0.39417814305 0.33190409725 0.31323385696 0.30111993865 0.30614693093 0.32567898542 0.35688462399 
0.34113961171 0.35674660265 0.33842666376 0.34844197459 0.33206355811 0.31493587169 0.33146456529 0.36546657106 0.26184597132 
0.26926939148 0.2802323821 0.26757973398 0.35281187968 0.36593127438 0.31412156994 0.30968050835 0.3044279407 0.33194470754 
0.33220586809 0.33262902717 0.33298614483 0.3321259665 0.33335643149 0.33375534973 0.33311063686 0.3342143639 0.33463397222 
0.33412516456 0.33499460166 0.33534046495 0.33517656274 0.33566252554 0.33595888901 0.33603761551 0.33623018198 0.33645418583 
0.33677282415 0.33664046224 0.33679633605 0.33735626026 0.33687439219 0.33692362714 0.33770062247 0.33686706619 0.33672193009 
0.33777271702 0.33647485133 0.33621947426 0.33740618551 0.33592591039 0.33558718112 0.33674368647 0.33525346419 0.33489544149 
0.33594840987 0.33450312998 0.33410073779 0.33502545294 0.33372623989 0.33336918598 0.33407216208 0.33297791925 0.33265669607 
0.33314140233 0.33230328625 0.33204231582 0.33227069048 0.33178231196 0.33161754643 0.33156244827 0.33146491314 0.33139454355 
0.3311038279 0.34471085599 0.33951940629 0.33249890576 0.3217963455 0.32152629377 0.33218140038 0.26881896207 0.26915178334 
0.31039982984 0.31669849433 0.31684011804 0.33727033265 0.3326676443 0.33921734767 0.33109760293 0.32775120279 0.33429722986 
0.32579561787 0.32290578863 0.32982018689 0.32099073728 0.3189130588 0.32560667455 0.31746781962 0.31627396431 0.32194152264 
0.31518110474 0.31434333729 0.31938640982 0.31313600079 0.31254078577 0.31711064865 0.31150473463 0.31114302098 0.31490560887 
0.310467099 0.31049286658 0.31325875227 0.31002695329 0.31016976631 0.3121608919 0.30991930438 0.3101775458 0.31144398601 
0.31012734767 0.31055643121 0.31107063897 0.3105871168 0.31110896477 0.31101145953 0.31119664347 0.31174816229 0.31108992957 
0.31184176442 0.31236968415 0.31121469869 0.31243722398 0.31291897088 0.31136868305 0.31300755942 0.31344648264 0.31155653289 
0.31351467418 0.31388159812 0.31177685145 0.31394018434 0.31422953016 0.31198509523 0.31431512163 0.31451887282 0.31221969459 
0.31473100451 0.31489819214 0.31260904594 0.31514865934 0.31536927327 0.31318282878 0.31570337442 0.31585594747 0.31389825977 
0.31628358827 0.31631205846 0.31479046069 0.31617533675 0.31616885609 0.31510374076 0.31630098154 0.31638366739 0.31521895128 
0.31664084941 0.31678941067 0.31568629961 0.31714941506 0.31745700305 0.31633941591 0.31802998812 0.31846613796 0.31732632403 
0.3192108692 0.31974906237 0.31869567794 0.32059833826 0.32117519131 0.32027761963 0.32200235475 0.32265552819 0.32190282329 
0.32353722761 0.32422245197 0.32355104144 0.32510994504 0.32582193383 0.32521990889 0.32664502833 0.32737939281 0.32683747302 
0.32810896691 0.32878933514 0.32829262019 0.32943118251 0.33001511009 0.32956812836 0.33058367529 0.33113133996 0.33069314415 
0.35544386889 0.37060846863 0.34688614552 0.26646271243 0.26996896454 0.34163586831 0.34816206424 0.34671818056 0.27006266496 
0.27204108017 0.27733214299 0.32849941566 0.32773164376 0.32696509939 0.32622116823 0.32790684367 0.32535023325 0.32462610384 
0.32633171825 0.32379712464 0.323049782 0.32469850424 0.32237230758 0.3217322133 0.32326508254 0.32068268584 0.32009391668 
0.32161452083 0.31927998339 0.31877985624 0.31977009558 0.31808675372 0.31775714292 0.31837567301 0.31711107127 0.31690088271 
0.31710676446 0.31639950967 0.31625250397 0.31601973809 0.31588191419 0.31583204539 0.31515911158 0.31558454511 0.31562153464 
0.31454921356 0.31570251219 0.31568088827 0.31431597058 0.31511982423 0.31495235152 0.31389148161 0.31454345732 0.3145067225 
0.31285834771 0.31450113817 0.31431150575 0.3124060358 0.31423530124 0.31412126958 0.31225443281 0.31397609471 0.31372158157 
0.31209122196 0.31370976841 0.31330514239 0.31194279026 0.31318727186 0.3126850005 0.31179267361 0.31252047615 0.31190679131 
0.31148358517 0.31181801429 0.31122549226 0.31115162577 0.31107364875 0.31049247083 0.31092547833 0.31027821332 0.30979232827 
0.31071706496 0.30976188412 0.30929918587 0.31051970178 0.30942334286 0.30910705951 0.31064639261 0.30944127102 0.30920710731 
0.31110831872 0.30978025077 0.30971169987 0.31194277152 0.31040551049 0.31070779606 0.31300932763 0.31189802365 0.31293428943 
0.31474122623 0.31465595553 0.31607411974 0.31762470477 0.31776001649 0.31971934614 0.32109808864 0.32108190181 0.32332577536 
0.32438068638 0.32477368048 0.32738708728 0.32766612214 0.32924115863 0.33289411837 0.33138703753 0.33471277148 0.33976073215 
0.34100238746 0.33588478318 0.29336977118 0.29991463393 0.39237597767 0.38506621941 0.33840211169 0.33700430502 0.33656719982 
0.33580078994 0.33880470581 0.33564442164 0.3354051871 0.33805658687 0.33557598938 0.33554580294 0.3381024905 0.33583980899 
0.33604831343 0.33877296167 0.33615201716 0.3363915205 0.33942809335 0.33632307936 0.33640527767 0.33956165686 0.33647919957 
0.33653538913 0.33971749761 0.33664906635 0.3365879721 0.33999040613 0.33665192572 0.33650479191 0.34012513227 0.33633836446 
0.33612405289 0.33992738901 0.33578337292 0.33556182002 0.33930078652 0.33511135321 0.33491289335 0.33835460111 0.33468244007 
0.33491582227 0.33760699496 0.33490956805 0.33561395909 0.33733491106 0.33599843873 0.33727690193 0.33779130795 0.33820303352 
0.34029813814 0.33913288788 0.3828749833 0.3921392271 0.3766851326 0.32979418727 0.3291220883 0.32924002941 0.33139040931 
0.27153274722 0.26946486447 0.27670756358 0.27413002205 0.27713657043 0.28090409366 0.27714093098 0.27359853644 0.2799100986 
0.28557063088 0.28029702978 0.28526290736 0.29544211208 0.28897503777 0.29192892336 0.30601698069 0.2985317634 0.30860331897 
0.32654569677 0.33601850989 0.30629159906 0.30148741088 0.26242868309 0.26154012637 0.28793050842 0.28049357694 0.29910168914 
0.29130559035 0.29374677238 0.3017246721 0.31621217033 0.31007236644 0.36615898664 0.35280243167 0.36707386372 0.26702981557 
0.26408419744 0.27045365768 0.38227931722 0.37465464619 0.32483239498 0.31824617263 0.31572186884 0.27655743788 0.2708249899 
0.27591379372 0.28456795724 0.30295476409 0.30673891788 0.30334507148 0.33095172589 0.3436614625 0.33270078536 0.34003929136 
0.34764402349 0.33174722198 0.33138176019 0.3441247249 0.31663774684 0.32869927715 0.33637397639 0.33032923491 0.29579180362 
0.30409417258 0.30690669659 0.30723406682 0.31284727614 0.3315894074 0.26462561144 0.27269524641 0.26292103624 0.28167597789 
0.28839736385 0.29499492902 0.36577215547 0.36020629349 0.34626177206 0.27818955779 0.27336085037 0.27917518124 0.33952898924 
0.34041750153 0.34168903809 0.35294562309 0.36709852871 0.34186767535 0.3303914556 0.30913681962 0.30824122833 0.30019405422 
0.32241567597 0.32241594704 0.31725102394 0.34329963204 0.33562701476 0.3286366592 0.32369182577 0.33165590366 0.37043854733 
0.38591739671 0.34107026015 0.33747619128 0.32910842114 0.26861265253 0.26117598848 0.26178048771 0.39691523832 0.39448224985 
0.38073296949 0.39720021063 0.34577949067 0.34755638417 0.33983236506 0.33054050782 0.33264578164 0.33322954451 0.33390405977 
0.33460989326 0.33358871062 0.33553530662 0.33624563394 0.33557443809 0.33657709728 0.33708788366 0.33710679232 0.33761692197 
0.33810437582 0.33817241 0.33850366481 0.33887418681 0.33929343664 0.33910715119 0.33926371345 0.34010936204 0.33936329634 
0.3392340996 0.34053529442 0.33912541205 0.33866047188 0.34050720805 0.3379694019 0.33747036359 0.33946655597 0.33709626177 
0.33649950671 0.33806221782 0.33580001914 0.33514485604 0.33678276463 0.33460024391 0.33396080453 0.33514650704 0.33326303922 
0.33268031365 0.33365075965 0.33207660819 0.33159347331 0.33215975708 0.33111799805 0.33080516934 0.33093876824 0.32194333085 
0.32853732047 0.29234288512 0.29819524894 0.28400609046 0.31409417642 0.31861994431 0.31894249771 0.34061714494 0.33773660475 
0.33978171392 0.33732601768 0.33468182205 0.33822467583 0.33396459606 0.33143126249 0.33610434847 0.33036598961 0.32806347457 
0.33358302003 0.32606250051 0.32444257694 0.33017541902 0.3239594659 0.32282748605 0.32745861249 0.3214860113 0.32026897335 
0.32550293316 0.31857933733 0.3175506435 0.32241863189 0.31613062342 0.3154893289 0.31927901467 0.31450021197 0.31402449139 
0.31687565661 0.31318568429 0.31286125273 0.31499655677 0.31217472549 0.31198268327 0.3133775964 0.31150552609 0.31140333841 
0.31206718419 0.31101857274 0.31097844902 0.31107651808 0.31057776314 0.31061904678 0.31013523586 0.31022601858 0.3102852249 
0.30924346448 0.31013306825 0.31022460766 0.30852106858 0.31004343557 0.31015057224 0.30814224188 0.3099368454 0.31003644521 
0.30773316831 0.30997898394 0.31009157778 0.30743847999 0.31034970477 0.31057092923 0.30761952327 0.31100905488 0.31128554011 
0.30836800648 0.31193108245 0.31232024909 0.30957222822 0.31311224891 0.31364919098 0.3111895334 0.31364182728 0.31389282556 
0.31416834884 0.3123426037 0.31461738257 0.31497215215 0.31326464246 0.31552074068 0.31596311193 0.31438333878 0.31667054099 
0.31730398242 0.31574293891 0.3182345769 0.3189569432 0.31741947625 0.32013588223 0.32086290067 0.31958000404 0.32203421258 
0.32275382198 0.32193604528 0.32359311316 0.32438230613 0.32383775324 0.32548567164 0.32625171469 0.32566885774 0.3271033797 
0.32782835306 0.32754433645 0.32847301339 0.32912129113 0.32891355503 0.32967053023 0.33024296038 0.31818341903 0.31343243451 
0.36494867773 0.35879014521 0.28461707514 0.2861388582 0.34110776985 0.34880825717 0.32717083548 0.32640553394 0.32555173546 
0.32475165169 0.32658963271 0.32405892541 0.80841342782 0.84123674108 0.32302194524 0.32203450971 0.32468842246 0.31988380696 
0.31909492762 0.32126704305 0.31843167388 0.86826828197 0.88857656933 0.3171719957 0.31662350619 0.31785923612 0.31554574735 
0.3150331764 0.31569192278 0.31450140641 0.31410269003 0.31388300891 0.31326828784 0.31290969572 0.31248446825 0.31256214355 
0.31248135654 0.31101406022 0.31185518287 0.90544660453 0.92171693033 0.31069082578 0.31036537383 0.30933478787 0.30940366062 
0.30944551859 0.30700016739 0.31051073284 0.31037449904 0.30724042735 0.30999963989 0.30986141939 0.30778444458 0.30995006645 
0.30993129183 0.30754304962 0.31050787845 0.31043229738 0.30832955373 0.31028833193 0.31009192771 0.30873648267 0.31045473308 
0.31026792783 0.30883112192 0.3106105324 0.3105563347 0.30959318185 0.31093477772 0.31093603862 0.31049887937 0.31127328229 
0.31142491645 0.31141674929 0.31198789335 0.31218015048 0.31233235486 0.31304766227 0.31332820389 0.31382409559 0.31434159432 
0.31481827828 0.31591080637 0.31604566862 0.31660148504 0.3180849446 0.31729770595 0.31847930746 0.31991286779 0.32081406284 
0.32262570313 0.32280382886 0.3245679299 0.32652436391 0.32721875622 0.32749896443 0.32931236828 0.33044799267 0.33026367081 
0.33224757003 0.33274202414 0.33325997733 0.33555692953 0.33507485975 0.33011249047 0.32947870989 0.33868805513 0.33836302462 
0.27856635725 0.27705314702 0.3292681185 0.32264191331 0.31910400653 0.32893842198 0.32823580035 0.32839272839 0.34680081044 
0.34041489661 0.3726361906 0.37299607923 0.33873831373 0.3388569639 0.33988060602 0.33923065435 0.33957060673 0.34078447667 
0.34071036829 0.3413703573 0.34244064605 0.34187726506 0.34232248846 0.34474918855 0.34264094837 0.34284177145 0.34578041548 
0.34242513898 0.34259596384 0.34590375095 0.34363416849 0.34377280859 0.34667224563 0.34388737478 0.34376825192 0.34776656903 
0.34347123356 0.34300930126 0.3474228595 0.34252495594 0.34195691034 0.34648805389 0.34088854334 0.34027874114 0.34457541673 
0.33936893245 0.33898400081 0.342267627 0.33841993566 0.33837337845 0.3406799345 0.33798010523 0.33844233296 0.33959741418 
0.33843389771 0.29358128188 0.29021345358 0.2873733535 0.29008835328 0.29279119968 0.28603828251 0.27970307125 0.29909405419 
0.29521715728 0.29826689737 0.31047108388 0.30728326693 0.35985849112 0.36681787241 0.36162394289 0.30493138375 0.30081827557 
0.3027731862 0.30745643155 0.36289621317 0.3723557232 0.33986810937 0.31001817081 0.30707046621 0.36653846395 0.35876875484 
0.34966734534 0.36110787236 0.28860904995 0.28608725937 0.29476026559 0.30860252395 0.31131226031 0.28422444513 0.28358731657 
0.28998105453 0.29091964496 0.30360774849 0.30646276826 0.33163016734 0.33222680758 0.33226671977 0.38354417348 0.31585801467 
0.31287035626 0.31182747461 0.33954324769 0.3386918923 0.33921218409 0.33925482244 0.32484950695 0.3303651005 0.37738995873 
0.38049205993 0.32222047359 0.32153380683 0.31807125049 0.32692097854 0.33206998987 0.29928206839 0.30410927068 0.31329593948 
0.31429007873 0.32998498029 0.31200823011 0.33088611194 0.2695323085 0.35303578551 0.35001216968 0.93136307937 0.79336308325 
0.34265330757 0.35225724664 0.35387390007 0.35190338225 0.33732882378 0.33627191104 0.30724055177 0.30469753827 0.30154946835 
0.32986342836 0.33923753369 0.28221420891 0.2861550539 0.30612549221 0.30982723791 0.30679092159 0.28267008153 0.27652301386 
0.2763781445 0.31753835169 0.32110363475 0.34318289391 0.30920078117 0.36703784813 0.33171633439 0.32741838342 0.27953383131 
0.2844357822 0.28347613083 0.29655531883 0.29205922094 0.29475440718 0.33812299667 0.33296786017 0.27965471692 0.28169503144 
0.28744896699 0.33627569673 0.33108293602 0.28771009313 0.29916581906 0.29467367299 0.30271906876 0.30196715609 0.30540227636 
0.33107755268 0.37267840043 0.36399119107 0.37557311817 0.29247592197 0.28798017073 0.29760964618 0.37066165472 0.32706015886 
0.32343395318 0.32292500428 0.3272755133 0.33446047094 0.33569604978 0.33856026718 0.33944550371 0.34033304469 0.34106480608 
0.34091474123 0.34165061206 0.3420642555 0.34268811335 0.34225030365 0.34232477193 0.34357902849 0.3429771611 0.3424534881 
0.34463429468 0.34087274016 0.33976071612 0.34329905811 0.33912590227 0.94504775142 0.80116617497 0.33749189988 0.33644785067 
0.33929118222 0.33558759055 0.94986456142 0.80032237277 0.33427714792 0.33326162248 0.33547998449 0.33220469832 0.3313706154 
0.33261463679 0.33042270229 0.2897433002 0.29566206912 0.30108174649 0.29283879446 0.31282340666 0.31509697564 0.31238124088 
0.31538854104 0.31134822091 0.33802238196 0.33840178632 0.33692402176 0.338933099 0.33688670153 0.33535903145 0.33868282121 
0.33383802772 0.33176659133 0.33716963174 0.33119932847 0.9439257464 0.79213709834 0.32653387778 0.32481246817 0.3222856814 
0.32083831533 0.32622927132 0.31958324939 0.31860209724 0.32254908149 0.31461923274 0.31384299766 0.31099626927 0.31042210724 
0.30966839735 0.30910742311 0.30906474879 0.30769539182 0.30708480005 0.30689265053 0.30697964185 0.30666704387 0.30447918126 
0.30628299728 0.30605568134 0.30374423533 0.30536915769 0.30516906032 0.30258258424 0.30482095951 0.30473760506 0.30154397264 
0.30485011513 0.30505730211 0.30121757797 0.30550219595 0.30589777029 0.30174991314 0.30878295879 0.30963609591 0.31057176488 
0.31104083687 0.30813107932 0.311961068 0.31258793226 0.31024623872 0.31318929427 0.31385596661 0.31185026122 0.31488461301 
0.31570776969 0.31372256405 0.31674677891 0.31772109114 0.31581753204 0.32225388353 0.32331757309 0.32565860806 0.32673860921 
0.32833214014 0.32903000643 0.32881239545 0.32945685668 0.33005329928 0.33052626162 0.27664070419 0.27807808603 0.28480537444 
0.28256404044 0.3177021496 0.32072895868 0.3377854329 0.30714601307 0.30884962859 0.30420361852 0.30422624255 0.30686962977 
0.30733688014 0.3127674744 0.31353476094 0.31487569239 0.31592266709 0.31486358922 0.31729259689 0.31827915296 0.31836921386 
0.32077965455 0.32205897454 0.32210947169 0.32333198543 0.32404144847 0.32634912167 0.32651905788 0.93000412708 0.77491430943 
0.33012771152 0.33212965984 0.33125324091 0.33382331987 0.3352143844 0.3367426743 0.33494048874 0.33623789823 0.33799443554 
0.33657311069 0.3378580614 0.33851216221 0.32800895993 0.33303313321 0.33794305178 0.33766878206 0.33319852964 0.34222522125 
0.34343203842 0.34588768461 0.34708594554 0.34648303592 0.34805928179 0.34888622232 0.34997224746 0.35008148775 0.3498067161 
0.35329759481 0.35108755037 0.90411573033 0.8878553795 0.35205601422 0.35209813145 0.35549143004 0.35099330321 0.35040045944 
0.35559611919 0.35038658215 0.34936053639 0.35397318477 0.34695883585 0.34573750479 0.35125803933 0.3437084281 0.34262316383 
0.34647629421 0.34139481807 0.34061295416 0.3434579937 0.33930547461 0.32831298137 0.32745788211 0.33546381298 0.34030312548 
0.33029303628 0.33079929931 0.33149327641 0.3310413196 0.35758291149 0.35981269456 0.29697576534 0.31352806914 0.31090862544 
0.33097943423 0.32560459465 0.36174094049 0.36683407922 0.3320360096 0.30322136207 0.30108373068 0.33273341605 0.33354071256 
0.33349379506 0.33198702614 0.33039907015 0.33883674568 0.86822789246 0.84260137159 0.30112186782 0.32819171511 0.32579113645 
0.32660987094 0.32991760685 0.32094222686 0.3180894754 0.30047194835 0.29857565857 0.33945109966 0.33828488356 0.33772881519 
0.33957411064 0.33686776465 0.30393485225 0.31593000399 0.32859784303 0.33105264479 0.33005868114 0.31696834553 0.31607642882 
0.31264203817 0.31197814157 0.30743501011 0.30565958109 0.30684698671 0.32922105865 0.8086414391 0.76469528607 0.33041691129 
0.32026239315 0.32197502587 0.3216215979 0.31908337831 0.35391473323 0.35946631234 0.35633561755 0.35637865684 0.35488738046 
0.3491101622 0.35312836671 0.34830727735 0.30369161584 0.30593031195 0.33075303556 0.30880814675 0.30711198122 0.7933934383 
0.84762863579 0.34132113536 0.67259799066 0.70818924482 0.31638815659 0.31211616807 0.31108102434 0.30941162221 0.30291394846 
0.30526184524 0.30495370208 0.30580937379 0.30842540967 0.3086991212 0.30404675728 0.30642789454 0.30637237866 0.30981285382 
0.31035132624 0.30809332374 0.31124836858 0.3118920952 0.3125636116 0.31043857375 0.32252869447 0.32575269192 0.34489847763 
0.34006771134 0.35044227488 0.3406139623 0.33431699488 0.28898876872 0.28855138412 0.31776718427 0.3075818307 0.30978677214 
0.29086497501 0.33411222742 0.29703701143 0.29889981195 0.30321898885 0.30628766039 0.29041618179 0.28942680752 0.29361059611 
0.29436030247 0.34122017963 0.31333800502 0.31629174119 0.31094914358 0.30088894555 0.29649313556 0.34677983789 0.35188328863 
0.30947938013 0.30740143218 0.31553364547 0.30591454227 0.30372479766 0.31241780088 0.31079363225 0.36126784044 0.36718989594 
0.35050143848 0.29495118339 0.30248966537 0.29993260397 0.34101927156 0.33583456674 0.36620450218 0.30118347107 0.30468567551 
0.36077640463 0.35717976919 0.34293635001 0.30408813935 0.3007263449 0.30173225956 0.29713830981 0.31366509088 0.34413931755 
0.34519507646 0.29308802251 0.29691622049 0.31095234604 0.32922165964 0.32753662198 0.34014033295 0.34139230353 0.33967485316 
0.34257493841 0.34352869487 0.34732595488 0.34624777443 0.31957970081 0.32278742324 0.32486798623 0.30189637361 0.30128381493 
0.29783851776 0.29792084156 0.29831935833 0.2987345472 0.31830774474 0.3318309953 0.29909246298 0.33214381788 0.33463649878 
0.33217446999 0.31020933733 0.34446079959 0.30568575569 0.34078903469 0.34244565298 0.34027118461 0.34361084845 0.33237420766 
0.34086922319 0.30653469013 0.33881829748 0.33744640188 0.35988310792 0.35829683996 0.34451316448 0.29274843008 0.31442617943 
0.3165265554 0.2978840513 0.29314549271 0.29821417228 0.34180460214 0.3433895276 0.34525284452 0.34159896667 0.31474662598 
0.34643863347 0.3490137559 0.29758221172 0.30152296271 0.30113530424 0.31606344263 0.35695075454 0.35816606873 0.34608215881 
0.34603301443 0.33758647234 0.33359302069 0.33208661183 0.33127831124 0.31291902447 0.28850107656 0.32962474664 0.32694400396 
0.29285579097 0.28900373092 0.33356895659 0.33496131515 0.34178121888 0.33552593536 0.3354816828 0.33508357412 0.29948635815 
0.29895819591 0.29380083105 0.29619524339 0.34746701955 0.3407494133 0.35171680337 0.34680681034 0.34945029044 0.34381740045 
0.28948510473 0.29140950797 0.35482230392 0.33729649658 0.35546956829 0.35230040336 0.36221427052 0.34164995609 0.33259729233 
0.33176187898 0.34628532151 0.34986888855 0.34852249211 0.34523542089 0.35091583453 0.34614186887 0.34976352372 0.35153861801 
0.33335700842 0.33319603707 0.33324900661 0.33320051372 0.33322934976 0.33317567461 0.33321127848 0.33322916968 0.33315798296 
0.33323819018 0.33325606241 0.33321231964 0.33326303188 0.33327895476 0.33325084036 0.33328992673 0.33329887291 0.33328218295 
0.33331446965 0.33332849987 0.33332414233 0.3333505776 0.33336066177 0.33333143931 0.33338667188 0.33338784142 0.33336807307 
0.33343465678 0.33343376939 0.33339041672 0.33346046284 0.33346762485 0.33343508267 0.33345358511 0.33346766611 0.33344897673 
0.33347603843 0.33348208303 0.33344897597 0.33348111185 0.33348906841 0.33345300614 0.33347374168 0.33347962609 0.33346225182 
0.33344380728 0.33345453567 0.33345540467 0.3334279377 0.33342079187 0.33342956642 0.33339606088 0.33339780662 0.33340683296 
0.33335171604 0.33335162255 0.33338117568 0.33332555117 0.33331957337 0.3333654669 0.33330002559 0.33329113717 0.33333655337 
0.33327244251 0.3332605621 0.33328756306 0.33324629091 0.33324045924 0.33324529507 0.33322720118 0.3332272986 0.33323090627 
0.33324035213 0.33322748827 0.33321607517 0.33325601608 0.33324304391 0.33319277127 0.33330100125 0.33330801 0.33325001725 
0.33339701194 0.37751421565 0.393214348 0.45958581272 0.34092199241 0.36394025709 0.38042949425 0.31701539331 0.32661149766 
0.34456100501 0.30239666882 0.30798676071 0.32364411607 0.2943373493 0.29725199717 0.31036117909 0.28926776855 0.29095428633 
0.30192148392 0.28639905426 0.28712675437 0.29666885042 0.28511714417 0.28503726754 0.29320698805 0.28527135467 0.28471424109 
0.29163005281 0.28624013543 0.28519181403 0.29113081345 0.28815890394 0.28671647706 0.29160188962 0.29083559703 0.28908319007 
0.2930526855 0.29395378466 0.29190968104 0.29507792642 0.29755512898 0.29526999404 0.29755763838 0.30164363286 0.2991835508 
0.30056385291 0.30591019533 0.30339331879 0.30398296833 0.30995950553 0.30759283786 0.30744230023 0.31405733029 0.31163888315 
0.31083452815 0.31769682724 0.31553854024 0.31402339542 0.3209502469 0.31915194197 0.31697456463 0.32348714537 0.32211671089 
0.31959306697 0.32519031174 0.32430665779 0.32159075297 0.32625752065 0.32577272667 0.32299259079 0.32650600095 0.32650100908 
0.32381681281 0.32609047397 0.32646537147 0.32403224027 0.32513653184 0.32581637857 0.32372890483 0.32372361997 0.32474143651 
0.32304983275 0.32212127283 0.32315422916 0.32205316871 0.32051209718 0.321546161 0.3208913541 0.31898820703 0.31993836275 
0.31972471635 0.317878258 0.3185694271 0.3186943617 0.3172363511 0.31764245944 0.31801574911 0.3171480003 0.31722500968 
0.31776334775 0.31765836107 0.31739627453 0.31798830003 0.31873229451 0.31811612159 0.31870372965 0.32017334403 0.31939924907 
0.31983763185 0.32207326863 0.32099217175 0.32134058465 0.32405883926 0.3229608271 0.32308254893 0.32614319078 0.32502024431 
0.32496240242 0.32818269319 0.32706281875 0.32686020427 0.33007475127 0.32905295015 0.32866561471 0.33156547516 0.33082361957 
0.33029331306 0.33267047074 0.33214559117 0.3316207994 0.4484832415 0.3330250915 0.33320304328 0.33312704122 0.33215045899 
0.33264637249 0.33253890088 0.33072319174 0.33152406575 0.33151390098 0.32901395059 0.32994085281 0.33009789377 0.32696166814 
0.32815956052 0.32843578386 0.3248049318 0.32596188967 0.3265528015 0.32270706319 0.32383707393 0.32455365418 0.32075559198 
0.32182867207 0.32267010583 0.31907476325 0.31992585053 0.32093259219 0.31779793667 0.31841104485 0.31940032249 0.31698221457 
0.31733931552 0.31826619185 0.31681100928 0.31675300041 0.31755821469 0.31724338426 0.31684728928 0.31738135929 0.31822613452 
0.31750097039 0.31771637493 0.3196840433 0.3187489016 0.31853349189 0.32139751975 0.32028743682 0.3196972439 0.32318559223 
0.32201559218 0.32099938783 0.32477494875 0.32381202305 0.32230035998 0.32602000626 0.32521616229 0.32341141506 0.32667322201 
0.32628329878 0.32415407524 0.32654306528 0.32662600895 0.32438807026 0.32567685726 0.32620068986 0.32402019646 0.32398663175 
0.32499726134 0.3230339328 0.32145315722 0.32299263216 0.32138795273 0.31843578629 0.32017436564 0.31914998749 0.31481585495 
0.31694833916 0.31638786596 0.31046943838 0.31305393519 0.31313771005 0.30623032399 0.30864913159 0.30954373522 0.30179340737 
0.30434528313 0.30580490629 0.29737155327 0.30002274571 0.30210556937 0.29330226038 0.29561861983 0.29855148917 0.29001224003 
0.2919506472 0.29544492661 0.28731022787 0.28893959629 0.29298338815 0.28518067246 0.2864859963 0.29103188687 0.28404898764 
0.28493016581 0.28985575688 0.28372605871 0.28419111044 0.28967538786 0.28443348863 0.28442836044 0.29040325344 0.28626527468 
0.28560279132 0.29213736938 0.28992919085 0.28838616196 0.2951740131 0.2959140131 0.293061957 0.30014167958 0.30679152192 
0.30128855991 0.30811295305 0.32597745978 0.31587508029 0.32172858829 0.35986974711 0.34291065846 0.34351342208 0.42346218082 
0.38257962213 0.3837548976 0.41738263727 0.36360198091 0.40218114977 0.33266738308 0.35646569914 0.3469645263 0.29650733393 
0.32840403847 0.34437737916 0.31712093701 0.33055814614 0.3465296807 0.31726673118 0.32630278023 0.34184718682 0.30538127659 
0.30389035586 0.33477725848 0.29999815514 0.30719313568 0.33179994496 0.29970614257 0.30313431497 0.33165004898 0.2980076063 
0.30088389712 0.33011640124 0.29463460291 0.29900338325 0.32907696489 0.29637446371 0.29830964176 0.33017114171 0.29675021942 
0.29866315531 0.32859231121 0.29577005538 0.29733393513 0.32767734939 0.29664293105 0.29773348634 0.32765249501 0.29708878165 
0.2970844315 0.32722291639 0.29824800268 0.29793550092 0.32723398466 0.2988926447 0.29760192114 0.32735221638 0.30124273221 
0.29684934249 0.32890923782 0.30148116848 0.29753509085 0.32903187273 0.30575753234 0.29954322122 0.33098255932 0.30995268658 
0.30215116121 0.33251206822 0.31549202757 0.30669674093 0.33669815655 0.32508273789 0.31326334197 0.34230399937 0.33739939489 
0.32278025194 0.35052585531 0.35906873691 0.33714251863 0.36572358597 0.40137258013 0.36954901204 0.39167054473 0.4206829761 
0.62047338352 0.63806946497 0.36039392249 0.30563927037 0.25980141915 0.24240786101 0.28073802277 0.21482929436 0.21861354066 
0.24759156405 0.20843951068 0.21117200335 0.23032771324 0.20631595897 0.20837547698 0.22213111641 0.20644633071 0.20795123597 
0.21867823989 0.20696554188 0.20759477841 0.21763893116 0.20761673153 0.2074552089 0.21748533772 0.20861286435 0.20756870651 
0.21853509923 0.20940102766 0.2076505395 0.22067418252 0.21254840626 0.21040607956 0.22428001616 0.2209909152 0.22004354929 
0.23415054455 0.2438597505 0.25318930311 0.25517395098 0.30542084037 0.34374882614 0.30354770324 0.60007584181 0.68940388024 
0.32139913779 0.29739531749 0.25031445495 0.23843724198 0.29056763794 0.21856861625 0.21912896086 0.25072122488 0.21023333409 
0.21214534096 0.23283446665 0.20786860749 0.20970833369 0.22442197418 0.2074156884 0.2086244569 0.22030449505 0.20751620209 
0.20789407334 0.21835574553 0.20769890094 0.20730285848 0.21765689405 0.20772063723 0.20662668709 0.21765483979 0.20850241391 
0.20631640269 0.21879993776 0.21127266384 0.20857679692 0.22266188357 0.21981108526 0.21815566823 0.23010028387 0.24563488228 
0.25996111377 0.24807090675 0.33923795161 0.34222509994 0.2844802563 0.33328400203 0.44102669321 0.34372802896 0.45484893991 
0.46665108791 0.33323702625 0.33306205624 0.40242306323 0.37377255606 0.49615866676 0.48296138561 0.33304223061 0.49363535826 
0.35779931989 0.49782326841 0.48060419698 0.33294818366 0.35126842748 0.33261292542 0.33278391601 0.3327593421 0.33278343659 
0.33287512297 0.33272020721 0.33253768857 0.33302851769 0.33298983718 0.33313346199 0.33310389938 0.33294847617 0.33324677377 
0.3332182087 0.33311045445 0.33342724565 0.33336798469 0.33330627951 0.33360181555 0.33353241189 0.33354136984 0.33376619993 
0.33369945609 0.33378771797 0.33391341012 0.33385307801 0.33399704838 0.33402052651 0.33398369047 0.33420278059 0.33408022367 
0.33404511915 0.33433675264 0.33408314872 0.33406705487 0.33437879391 0.33405954833 0.33406456966 0.33436414267 0.33397156841 
0.33401128047 0.33431780431 0.33385391219 0.33388828683 0.33418135571 0.33370515833 0.33376584901 0.33400039997 0.33354826521 
0.33360406406 0.33379300536 0.33337267603 0.33343353437 0.33358165996 0.33321896291 0.33327016385 0.33334217862 0.33307096388 
0.33312099271 0.33311355198 0.33298221628 0.33298430174 0.33292210291 0.33288313501 0.33289859781 0.33276050894 0.33285542829 
0.3328399775 0.33266699064 0.33288336535 0.33285774667 0.33264120359 0.33038195348 0.34071051865 0.33203113566 0.332433943 
0.48280164457 0.43848866957 0.34854772822 0.36583808497 0.34822379019 0.36911288253 0.39544303379 0.38547037337 0.36847275236 
0.31804678111 0.32421042514 0.33308532771 0.30991401488 0.31392997481 0.32275612521 0.30434527726 0.30689210486 0.31512682111 
0.30074253088 0.30229309124 0.30987971311 0.29869776426 0.2991981524 0.30623821293 0.29771844222 0.29786216093 0.30399431791 
0.29757386667 0.29712713683 0.30259448078 0.29823628662 0.29734714871 0.30183994265 0.29949739881 0.29840533305 0.30188869034 
0.30132671119 0.30002585608 0.30269031901 0.30375614139 0.30213977502 0.304102224 0.30635187989 0.30466642914 0.30588106157 
0.30899972423 0.3073754709 0.30786144379 0.31161317591 0.31001463664 0.30990578133 0.31400827105 0.31258042265 0.31185952667 
0.31628829889 0.31491217811 0.31369218752 0.31821754927 0.31709237959 0.31537037491 0.31967531454 0.31887306565 0.31681621018 
0.32070148019 0.32012414593 0.31791996717 0.32125103972 0.3209944462 0.31866291466 0.32143559034 0.32143300029 0.31913476806 
0.32129129427 0.32150176919 0.31938651577 0.3209374542 0.32127874008 0.31945983523 0.32029036515 0.32077745386 0.31930757856 
0.31956636925 0.32006046158 0.31893627899 0.31885298115 0.31932902174 0.31849401153 0.31835396761 0.31872249975 0.31817157914 
0.31813433053 0.31833947367 0.31804961279 0.31827900121 0.31828744334 0.31819108435 0.31883432699 0.31860572058 0.3186627778 
0.31975883888 0.31933464964 0.31948386425 0.32099194888 0.3203852992 0.32059612359 0.32248023825 0.32171722135 0.32192224514 
0.32414135916 0.32330351639 0.32344734397 0.32588370312 0.32497481477 0.32508098906 0.32753985549 0.32666727253 0.32667089339 
0.32915689845 0.32832963164 0.32821946841 0.33062027071 0.32987709399 0.32970919565 0.33183320428 0.33122833164 0.33102630779 
0.31795501204 0.28996864305 0.47440873771 0.49231698067 0.33958910502 0.32293089693 0.33091488412 0.33155751506 0.33163116407 
0.32954587356 0.33032936433 0.330558828 0.32795726211 0.32882906959 0.32921870187 0.32621116565 0.32720808453 0.32769737363 
0.32442091585 0.32538253374 0.3260614241 0.32278647951 0.32364969076 0.32442256862 0.32120814413 0.32199085578 0.32284108237 
0.31984223889 0.32045112968 0.32130418961 0.3188179712 0.31924144635 0.31998644246 0.31815330139 0.318373376 0.3189377618 
0.31794077623 0.3178660811 0.3182531157 0.31814760567 0.31783568953 0.31793706171 0.31872630984 0.31820074472 0.31798404598 
0.31952621711 0.31889371951 0.31831813213 0.32039418558 0.31974091789 0.31883682303 0.32125205779 0.32060859519 0.31940892306 
0.32187067286 0.32140290657 0.31990072238 0.32220359699 0.32192341882 0.32020632005 0.32206616705 0.32212812621 0.32025351598 
0.32149777577 0.32181502223 0.31997894708 0.32044244775 0.32111096554 0.31936885332 0.31884587744 0.31983425992 0.31838624941 
0.3167904359 0.31805591818 0.31696299254 0.31434585694 0.31586376517 0.3151815532 0.31156438268 0.31334063867 0.31313442168 
0.30857877796 0.31042525754 0.31083777561 0.30550293676 0.30742748351 0.30838228861 0.30265694976 0.30448879711 0.30599378251 
0.2999610916 0.30173940551 0.30388554292 0.29771650366 0.29916590125 0.30197463505 0.29612874117 0.29732065804 0.3005204774 
0.29506274402 0.29599321223 0.29970847575 0.2951212912 0.29543224796 0.29963044517 0.29589107465 0.29584844747 0.30052368942 
0.29757066591 0.29692895395 0.30196027593 0.30015507552 0.29907978803 0.30423726946 0.30467725627 0.30248770744 0.30765073269 
0.31107096306 0.30761927775 0.31261259218 0.32181820162 0.31571439791 0.31997973738 0.33790329911 0.32817187731 0.33107860565 
0.36544121902 0.34643021953 0.34719660269 0.40280709963 0.3723212461 0.36907489646 0.37923977517 0.33552461873 0.3424669978 
0.34814984972 0.35840821278 0.35350946386 0.33226868086 0.36878793012 0.32441218079 0.33326339994 0.3427217611 0.32564072037 
0.31881202934 0.33639005138 0.32784644625 0.32706275142 0.33021092882 0.32562098224 0.32353672355 0.32992424412 0.3239663511 
0.32240029695 0.32857557975 0.32353117051 0.32171154854 0.32773176201 0.3236435719 0.32176917542 0.32766672545 0.32317081475 
0.32082380509 0.32735352899 0.32237783738 0.32115331136 0.32748921357 0.32182114147 0.32082208655 0.32718843874 0.32195601567 
0.32144941494 0.32728966765 0.32133810467 0.32215389009 0.32726203829 0.32126151692 0.32321020657 0.32734364325 0.32211537675 
0.32353300926 0.3274899566 0.32208674373 0.32408540262 0.32792069964 0.32306432535 0.32548565759 0.32878176872 0.32557698737 
0.32777968344 0.33057496962 0.32914994957 0.33126476854 0.33318305728 0.33437612508 0.33768461039 0.33797190344 0.34272198584 
0.34525354011 0.34478716387 0.3582899029 0.3562569368 0.3557790318 0.33917766856 0.33055776411 0.33550584778 0.35253445162 
0.46360522292 0.5035186862 0.27772969036 0.26299768601 0.29017504883 0.25198956344 0.24631510341 0.26839334094 0.23899479641 
0.23630048865 0.25415655705 0.23143095722 0.23088823325 0.24515182886 0.22876965442 0.22847086165 0.24026042744 0.22795389026 
0.22837414319 0.23873847086 0.22925091612 0.23007966367 0.23919063732 0.23234752333 0.23342500449 0.24190792978 0.23859189186 
0.24153278595 0.24760464704 0.25003851321 0.25706976257 0.25850911631 0.26888025459 0.2829560199 0.27278281555 0.2962375815 
0.32644204267 0.32100951485 0.29545909756 0.27722879186 0.26327617468 0.25291138641 0.24654953439 0.26999989645 0.24082899755 
0.23727361019 0.25557118642 0.23345387701 0.23182739786 0.24688884716 0.23010939693 0.22931194686 0.24188853337 0.22873587488 
0.22849358091 0.23964318312 0.22906613008 0.22910582843 0.23926890054 0.23135681664 0.23268863022 0.24134656353 0.23658665895 
0.23984273308 0.24618174138 0.24660708257 0.2538077872 0.25488879893 0.26348360187 0.28193727551 0.27013677598 0.28938938548 
0.31846849144 0.29231590331 0.46347327329 0.4406816014 0.4241668107 0.33290635219 0.33285933601 0.33257923554 0.33276745151 
0.31760842113 0.28871509719 0.31304707181 0.33577912171 0.35638339966 0.37152321462 0.33296134401 0.33230939147 0.33273960948 
0.41836619174 0.37929563062 0.38232956048 0.41170619845 0.33210231692 0.31578843721 0.29206056293 0.3514214805 0.34824416677 
0.32866457793 0.34863557116 0.38142923272 0.42005826108 0.37769979439 0.37327093598 0.3659826996 0.34150577423 0.34828511241 
0.43598293652 0.40617772202 0.31756556453 0.42183490944 0.39143728082 0.33336526366 0.33318435071 0.33268194185 0.33258052723 
0.33380174003 0.33358565576 0.33352380107 0.33424003233 0.33402766718 0.33408476929 0.3346500924 0.33445637814 0.33465512926 
0.33497573442 0.33480255764 0.33516349244 0.33519993639 0.3350853986 0.33553923503 0.33526931016 0.33525464315 0.33577973707 
0.3352583592 0.33526359572 0.33586901162 0.33509041524 0.33518238246 0.33578716424 0.33480559771 0.33495669987 0.33554293212 
0.33445589788 0.3346317769 0.33516409219 0.33404566859 0.33423677996 0.33466952154 0.33361145118 0.33381548348 0.33411598159 
0.33320070385 0.33339224411 0.33357264577 0.3328359303 0.33299871552 0.33305008894 0.3325398847 0.33265237072 0.332581388 
0.33231697225 0.33238981506 0.33219924302 0.33218715556 0.33221130189 0.33192047678 0.33221567003 0.33217261574 0.3318116812 
0.33192640332 0.39202411083 0.41719153489 0.32690225212 0.3320868507 0.30980327947 0.31773765631 0.39339706446 0.4165005249 
0.33552732313 0.3429558849 0.33663482652 0.35911408386 0.33200131124 0.3157381679 0.31829416733 0.31197808276 0.31370297135 
0.31982686179 0.30928679324 0.31027889181 0.31598227738 0.30743950728 0.30811550404 0.31306880512 0.30631830005 0.30656686205 
0.31099482243 0.30589159656 0.30571878739 0.30951780766 0.30611052081 0.30560565235 0.30863565377 0.30687828074 0.30610800007 
0.30837270991 0.30800706465 0.30713199776 0.30865634648 0.3093858762 0.3084291513 0.30934942108 0.31075161384 0.30980716646 
0.31015807665 0.31206831846 0.31117824556 0.31097536436 0.31327879802 0.31244006877 0.31174268106 0.31441063272 0.31364500489 
0.31245006312 0.31529934116 0.31466801319 0.31305877886 0.31602313311 0.31557335011 0.31356840417 0.31658737634 0.31628855489 
0.31410580714 0.317026582 0.31682862827 0.31462767088 0.31730824474 0.3172032225 0.31507925093 0.31751983878 0.31747328465 
0.31547922968 0.31759438411 0.31767101296 0.31585490374 0.31752559155 0.31766191248 0.31615169475 0.31743297361 0.31756597488 
0.31633909983 0.31749821601 0.31754068933 0.3165637184 0.3177433959 0.31770044206 0.31692300728 0.31823400197 0.31806289724 
0.31747707527 0.31903034951 0.3187246468 0.3183202447 0.32010870668 0.31966699957 0.31944498934 0.32136889449 0.32082800775 
0.32075005058 0.32280492478 0.32217394189 0.32219997096 0.32439518297 0.3236693195 0.323789969 0.32599374242 0.32523442732 
0.32540921578 0.3274401233 0.32671861515 0.32690152965 0.32887508208 0.32814573006 0.32826108097 0.33024080339 0.32955204667 
0.3295709715 0.33155987382 0.3309504769 0.33089580244 0.31716974192 0.30964317622 0.33142386725 0.32757105925 0.3283409614 
0.32599013124 0.32682068073 0.32753176118 0.32454429184 0.32528022452 0.32608558232 0.32302498613 0.32373889382 0.32462695326 
0.32152847063 0.32218725921 0.32306614322 0.32019505264 0.3207215294 0.32148572805 0.3191544037 0.31955791761 0.32007322705 
0.31836215156 0.3185858752 0.31893083593 0.31792170072 0.31794955186 0.31802103011 0.3177451851 0.31763467304 0.31742310481 
0.31784025825 0.31761139029 0.31708544868 0.3180537049 0.31777737901 0.31696427703 0.31828483681 0.31800688269 0.31694514566 
0.31839017637 0.31818935534 0.31685392762 0.31835198301 0.3182549844 0.31667533045 0.31821001425 0.31826483554 0.31649956029 
0.31774364103 0.31798099641 0.31620150198 0.31711304861 0.31750711272 0.31575458913 0.31618749676 0.31680147434 0.31520614695 
0.31501616844 0.31584392594 0.3145318372 0.31354066582 0.31453558551 0.31365717266 0.31188552443 0.31298916452 0.31253268179 
0.31017431105 0.3113544336 0.31135582621 0.3082961729 0.30952393489 0.31011173495 0.30663848278 0.30772356256 0.30868861006 
0.30537953681 0.30641284931 0.30779499648 0.30417089612 0.3051636663 0.30723605008 0.30341498699 0.30403620342 0.30669853961 
0.30341563832 0.3037277788 0.30658001513 0.30452505752 0.30428217466 0.30752634741 0.30605811286 0.30542700765 0.30922517427 
0.30823553734 0.30730198299 0.3111566588 0.31095991522 0.30959934396 0.31364068971 0.31544791398 0.31290237706 0.31690846148 
0.32138722909 0.31802961475 0.32133541569 0.33016432794 0.32453931809 0.32762887462 0.34174611985 0.33410962407 0.3357225068 
0.35707214506 0.34489404473 0.34574232992 0.35940082045 0.33509629817 0.33671689191 0.33895675563 0.34370043548 0.34060719082 
0.31453573652 0.30741202093 0.32951843283 0.34809161991 0.32849446776 0.35120229918 0.33263140252 0.33414426444 0.33692471524 
0.33178414631 0.33292958542 0.33537106273 0.33077210746 0.33145383195 0.33446015353 0.3302311998 0.33043222923 0.33358674705 
0.33027820502 0.33022168572 0.33317776706 0.33054329944 0.3304126484 0.33338739885 0.33048078012 0.33031327827 0.33367849044 
0.33018844416 0.33010553382 0.33356627297 0.33025699909 0.3300393367 0.33340213235 0.33021339219 0.33023351319 0.33345899722 
0.3302819972 0.33027429056 0.33354828069 0.33045226937 0.33035919444 0.33348962231 0.33051083869 0.33035299582 0.33334400432 
0.33120002104 0.33065880579 0.33351690276 0.33287728519 0.33189404357 0.3343477245 0.33575808392 0.33395000968 0.33608375311 
0.33997929072 0.33712365337 0.33883894684 0.34661865657 0.34254557394 0.34273877173 0.35589832817 0.34976702458 0.34911547864 
0.30454292087 0.29186833365 0.30770664935 0.34142152719 0.32305534732 0.31604651724 0.3205150536 0.32417695306 0.32990178993 
0.32439519787 0.34643598736 0.35693439994 0.44229730528 0.44036009594 0.28585714074 0.27542939913 0.27060422151 0.2648253489 
0.28068816898 0.26020559358 0.25622034523 0.27114146873 0.25294242815 0.25133852651 0.26406349969 0.24975321147 0.24943722772 
0.25956436818 0.24968001282 0.25043478379 0.25861911075 0.25235115532 0.25410778613 0.26019599319 0.25807929803 0.26283970069 
0.26531267231 0.26836321011 0.27591220384 0.27443012698 0.28200909743 0.2909300891 0.28595609369 0.28602069798 0.27633613339 
0.29452026671 0.39811820782 0.37583454184 0.27101399117 0.26503073967 0.28136500426 0.26100316006 0.25713702248 0.27163672363 
0.25468552616 0.25285478507 0.26540968099 0.25136551389 0.25059373965 0.26159358326 0.25054383699 0.2508302641 0.26001238119 
0.25229766861 0.25428157286 0.2611587039 0.25708802766 0.26064737318 0.26497479515 0.26505892988 0.27163454589 0.27188691008 
0.27655495405 0.28759716072 0.28183661241 0.29118488143 0.30442362494 0.29378704647 0.43110951915 0.42893638269 0.39697779918 
0.33298699189 0.33284708755 0.33257972986 0.33301172635 0.32899785138 0.32973992259 0.32894765932 0.3042569656 0.28961298704 
0.29254392287 0.35643028979 0.33020699663 0.33031727508 0.33093613244 0.33226152934 0.33248248567 0.33236240066 0.3563716341 
0.37525206061 0.34213539202 0.34553328423 0.30569322971 0.31864852473 0.40675788192 0.32031142262 0.31357803734 0.32017525835 
0.33130654081 0.35811767323 0.34121527778 0.34739225686 0.35255325872 0.32206704091 0.34236521515 0.35690336401 0.33198885727 
0.36381172336 0.347252926 0.35074348083 0.33412958191 0.37374120026 0.41329144845 0.29542055186 0.30999965831 0.31076252529 
0.2978042174 0.39044570235 0.39086361843 0.37826427114 0.3603481041 0.3049739937 0.34531037628 0.33372072122 0.33333143313 
0.33618963871 0.3358237535 0.33666693809 0.33640862757 0.33700271682 0.33698809328 0.33683582817 0.33754963923 0.33707378929 
0.33707637571 0.33790842203 0.33688377137 0.33700572256 0.33796685396 0.3364653969 0.33674020951 0.33768842215 0.33582300861 
0.33615752823 0.33707472462 0.33506884669 0.33548441826 0.33623669527 0.33421905313 0.33461477105 0.33524116157 0.33338835352 
0.33377893491 0.33415411507 0.33267591746 0.33300596592 0.33317925786 0.33206674111 0.33233376748 0.33230545621 0.33159328737 
0.33178147138 0.3315707291 0.33131719675 0.3314098627 0.33103614763 0.33126838456 0.30007550908 0.29354452203 0.30364822234 
0.30839213205 0.32485389929 0.32556460027 0.31758535774 0.3188833332 0.32025324875 0.3221579442 0.32383689976 0.32383999417 
0.3262478364 0.32699786726 0.31513523314 0.31608938806 0.32086089503 0.31324725723 0.31391541313 0.31807168401 0.31180243693 
0.31215639224 0.31568039587 0.31094409599 0.3110283672 0.3137298229 0.31058724548 0.3104289544 0.31242278779 0.31067364495 
0.31035496146 0.31163523064 0.31089130738 0.31056628329 0.31124608828 0.31112149681 0.31077597273 0.31093880768 0.31132578163 
0.31098643094 0.31055744978 0.31143822317 0.31109302816 0.31011925897 0.31149478189 0.31122730319 0.3096190127 0.31171180564 
0.31141006959 0.3093148264 0.31200525586 0.31170086987 0.30925880402 0.31245040791 0.31216018183 0.3094799071 0.31292226492 
0.31271602985 0.31000224822 0.31342383576 0.313220471 0.31064436366 0.31397543484 0.31374990261 0.31137022513 0.31451889117 
0.31433343465 0.3122077477 0.31512425185 0.31494288314 0.31317846895 0.31563967688 0.31540873157 0.31401405222 0.31630274211 
0.31600015261 0.31481549069 0.31722047256 0.31686033994 0.31583706924 0.31840779553 0.3179540089 0.31717580224 0.31985145706 
0.31930689788 0.31880989464 0.32142150394 0.32082833792 0.32063281064 0.32302032144 0.3223403028 0.32240925918 0.32473215334 
0.3239915555 0.32418143303 0.32642244906 0.32568471994 0.32598690658 0.32779444554 0.32713591576 0.32754653633 0.32907163899 
0.32842666455 0.32880178708 0.33025251897 0.32963153666 0.32990861909 0.33142433069 0.33076755224 0.33090064201 0.31700830053 
0.31118616544 0.36197888306 0.3752292922 0.33616506646 0.33646005128 0.30739435286 0.30288921293 0.30275665006 0.30893060387 
0.39898370034 0.40526825783 0.33210852218 0.33265957238 0.32160020444 0.32628838404 0.32695477376 0.32656569077 0.32764684587 
0.32838289829 0.32791572731 0.32327205471 0.32398038401 0.32506941377 0.3216024648 0.32230759267 0.32334279153 0.32011719968 
0.32068893824 0.32150376161 0.31879561546 0.31930097314 0.31980597407 0.31775116135 0.31808766362 0.31831708321 0.31692056997 
0.31713775211 0.31707023634 0.31638188514 0.31648257321 0.31605370594 0.31599617402 0.31606058287 0.31533825859 0.31566013468 
0.3156977716 0.31469996842 0.3152299252 0.31535478829 0.31404495683 0.31484362995 0.31492836218 0.31341570974 0.31446905483 
0.31456479344 0.31278806065 0.31399708231 0.31422326027 0.31220496259 0.31361600408 0.31385476732 0.31179691584 0.31313786048 
0.31351055957 0.31154976048 0.31273882659 0.31311915111 0.31138458639 0.31218431782 0.31272778676 0.31133032641 0.3114061911 
0.31203628211 0.31109286812 0.310801759 0.31132650664 0.3109008428 0.30999575319 0.31059943158 0.31078171583 0.30935429824 
0.30980416386 0.31027644378 0.30936120836 0.30956737147 0.3103172765 0.30931597554 0.30958109927 0.31087252928 0.30924103077 
0.30956575013 0.31141240834 0.31006751937 0.3098885727 0.31210384553 0.31207284969 0.31123479643 0.31385785664 0.31430840272 
0.31332145727 0.31629187955 0.31672829908 0.31552178566 0.31879026209 0.3193843509 0.31799561404 0.32130365415 0.32301970376 
0.32075195686 0.32404427823 0.32823238258 0.32493838776 0.32754302598 0.33423166007 0.32999388086 0.33224199983 0.34184087161 
0.33613461221 0.33715187306 0.34447844851 0.33019529442 0.33080563613 0.3346368008 0.32694547651 0.33943580392 0.341864049 
0.33675194481 0.33718127212 0.33893761191 0.3161427282 0.32240476642 0.32654596006 0.3400830233 0.3432489988 0.34215163223 
0.34225038601 0.36424057015 0.3515130675 0.33704626804 0.33849370165 0.34039851188 0.33835923877 0.33580071128 0.33596699906 
0.33876950661 0.33548049429 0.33535508437 0.33821017478 0.33658743725 0.33631405975 0.33882596561 0.3371201527 0.33696114959 
0.34023568514 0.33680361858 0.33686582549 0.34047206366 0.33655989315 0.33658012917 0.34010693148 0.33673925126 0.33674260621 
0.34003216487 0.33680245315 0.33692095571 0.34033857715 0.33645596009 0.33663357906 0.34016441725 0.33597248939 0.33617120616 
0.33959539626 0.33577480083 0.33569069382 0.33884469901 0.33622305826 0.33579880634 0.33841819032 0.33746061589 0.33669662229 
0.33870444463 0.33929010604 0.33803184649 0.33938822662 0.31085692515 0.30554000287 0.33725164299 0.33546487479 0.33504022993 
0.33620453123 0.32150313827 0.31459380925 0.31249023168 0.32051645982 0.31314328299 0.32050946635 0.31991583069 0.32899413412 
0.32966993641 0.32917042731 0.33458665346 0.33415618837 0.33411922486 0.33519963869 0.39006594306 0.382897571 0.3656068692 
0.28334088973 0.2790552321 0.27626409494 0.27284644875 0.28465442171 0.27076856041 0.26947252354 0.27904261822 0.26883204243 
0.26869786429 0.27687163444 0.26925240289 0.27094012307 0.27640104613 0.27347438447 0.27753730621 0.27928836515 0.28084839786 
0.2869990717 0.28596263447 0.29110240439 0.29759119083 0.29461705683 0.30200417999 0.29499846889 0.30538557038 0.28250758668 
0.27829188508 0.27600471489 0.27346374377 0.28372550113 0.27199810865 0.27042816681 0.27969690909 0.27003985306 0.26992478625 
0.27773215964 0.27071147901 0.27208045484 0.27803960101 0.27354170954 0.27633863073 0.28028539999 0.27866922103 0.28334905558 
0.2843906541 0.28612984129 0.29208826859 0.29028448631 0.29475300894 0.30116871285 0.29727431565 0.38932409238 0.39382637776 
0.37709219253 0.3704636804 0.40867074096 0.40042836738 0.29160628229 0.28592683486 0.29068740294 0.29664919087 0.29162645749 
0.28563616281 0.28966019113 0.29741240641 0.34338775233 0.3318750586 0.33177017841 0.32788659496 0.34106536089 0.34457608782 
0.34068523839 0.30374431648 0.37875764943 0.38163296618 0.33030789781 0.30987469576 0.39251206641 0.33230497671 0.33208020307 
0.33157784902 0.33071552278 0.32793928904 0.33075199695 0.31717208762 0.38377991263 0.32218582826 0.33183573604 0.3363293813 
0.32850233845 0.33963722473 0.33089612715 0.31084025788 0.31259692135 0.33307076885 0.33293133163 0.33262965044 0.33209997479 
0.33603633761 0.33786729062 0.33412789919 0.33511995692 0.34475503397 0.35230097302 0.3403425788 0.34497261865 0.34040898737 
0.30359801986 0.30179894977 0.36416683244 0.35316504117 0.34476225709 0.36438745402 0.33735595943 0.34622471641 0.35767739864 
0.33981047852 0.34013772271 0.33698673958 0.33859866411 0.33811870526 0.33934018913 0.33943262232 0.33906129681 0.33937623659 
0.34069565258 0.33788265718 0.33844156618 0.33996231771 0.33694372517 0.33757681553 0.33863342334 0.33535096537 0.33612776473 
0.33728928079 0.33389118829 0.3345344595 0.33526422698 0.33265213531 0.33323436859 0.33349932521 0.33162703372 0.33209128291 
0.33212516802 0.33078756116 0.33112323248 0.33089937691 0.3304824164 0.304495578 0.3070463088 0.33936415589 0.33890320544 
0.34179131369 0.34086276799 0.32426842153 0.32587985552 0.31805475297 0.31925143966 0.31544508732 0.31631614341 0.31927071382 
0.31395536924 0.31465025473 0.31672456645 0.3125310055 0.31294762517 0.31467834645 0.31169592378 0.31200470525 0.31303993477 
0.31068898089 0.31098875493 0.31148352133 0.30963810059 0.30990253591 0.30961855954 0.30852085658 0.30881157036 0.30766268183 
0.30754546801 0.30772913383 0.30576786702 0.30675528359 0.30677255566 0.30400899953 0.30647230557 0.30646409201 0.30295253522 
0.30660587234 0.30641511589 0.3024831139 0.30703127497 0.30676414815 0.30262866093 0.30792978737 0.30764771579 0.30340485257 
0.30911930043 0.30879209753 0.30501633922 0.31034423636 0.30987998807 0.3068072509 0.31166904788 0.31106055746 0.30857280275 
0.31303411875 0.3125704725 0.31050749874 0.31386608862 0.31328850276 0.31174011515 0.31560158533 0.31493823424 0.31363954754 
0.31718272731 0.31641860851 0.31548796259 0.31925656518 0.31845521407 0.31775838444 0.32153622377 0.32071673476 0.3205915412 
0.32360393092 0.32276260139 0.32322091417 0.32525433775 0.32435383659 0.32510712537 0.3271579913 0.3263261982 0.32680494557 
0.32865097249 0.32802436713 0.32866158589 0.32984368142 0.32926151865 0.32998571183 0.33076464645 0.33024852867 0.33084936969 
0.33111439534 0.33781470235 0.30689995743 0.32371141191 0.32451371853 0.32695815788 0.32764893685 0.32819227326 0.32319577056 
0.32547786999 0.32628243403 0.32762683586 0.32828656266 0.32892899755 0.32884790405 0.32156716781 0.32234952535 0.32388791777 
0.31955268358 0.32034067294 0.32133166505 0.31793319744 0.3186266157 0.31907085759 0.31648297813 0.31701636395 0.31738433202 
0.31523322328 0.31565700104 0.3156160977 0.31417504922 0.31453059721 0.31402135262 0.31328145273 0.31366519052 0.31271067351 
0.31224321949 0.31264822532 0.31146131827 0.31117541895 0.31144786494 0.30992858026 0.3102590048 0.31052783848 0.30831816396 
0.30969912813 0.30999936194 0.30732853777 0.30928317934 0.30938236994 0.30651827412 0.30892303687 0.30910494332 0.3061825223 
0.30928507834 0.3093752171 0.30634703749 0.3096959403 0.30978416238 0.30735173951 0.31016453264 0.31028161866 0.30858696711 
0.31011667434 0.31009317398 0.30896613123 0.31077814154 0.31069613782 0.31032220951 0.31079254208 0.31127914243 0.312420511 
0.31198401418 0.31180681568 0.3135724054 0.31332242948 0.31416203035 0.31471448729 0.31410576463 0.31580254047 0.31766961443 
0.31640179276 0.31790501055 0.32085867277 0.31954251894 0.32159159706 0.3237817309 0.3224643083 0.32521422524 0.32651201443 
0.32507793252 0.32815617189 0.32898005893 0.32731079215 0.33039894934 0.33201392513 0.32947717558 0.33208357095 0.3366860169 
0.33415963089 0.33535676758 0.3108353589 0.31432784976 0.30915417838 0.31197244401 0.30886988103 0.31540277311 0.3213715899 
0.34043739151 0.3398776078 0.34141530734 0.34728811377 0.33921739032 0.38282074553 0.37457663528 0.34365223041 0.34301973499 
0.34545004308 0.34412215504 0.34411904821 0.347462038 0.34301115639 0.34317382862 0.34721801124 0.3429672708 0.34285796068 
0.34614444788 0.34388551523 0.34391121203 0.34688958444 0.34296009145 0.34340989625 0.34723113197 0.34161513764 0.34220126564 
0.34571020661 0.34044038897 0.34104910755 0.34412625724 0.33932502979 0.33962094995 0.34226312726 0.33886380959 0.33911013813 
0.34060024472 0.33826255141 0.33840128674 0.33948992615 0.37340927945 0.38085543338 0.38826425715 0.38668536168 0.37667889932 
0.3409668817 0.34313461007 0.30451086152 0.30860687934 0.31794378857 0.31309118835 0.33745986629 0.33676870447 0.33875350314 
0.32729610973 0.32884000326 0.33038119204 0.2921360322 0.28961003181 0.32944395954 0.33005823634 0.29424831683 0.29078783574 
0.28739940621 0.28543450938 0.29501263018 0.28735254246 0.28678956547 0.29306235556 0.28367433886 0.28402134751 0.29203806835 
0.28531965646 0.28837675795 0.29048961164 0.29023975875 0.2945489612 0.29440326046 0.29725924959 0.30185502414 0.30034082867 
0.30844927941 0.30488203812 0.32106432041 0.32232801111 0.32696468973 0.3230591221 0.31742744536 0.32304661738 0.31524225945 
0.32695841714 0.32049846945 0.36484291284 0.35830328162 0.28856753839 0.2869365173 0.29422137836 0.28654524057 0.28604882247 
0.29259687341 0.28598212837 0.28676342429 0.29203964714 0.28739445387 0.2889326976 0.2926311784 0.29008723146 0.29289403713 
0.29490913443 0.29437985581 0.29760394527 0.29809750197 0.29924748315 0.30263391901 0.30578621138 0.33975673963 0.33957214724 
0.34089605671 0.33904981787 0.33873275844 0.34067504666 0.33902748508 0.33978948397 0.33629276474 0.330371552 0.35221329157 
0.3613605555 0.36393961446 0.3391706602 0.33844222144 0.32091781799 0.32531390569 0.3333090274 0.32990191635 0.31052420282 
0.30192836698 0.31042298346 0.30787827738 0.31180485475 0.33221932922 0.33342954275 0.33557189522 0.33450691258 0.33377060588 
0.32271921922 0.32836715145 0.33656939856 0.32940444227 0.33141769794 0.33549443113 0.33149325468 0.32604098668 0.33181829619 
0.32569512601 0.33778353226 0.33304560213 0.33249991472 0.33338671298 0.33769095805 0.29718221515 0.2936476015 0.29738124203 
0.30596622267 0.30330807342 0.30771726853 0.31798998011 0.33253192999 0.34646725193 0.35402618514 0.36309936463 0.31306235333 
0.34966097105 0.37566693754 0.29536909987 0.29949371969 0.29823888857 0.30602948533 0.33704909509 0.33602281188 0.33529503754 
0.30496725346 0.30240875775 0.29950637729 0.30289291116 0.29903735965 0.3013304763 0.30577858443 0.34833194538 0.33974864817 
0.33548437815 0.37125296006 0.36028017043 0.32547130492 0.37237078034 0.36406278847 0.36959863346 0.36192450815 0.35407769486 
0.33805095557 0.33318345853 0.31359674479 0.31058438864 0.33734667853 0.33882549302 0.33411337962 0.33511662192 0.33635785377 
0.33312357643 0.76417238457 0.33117059847 0.33187954054 0.33229859547 0.34038977561 0.34088143336 0.34076151454 0.34079303558 
0.33967990922 0.33516290892 0.3319004938 0.37056621248 0.37278625951 0.31113307364 0.31209310774 0.30837254949 0.30941648561 
0.30546615443 0.3064235455 0.30281120741 0.3034358414 0.30041488494 0.30104387482 0.29879069238 0.29907239772 0.29831104703 
0.2983940146 0.29833848491 0.29824113317 0.29959164058 0.29915157003 0.30427505619 0.3035716808 0.30680458178 0.30596043235 
0.31836682918 0.31713098424 0.32233202133 0.32104180132 0.32081303128 0.32575683299 0.32448765297 0.3259420055 0.3273548133 
0.32660301748 0.32869546191 0.32839825085 0.32996575258 0.32916591988 0.33021658585 0.33137560689 0.33084322247 0.33176885551 
0.3271788925 0.32811112022 0.35777375783 0.3549975764 0.33557819204 0.31013814112 0.31186752017 0.32119986684 0.32227013512 
0.32454253387 0.325559225 0.32474748844 0.31905827438 0.31999739766 0.32829173128 0.32893666625 0.32961801572 0.32953646983 
0.3301549904 0.31500025752 0.3157870023 0.30489489374 0.30530621373 0.32054342722 0.31863891917 0.32537293242 0.3235570959 
0.32398486792 0.33002519377 0.32836874575 0.33032362405 0.33303843322 0.33148968648 0.33487221181 0.33459579085 0.33338992289 
0.33647340415 0.3355063781 0.33466780865 0.3370510219 0.31586710994 0.30991801101 0.30172603922 0.3189078686 0.31608508067 
0.3373803217 0.31406139196 0.33638170008 0.34046551097 0.33037747266 0.36361363075 0.35621753018 0.34902818872 0.34988118897 
0.34514823737 0.34043335517 0.34858216567 0.34200029196 0.34042104029 0.3139203547 0.35060767324 0.35169379331 0.31264428991 
0.31496407357 0.34878667889 0.34693573188 0.34216331198 0.34201019581 0.3432473655 0.35022518315 0.35119152871 0.34715260958 
0.34835853193 0.35264224331 0.34512226611 0.34617578283 0.34877815893 0.34207598153 0.34318066006 0.34557217919 0.33935283422 
0.31033511342 0.31134864537 0.3358853214 0.33672579487 0.33460008966 0.33613126099 0.33986862781 0.33182140513 0.3260920779 
0.32132305984 0.31318407305 0.31550269469 0.37284908077 0.36914126317 0.32521730404 0.32179363869 0.31767969774 0.31449404671 
0.35163691829 0.35059420931 0.35349700838 0.35540496473 0.34302447972 0.34197230438 0.70207782563 0.3270597046 0.34012937891 
0.33827785158 0.3370890642 0.34364525398 0.34439896639 0.34516129692 0.34312414005 0.34305387853 0.34411390263 0.33158276731 
0.32908057613 0.33107857798 0.33777578095 0.33042312821 0.33910931638 0.33711833379 0.35905954302 0.35248742157 0.33603274179 
0.33481498709 0.33693964111 0.31983046828 0.3245744786 0.31280769337 0.33101626666 0.33225365806 0.32836291107 0.31479193953 
0.31982107329 0.30106238425 0.33891152746 0.34038650896 0.34105937008 0.30963795323 0.3084124624 0.31424101755 0.31528968507 
0.33145986079 0.34003124067 0.34352207275 0.34506885851 0.30893203778 0.33342394654 0.33245451685 0.31363909594 0.31402639813 
0.31318824016 0.31280182413 0.33045686985 0.31821674969 0.31930623832 0.31728634206 0.31111650451 0.31186925131 0.30961523887 
0.31048281664 0.31785165756 0.31685030575 0.30313419289 0.30345777451 0.30411873702 0.30414568232 0.3010497598 0.30129666316 
0.30507212433 0.30488615191 0.30736087341 0.30679577618 0.3607619445 0.3383116117 0.65842403648 0.79459811291 0.35045320744 
0.31580669774 0.31708692068 0.30281276765 0.34872964822 0.35053069318 0.34774475861 0.70331776505 0.86231525057 0.32146400795 
0.35145617391 0.884182652 0.90167670391 0.35532531239 0.91707211172 0.92806075011 0.33401701082 0.79120405479 0.94333444193 
0.34168202612 0.31132232972 0.30328457345 0.29716242383 0.29431513024 0.30338978753 0.30948002542 0.2962257545 0.36614815843 
0.30747158556 0.30684583033 0.30655207125 0.35793626887 0.2971955095 0.29998049701 0.30138955623 0.30445387466 0.33659325505 
0.34191378998 0.30843089022 0.30767168756 0.34270761414 0.34912987342 0.35349076421 0.30963450048 0.34080032053 0.34763386829 
0.3594083526 0.36485478145 0.33561144526 0.33316234763 0.34965131998 0.34905330793 0.34769295062 0.34111032331 0.31100238749 
0.36307943853 0.33433950115 0.33170981762 0.33433508982 0.33322899476 0.33262044258 0.33524007742 0.35064287099 0.30057085011 
0.35793884346 0.36052224829 0.34322469426 0.34979907028 0.35262969775 0.30684169403 0.30372761942 0.30774900713 0.29931903092 
0.29791558579 0.80013629341 0.94987861764 0.33755651043 0.34141586771 0.33958996964 0.34232943203 0.34072338653 0.32836368309 
0.3235968653 0.33699648706 0.3276516732 0.35064280446 0.35236526096 0.33243199367 0.32994975906 0.33920807354 0.33186556779 
0.29574131481 0.36085436819 0.36060340184 0.34709523201 0.33744389304 0.33905583388 0.34471484944 0.34877613767 0.32770289584 
0.94942816792 0.79955609676 0.32025800815 0.94097705425 0.78859912756 0.34079222445 0.33726029322 0.3445609006 0.34760191368 
0.35072317739 0.34400702884 0.33191232428 0.34678073522 0.31705191786 0.35959193299 0.33990842703 0.33290819044 0.34394027227 
0.35086675765 0.77868705629 0.91094592586 0.34882638635 0.35440159257 0.35475999396 0.35999989918 0.34506407598 0.34456144338 
0.34366832133 0.35457973194 0.3392282831 0.3355156078 0.3192927811 0.89435429818 0.87297324848 0.34432390041 0.34078672247 
0.35563317425 0.84888866845 0.81676865398 0.64039969667 0.71848427629 0.34762417412 0.7943404447 0.74264731439 0.33343700141 
0.6796930379 0.44180617932 0.33357601231 0.33360800167 0.33339600085 0.3330540008 0.33250400019 0.33180700026 0.33096200099 
0.33003300107 0.32906700195 0.32782600266 0.32658200451 0.32540500356 0.3242180053 0.32304300431 0.32188500617 0.32073200423 
0.3196360054 0.31860100317 0.31775000383 0.31703900314 0.31644700253 0.31600800187 0.3157090008 0.31565400131 0.31577200203 
0.31608100297 0.31654200651 0.31714600599 0.31793801226 0.31885000987 0.31984401569 0.3209180127 0.32209802157 0.32338401754 
0.32460102486 0.32569901805 0.32667702445 0.32759601592 0.32839201229 0.32889901 0.32926200983 0.3294240075 0.32933000078 
0.32896900001 0.32841100014 0.3276280004 0.32657400247 0.32540600203 0.32381600492 0.32200700914 0.32021501151 0.31819101443 
0.31599002232 0.31344602594 0.31076503695 0.30823803334 0.30575504414 0.30282004193 0.3002240553 0.29781204658 0.29510505839 
0.29253904749 0.2901900549 0.28811704566 0.28616905328 0.28434004145 0.28273904595 0.28140104148 0.28008605177 0.27893903928 
0.27807905699 0.27745005657 0.27699608866 0.27683408687 0.27687612941 0.27724613938 0.27794318975 0.27904520873 0.28052332964 
0.28278131733 0.28554756082 0.28931879133 0.29455559831 0.30127748063 0.31005867828 0.32093703398 0.34425382869 0.37904543373 
0.58613083763 0.33345600552 0.33353901996 0.48548238624 0.35868480471 0.33448151355 0.31990628619 0.30909635164 0.30092068619 
0.29433814825 0.28917464087 0.28512671049 0.28255635896 0.2803993799 0.278967216 0.27789621941 0.27735912152 0.27708609982 
0.27715008368 0.27743408315 0.27797106137 0.27874407051 0.27978805527 0.28091106257 0.28230505266 0.28386206662 0.28552504318 
0.28740803458 0.2892970467 0.29156307716 0.29387005439 0.29625007888 0.29875206174 0.30163308592 0.30423706388 0.30692107507 
0.30937905971 0.31208606162 0.31460704758 0.31677405121 0.31902103791 0.3211650308 0.32303601943 0.32460401693 0.32604300854 
0.32717400587 0.32811000303 0.32884000067 0.32935300016 0.32957600028 0.32961200118 0.32943000485 0.32905500457 0.3284280148 
0.32770801251 0.32680802092 0.32570602211 0.32459902841 0.32349202341 0.32237002812 0.32126002257 0.32014302503 0.31910901729 
0.31826601954 0.31749401317 0.31686601267 0.31639800787 0.31608900636 0.31596100234 0.3160230009 0.31626000084 0.31663200039 
0.31723700129 0.31795800306 0.31873900229 0.31970100439 0.32081000426 0.32194300701 0.32307800547 0.32423600816 0.32540600635 
0.3266180087 0.32780200623 0.3289350079 0.33003300422 0.33095700413 0.33176200233 0.33251900081 0.33307500032 0.33345400236 
0.33358800708 0.3332900023 0.33335000261 0.33332201023 0.33334000661 0.33341900139 0.33334700026 0.33336600133 0.33339900153 
0.33339600101 0.33338200299 0.33338600293 0.33337500459 0.33337400404 0.33335900652 0.33335300604 0.33334300929 0.33333300713 
0.33332401027 0.33330900749 0.33330101142 0.33328000764 0.33324000377 0.33326400642 0.33322800365 0.33330700248 0.33326100001 
0.33322900077 0.33322100035 0.33323500004 0.33321800029 0.33323100091 0.3332220011 0.33324300168 0.33328100078 0.33331700552 
0.33324900645 0.33328100725 0.33330100227 0.33332700413 0.33331200378 0.33332200548 0.33334100423 0.3333450093 0.33335900634 
0.33336500766 0.33337800505 0.33337600532 0.33338900221 0.33339000162 0.3334110011 0.33334400035 0.33337700039 0.33338300029 
0.33335000092 0.33329700854 1.0868855822 1.2513733242 1.345361607 1.4319774267 1.4918835797 1.5484004016 1.5850510275 
1.619060686 1.64698148 1.6691000641 1.6822819641 1.6942700106 1.6996022947 1.7036100285 1.6991214813 1.6945400814 
1.6812606025 1.6446814779 1.6182506456 1.5796243751 1.5419874171 1.4785373896 1.4042798678 1.3298436893 1.1182579006 
0.96383925901 1.6686702232 0.94536806593 1.1035961095 1.4085765563 1.3601848548 1.5350668741 1.4816594627 1.6099405259 
1.5741521271 1.6615400345 1.634549634 1.6896901186 1.6768219027 1.7022303043 1.6969013818 1.6984605242 1.7011908244 
1.6769107694 1.6873106226 1.6308929783 1.6564409609 1.5607644702 1.5957872936 1.4472707551 1.5097858056 1.2705654819 
1.3703819144 1.0956634416 0.63887016327 1.697500332 1.6966108935 1.5005970589 1.6166202476 1.6499012471 1.6092006738 
1.6359013029 1.669840326 1.6592302697 1.4824591632 1.6934210814 1.5773816491 1.1781884515 1.308955063 1.6743010333 
0.93530574885 0.88031751374 1.6824908839 1.5883413622 1.5425601643 1.6867202176 1.6923104819 1.4223456308 1.5366810789 
1.3095058221 1.4048014111 1.177399383 0.3122009915 0.31808845129 0.31380340224 0.33342068627 0.33345040263 0.33360138401 
0.33350999041 0.31717823519 0.31710182714 0.31652415233 0.33356423973 0.33343150814 0.33370625915 0.33350969481 0.3333906639 
0.30746177731 0.30847328373 0.3062559832 0.305981202 0.30432648894 0.21733450422 0.20888238004 0.33443009139 0.33422895699 
0.33468277688 0.33343759493 0.33338913822 0.33345543539 0.32379518281 0.32343355028 0.32248461463 0.34728607418 0.34477856243 
0.34465429006 0.33336274192 0.33334735842 0.319009961 0.31950236282 0.31742825169 0.31800668902 0.35674210286 0.36658972439 
0.3646512557 0.38091909367 0.3337821491 0.33368808683 0.33357977414 0.31677361206 0.3341750194 0.33398053211 0.35239006588 
0.35368251736 0.3553796161 0.35734413818 0.31640311747 0.31824925505 0.31826509699 0.33879158956 0.33712414136 0.3384151469 
0.33713129867 0.33333799146 0.33333006238 0.33332194087 0.32453617578 0.32466277982 0.32527167389 0.32540127347 0.3245352107 
0.31023738661 0.3095538924 0.30945981883 0.30844451329 0.32498876397 0.32404606121 0.3241775688 0.29924309949 0.30222658198 
0.30121271872 0.30334785042 0.29240400579 0.29538713023 0.33905913492 0.3359484275 0.33751853268 0.33439339707 0.3275893431 
0.32685942253 0.32682979237 0.33189481538 0.33142121344 0.33345721371 0.33234985696 0.33383396025 0.33118656151 0.33019249209 
0.33323909941 0.33353719356 0.33334926328 0.33374366724 0.22604200879 0.22603914421 0.23693877381 0.329522811 0.33246609071 
0.33362305093 0.33655417702 0.33782871467 0.33317707066 0.33325300018 0.33327101655 0.33329700686 0.34122371625 0.33720465247 
0.34472408145 0.34123282729 0.33771775828 0.33459678881 0.3393486238 0.33692654045 0.33547926251 0.33570886808 0.33630255987 
0.33653283033 0.31104635665 0.31150429649 0.31071621442 0.32633757505 0.32559529858 0.32387110003 0.31808210081 0.3162533911 
0.31613044863 0.31509045858 0.31663539621 0.31554875947 0.3332023337 0.33325092038 0.33318555954 0.31853085578 0.3189231928 
0.31699689034 0.31037158472 0.31937023665 0.31824231429 0.31820271142 0.30923827574 0.30944280162 0.31006246481 0.32641229965 
0.32406652661 0.3243164414 0.32080180683 0.3207485387 0.32020785095 0.33290833348 0.33306939995 0.33296340805 0.30855558869 
0.31064970247 0.3111805263 0.31317551699 0.30288720139 0.29941624353 0.3030145363 0.32014517249 0.31941413134 0.32059638998 
0.33354394156 0.33387072677 0.33393234223 0.3228211825 0.32280636642 0.32209971289 0.32217329822 0.3230529604 0.32127613398 
0.32223252055 0.32089633898 0.3198565479 0.32024495429 0.31925865356 0.31491948718 0.31523806497 0.31598950603 0.33525843982 
0.33496011392 0.33428373062 0.23153249275 0.22616920311 0.2457019519 0.34751800951 0.34670063311 0.34482570696 0.34316348273 
0.34120112889 0.3461609305 0.32824824583 0.3359453623 0.28622097124 0.29283494322 0.28281149344 0.30380663724 0.30590296643 
0.30495900388 0.30717267664 0.31152899713 0.3109482204 0.32902401608 0.32968371869 0.32915365553 0.32425397892 0.32621542796 
0.32401926104 0.33066966953 0.33102071765 0.3312698281 0.33243271442 0.33280982377 0.33249258909 0.33281863207 0.33861558074 
0.33828068879 0.33910879077 0.3386265271 0.3165993606 0.31452260792 0.31652833493 0.33311646247 0.33642623243 0.33325906727 
0.33005278569 0.33045497023 0.32766503658 0.32826550584 0.32854663992 0.30917439194 0.30997888326 0.31164041501 0.29413158574 
0.29775885776 0.29308716747 0.37081567872 0.37257783044 0.36099824848 0.38559480087 0.31752823641 0.31726658029 0.31530090909 
0.3017157182 0.29682255345 0.30117848462 0.32019865774 0.32015921003 0.31955472704 0.33782897756 0.3352872457 0.33799871265 
0.32846197007 0.32891944672 0.3301106998 0.34006342187 0.33992737588 0.34110251873 0.317800157 0.3176531308 0.31786844308 
0.31799036594 0.31398044992 0.31455550498 0.31553812588 0.31731422025 0.31543994279 0.31649399374 0.32695300774 0.32029636623 
0.32967909953 0.33828655308 0.3446197405 0.34599923206 0.34237693227 0.29635786984 0.31220768071 0.31280043662 0.31112818688 
0.31174500747 0.30793951156 0.30772125202 0.30927878315 0.32267667006 0.34275729094 0.34331370848 0.34640987841 0.32295444116 
0.32002702773 0.32517711062 0.32116001085 0.33570804474 0.3359097187 0.3351521548 0.33773071224 0.33993226298 0.3390954921 
0.28373204046 0.34191573244 0.34296848438 0.34061658134 0.30193453219 0.31253841661 0.3099538017 0.31021603453 0.28438860143 
0.29094757482 0.28399308965 0.3140209633 0.3238647363 0.32601074642 0.32347292298 0.3200751775 0.32007608655 0.31947645207 
0.29338181865 0.28533400905 0.29214219118 0.33381449397 0.33563035802 0.33698565203 0.34003982688 0.33175321657 0.33197765974 
0.32141479175 0.34604651005 0.34288078883 0.34321119204 0.33867401408 0.32348649587 0.33726606724 0.31562434317 0.31626868198 
0.29739843785 0.2961295309 0.29395323566 0.33068253932 0.33008140712 0.33068361204 0.31115418591 0.31193713887 0.31139736163 
0.31226593698 0.31049743844 0.30930148572 0.31054378561 0.30966080525 0.3265930931 0.32580775097 0.32580560719 0.3067635181 
0.30601325 0.3039844872 0.30339842338 0.33325240744 0.33001116964 0.33842555308 0.32882548966 0.32892029654 0.32823071918 
0.3212011398 0.32199040113 0.32126698551 0.33493887409 0.33777861962 0.33419464836 0.33646380801 0.31516078695 0.3134763716 
0.31548613111 0.34058058598 0.34288048641 0.34189987961 0.20654047631 0.21721330704 0.21695346889 0.32290451088 0.34523838062 
0.30028549797 0.32506888756 0.32999727177 0.3276742048 0.33642296881 0.33916028255 0.33939025527 0.30916840937 0.31034499821 
0.30887825887 0.34646846687 0.34558858696 0.34405746813 0.22041946158 0.20917124899 0.22241583932 0.3460528828 0.34518176069 
0.34771021522 0.29023892408 0.28805550755 0.27141162156 0.3447474428 0.34542428365 0.34883108592 0.32658368921 0.33050290492 
0.32949465647 0.53564295714 0.69783885682 0.30674914191 0.30837104452 0.30937976668 0.33964967945 0.33798384788 0.33920093344 
0.32276413273 0.32327746457 0.32462878577 0.34188517278 0.32715760848 0.33920641492 0.42921394698 0.42072951849 0.47546386436 
0.5820145636 0.67538650013 0.31674564069 0.31004517293 0.31658362782 0.32733231582 0.3281355577 0.32742448757 0.30989675099 
0.31019974348 0.3225982524 0.32337189341 0.32344078263 0.32421031202 0.2180384684 0.20632462185 0.32409627781 0.32120479272 
0.20778901911 0.32730213776 0.33167171983 0.31845172741 0.3181740011 0.31779001056 0.29465851826 0.30198896032 0.34083619202 
0.3251547758 0.32438138139 0.32501240744 0.31322299399 0.3150480028 0.31241569417 0.31446254584 0.33310153743 0.33279681612 
0.3331547186 0.21114574607 0.3365532615 0.3399863456 0.33646126487 0.29079806119 0.28126139866 0.29169912487 0.28334983563 
0.32251771347 0.32437124703 0.32643169675 0.3140977987 0.31571587867 0.31556526804 0.32137783031 0.32205806393 0.32053198407 
0.30481970365 0.23669070676 0.2481942623 0.23361682847 0.32215014857 0.31988035311 0.32220411087 0.31708616041 0.3177659266 
0.31741944138 0.3108090047 0.31285838032 0.31384126863 0.32651332354 0.32759761042 0.32716819123 0.29555944591 0.33827314498 
0.33072505712 0.33195984484 0.32855378853 0.32841638938 0.33066359278 0.3267404839 0.31107065103 0.31139128042 0.33030537371 
0.29121058719 0.29314679337 0.28558912369 0.33298651658 0.33273060337 0.33282044535 0.33232227196 0.33222391687 0.33183632681 
0.31716330888 0.31663200049 0.31733298205 0.32620723696 0.33042826485 0.33153791946 0.35214455624 0.34772920186 0.35600951715 
0.35130096391 0.35117937386 0.32064824481 0.32072333346 0.33678754268 0.33653283153 0.3357464885 0.33015041912 0.33348000569 
0.3338212871 0.33321486637 0.33327694022 0.33314546646 0.3341830232 0.33498738248 0.33488205969 0.33539497533 0.33435702217 
0.33371162481 0.32980186407 0.29267894767 0.28552628379 0.29414390597 0.33354325348 0.33350479266 0.33343802988 0.33343392038 
0.31647541546 0.31657481839 0.31720179096 0.32140135191 0.33301453474 0.33323452182 0.33323557974 0.29131811124 0.29761726639 
0.29429068522 0.33231538706 0.33265536134 0.33274537577 0.31115217933 0.31016405919 0.31188345962 0.31658190126 0.31770973656 
0.32059749094 0.32155937628 0.30803839386 0.30947141366 0.31604206774 0.31750619951 0.31559803239 0.31731733249 0.33325150815 
0.33295429761 0.33280789529 0.32095676825 0.3177016354 0.31736202214 0.31796370237 0.31665940537 0.31725680257 0.25414951994 
0.26266626827 0.23841198956 0.24557250879 0.29212281044 0.29785031958 0.2990677526 0.30409096119 0.30491601436 0.31138868793 
0.31101885302 0.31101638168 0.3113697797 0.31055299658 0.31212315553 0.32923087664 0.31985070695 0.32494292953 0.32001528633 
0.3201149999 0.32173273895 0.31139889309 0.31316940696 0.31883660018 0.32966709681 0.32877245887 0.32885933569 0.32803054864 
0.32477983942 0.3261707649 0.32307438239 0.31903690064 0.31888067376 0.31955802209 0.31813875313 0.31826120957 0.31866401907 
0.31928688616 0.32579148396 0.32659770237 0.35109869276 0.32946818359 0.32949989662 0.32881866442 0.29790496118 0.30252655558 
0.29351871687 0.29934942105 0.32775725245 0.29722608948 0.31377646292 0.32674539461 0.3076430004 0.30586895658 0.29270816699 
0.29189336915 0.29685979664 0.32085653214 0.31990003781 0.32095976592 0.30442885612 0.30290278451 0.29934247786 0.31531393355 
0.31100077259 0.3180906935 0.32195721626 0.32187239826 0.30877310069 0.31055714084 0.30877855007 0.30789913349 0.30084494097 
0.31141493506 0.30480203714 0.31494609426 0.30776627576 0.32445904034 0.32366829464 0.32525144133 0.32449450278 0.30351973231 
0.2997159068 0.30678468853 0.30338715301 0.3187272901 0.31795845545 0.33346350573 0.29227980029 0.29045854337 0.2699171734 
0.31099186053 0.31081945468 0.31331191121 0.32365137277 0.32274920186 0.32283958464 0.3167173387 0.31830865476 0.3168540074 
0.30862356393 0.30863247841 0.31068832546 0.33088360673 0.331031986 0.33147450381 0.33161018896 0.30807148772 0.30833680251 
0.30542457859 0.30230317074 0.30543028673 0.33254473511 0.33231486226 0.33283469591 0.332671313 0.32081265823 0.3201374326 
0.30395856675 0.30442468399 0.30723803754 0.32112529807 0.32023369955 0.32050205278 0.31958879219 0.31906952877 0.32219037986 
0.32438316874 0.32019100012 0.32211805895 0.32625453316 0.32538386623 0.32533051802 0.31834094497 0.3019518391 0.29912372551 
0.30088963783 0.31952923425 0.33094849487 0.33325809788 0.3271508412 0.3254153193 0.3249247764 0.3262920761 0.31838594275 
0.31814663053 0.31797355605 0.34138967578 0.33943314501 0.33141248504 0.31706139487 0.31770778218 0.31900279682 0.28627399108 
0.28356949318 0.29180073191 0.33762798862 0.32464430291 0.32314155822 0.33948868389 0.32864756 0.32340874068 0.22050770696 
0.20650056946 0.2227817797 0.31864279704 0.31867363591 0.31799126579 0.31063077343 0.32827986593 0.32727378417 0.32785366786 
0.32750098109 0.32818012495 0.33318418838 0.3330064808 0.31733925653 0.31477976514 0.31338459753 0.31939742068 0.31904866787 
0.31834716808 0.34648546991 0.34343688867 0.33310983758 0.33298667172 0.32206538179 0.32295280511 0.32214564586 0.30434321105 
0.31388956692 0.33814071011 0.33568124917 0.33827686823 0.33586744464 0.3067716209 0.30942676136 0.30708100651 0.32434659353 
0.30372083737 0.30788703015 0.3068933904 0.3132156401 0.3134510604 0.31242327357 0.33329900041 0.33628762967 0.33647955119 
0.33955547885 0.30013762165 0.29864264798 0.29657465578 0.29783065998 0.33551222277 0.33539734621 0.33626966403 0.33565831595 
0.33532122395 0.33492574214 0.34130627644 0.3425505472 0.34096041211 0.31771520817 0.32031110815 0.31955963982 0.3223029932 
0.32599009956 0.32281894482 0.27125682299 0.26062747954 0.2633060509 0.34366420406 0.36327660176 0.33919662679 0.33344073608 
0.3532335026 0.36095872625 0.35795559542 0.31894124637 0.24787792121 0.23422719932 0.23893817391 0.32357608881 0.32743700033 
0.33886739746 0.33096221226 0.34088146399 0.25076761493 0.2421945106 0.24008763221 0.33986207644 0.34150856091 0.34088991541 
0.34282221737 0.34050210795 0.34048205298 0.33919625699 0.33509475277 0.3322113267 0.33833516926 0.26977786848 0.26336893635 
0.33217707315 0.33227662687 0.33167348458 0.31677717201 0.31744700297 0.31711340767 0.34372065661 0.31833243166 0.31645717006 
0.2419030208 0.24059285684 0.2301785801 0.32686144959 0.32720126139 0.3260746787 0.32641156025 0.3212619708 0.31964002028 
0.26624028046 0.26944492823 0.25790985439 0.33730296213 0.20656073379 0.33163720293 0.33418923855 0.33473570526 0.28192222791 
0.29292342692 0.27441582102 0.28887823804 0.23861448968 0.21904524577 0.25104852769 0.31050558548 0.3090110693 0.3107589856 
0.30940133016 0.33009501667 0.33254402761 0.32748443533 0.27536049098 0.2800586092 0.21147421883 0.2300832899 0.22458800587 
0.34482357091 0.34256601187 0.33266115618 0.33298189949 0.29325077298 0.30008823051 0.33411277029 0.33382730334 0.33462417167 
0.33418772574 0.32420441426 0.32100472866 0.23485492843 0.2209233645 0.22367778421 0.2066109222 0.21747841177 0.33334958629 
0.31947156773 0.31952765789 0.31893916925 0.34048500766 0.33955870598 0.33680514592 0.33685961007 0.33830737787 0.33809787266 
0.33794879533 0.34095527332 0.28593022336 0.29178999367 0.28321571064 0.34706871269 0.34897721584 0.34998585294 0.30596807813 
0.29045435125 0.30240896447 0.34612781129 0.33339121915 0.33358337604 0.33377264932 0.33379411858 0.33350001014 0.33372910459 
0.33435490324 0.33453136707 0.33345945635 0.3225215534 0.33492773364 0.33277541924 0.33303276636 0.33993383967 0.30622345693 
0.30563039862 0.33637286272 0.33323952995 0.33597870979 0.33112030296 0.31185003852 0.31119134002 0.3116528171 0.31100152436 
0.31148475377 0.31181786853 0.31213514925 0.30013155317 0.2952512108 0.30091410596 0.32357836663 0.29074317877 0.28479339717 
0.35050170479 0.36931679416 0.4031456417 0.31287005446 0.3143708076 0.31320884764 0.31358080338 0.31491712822 0.3146588375 
0.31972144606 0.32087690423 0.50233756302 0.47894742931 0.30018924875 0.29715429345 0.30230828805 0.32186786599 0.32213336064 
0.31741721884 0.32742476027 0.31551844209 0.31703012731 0.31726943095 0.31931546518 0.31876791743 0.31905803851 0.33327472495 
0.33330485689 0.33331185411 0.32939753411 0.32876660564 0.31085777776 0.29432591887 0.21676234581 0.21667999588 0.31305880836 
0.31514565823 0.31494023655 0.30517320821 0.33512147037 0.33495734571 0.33570193937 0.32897118141 0.32949316663 0.328596236 
0.32090045389 0.32281732458 0.32604976155 0.30873498112 0.30970121808 0.30879743726 0.30976665929 0.33005104184 0.32980863402 
0.32920352697 0.31093687211 0.44203104973 0.48650771149 0.4421191301 0.50764577117 0.31691377196 0.31762691691 0.36501915056 
0.36533676983 0.37333632662 0.42488121648 0.43033518765 0.40645182457 0.36089684817 0.35600414101 0.36987689282 0.37447319844 
0.33572470625 0.34153684156 0.34875886712 0.31084280174 0.31062756444 0.31005759084 0.31039088394 0.31230707609 0.31319711962 
0.3150641277 0.31183179085 0.30972894944 0.31177104366 0.30960448228 0.31270312911 0.31090860058 0.30586135346 0.3332714324 
0.33312561453 0.33324199655 0.3331798429 0.35883899742 0.30570369177 0.30726389784 0.31080135442 0.31080725915 0.31042795211 
0.33763128752 0.33737089775 0.24973542883 0.30789470738 0.30712110318 0.33173128294 0.33832796177 0.33398477593 0.34772342039 
0.31343768607 0.33307794507 0.333190014 0.33355434011 0.32840937451 0.33345201912 0.33359618799 0.33367388843 0.34523316078 
0.31802610852 0.31679394823 0.33824660176 0.30322295071 0.30507003707 0.30230123327 0.31559370104 0.33447273218 0.32493364648 
0.33317801142 0.33550194619 0.33533783262 0.333008687 0.332956896 0.35224296793 0.35055207691 0.35869123297 0.35739903269 
0.33213941632 0.32869804326 0.32804255033 0.33548628493 0.33606339298 0.33404379197 0.33700788952 0.33665606613 0.33795028435 
0.28018048703 0.2851810265 0.27012003675 0.27715006346 0.33605639083 0.33654886576 0.22731953909 0.36244827947 0.37297397357 
0.36461047399 0.31752232915 0.33329077656 0.33326143079 0.27458852486 0.28057776437 0.26755283455 0.27437720665 0.27886767405 
0.28334680683 0.29956279517 0.29444576701 0.28388668352 0.28833205982 0.34397266133 0.34094085329 0.34160494955 0.33895486676 
0.33498454966 0.33509081562 0.28683412701 0.30925013555 0.31801510814 0.3617589963 0.35934693953 0.38029435712 0.38314048463 
0.27456847927 0.26922062733 0.33346313835 0.33358624733 0.3334710208 0.33436093045 0.33444171618 0.33401232387 0.33328025232 
0.32360527618 0.33065530731 0.32435206694 0.32891944353 0.3378869257 0.32286614589 0.32249655803 0.3206791068 0.33584550088 
0.33339263855 0.33591263331 0.34138385146 0.33953898253 0.30154783348 0.30507396125 0.30543141987 0.34616559827 0.35104864663 
0.34919959744 0.33184448755 0.33120216028 0.3308151901 0.33014568857 0.32839045544 0.33332902166 0.33014358559 0.3326291811 
0.33259216839 0.31373176327 0.31416318118 0.31484182149 0.32835508681 0.32910473292 0.33222628161 0.33170082577 0.33173511286 
0.33375977708 0.33396649778 0.32756376146 0.33309414063 0.33315216519 0.34040044536 0.34264335591 0.33996979034 0.33602139042 
0.31393773502 0.31427208574 0.31313444384 0.31342421033 0.31891511871 0.3154415847 0.33438748923 0.3346302188 0.30612990292 
0.30921514853 0.33486717875 0.32620028759 0.3266521139 0.27612331418 0.27331638855 0.26864722971 0.26475350638 0.31177717129 
0.31210930385 0.31111148605 0.31128738897 0.32004150222 0.31944076923 0.31955035463 0.31902844702 0.2283934 0.23886214976 
0.21798073371 0.22848023277 0.27670592599 0.27689047979 0.28362409476 0.33298992362 0.3300582336 0.33028801293 0.32926180316 
0.33693953166 0.33576068197 0.32887967246 0.30741390105 0.30536831089 0.30381094253 0.3070795589 0.30363613015 0.29947420813 
0.33327286619 0.33323356696 0.33326815114 0.3583027387 0.36406333995 0.35864115616 0.25928773044 0.30489399392 0.27845664202 
0.3058057695 0.33303881026 0.3332307654 0.30635311269 0.30671169691 0.30952471424 0.31008908383 0.31133394991 0.33788970886 
0.33740816757 0.34014307791 0.32699552089 0.32611995379 0.32634446322 0.33762941356 0.31348627627 0.31503714184 0.33303953135 
0.33431552914 0.31554667915 0.31366627091 0.31571421062 0.28981572734 0.29357669587 0.33340161983 0.3334383627 0.33356904408 
0.31463837102 0.31355515824 0.31318924495 0.33342333948 0.33348082183 0.33323640666 0.31201997559 0.3121072947 0.31006586723 
0.31027083473 0.32266498176 0.29155464603 0.3333437836 0.33339364375 0.32825449938 0.32786856999 0.33324500906 0.3303785036 
0.32989379153 0.32807435814 0.33091458189 0.33284222927 0.33550891289 0.36908400965 0.37156838662 0.37592578606 0.32936411871 
0.33522695761 0.33497668718 0.33574743615 0.33418154565 0.33415131977 0.33384974522 0.27114091893 0.26971464244 0.26274704055 
0.26028463382 0.30698688746 0.30600401021 0.31031735482 0.30872366963 0.33551581449 0.33271838378 0.30160043214 0.29660285795 
0.30255743635 0.31691981462 0.31692865152 0.34118767124 0.34340319953 0.29911491088 0.3331312796 0.31259027095 0.31210260537 
0.30667626582 0.3098602382 0.33357538872 0.33350105375 0.33346481258 0.3368592726 0.33673914432 0.33780093381 0.33788865393 
0.33431572587 0.31050564778 0.31068956814 0.32466537455 0.32484832394 0.32566379967 0.20794454295 0.21801884812 0.20719639798 
0.31604568412 0.31430833952 0.31411323181 0.3531285263 0.34823294621 0.30791735778 0.3090055549 0.51236790166 0.45838280322 
0.42377739239 0.31103655459 0.31077201972 0.3110054236 0.33461628143 0.33909176422 0.3336677578 0.33684910827 0.30451903827 
0.30734169357 0.21940880667 0.20687948223 0.20787900693 0.33252289602 0.33206017914 0.33209062833 0.3393386641 0.34093077212 
0.33918080068 0.31456506986 0.31663591281 0.31554989035 0.33380457134 0.32840254838 0.32859915042 0.28477700107 0.29144600668 
0.30486853076 0.30694284472 0.32728352402 0.3294790097 0.32830920953 0.33266298429 0.33306510676 0.31768217702 0.33349023092 
0.33347654143 0.33576203859 0.33375916055 0.33523647467 0.33313727684 0.31684669822 0.31575161615 0.31562248957 0.34650068063 
0.34224862649 0.45234390875 0.44656584182 0.42542020802 0.30970810863 0.31113391842 0.31599769371 0.32740866092 0.33231513804 
0.31680295043 0.28543773085 0.28807745111 0.33436965484 0.33539852764 0.33405004476 0.33479581332 0.29434007865 0.29847632619 
0.29847025293 0.40053572241 0.43975191418 0.33509541714 0.33725887173 0.39074746393 0.37630484831 0.39382453381 0.33351900076 
0.2893789221 0.31982008452 0.31830316545 0.41511407223 0.38846749479 0.39770068024 0.32014891967 0.32213277252 0.32564655295 
0.34280306788 0.33368284173 0.348170102 0.2968682152 0.29235698219 0.32809098691 0.31572119172 0.32595492215 0.29127606748 
0.29085041371 0.30683812321 0.30173142443 0.28855294233 0.2878947234 0.29314117444 0.33079715158 0.31794600368 0.28520223698 
0.27569316597 0.31789961842 0.31781130726 0.30657002236 0.30281193522 0.30357616098 0.31824541358 0.28513331066 0.22772738645 
0.22955642246 0.21798132361 0.32209952506 0.29163418389 0.29028120892 0.28424776201 0.2358365187 0.26783823613 0.260481376 
0.26933157137 0.33812331547 0.33890073583 0.33761012283 0.3097315061 0.30932704374 0.30793915229 0.27851309614 0.33470455353 
0.33509827454 0.31487569595 0.31317456367 0.26869636114 0.25340859618 0.31964370726 0.32037906651 0.33860673896 0.32352682568 
0.32334404332 0.32880792861 0.30450834862 0.30142786404 0.31825300635 0.31838277704 0.31865216965 0.31885952756 0.31084916323 
0.31173778124 0.30999477973 0.35080303577 0.35401869291 0.34855527167 0.29521363176 0.29485418848 0.33715549417 0.33410993736 
0.33459716904 0.33387948469 0.28607867805 0.29521830938 0.3261368655 0.31252823693 0.31273473599 0.35107990491 0.34674828763 
0.33820165196 0.34242864485 0.34004999005 0.34498556521 0.34202900699 0.36412359383 0.36748100173 0.37183866605 0.31704202136 
0.31539534672 0.31862489461 0.31838800064 0.32487989593 0.3129994829 0.31479213991 0.31504858843 0.44875092342 0.41551673642 
0.28923862208 0.29435800338 0.29216886517 0.31718976273 0.31741225783 0.31685489082 0.31385170002 0.29669981138 0.32313024192 
0.32153512131 0.32005073083 0.33783064191 0.3103253714 0.30848712754 0.30809280009 0.31814134756 0.30680607276 0.31106716455 
0.30766441979 0.34247865075 0.30933187346 0.32753935829 0.32784503578 0.32514020465 0.32623486196 0.32636946705 0.32670756355 
0.32582048721 0.32718591259 0.40945096842 0.45376093467 0.31749346591 0.31767554193 0.33341596235 0.32438033463 0.32312648786 
0.32259791565 0.32605777569 0.31824938018 0.31774685976 0.31880588826 0.33340847502 0.30837241729 0.31008903333 0.32500426137 
0.32404656427 0.325175186 0.32599137378 0.31164249878 0.3102152656 0.31169474365 0.31014211179 0.34931968964 0.3566599773 
0.29330788568 0.30820274066 0.33182139655 0.33123179762 0.29690110361 0.29023807278 0.29419375236 0.31735024333 0.31783401528 
0.31737900018 0.32369669276 0.32942516014 0.32894697208 0.31247829458 0.31317114647 0.31709564183 0.36558457782 0.35781696955 
0.33771578026 0.33467727632 0.33532121199 0.33328310699 0.33319368095 0.31670701574 0.33459154467 0.33327867603 0.31017819401 
0.31040763808 0.31102434425 0.20915864503 0.22579038976 0.20853643722 0.33034648724 0.33397084554 0.31254459513 0.28175494165 
0.28920695892 0.28271072566 0.34634696342 0.34014917784 0.30334032981 0.25329357704 0.26184949003 0.27054280714 0.31669901066 
0.33291752165 0.35912113506 0.32406150975 0.25036617371 0.24422475641 0.26093227097 0.31573860142 0.30619993356 0.30599841477 
0.31745485673 0.32215822852 0.31852001576 0.31563916565 0.31693177887 0.31421080409 0.30880708627 0.38752301864 0.33308740262 
0.3359173924 0.33293027489 0.28786263129 0.28495000943 0.32282150203 0.50173686094 0.6011750224 0.39902611555 0.37579143703 
0.38219498221 0.28422108773 0.34932041591 0.35185856123 0.35419594902 0.35433111213 0.34295296438 0.34363681999 0.34215507861 
0.30225755657 0.30426547214 0.30687691688 0.32135169342 0.32334958528 0.31916497502 0.32084204598 0.21984421984 0.2068965433 
0.2069218266 0.30120387019 0.29872458794 0.26874153443 0.25865426528 0.26874764611 0.31869381701 0.27949351662 0.28285466915 
0.28803133216 0.32265685143 0.3156813695 0.31433245495 0.29473716722 0.34469829225 0.36831143306 0.3542981986 0.33901747249 
0.33883945828 0.33770850013 0.33211026146 0.33117559169 0.33143886286 0.29863743984 0.37056311282 0.33170611763 0.32959819706 
0.39117913492 0.38133573901 0.39482457106 0.30021701854 0.29692452781 0.3019654652 0.31744235391 0.31894941466 0.31675924238 
0.33837305976 0.33808841076 0.30358372142 0.30657587448 0.30657636247 0.32878623409 0.3188670611 0.33301059491 0.31858126629 
0.28891376155 0.27374640422 0.29591966756 0.38249485448 0.31439740285 0.46011241923 0.29344054421 0.29602143505 0.33416563144 
0.33441208916 0.33513691911 0.33527751853 0.33883278857 0.33977407633 0.33957588639 0.33609965139 0.45427231378 0.38442345923 
0.3378279836 0.34009661675 0.32638838753 0.31998086633 0.31916704959 0.31843294786 0.31686547708 0.32443855341 0.3218764903 
0.31190951108 0.28552776386 0.28991246967 0.29053174027 0.31003689731 0.30911630462 0.30751401349 0.33321206104 0.32939685578 
0.33002167208 0.33330924018 0.3325870825 0.33162495704 0.31210848019 0.31121730542 0.33420575388 0.3026624765 0.30392538829 
0.30564432866 0.31111079116 0.30829810038 0.3505827014 0.34667630489 0.34873506821 0.30356001037 0.34311800414 0.33991079947 
0.3429430166 0.40511445757 0.39931868108 0.39870567634 0.30645216856 0.30519659038 0.30706398398 0.28481763116 0.29503625977 
0.29795234913 0.29925789133 0.30192248672 0.33489290856 0.31304231112 0.31870090717 0.31963900194 0.31417326657 0.33215915701 
0.32977762001 0.33204766607 0.31592802491 0.3138556307 0.31226454583 0.33621429045 0.33634801491 0.34970756267 0.35349454854 
0.32096936214 0.32166765184 0.32285394967 0.3236162896 0.34173819582 0.34023848892 0.30188232513 0.30806293336 0.31806667833 
0.33878142623 0.33139636444 0.33101851628 0.33080048178 0.33041218406 0.31668889989 0.31678969609 0.33024866879 0.33012626825 
0.32988425511 0.33043860809 0.33337994205 0.33318963771 0.33331632284 0.36111956225 0.33764428055 0.29512604056 0.28967243724 
0.32380108452 0.32385257481 0.32469393133 0.32478253755 0.33988331627 0.32920994556 0.29476627347 0.3372688623 0.33973012986 
0.33931436294 0.34251583339 0.39634693405 0.38712470731 0.36824398169 0.33811968351 0.33950216258 0.34379511433 0.33664155532 
0.33963990923 0.31396963422 0.31792825327 0.31903601371 0.32932322686 0.32748542895 0.3388121719 0.33916309729 0.3406748297 
0.40047763036 0.36011427256 0.44293933696 0.32985508844 0.32953776684 0.32914991362 0.31937818692 0.26812503506 0.27039951769 
0.27768057675 0.33090266067 0.32791364645 0.30252868109 0.33352672415 0.3338088618 0.2074715772 0.21852176275 0.33137720309 
0.33160214895 0.33197844784 0.33149126184 0.29317493115 0.29137806191 0.30572474794 0.3030046234 0.30362770247 0.30281093638 
0.30563090433 0.30236442727 0.30589491222 0.30740568826 0.30550212483 0.2812770349 0.28650031866 0.28834914135 0.33045193941 
0.26459709617 0.26509102688 0.2567886732 0.25645016125 0.31002151521 0.31015457214 0.38569782055 0.38282522985 0.33790381868 
0.3392272928 0.33324199168 0.33325707875 0.33320475783 0.3146513014 0.29985270875 0.30704630417 0.34393180336 0.34532340207 
0.33403308538 0.33402010138 0.33358728972 0.33308799491 0.31831468611 0.31396284198 0.32222254047 0.32301718793 0.34226715547 
0.32238377717 0.34042040873 0.31261001518 0.33335999013 0.31057417786 0.31054817707 0.3084917339 0.31399385611 0.31308667889 
0.30976703691 0.30940014436 0.31061023446 0.3102420315 0.33334365925 0.31079707221 0.50543525509 0.31993576242 0.29632165612 
0.38692230589 0.38533310508 0.35672384828 0.34593367548 0.29141179342 0.29579722005 0.28912189765 0.40582785689 0.29602766624 
0.3014802328 0.29375513663 0.29867950183 0.3197852555 0.32062728418 0.31908375454 0.31854190896 0.33515131952 0.33589672613 
0.33515564733 0.32577083725 0.32868599675 0.3329620974 0.31622307452 0.31802137133 0.32905732065 0.33407768178 0.32377339064 
0.32411678074 0.33674326872 0.3389069844 0.30529927447 0.29352326199 0.29562444382 0.29751469539 0.32881741284 0.32340634164 
0.32357304517 0.35382270069 0.35192254852 0.34614784793 0.37141355011 0.36551446701 0.36735844147 0.31659744083 0.35133060335 
0.35416530771 0.3287951134 0.30849096227 0.30798003678 0.33229977082 0.33683470335 0.33585233048 0.33531870338 0.3344927731 
0.37271805438 0.38790059331 0.35925401197 0.35342356686 0.35926429064 0.34944190137 0.35181952766 0.34542150189 0.3215938765 
0.32185501734 0.36193904464 0.33339234339 0.35353803074 0.31648514207 0.31604966513 0.32690060423 0.33400223342 0.32149270359 
0.3216309531 0.2085818286 0.31944797882 0.31893770083 0.34512527438 0.3156785937 0.31031160134 0.31220606659 0.3091506732 
0.30754365277 0.30621972937 0.31858262449 0.32971055816 0.33044245105 0.33022861356 0.20956829998 0.32033766281 0.29645252353 
0.33699871105 0.33380507743 0.33539717411 0.31788514897 0.31755230372 0.31832468314 0.31334702559 0.31459310617 0.31402024866 
0.33254887638 0.33203546262 0.33229525537 0.29936609001 0.33564367708 0.33108078816 0.33478449035 0.33990256484 0.33930150065 
0.34010563461 0.3238505401 0.29575643489 0.29308292603 0.30005105228 0.33209595084 0.32803764269 0.33203315065 0.23931692067 
0.33300995289 0.33264608153 0.33268192908 0.33047565317 0.33082749357 0.33338197792 0.34885779079 0.35564475791 0.26859527036 
0.31258579176 0.31036048772 0.34042844212 0.34396511318 0.31850972375 0.35930190269 0.35581573451 0.33964467948 0.34087158025 
0.33401341696 0.35196898355 0.33226084825 0.33654000038 0.33662859095 0.33328979377 0.3159626102 0.3177382867 0.31572968513 
0.33038697294 0.32984653824 0.39773789354 0.40627829775 0.41479090732 0.4352719283 0.32872381944 0.32341237832 0.32336609985 
0.33885066507 0.32919490014 0.3331403565 0.33320700103 0.31049863652 0.41798953295 0.41562743931 0.36294162378 0.34674193571 
0.33358117172 0.3333881429 0.33319959207 0.33331283097 0.32166118056 0.31694102151 0.21870459959 0.21949536408 0.23218173398 
0.35134042979 0.34679854888 0.34679114002 0.33194615958 0.33070110888 0.33077084375 0.31495366575 0.32036482271 0.32091637645 
0.3291266858 0.32823746268 0.32454016816 0.31935902454 0.2193636688 0.23107703494 0.20855458958 0.20651420931 0.30284406217 
0.29739734281 0.32420315534 0.33015446781 0.32946253734 0.31630863338 0.3182490248 0.32755178515 0.32576730803 0.33192489363 
0.30562352906 0.30994906827 0.31094193475 0.31004064943 0.3045382166 0.31275163353 0.33259789756 0.33288729375 0.33230775955 
0.33270931642 0.3084316303 0.30637460873 0.31839632169 0.34295441023 0.34285638842 0.31094456498 0.31103333855 0.31068680073 
0.25456528071 0.25847081185 0.24487667426 0.33340076869 0.33425889066 0.33326786504 0.31767077292 0.41852581842 0.36709680698 
0.45827319783 0.38672551467 0.33325548467 0.33301852521 0.33275236197 0.33300651309 0.25003812542 0.3496412166 0.34983554199 
0.33344121058 0.33358387552 0.33433832101 0.30773578935 0.30629530587 0.30661496328 0.34211399369 0.34076074685 0.30433944051 
0.30876995766 0.30892377586 0.33975647655 0.3408274086 0.3399817829 0.34110260752 0.3041211165 0.31851271192 0.31698920235 
0.31760812615 0.32378604736 0.32279307266 0.24925129352 0.25906392997 0.24763128286 0.31782564904 0.30914904166 0.30936737563 
0.31117178278 0.31196175648 0.30266751354 0.30930048567 0.31052214676 0.31587369733 0.29164042743 0.33221800414 0.3318261729 
0.33182444923 0.32579125864 0.3246637056 0.35505596906 0.33911034379 0.35771251502 0.32348184835 0.32531038234 0.34778003069 
0.3510104574 0.30477289058 0.31347755808 0.33934534857 0.33948398524 0.33969894968 0.33852507756 0.30805477585 0.29400900242 
0.33805493787 0.33812503061 0.33416872856 0.33498437403 0.31320586821 0.31427041115 0.31393024896 0.31039772552 0.3121677247 
0.30868173005 0.31052831253 0.33746150547 0.33694163103 0.32934639524 0.32369103883 0.29384013765 0.26246497218 0.25402635482 
0.33946895842 0.33938407154 0.3709326509 0.32809920566 0.32767345755 0.32777655596 0.338719263 0.31543686339 0.31026456881 
0.3084679701 0.29019811753 0.30824024986 0.32296144276 0.31316055224 0.30833700791 0.32213923733 0.3215230645 0.32371008627 
0.33144232892 0.31237312582 0.31078694881 0.31459656774 0.33327869059 0.3327922169 0.33269815776 0.33354393202 0.35946861022 
0.37450811844 0.36273511419 0.30831122352 0.3063145936 0.30778178506 0.32103968905 0.3189800591 0.31751518807 0.31991876873 
0.31999578643 0.33462685668 0.3164091286 0.31512412195 0.31988765157 0.31893073714 0.31554696814 0.31493707191 0.32308855621 
0.32222146397 0.32318232582 0.32840016028 0.22827407698 0.23863218759 0.22651359507 0.23756253127 0.33019906457 0.32861400916 
0.32239264091 0.28953947494 0.30002786183 0.33836323826 0.29750237292 0.21901915067 0.33562013593 0.3152189769 0.3118869256 
0.31584513503 0.3338427786 0.32527659946 0.33269140167 0.31473369798 0.32169468739 0.32131311629 0.31974962939 0.31790906218 
0.31889404952 0.30009937326 0.29595688223 0.34006218317 0.33925409267 0.29612708744 0.34013197267 0.33982981481 0.32551420375 
0.30450751657 0.30678257738 0.30348595628 0.31875006989 0.31775265902 0.3184614082 0.32649223094 0.31162462074 0.31160051408 
0.31931977291 0.41952482114 0.30730623124 0.31347824905 0.32185001106 0.33132774724 0.33322403472 0.33338500644 0.3671144613 
0.3734394803 0.33297586217 0.31883894193 0.31822303449 0.33224450856 0.33186528269 0.33325106084 0.25102776251 0.27040676263 
0.28761854193 0.27518302298 0.33259336671 0.33877109542 0.31966733914 0.31702701891 0.3124703934 0.3144203476 0.32732489497 
0.33009477058 0.33333520224 0.33335876372 0.34224427831 0.34990437961 0.31693091338 0.30004119 0.30206764063 0.34898283921 
0.34834754449 0.33393879832 0.33493372178 0.29876586646 0.34691919343 0.34294306569 0.34162072559 0.36664924477 0.370238723 
0.36105777546 0.35939827362 0.30658957957 0.31003751553 0.30752481124 0.32338245083 0.26922506702 0.30933107621 0.33834422305 
0.31249595689 0.33286253792 0.33294939922 0.31132800842 0.31175018851 0.29055934776 0.33998961551 0.31513784033 0.31954371097 
0.32123242052 0.30765935085 0.31186191379 0.31590112947 0.31513485357 0.31380775565 0.31322882789 0.31259266321 0.31419959892 
0.31264630429 0.32689804133 0.31526689246 0.31453264787 0.31563770606 0.31801104244 0.31935768693 0.31201214694 0.31229103396 
0.31978516876 0.31787601162 0.34048140024 0.32137203323 0.32736770802 0.31688242499 0.32225005554 0.31495993329 0.32284201588 
0.32067764677 0.31686763074 0.31589249752 0.33345980188 0.34923074104 0.34728187231 0.35316653239 0.3370841438 0.32074817232 
0.31963649878 0.31835864309 0.3236787693 0.31496086385 0.31540244947 0.31690564489 0.3407196494 0.29233468162 0.32319537456 
0.3249598999 0.32391621059 0.31198886377 0.31014307003 0.31080975196 0.32575904124 0.31443448513 0.31410813525 0.31218757772 
0.30831211864 0.28467863004 0.30896260138 0.32018639406 0.32025795311 0.32209073999 0.31452128241 0.2436424837 0.31213886991 
0.27401453403 0.28574058458 0.28071198768 0.30510408805 0.33337980394 0.33340653803 0.34907188011 0.31804617844 0.31791977992 
0.306401804 0.3374875641 0.33936619832 0.31134704432 0.31522618433 0.31574919364 0.31472044956 0.2981244643 0.32147802836 
0.32113108544 0.2965201762 0.29229884533 0.2933671892 0.33734771661 0.3460375294 0.34668785691 0.36024264968 0.34199948191 
0.34024229553 0.32875500958 0.3303342951 0.33337087865 0.33335126774 0.33021818225 0.32874909563 0.33032723269 0.33341530602 
0.31912022079 0.32883828162 0.33293833636 0.332693946 0.33292935587 0.33268009759 0.30700787117 0.30526880424 0.29937615013 
0.29536732586 0.35187003943 0.34774942189 0.26767571258 0.2587225864 0.27489080691 0.3373677876 0.33322509003 0.33316224091 
0.33402832701 0.33814553593 0.33831477619 0.30366724804 0.24258442673 0.31275087503 0.24941736019 0.2501574808 0.2390606567 
0.33147495095 0.28496631554 0.26235940064 0.27219053505 0.24876035314 0.24745895149 0.25844509594 0.26591292864 0.25740741029 
0.27601406004 0.3369427126 0.33663344353 0.33775321452 0.37032113977 0.36893768443 0.37856782765 0.33164490719 0.33092618577 
0.33096313105 0.3310555423 0.33161965067 0.33253272783 0.33216689514 0.33200768923 0.33240268789 0.20752764808 0.21782669327 
0.20727213301 0.33136394013 0.33083942843 0.31732265452 0.32051864604 0.30791468695 0.33728692972 0.31609070328 0.31950813541 
0.31539428701 0.34759843598 0.3461543745 0.33924559045 0.33844192448 0.33817991859 0.32309374385 0.33326095871 0.31129400347 
0.3170260503 0.31801757449 0.32167340915 0.32086857082 0.31961858481 0.30871565793 0.30860619219 0.30054081528 0.30415870607 
0.30235828845 0.30763141764 0.3051406659 0.3361599284 0.29302710357 0.29348863936 0.32378660392 0.28806249245 0.29280720383 
0.33287624993 0.33288185409 0.31350228459 0.30725206395 0.32653422821 0.33236563696 0.33666909417 0.34008956265 0.34009286883 
0.35496610684 0.35344121262 0.33325635901 0.29115500683 0.21014521946 0.31390977776 0.31440950772 0.32003698756 0.31609697131 
0.34775831669 0.48818096622 0.2892267391 0.20702703642 0.28487918891 0.34231015928 0.34278740256 0.3408175675 0.31078480057 
0.31013599607 0.3078125305 0.30623955368 0.30924153606 0.31996377907 0.31789499467 0.31601675663 0.33190771255 0.33226304301 
0.31108187469 0.32619935095 0.31689427936 0.31769237348 0.30663273265 0.31290299387 0.31151341657 0.31153672871 0.32126170373 
0.31027759585 0.31019644987 0.33009344509 0.32908780749 0.32887376532 0.28780559502 0.30968255463 0.32021337244 0.31970605695 
0.31624179591 0.30333507413 0.32021350473 0.33660703185 0.33723335951 0.3249075092 0.31636836218 0.31263116425 0.31203493645 
0.31450409206 0.31770774127 0.31790500602 0.31433286941 0.31175601346 0.33330835591 0.32379778546 0.22888401873 0.22913733493 
0.21799854833 0.32738244241 0.32298086782 0.32289759703 0.32611239938 0.36175507835 0.31810798294 0.33674914724 0.34559421269 
0.34654074902 0.34785474543 0.3357757186 0.33838427659 0.32364724902 0.32392915289 0.31302967058 0.31445510823 0.31354706041 
0.32868727676 0.32311072687 0.33286733138 0.33000524602 0.36748975365 0.35779611047 0.35485889155 0.29494863497 0.23992517182 
0.35951143968 0.36118634579 0.35148804725 0.35251690308 0.3309266854 0.33103153998 0.31927942314 0.31800265016 0.29555035644 
0.29170367863 0.30482721117 0.30178378503 0.2691440789 0.2801125923 0.26276997302 0.31868531759 0.31873082564 0.31822631263 
0.36266228488 0.31774993853 0.31867454366 0.33349923167 0.33347002857 0.37757541647 0.37833584083 0.36733623769 0.33344152237 
0.31338557691 0.34572989941 0.3433126812 0.34811698299 0.33313677606 0.33162760895 0.30139848433 0.29957323799 0.31062108235 
0.3109150525 0.30920887495 0.31651436922 0.31724637273 0.31654958305 0.31070675755 0.33327728773 0.3216516646 0.30442195425 
0.30536953778 0.31300392695 0.31275755562 0.31134683277 0.31224902944 0.30603251526 0.30868661623 0.31514919834 0.38145919041 
0.32991974467 0.34325156171 0.30010204492 0.30760596654 0.33439283075 0.28606238237 0.27680851013 0.27653430053 0.31920844142 
0.31750591742 0.31881848866 0.33863340101 0.33991508514 0.34408272819 0.38108870565 0.31188822183 0.31067318524 0.30867815871 
0.29342455453 0.69435136367 0.70471403077 0.30414978605 0.30205664517 0.371671652 0.29492783564 0.28077086901 0.49997975291 
0.44614657778 0.44922887317 0.34217787237 0.34259335672 0.34049606609 0.33735357276 0.33771736015 0.29969334579 0.33264824365 
0.33289249766 0.33684933687 0.33554710061 0.33329165442 0.33327960244 0.33054833205 0.32674370426 0.32070073225 0.3212703829 
0.31952624808 0.31771452044 0.4342955591 0.31561368202 0.30171161313 0.42012764673 0.30762976493 0.3073593622 0.31115219368 
0.33132237227 0.33179193544 0.33133763759 0.30071388959 0.30261577149 0.33180953297 0.31315469645 0.31498053007 0.31288259111 
0.31357517035 0.33208183446 0.33234609767 0.33210942253 0.33432300109 0.32208909892 0.32134391864 0.3098898679 0.30844658118 
0.30963630842 0.33804002983 0.33931248884 0.33180968587 0.33585147678 0.34090687749 0.34052715067 0.29467385683 0.33573571508 
0.33669075551 0.33515201067 0.33391341637 0.35428096715 0.3508896845 0.3473776564 0.33080869462 0.33598273353 0.33397412471 
0.33352607246 0.35737534905 0.3823705624 0.37757474276 0.32320872017 0.32145388016 0.33918634677 0.33894959046 0.33062821487 
0.27702261183 0.32078346759 0.24536571262 0.33295910788 0.3185097464 0.32293431619 0.29658207627 0.29305579532 0.29787550135 
0.30932574081 0.30965013979 0.31658419755 0.32033122479 0.31611560371 0.39379214176 0.37716990619 0.32147017112 0.32747956208 
0.31698129111 0.31635995506 0.38475779665 0.30882571144 0.32260879995 0.30410561601 0.30691808384 0.30347396059 0.33693159401 
0.33593206699 0.3234343668 0.31547934667 0.31699101482 0.35481638972 0.30438155515 0.31710106375 0.32363640995 0.32444917936 
0.32367316291 0.30586360742 0.30293686495 0.30911539001 0.30891795933 0.33347314772 0.26459628194 0.32247142038 0.3235655676 
0.33998937667 0.34116819644 0.35724152688 0.35747612092 0.34120384681 0.3394730641 0.35933521846 0.32136354916 0.31996230391 
0.31899141127 0.34382127158 0.31594045924 0.33918607098 0.27656058322 0.27539224337 0.32712065175 0.29068646637 0.29504368946 
0.29191848344 0.29641947891 0.33086999511 0.33001232676 0.32530563861 0.33163557767 0.33261436733 0.32913438507 0.3358666066 
0.33015097566 0.33891556379 0.30902366192 0.28477669511 0.32980501647 0.33028189588 0.30486233995 0.40313300155 0.40624535513 
0.31856825159 0.30827103342 0.30624603616 0.3329348887 0.34492239831 0.34750957054 0.30861182264 0.34061186144 0.33980065014 
0.33814924738 0.30415260169 0.29998116971 0.39196520723 0.38684124093 0.3439924585 0.34000833147 0.3180548408 0.30903889289 
0.30712273736 0.33313407161 0.3129546738 0.33248728255 0.33254670425 0.33176118203 0.33118327162 0.31778240684 0.3180764329 
0.31782640974 0.31836118921 0.32772573441 0.31757813901 0.32185682876 0.32003346461 0.31955911853 0.31737109565 0.32515129712 
0.31166978671 0.32589789222 0.3236999268 0.3134383441 0.31068388256 0.31395412048 0.31148233224 0.31611340325 0.30265703919 
0.30053298204 0.29669732728 0.29820649132 0.27981265382 0.24964899191 0.26954427291 0.28596397551 0.25514139734 0.24536477359 
0.33448300066 0.33517646592 0.31727241829 0.30545733458 0.31344195934 0.25951320301 0.31801618734 0.31324017933 0.31352461085 
0.31444900153 0.31476160729 0.30421083877 0.30325555272 0.33223466822 0.31571163917 0.32968978955 0.3326723439 0.30962525258 
0.30608251959 0.30758010529 0.30634945793 0.30276763751 0.32114954741 0.32042303433 0.32128616693 0.20745084009 0.21685575167 
0.29558351246 0.28537593885 0.28457901442 0.33676620599 0.31466370297 0.25372651236 0.24015438003 0.32512181342 0.34611877091 
0.30306509576 0.33324602401 0.33210267293 0.3206265019 0.20698049143 0.37147463542 0.36104798218 0.32086359778 0.32158002372 
0.31968295792 0.32035217132 0.31608259527 0.31411910146 0.34271059169 0.33667802685 0.3111792718 0.24121062263 0.44008103892 
0.31465760597 0.33897893223 0.26987304407 0.2625652341 0.27448155484 0.33979960078 0.34003028813 0.31232865907 0.32938100657 
0.32660717895 0.30443089214 0.31235429557 0.31244988787 0.31844683669 0.31737782029 0.24628063348 0.23683793314 0.2070423712 
0.29861185532 0.33326332672 0.26918489897 0.25973027438 0.35432430693 0.34592083885 0.36622433643 0.33662205993 0.29198084084 
0.2958837693 0.30239581335 0.32165816357 0.33184425118 0.3311650802 0.33407955567 0.33453169203 0.33414880437 0.3180725355 
0.31942888942 0.32189362474 0.32657729074 0.32339529324 0.32494015571 0.31828236517 0.31820463264 0.30566626122 0.30338022594 
0.3133483612 0.31165264042 0.32666693186 0.22936699733 0.27363804627 0.28053659519 0.27472257892 0.33320584614 0.31764563541 
0.27885300851 0.33152503863 0.33097526339 0.24636528107 0.32158136139 0.31724761246 0.41853016843 0.31978318014 0.24092774167 
0.23106005799 0.24305330812 0.3299772017 0.32883631943 0.33015589683 0.33327389024 0.31920360293 0.32903417873 0.32414368647 
0.23734541207 0.246524491 0.32428806063 0.32190201483 0.31339096076 0.33085095534 0.35616422933 0.3256544982 0.40214876527 
0.3254594914 0.32008512287 0.32197920502 0.32663505692 0.31111188853 0.30222640818 0.36729821089 0.35877538336 0.30631616045 
0.27612062638 0.38311390795 0.30526044017 0.2937798418 0.33634006062 0.29514663602 0.3021215377 0.33982557604 0.32779034703 
0.3201711865 0.33175308926 0.33197841473 0.33157049684 0.31789796856 0.31983568546 0.33364622052 0.33783844766 0.34018299147 
0.34581148465 0.33528609024 0.37301922416 0.33696537004 0.3358460004 0.32876728656 0.34461131823 0.30590807326 0.31693519772 
0.33330710367 0.33292424716 0.33346175246 0.25263913579 0.32104740596 0.32974837736 0.30019407151 0.33088125239 0.35748640103 
0.35570913415 0.31980341716 0.31879907877 0.31758246119 0.29580128686 0.30866828931 0.29818951965 0.3122411998 0.28794590092 
0.28084227752 0.27941660312 0.29222858647 0.31898837443 0.23577781792 0.35043172832 0.34428243581 0.34141599553 0.31544101339 
0.31683797578 0.31646334481 0.31777566153 0.26293261579 0.33332564555 0.28228421594 0.30069541902 0.30397821883 0.22215801261 
0.34243107006 0.31276688993 0.33327915422 0.33333453767 0.33335630182 0.32407531891 0.33750708442 0.32203385698 0.31921762053 
0.33268312954 0.34818531905 0.31918777723 0.32484318635 0.33227036756 0.34500828301 0.3178864334 0.3241444216 0.32554978429 
0.31248104761 0.26136360942 0.31622519176 0.31656431208 0.32088001356 0.32227889068 0.32388977562 0.32381332365 0.33055864317 
0.31245951013 0.30874502679 0.31344002517 0.28416597173 0.28380430344 0.28946179326 0.32016601683 0.32655904595 0.23916377734 
0.25490454417 0.33418172343 0.36054483334 0.32605900892 0.31321956732 0.31453423059 0.31737413088 0.40544353612 0.32655302166 
0.32426600073 0.32419839444 0.32674319647 0.31444909657 0.21516258912 0.31817876019 0.31810421327 0.31464797796 0.35741881605 
0.34524637768 0.34417216209 0.32062539583 0.3214489761 0.33651124759 0.28025955248 0.25225304967 0.26219669066 0.20829987936 
0.23531552535 0.25145298624 0.28906339273 0.30991133877 0.31845273643 0.33531257364 0.34718182394 0.32690579901 0.32458603937 
0.32892780052 0.31516269262 0.33445553438 0.33507897146 0.33618768166 0.33719308949 0.33657009345 0.33831489543 0.33457674821 
0.31802021104 0.28872766713 0.33227473589 0.3325348106 0.33227227154 0.27796639604 0.33169866042 0.28265904554 0.30630232194 
0.31590896595 0.31691073449 0.32875909655 0.31763102441 0.31770015969 0.31828525002 0.31803521672 0.31796322547 0.33034162967 
0.30219595707 0.29819338323 0.29925976323 0.32111241146 0.28768925489 0.29645717452 0.29562900638 0.28963533718 0.25192458787 
0.23945609316 0.23206530575 0.3406639612 0.30794368199 0.31484352311 0.34185274968 0.31144420974 0.32318813466 0.23865606986 
0.33747159195 0.29912399683 0.33344408479 0.32344784812 0.32163586462 0.32437720231 0.40657404751 0.24936108271 0.32390723586 
0.29252809922 0.34120681501 0.33521168579 0.28159060662 0.31846962967 0.33271977067 0.3117501853 0.33439391326 0.32280432459 
0.31562213392 0.3500875717 0.3182628366 0.31831044003 0.32107500344 0.33206343282 0.33234355521 0.32591785643 0.32449007886 
0.33695578962 0.32069764159 0.29056228051 0.32198533634 0.3215299811 0.33197450204 0.33181054466 0.3326439935 0.33596143403 
0.33227347104 0.32027279888 0.33323236662 0.33315949826 0.33139498174 0.34417748583 0.32991500867 0.30247405119 0.32937059857 
0.32178691501 0.30026857936 0.30526913827 0.32832255735 0.2493194244 0.30012102963 0.30318036717 0.31113219247 0.33198449348 
0.32098660206 0.32051982228 0.27933614961 0.29090062393 0.23035048998 0.39371063989 0.36085921322 0.38743975629 0.2271447688 
0.33301612603 0.33299344984 0.33259882886 0.33350907848 0.33399007948 0.33394826122 0.31769745205 0.31812521476 0.31843939761 
0.30958724377 0.31336847704 0.31517529457 0.31562672493 0.31376081917 0.3296607807 0.32925095295 0.33861818755 0.31162905275 
0.31874909551 0.30415387701 0.29966999741 0.30494928806 0.30473327711 0.33073268481 0.33133405409 0.33689200628 0.34765581596 
0.34766029595 0.25333913979 0.25158957007 0.2200310999 0.26522406933 0.27372718476 0.34024277778 0.33668293864 0.21724660623 
0.32841203835 0.33434584942 0.32892215593 0.24970202359 0.2504685653 0.29455815975 0.2959055812 0.29818433436 0.34222342483 
0.31413799622 0.37018612496 0.35666172053 0.33023224168 0.32668312332 0.34049386363 0.30996910513 0.3112565612 0.35723127285 
0.25646429668 0.36346865887 0.31858634239 0.29469724888 0.49495375718 0.34789662563 0.32463575822 0.33012244074 0.34383143007 
0.31651229317 0.34599183787 0.36143712912 0.34856594417 0.30595324702 0.33205734901 0.29522655835 0.3272613471 0.28043826819 
0.3224240726 0.31189941948 0.3180691133 0.33783801892 0.32716417263 0.34548368819 0.33554797898 0.32553774865 0.33031751334 
0.29373329158 0.32457637478 0.32424849942 0.21704121631 0.30597794672 0.30260242775 0.31245628441 0.33152518654 0.28696790529 
0.31066520314 0.30692304094 0.47190794401 0.30005753632 0.28144656224 0.30121196319 0.31769832222 0.33126892716 0.33080858312 
0.33410281639 0.31465089102 0.34049501162 0.33767779033 0.30467662095 0.29800239587 0.29297418055 0.31131417081 0.30580886629 
0.29975900153 0.34382491875 0.34293813295 0.38925251435 0.30885542917 0.33264064182 0.33259967036 0.33398794447 0.33137964448 
0.33171908537 0.29819622695 0.33679177083 0.30193168046 0.30122480037 0.29711412861 0.32632583437 0.30794693397 0.31129926934 
0.3230614481 0.31837652225 0.32472482581 0.33173608398 0.33045901929 0.34069004349 0.34295392392 0.28790895637 0.28011775274 
0.34347560615 0.26585396149 0.31215787923 0.31248285728 0.22972885959 0.32712841285 0.331803354 0.33340509019 0.33408784105 
0.3346153431 0.32518520489 0.3105190428 0.33871725174 0.31038268305 0.31004248868 0.31774674577 0.32354943361 0.3285145335 
0.21220445543 0.32384279101 0.32757677301 0.31955255319 0.31419847526 0.29402856815 0.29957596861 0.31952405859 0.26614465595 
0.35931781944 0.34086849595 0.37179556217 0.35290378823 0.35142785262 0.31165890885 0.32415799733 0.22627609715 0.33980064583 
0.33090507961 0.31371228183 0.33317475852 0.32444461995 0.31421625378 0.23867079005 0.32516740407 0.31438636358 0.3301727698 
0.31090376678 0.31148700573 0.31375886863 0.31372383278 0.32299558582 0.31302790273 0.31339199256 0.31467496041 0.32079621206 
0.35244291487 0.35303467925 0.27811677756 0.30679550366 0.34523237877 0.2978319955 0.32727713493 0.32510201556 0.34877594696 
0.34520720641 0.32650580968 0.32981804962 0.33271408347 0.34930477078 0.34592547632 0.35044232365 0.35422185834 0.30252729941 
0.34678558248 0.31412436096 0.28923623481 0.30641545705 0.31141695181 0.30079315482 0.32330872685 0.32720944685 0.32888168519 
0.32579888826 0.32308557119 0.34009115973 0.36140685952 0.36502547339 0.32855010677 0.29769815455 0.34018051558 0.29742950269 
0.35483877397 0.34202657055 0.33694769219 0.29669021549 0.31232536541 0.31232780728 0.32814318143 0.3021239551 0.3202277881 
0.31933761523 0.33332500315 0.33264235106 0.33491000365 0.34332455635 0.29548551679 0.30864364873 0.32293642783 0.34198551473 
0.34103254529 0.33233750614 0.35778169494 0.3129911347 0.36002062617 0.36300056984 0.24317561877 0.25858279381 0.29994870548 
0.29726560627 0.38740394993 0.51415032458 0.32248989441 0.35055291125 0.31577991893 0.30145423601 0.32050423291 0.33325509253 
0.33316188826 0.33008470601 0.29429026718 0.33264231812 0.32194942747 0.31014611401 0.336534377 0.33332913156 0.31025281154 
0.3310688849 0.33315014749 0.33014316308 0.33334100565 0.3332650043 0.33296623656 0.37099329964 0.25957911945 0.2453744891 
0.25278411828 0.26159902827 0.31822376557 0.32413055958 0.33601275904 0.33396255575 0.33389964124 0.33522264834 0.33034338167 
0.32167585137 0.3560364386 0.29733595317 0.31008582548 0.29134224667 0.34378581831 0.34627464454 0.28696028599 0.29936923476 
0.33211083736 0.35324239846 0.23198533715 0.23530842248 0.36557500368 0.31708500898 0.33058040778 0.30015210979 0.3126555368 
0.31035443644 0.3085388795 0.31823223791 0.25726299385 0.33378463626 0.33336611237 0.33288376175 0.3181817751 0.31226327948 
0.31807135777 0.38028126166 0.33863442753 0.32540850224 0.29155640983 0.31836924818 0.28564511695 0.32019098813 0.31306406845 
0.29494565144 0.22176095824 0.32970008898 0.28668887229 0.34642393622 0.34422131778 0.34319882458 0.31810805827 0.33399806232 
0.31566190104 0.34148433025 0.30968428355 0.29842519095 0.30033781028 0.31345837249 0.25574953841 0.2973379332 0.32732519829 
0.33332139693 0.31565219918 0.31618335871 0.31899456057 0.31374325436 0.33010901313 0.33819665474 0.39763775703 0.33644444169 
0.2858624006 0.33162132905 0.31037122534 0.31943705397 0.31144421125 0.30713019732 0.31691514623 0.36470792956 0.33838395095 
0.33909549281 0.29995311949 0.33611268139 0.29879650604 0.31478705473 0.31274756934 0.32206137426 0.33286614067 0.33669742208 
0.35270496792 0.27377978263 0.34419436868 0.28807157883 0.3266870051 0.33029825059 0.29568892887 0.32692658929 0.35112894476 
0.31647601626 0.31742081929 0.32736927499 0.33256868401 0.31826455532 0.31568119002 0.35467574476 0.33059816319 0.38433011619 
0.33629755445 0.29727958776 0.34312425035 0.33010039468 0.30257458059 0.28603562471 0.33898882592 0.2861619102 0.3320853191 
0.33217019242 0.29956834 0.30207649394 0.28099297641 
Intermediate%20Principal%20Stress 1 12442 double
0.58441481414 0.43069013023 0.43553950311 0.60173192548 6.6536998472e-05 1.8535563064e-06 3.7733760597e-05 1.988827717e-05 -0.0059277040595 
-0.022721675148 0.035497157883 -0.017152270437 0.0042238771651 0.008054089562 -0.003855147351 -0.038574935961 0.14802124215 0.17822217086 
0.16790558084 0.17507847592 0.18297488095 0.20276310132 0.18263038781 0.18371084173 0.18488257141 0.18554558465 0.18797517328 
0.18961501161 0.19080987025 0.19077321037 0.19161048644 0.19023496344 0.18876158983 0.18674802743 0.18372280254 0.18172080786 
0.18037894622 0.17814102141 0.17789122465 0.1781359906 0.18253183469 0.19310449051 0.18152732841 0.2157272473 0.22020984936 
0.21798768748 0.18626112845 0.17405468834 0.16844454494 0.18604583244 0.1876419574 0.1876432116 0.1888744491 0.19171074231 
0.19213897484 0.19215952935 0.19271464996 0.19101440621 0.19019388902 0.18963245922 0.18803217124 0.18539287654 0.18493888769 
0.18256001862 0.18213124655 0.18264172098 0.18634404038 0.19264797723 0.1796837997 0.00023705186234 7.6100244942e-05 9.1650024769e-06 
1.1434821267e-05 1.0853261638e-05 1.1155920105e-05 1.1149954607e-05 1.071640721e-05 1.2631249665e-05 -3.7445860577e-06 -9.4657510666e-06 -1.0760288759e-05 
-4.0060441646e-06 1.0677766351e-06 2.5231634778e-06 3.8105371651e-06 5.1598520067e-06 1.0262455627e-05 3.2674063959e-06 -4.3360922699e-06 -1.1723575756e-05 
-1.11024937e-05 -6.1891152581e-06 -4.2135239102e-06 -4.7298310653e-06 0.00012365976237 0.00020100603163 -0.047201032958 0.0009330614192 -7.1579537871e-05 
-2.5383119106e-05 -5.9013565934e-06 1.0830865734e-06 -2.0447271933e-05 -9.5858105733e-06 -4.6692546168e-07 -6.3101368193e-06 -7.0799197457e-06 1.2037234536e-06 
-2.8422525181e-06 -1.3406148291e-05 -1.2330262936e-05 -9.1114244322e-06 9.6973124852e-06 3.3322158712e-05 5.292166043e-05 6.2029629676e-05 7.0896841509e-05 
7.9506333451e-05 7.4968709751e-05 7.1413022971e-05 5.8254277234e-05 5.0405423486e-05 3.0793700618e-05 1.3841503728e-05 9.0509462833e-06 1.167559123e-05 
1.106694849e-05 8.9013103188e-06 8.668083102e-06 4.2075398091e-06 2.9966775683e-06 -2.3729497125e-06 -5.2250494e-06 -6.1244123875e-06 2.5869077098e-06 
1.5973918437e-05 2.8075177591e-05 4.148830411e-05 4.3552014552e-05 3.4405299966e-05 2.0165275423e-05 1.4834858845e-05 5.2917798413e-05 2.8094176083e-05 
3.2026615578e-05 2.3805182444e-05 1.6359406657e-05 2.7100600685e-06 -5.1717252068e-06 -7.3919470757e-06 -5.6974743376e-06 -1.4560738452e-06 1.3345596884e-06 
3.95073049e-06 8.3987000719e-06 1.1285241183e-05 1.0103443249e-05 1.4215871479e-05 2.240393137e-05 3.2703840645e-05 4.7294003662e-05 6.1909434693e-05 
6.1671727418e-05 6.5940423897e-05 6.7292986744e-05 6.5165000133e-05 5.2833463662e-05 4.0155325054e-05 2.7448070966e-05 6.8291592761e-06 -5.4721119827e-06 
-1.4004413629e-05 -1.0950366217e-05 -1.1795352911e-05 -1.6127217552e-05 -1.6302757388e-05 -2.2343877989e-05 -2.5052661257e-05 -3.4814978672e-05 -5.2453606183e-05 
-5.3589997306e-05 -9.274316894e-05 -9.6688435275e-05 1.1515482435e-05 -0.002968979348 -0.14659179626 0.049268338473 0.020334055401 0.025671445055 
0.026205376852 0.024217118264 0.023904923473 0.022049524442 0.023743775503 0.025500696658 0.025853189551 0.023695153256 0.019388844624 
0.14718581003 0.024588603795 0.020800283674 0.025381862913 0.026530869043 0.027906487569 0.029577578047 0.030901450852 0.029796453698 
0.029907737857 0.026530098119 0.025720989015 0.023401824257 0.0093939900098 0.00017472111582 5.9619868002e-05 -3.037656433e-06 -1.7728111074e-06 
-4.2283462484e-06 -8.3316998251e-06 -9.5883014287e-06 -1.012430585e-05 -9.9109597943e-06 -2.7844640638e-06 1.1653519853e-05 1.4553169039e-06 -2.8915055216e-07 
1.6159428119e-06 -4.8196299359e-06 -6.0587510927e-06 -7.3131223902e-06 -8.1876413889e-06 -4.0736210764e-06 -1.4472976753e-06 1.1896468361e-05 1.0703528913e-05 
1.101935418e-05 5.7756386745e-06 9.2725755162e-06 5.9846445342e-05 0.0002832110985 -0.15005336237 0.0090835742978 0.00064712235884 8.1101836812e-05 
0.00013491697903 8.0079525213e-05 4.8572820138e-05 5.6944824633e-06 3.9469522954e-05 3.1650632334e-05 3.1193088209e-05 3.2764618514e-05 -1.7133949609e-05 
3.9628325348e-05 2.5744947994e-05 2.4688556929e-05 1.6100220213e-05 2.9911178422e-05 4.4595661868e-05 6.3180446104e-05 7.5192057416e-05 8.0790944489e-05 
7.5241141352e-05 7.5862225759e-05 7.2611918902e-05 6.1460235553e-05 3.8398726362e-05 2.5408514019e-05 4.3043902102e-06 -5.6279209953e-06 -6.5662373556e-06 
-4.8254789707e-06 -4.0137714317e-07 2.4459700721e-06 5.0701527016e-06 7.263882771e-06 6.8448085995e-06 8.3125300671e-06 8.0895766384e-06 9.1275601571e-06 
2.1919543126e-05 3.3286534415e-05 3.9174404968e-05 4.0081108382e-05 3.6189996917e-06 3.4376352544e-06 3.3089020636e-05 3.0776993379e-05 2.3449659808e-05 
1.2882010158e-05 8.8470383753e-06 8.4399442511e-06 7.419393465e-06 8.3373352246e-06 6.2710198021e-06 5.6398318156e-06 -4.1005069723e-06 -6.5302471269e-06 
-9.8807311428e-06 -1.0206646822e-05 -6.3904356515e-06 1.296391656e-05 3.006886211e-05 4.5495856317e-05 5.7823418554e-05 6.9619336092e-05 6.6948566987e-05 
7.2134098619e-05 6.5221608467e-05 5.8444565008e-05 4.5833314895e-05 3.1083740787e-05 1.4419357047e-05 1.8346867746e-05 1.3408257044e-05 1.0224639978e-05 
1.0360007613e-05 1.2142975735e-05 1.0410982854e-05 9.9168864453e-06 1.1644896821e-05 2.2752336015e-05 3.5599761589e-05 3.4992437113e-05 5.4961210715e-05 
6.5951816872e-05 0.00023936151597 0.00084006291672 -0.00018983764052 -0.015934609189 0.19588751065 0.027734944302 0.025369643117 0.025828494075 
0.029315728989 0.029653825229 0.02955073851 0.029682120019 0.02985347994 0.02596016807 0.025079498719 0.02469363112 0.039667955122 
0.016437232719 0.025505840095 0.026732073866 0.026239473441 0.023916297421 0.024384826758 0.024196362616 0.023693902495 0.023942825861 
0.025651229801 0.023667689977 0.014553798042 0.033080587766 -1.2687239588e-05 -4.8279049354e-06 -6.8700138603e-06 -4.2034733764e-06 -4.4555468928e-06 
-2.7898917607e-06 -7.6858933363e-06 -7.6097429802e-06 -7.2190994883e-06 1.466028297e-05 9.3929898154e-06 7.2754953056e-06 8.7330166386e-06 1.5844583113e-06 
1.5012128739e-06 2.1729868757e-06 -3.592426514e-06 3.8506998348e-06 1.8062351686e-08 3.2769087612e-07 8.4739269453e-06 -3.3776274819e-07 4.1403969095e-06 
-3.2910429321e-06 -4.2333520834e-06 6.6254753657e-07 -1.150788485e-06 0.016780847271 0.0047883939241 0.0026729575891 0.0015244913558 0.001041796176 
0.00067565354317 0.00052777446252 0.0004380722307 0.00034452472689 0.00031835512843 0.00028382805817 0.00024207011569 0.00018678897718 0.00010868892662 
2.3266680404e-05 1.7323226859e-05 1.2150247166e-05 1.3469826128e-05 1.3095452888e-05 8.8362818291e-06 5.8995820198e-06 3.9161673272e-06 1.1051115168e-06 
-3.723300294e-06 -5.5814507495e-06 -7.6381076251e-06 -9.2599776462e-06 -1.0086747088e-05 7.0379799969e-05 0.00015199113449 0.00020310779552 0.00025044203452 
0.0002696119607 0.00025720799538 0.00020667101721 0.00014405942339 8.0280860496e-05 2.1666447813e-05 6.0592937693e-06 4.572689651e-06 3.2914657315e-06 
-1.0088852186e-07 1.7250184406e-06 2.2785121186e-06 -1.0687032033e-05 -2.5636383601e-06 -2.2912827625e-06 6.1152324714e-07 -1.0534732021e-06 2.5675935554e-05 
8.4733068921e-05 0.00013449008727 0.00019112358594 0.00023303208872 0.00024992772737 0.00024231545243 0.00020761072643 0.00013587234711 4.4937084771e-05 
-2.9782548488e-07 -1.9071816293e-06 -4.8481729732e-06 -6.452398215e-06 -4.2365386798e-06 -3.8057667599e-06 -2.6691719083e-06 -3.8341939725e-06 -5.0611822404e-06 
-3.4057565174e-06 -8.3573108635e-07 -2.9026474327e-06 -1.0222232741e-06 4.0770746193e-05 0.0001182113137 0.00017939029668 0.00022222432231 0.00024640987929 
0.00025353742424 0.00028618869694 0.00037943616936 0.00055407310838 0.0007787457686 0.001035921773 0.0015602136408 0.0025291120974 0.0048041597717 
0.010901944253 0.053107196728 0.05842054482 0.066655078795 0.076364897467 0.086588428896 0.085408073523 0.089401189974 0.092016212859 
0.094808558031 0.095534485255 0.096878891326 0.097969285158 0.097996292271 0.097238365453 0.09675553279 0.095583491623 0.093723705123 
0.092287887537 0.089571171733 0.086262150431 0.082900803153 0.078135125264 0.072502143304 0.064521999132 0.051609175282 -0.011931231812 
-0.00093631869613 -0.0001597090076 -0.0019562162325 0.0050298991577 0.011807467797 0.01531133886 0.016883232768 0.016859615461 0.015023949621 
0.010708874468 0.0024347992613 -0.0021504347001 -0.00097636713948 -0.0011335012964 -0.013139451143 -0.0013764621229 -0.0012058919609 -0.001778295318 
0.0045436334782 0.011797708879 0.015614326975 0.01748765974 0.017598761061 0.016179610367 0.01257893176 0.0057780739711 -0.0023919610516 
-0.0019874663827 0.00060553041068 0.032425419939 0.01496591528 0.012850478256 0.026082186964 -0.00038819711688 2.821566229e-06 4.8637441159e-06 
3.2692563031e-06 -6.5704237581e-06 -6.5233289841e-06 2.913105709e-06 -1.8517599528e-06 -9.9797418453e-07 -7.7405826389e-06 -7.4677794666e-07 -7.6917306112e-06 
-3.1007938168e-06 -4.6665855552e-06 -2.104595039e-06 -1.244837746e-06 -7.9499844897e-07 1.4843509029e-06 -1.3693587255e-06 8.2929077139e-08 2.5463381494e-06 
-1.0105293372e-06 4.1842370077e-06 4.0575055421e-06 -2.9411855431e-07 -0.00013486377383 0.034715528656 0.014776688967 0.0091308449012 0.0061928612762 
0.0043873415852 0.0030663357355 0.0022638781391 0.0018544905889 0.0016020911625 0.0014328670673 0.0012393991559 0.001075342961 0.00077678024343 
0.00043466789053 2.2798003122e-05 -5.4894855803e-06 -3.3326122339e-06 1.1803659939e-06 7.0578553561e-07 3.8489196135e-06 5.2286525368e-06 4.5987744327e-06 
7.309013883e-06 9.1390180722e-06 9.0810460552e-06 6.0509986976e-06 6.6016904982e-06 8.1107370556e-05 0.00043526117296 0.00072444637795 0.00094858700702 
0.0010453851784 0.0010312792388 0.0009324849589 0.0007263358928 0.00047912193113 0.00023610965327 -1.8306985238e-06 2.0746532412e-07 2.2066125902e-06 
3.135925664e-06 4.422956373e-06 6.1849977301e-07 0.023223237502 0.034610260357 2.7304421357e-06 4.2141512987e-07 -1.0666832887e-06 -3.5756653239e-07 
1.6542167178e-05 0.00022931500915 0.00048290653258 0.00072059104207 0.00088793492581 0.0010081787629 0.0010068414614 0.00088751253754 0.00067704872249 
0.00035751397225 -3.9034498375e-07 4.2456944909e-07 -2.3994963178e-06 -7.078328707e-07 -1.9513376813e-06 -1.0222958077e-06 -1.0938535152e-06 -2.0652962129e-06 
-1.7422881643e-06 -8.2580166622e-07 7.2602439908e-07 -2.4518987594e-06 -2.0884543833e-06 0.00018267195663 0.00052329042579 0.00082382111414 0.0010078077148 
0.0011380744842 0.0012611429195 0.0014858356546 0.0018564890793 0.0023770651828 0.0032161931955 0.0044540579683 0.0064310209519 0.0096443643854 
0.017816368483 -0.00021675198922 0.050979240733 0.068540097438 0.074759344567 0.079007426657 0.084387043804 0.088712556961 0.091488668739 
0.093879200208 0.095333396546 0.096576959613 0.097399809646 0.097065270551 0.097002122862 0.095725239448 0.094319578121 0.092446792477 
0.089876061745 0.086517428229 0.082489174938 0.076573966364 0.068929989362 0.05805347196 -0.00090103720495 0.00011902972107 0.00019149952547 
0.0047023588783 0.0073562891319 0.0084374956502 0.0073595310475 0.0042054419452 0.00015901639298 0.00067483239924 -0.00019468344591 -0.00016617835088 
0.02912080988 0.020995239223 0.024268165244 -0.00010942306415 0.00050018622219 0.0057858251465 0.008764505995 0.010149531867 0.0094594412011 
0.0066472276435 0.0013201211529 0.00020038299636 -3.5893213848e-05 -0.00023675033318 -0.00028806630691 0.00015721581893 8.1380099179e-05 0.00018765610188 
-1.9846545267e-07 0.016788766431 0.017748701847 0.016681772092 0.025821043092 -0.00021531376495 0.0092683930943 -1.8434260004e-06 3.2511335502e-06 
-7.95557437e-06 2.4385920609e-06 1.3807510865e-06 -3.4373912606e-07 1.4078040986e-06 1.6192289932e-06 -1.6373899388e-07 -2.0202774062e-06 -5.9697337629e-07 
-7.9127130046e-07 5.4905162613e-08 5.5855135286e-07 -4.5826527964e-10 -1.369690646e-07 7.3768894932e-07 1.086855846e-06 2.4847639466e-06 4.7203128745e-06 
-1.6704225839e-06 0.023918637885 0.016725380963 0.011746516204 0.0086593297107 0.0061998107725 0.0048143795845 0.0041051188217 0.0036591106495 
0.0032840229259 0.0028447288174 0.002375327952 0.0016334920658 0.00071268200406 -5.2020182713e-06 -2.2963352984e-06 -1.4343928025e-06 -2.6773341216e-06 
-3.6440680351e-06 -2.928696903e-06 -2.0377285292e-06 -2.4935849883e-06 -2.8053630167e-06 5.7341047082e-07 1.4866774673e-06 2.7070362564e-06 1.7206400106e-06 
0.00058002126989 0.0012642794477 0.0018098877363 0.0021648744178 0.0022943719616 0.0021363362661 0.0017677465967 0.0012754998277 0.0007446266147 
0.00021104830385 8.251720225e-07 -4.7266037207e-07 2.9836492952e-07 8.7676694694e-09 1.5017785842e-06 -1.7794563521e-06 0.00028857381319 0.0332752925 
0.020300558651 -1.5985041817e-06 -5.8377716619e-07 -1.6931964641e-06 0.00027537564614 0.00078352597825 0.0013107600235 0.0018296234459 0.0021188100346 
0.0022050973469 0.0021502611023 0.0017648171686 0.0011672402303 0.00033733263605 4.3148935263e-06 -1.0954542405e-05 -1.9271789952e-06 8.3434250462e-07 
4.9147525868e-08 1.9517202813e-06 2.3113478224e-06 1.4557610949e-06 2.7082240857e-06 3.9289901396e-06 1.0427450946e-05 9.4342538963e-07 0.00029739927555 
0.0010908489697 0.0018226545178 0.0023479901989 0.0026979860097 0.0030089059231 0.0035707532883 0.0042712186658 0.0054312197398 0.0069863715506 
0.0091230196246 0.01243281914 0.017618796271 -0.00031735735192 0.046936330542 0.00031794434594 -9.8626876638e-05 0.055108759588 0.061173720767 
0.066306541741 0.070552421113 0.074171306877 0.077134252507 0.078967268958 0.080612227666 0.081771485861 0.081995711053 0.081771140959 
0.080895222885 0.079584507903 0.077849012401 0.076094138965 0.07319150063 0.069411187233 0.064513911956 0.056310990008 0.04530079433 
0.014916372405 0.00035689730378 0.00032201701101 -2.3790480159e-05 0.00059269055324 -1.9968324544e-05 -2.1567967037e-07 -0.00015494088694 -0.00018099006727 
-1.9820884689e-05 0.023176487 0.024773216062 0.010562852815 0.0093793157891 2.1794254659e-05 0.0028728703906 0.0015035849405 -2.8606916903e-06 
2.2470551302e-06 2.5248005372e-05 1.5267063347e-05 -0.0002627590378 0.019157824428 -1.886086545e-06 -7.5651452391e-05 0.00077527921882 0.0025338216073 
0.02694221809 -8.2039099798e-07 0.012862286147 0.01196516663 0.010326592126 0.011889660247 -5.4885085548e-05 6.8409613101e-05 0.018386049284 
0.021981588333 1.9429694725e-05 -0.0002001608002 0.0054460267143 -3.0840902963e-06 -1.5061923308e-06 8.9728300422e-07 3.4676686247e-06 -6.8788230796e-06 
3.3540757903e-06 1.6233312931e-06 6.0005041756e-07 -8.9486427554e-08 -4.2439080517e-06 5.3223359495e-06 -2.6552890755e-06 2.0324030957e-06 2.5390600993e-07 
1.6419508544e-06 4.7386040473e-07 5.5955668865e-07 -2.5736851478e-07 -1.1199883373e-06 0.034200817111 0.015153905683 0.013791218494 1.6490344642e-05 
0.01223699677 0.022948988715 0.01695440085 0.012582727247 0.0095122334273 0.0079051845353 0.0070597942282 0.0062902341919 0.0055884511187 
0.0048872715912 0.0038597708669 0.0024462939951 0.00076392892606 -8.6831848213e-06 -9.389600871e-06 -1.0397244812e-05 -1.2942352478e-05 -9.7275077971e-06 
-5.2421087728e-06 -3.4598236804e-06 -3.0725854944e-06 -1.103486697e-06 1.5995208681e-06 9.8774484126e-06 7.7978954733e-06 0.00026726357143 0.0015700942261 
0.0026699913279 0.0034882501607 0.0039467583511 0.003874998562 0.0033671721893 0.0025740128009 0.0017023268666 0.00076211096217 2.1400254302e-06 
-4.4984958814e-07 -5.2027243907e-07 2.4301536114e-06 0.015293747521 4.7589692136e-06 0.034001937005 2.2021870135e-05 -1.8928966965e-07 -2.0043588235e-06 
0.00085820330068 0.0016125001137 0.0027293374793 0.0036508958631 0.0035429526217 0.0038535086478 0.0035443398847 0.0026698437501 0.0013257617862 
-1.4185668002e-05 7.5273382512e-07 3.9750896476e-07 -1.6627901805e-05 1.1442161144e-05 1.3213191427e-06 2.5258912277e-06 -7.3601523677e-06 8.9270313258e-06 
6.4264595728e-06 -4.7145332785e-06 1.5634346996e-05 0.00016632929229 0.0017542036353 0.0031323538727 0.0042202138027 0.0049566389813 0.005421476137 
0.0061548384684 0.0074385817794 0.0091916189141 0.01138474422 0.014418045197 0.01860478509 0.024713851978 -1.046884769e-05 7.5324045286e-05 
0.049017066513 0.053411885504 0.057619513116 0.060598111143 0.062556223721 0.064910585344 0.067086118371 0.067692463964 0.067164019502 
0.065965492215 0.064797835297 0.06355710234 0.062244068812 0.059560210289 0.056330737593 0.052095646021 0.048243863015 8.9193254186e-05 
-1.7754803352e-06 -4.2837585476e-06 5.2084950805e-06 4.3030139717e-05 -3.3923830343e-05 -4.6891778196e-07 -4.5639338289e-06 0.020146658989 0.0034401983687 
7.7963919092e-06 -1.6728471766e-05 -3.4753825988e-05 0.012921533732 0.001081018122 7.4144297824e-07 0.010862470916 0.014802738163 -5.5580149551e-06 
0.0037108871855 0.019602477961 0.0081376199302 8.8112694632e-06 0.0033746058307 -1.1667761163e-05 6.5445440048e-05 0.016148264354 9.0459290447e-06 
0.042559324436 0.014176897244 0.017084412192 0.0068575465284 0.0091238661781 8.2902168969e-06 0.0045224878833 0.001899159382 -8.2923043312e-07 
8.6152232737e-06 3.56332284e-06 1.8768493233e-06 -2.8865312399e-07 4.2131969201e-07 -2.2721304635e-06 8.1113495983e-06 -6.521836545e-06 9.8769583559e-07 
2.9619921187e-06 2.5532613761e-06 -2.5413879561e-06 -1.4901922984e-06 -1.5637594537e-06 2.8331664722e-06 0.0089440417826 1.1979883871e-05 0.0092673041545 
0.036515953904 0.027571131562 0.021133513504 0.016260897312 0.012394686962 0.011602889469 0.010465090181 0.0093072074499 0.0083257260493 
0.0072873888741 0.0055453669515 0.0029463051573 0.00024939662888 1.2159471488e-05 7.433247332e-06 5.0717544707e-06 1.8049852753e-05 3.067682749e-06 
-1.644528045e-05 -1.2108055923e-05 -5.9547039068e-06 1.2306509513e-06 6.1111476736e-06 2.1142746626e-08 0.001117714181 0.0032275774161 0.0046332583884 
0.0055556685203 0.0059357631986 0.0055725800465 0.0043998841047 0.0029323342848 0.0017821579829 0.00027559912583 -3.1221512163e-06 -2.5233079036e-07 
0.010831910965 0.023010568566 -4.9932202927e-05 -9.9393361119e-05 0.00052294471039 0.0021138880005 0.0049229235825 0.0059797466766 0.0057735893662 
0.0054634942434 0.0031465140474 0.00087533615159 -1.1249738149e-05 -6.791182475e-06 2.4707716166e-06 -1.5521612418e-06 -1.3168352324e-05 -1.3653835051e-06 
7.2713846725e-06 -2.9875619071e-05 -1.2380267632e-05 6.2398227077e-06 2.9355531385e-06 0.0019738782197 0.0044789619669 0.0066167614873 0.0080117240761 
0.0087327297104 0.0087198841491 0.010785508458 0.013115731875 0.015696418954 0.019516925374 0.025039377011 0.038548601282 -3.2394289652e-05 
0.01045123503 3.4358592179e-06 0.016840267963 1.5756293798e-05 0.042329437683 0.047098652085 0.046326158121 0.048564803869 0.051225361262 
0.05486924285 0.051425092991 0.050843078183 0.049605859932 0.048316900511 0.048745330026 0.047312961853 0.044213326686 0.040478712502 
2.1810141776e-05 -8.6069428631e-06 1.5532301708e-05 0.00044380054363 6.6232147593e-05 8.9060893431e-05 0.014419183328 0.0056933847538 6.2631977866e-05 
-3.4634979172e-05 0.005500852976 1.6035300694e-05 2.0924358428e-05 5.4341907777e-06 0.0065283190844 0.031996165603 0.016043216903 0.012573035572 
0.012933417719 0.0044380438279 1.1402731316e-05 0.021580332637 0.017407736315 -3.7444216417e-06 -1.3050832054e-05 1.7337591871e-05 -2.7724102952e-05 
0.0059028543457 9.2258732259e-07 7.4184283048e-06 -7.513586375e-06 2.66497313e-05 7.9625208409e-06 0.01859219586 3.5704068047e-06 0.0065685530131 
-1.4345010973e-06 -3.698436232e-06 5.8643375596e-06 8.8622224657e-06 -7.1450757199e-06 3.6223773502e-05 3.8625321115e-05 2.2728778139e-06 -1.6080045738e-06 
-4.5439284304e-07 2.4537290064e-05 0.0068405983915 0.031244999748 0.023893780798 0.017561240558 0.013722919446 0.012027184074 0.011901938615 
0.0069029894959 -1.9954561575e-05 1.4259562311e-05 2.8661660146e-05 1.7143650616e-05 1.0266094247e-05 1.2637048312e-05 4.9847957599e-06 3.1660112028e-05 
7.1306542685e-06 -1.6564306617e-05 0.00037871465035 0.0031521912162 0.0060812802247 0.0069808303157 0.0078285041677 0.0038047538232 0.00090837490356 
-6.8194404109e-07 -3.3182004514e-06 1.3571695094e-05 9.7846632508e-07 0.00511004946 0.0095952924378 0.01098563741 0.012983726483 0.01287368593 
0.016147211885 0.0199341907 0.023307696548 0.030351123613 0.016281663895 0.00096466658001 0.033485626545 0.037576875983 0.037040090713 
0.034899956555 0.036936268082 0.032162081809 0.034774399405 0.037161673811 0.033864663579 -3.7344966858e-05 5.5153287321e-06 -7.5709530436e-05 
0.019727132869 -4.8544788289e-06 0.0021921919638 1.0737922222e-05 3.6320518644e-05 0.015180935487 0.010206202319 0.0025422133488 -2.4884736644e-05 
0.00033021784905 0.0083153770171 -5.7462852978e-05 0.018506611576 0.032153498296 1.0624506051e-05 3.8442532829e-05 -3.6642759753e-05 0.0016931851523 
4.9879439407e-05 -1.2688158168e-05 -5.5374758879e-06 -3.0973216809e-05 0.023854474835 -7.5550912876e-05 -2.7142562002e-06 0.026143564769 0.024116028261 
0.019549579836 -1.0439583759e-05 -1.1424570472e-05 -1.329624514e-05 -6.2197480187e-05 5.7168363031e-05 0.016957139554 -3.4802926901e-05 -1.4741219369e-05 
-1.308060256e-06 -2.1981454231e-06 -3.1583796871e-06 3.4399744784e-06 5.5964722454e-06 3.0058720228e-06 6.2998791062e-06 7.852647323e-06 -2.5770400927e-06 
-4.7446444592e-06 1.2794854559e-06 1.655588524e-07 1.3761639129e-06 5.3220825066e-06 1.0840440708e-07 6.8817084662e-06 1.2273754857e-06 -1.6538203969e-06 
-1.1785603602e-06 -5.6096612151e-06 -3.1997225715e-06 -3.7014293204e-06 -5.8338002855e-06 -3.0349647741e-06 -6.3283342873e-06 9.9808264765e-06 0.0050820418128 
0.0034679054761 0.0031229650154 0.0021858929814 0.0014534625903 0.00093499185432 0.0006626990711 0.00050088269628 0.00042225717663 0.00034991362375 
0.00032084854788 0.00030308481859 0.00022782355073 0.00014849143077 6.9645468598e-05 -1.0524751958e-05 -1.0887222968e-05 -1.036234287e-05 -8.0693625115e-06 
-9.0540260932e-06 -7.0061132265e-06 -4.8320259463e-06 -1.4090552337e-06 -6.6236150118e-09 2.1194514754e-06 -8.971915694e-07 2.951463132e-06 6.1009798008e-06 
4.401367839e-05 0.00014779685384 0.00024427207495 0.00030376897263 0.00031416270938 0.00030660360653 0.00025472494493 0.0001875158299 0.00010924070417 
4.2112245566e-05 -4.2607551641e-06 -4.4975087565e-06 -2.0495990678e-06 -4.0534552712e-06 -1.0152458438e-06 4.0183198612e-07 -6.83905773e-06 -2.1340868622e-06 
-1.6623407611e-06 6.6660220876e-07 1.3661449258e-06 2.8057775387e-05 7.9518987627e-05 0.00013655579527 0.00020349472062 0.00024755857743 0.00024772890019 
0.00022739733447 0.0001843533233 0.00012110287193 3.9979789138e-05 -9.2388450633e-07 1.7779754009e-06 7.3859517745e-07 -2.1618408032e-06 -1.772387286e-06 
-3.4496632975e-06 -2.6784015158e-06 -2.0607397486e-06 -1.7424001171e-06 -2.9106135056e-06 -4.350106451e-07 1.0090635082e-06 -4.0495666305e-06 6.319242207e-05 
0.00014797517363 0.00020197031769 0.00023012121201 0.00024141177659 0.00028435940264 0.00032018408544 0.00039027089832 0.00046261186583 0.00063138971734 
0.00080756286016 0.0011634354531 0.0021893279251 0.0034401047234 0.010439297479 0.045279877566 0.062174712616 0.072513564084 0.075015194537 
0.078825083663 0.086331360198 0.08680371371 0.089416517819 0.092321546967 0.094545400796 0.095336929124 0.097158850645 0.097819992287 
0.097699183846 0.097132582967 0.096423692626 0.094831801823 0.092664473423 0.090801219445 0.087798665897 0.084235790538 0.08016134235 
0.074975870734 0.068025599126 0.061745792425 0.052241448558 -0.093150063394 0.0017367991326 -0.0033076242122 -0.0021891672978 0.0040042450484 
0.011611006182 0.015082826105 0.016795548222 0.016775422356 0.014928532627 0.011411763152 0.0044940682518 -0.0023569792627 -0.0019160846312 
0.0021280163072 -0.069677513095 0.0014444830276 -0.0018140062196 -0.0021989065343 0.0060570527769 0.012830420799 0.016004938965 0.017196116393 
0.016885362962 0.015112572945 0.010656025883 0.0028390323301 -0.0020833553438 -0.0017438472155 -0.0023085538608 0.040718899868 0.038976912874 
-1.9611912037e-05 0.01520452897 0.032744730167 -5.5715321654e-07 -1.8527910949e-06 9.5923044827e-07 4.3040827187e-06 6.0020784243e-06 5.4713658902e-07 
-1.4625807849e-06 -1.9248397334e-06 -1.567261471e-06 7.3419777287e-07 -2.301102478e-06 -2.4849979667e-07 -2.2443779167e-06 1.2492906443e-06 -5.7864561391e-07 
-4.0313895003e-07 -2.4909155156e-07 -1.038140702e-07 -5.6829048302e-08 7.0773132003e-07 3.0169800935e-07 1.3236478638e-06 2.8313933479e-06 -2.4031513048e-06 
0.012747727316 1.0675460449e-06 -0.00070105803831 0.020834336248 0.037947988319 0.0086502291569 0.0058713143707 0.0041196575167 0.0030639725975 
0.0024331071176 0.0020758005363 0.0017743807893 0.0015252002731 0.001289458255 0.001007498054 0.00063873031002 0.00020968930635 3.6477510403e-06 
2.3086228909e-06 2.2287838653e-06 5.5613743605e-06 4.0152534716e-06 3.3221240745e-06 2.4252514447e-06 3.2754644286e-06 3.9380395168e-06 2.150538432e-06 
-1.443712709e-06 -1.1307874082e-06 -1.4700254117e-06 0.00048265666145 0.00089007193232 0.0011685553006 0.0012953913369 0.0013273451604 0.0011964111917 
0.00091825654978 0.00061204305343 0.00029641826293 9.3376667193e-07 4.8400595354e-07 1.5892758352e-06 -5.3000002399e-07 3.8932437827e-06 -0.00039770898589 
0.0017454897262 0.017870545492 1.1457873889e-06 1.9543793653e-06 1.5228212845e-06 1.3812815228e-06 4.2119770784e-05 0.00028395268159 0.00053955882071 
0.00079308958674 0.0009736396353 0.0010533859911 0.0010316381244 0.00089743691295 0.0006444674842 0.00030461502049 -1.6711660868e-06 -1.5795364511e-06 
-7.4563827227e-07 6.9168398203e-07 -5.8081959364e-07 -5.4702303339e-07 -1.3776805133e-06 -2.4139054736e-07 -8.5112421782e-07 -2.6786580855e-07 -9.0031543959e-07 
2.5651893042e-06 5.5707154324e-06 0.0002896880631 0.00063792583311 0.00088440170404 0.0010841095798 0.001222438043 0.0014198514253 0.0016629974779 
0.0019527089199 0.002430730396 0.0031247147525 0.0040916913501 0.0059169072706 0.0087615140758 0.014694103933 0.033345019697 0.065007382935 
0.047042924023 0.077064762417 0.081071245876 0.084984637372 0.087601625055 0.090548816423 0.092767755508 0.094161388498 0.095674609967 
0.096760951535 0.097355127922 0.096790187995 0.095983096437 0.094236884777 0.092017341675 0.090317389069 0.087135596833 0.083122610113 
0.077664209104 0.07052829591 0.06211141619 0.051158847327 0.022569697293 0.026968700617 -5.6095940783e-05 -0.00025612016805 0.00019339054713 
0.00020010548493 0.0046917832491 0.0075477892843 0.0084076727489 0.0073028571215 0.0044158968521 0.00011561476593 0.00048126518275 -0.00013815409996 
-0.00084996263911 6.4908323357e-05 2.5823967221e-05 0.00044815811357 0.0051718011757 0.0075354125062 0.0082292738153 0.0072045522426 0.0039937857662 
0.00010396791019 0.00010818047103 0.00012250437204 -0.00029085089427 7.7377796757e-05 -1.979500208e-06 -0.00035098386676 0.026516000087 0.019041213575 
0.013432918403 0.024264335197 0.023516215127 0.01926857315 0.001196186563 1.5545529058e-07 6.1577207336e-07 1.4752031243e-06 -1.829201038e-06 
-3.9583898171e-06 -3.6655064806e-07 6.9223730843e-07 -3.2509419882e-06 -4.5843928341e-07 -4.6058201284e-06 -1.44486626e-07 5.604781035e-07 -3.4873071324e-07 
-2.758039263e-06 -1.0527584812e-06 -5.1572095839e-07 4.225660086e-07 -3.6329668872e-06 5.6445040687e-07 1.1083145343e-06 0.0052272686682 0.016467487459 
0.012039169541 0.00023308025407 0.023433033793 0.0089122816665 0.006708138617 0.0053229830101 0.0045511824147 0.0039947332683 0.0034700149472 
0.0028732039181 0.0021190455457 0.0012410818828 0.00024307532571 -3.9433528484e-06 6.513937247e-08 4.2592063189e-06 3.4361089677e-06 2.6674085565e-06 
2.1113614769e-06 2.3522835094e-06 3.6281411072e-06 2.0537292367e-06 1.2748671398e-06 -1.8050054646e-06 -3.916008918e-06 0.00057386902989 0.0014971916256 
0.0022477735862 0.0027544510182 0.0028852991823 0.0026479549855 0.0021609364095 0.0015505921127 0.00087852353889 0.00020774567922 3.0793895498e-07 
5.5213377153e-07 -3.8497765408e-07 2.2327012355e-07 0.0083103994267 1.6842815084e-06 2.0824768915e-07 0.00032684149802 0.00089599224193 0.001480391875 
0.0019506870884 0.0021787589475 0.0022300529297 0.0020701578553 0.0016998598092 0.0010264483152 0.00021570609236 3.6982774735e-06 2.6343524985e-06 
1.68931485e-06 -1.2129574568e-06 1.2457018021e-06 9.116661761e-07 1.1604256452e-06 1.3013916782e-06 -1.9611397135e-06 -5.0959824676e-06 -1.4281999531e-05 
-1.1782375377e-05 0.00048886202297 0.001344952966 0.002069387931 0.0024624514287 0.0028502960205 0.0033702295015 0.0038544124634 0.0044645183882 
0.0053337227414 0.0068053677152 0.0091244859731 0.012807317412 0.018478287112 0.024883414573 0.062796460639 0.056753737638 0.010094523419 
0.023976199384 0.021899698038 0.065897892309 0.068041125195 0.07249605249 0.076310330003 0.078714133887 0.079396589154 0.080663820155 
0.0819580544 0.081951768077 0.080780314696 0.079217652722 0.077376458588 0.075607511903 0.072416004108 0.067414495374 0.061473988199 
0.053962948016 0.045045968474 0.034000293489 -7.4568454904e-05 0.020854698947 0.011925170421 0.00016593702944 -7.2650614772e-05 7.8208276411e-05 
-3.4629241261e-05 -5.7125646868e-06 0.00063998771743 0.00040678487875 -2.6311462611e-05 4.6442989275e-05 0.00011021668563 -0.00050444853722 -5.6136209446e-05 
8.4552877255e-05 -2.6073958458e-05 -1.3499471211e-05 -2.8783092128e-07 0.00023252336329 0.00017712245463 8.7706043026e-06 8.8453874182e-07 3.5928429379e-05 
6.6304717786e-05 -5.605444811e-05 0.00046110747392 6.8151637149e-06 1.2389966579e-06 -8.8636571209e-05 9.7710582833e-07 -6.3591933067e-06 0.01974108791 
0.011146496437 0.020980964472 0.038398967412 0.010230212362 0.0135830485 5.1904471171e-05 0.010615631603 2.8001133445e-06 -2.5583194265e-06 
-1.1654616111e-06 2.8036445594e-06 1.2958763052e-08 -4.8652433423e-06 6.8711090992e-06 -5.2794192513e-06 -1.2971160534e-06 2.0651214661e-06 3.4452019514e-06 
5.7504742739e-06 -2.0856606325e-06 4.5626287417e-07 7.0130903629e-07 -1.4908922161e-05 0.0055212212998 0.00085674553185 0.0092563177783 0.010847159376 
0.013775467133 0.0080604976764 0.0072492711601 0.006268062598 0.0051113537696 0.0036224650246 0.0018127154014 1.9006589768e-05 5.5752201488e-06 
5.3096280441e-06 6.1638794887e-06 2.1888430788e-06 -1.4647937009e-06 -2.0785802073e-06 -3.3570014721e-06 -3.165794139e-06 -2.4042000121e-06 3.4768249206e-07 
2.6715934736e-06 0.00016286664831 0.0019584404319 0.0033890012745 0.00445189246 0.0049103935502 0.0047409665061 0.004009070683 0.0029393711418 
0.0017863753546 0.00066401082227 2.1638830345e-06 5.6471657721e-07 -6.7982851578e-07 1.1380084129e-06 0.013357637876 9.0038625808e-06 0.05394785818 
0.0042948884291 0.0022364450778 0.015830001992 -5.1487775042e-07 -4.5964327472e-06 0.0019040665064 0.0029056806056 0.0035000968219 0.0037205961914 
0.0036585783928 0.0033024905211 0.002433021612 0.0010977266344 9.9407303316e-06 9.7039778972e-06 2.3774881981e-06 5.5700502986e-06 4.0332504091e-06 
1.999975359e-06 -1.2233346761e-06 8.9773197524e-06 -5.8753072756e-06 1.181786e-05 -6.7681323848e-06 1.1328149374e-05 0.00031726522867 0.0019281929176 
0.0035516364253 0.0044510597916 0.005159996728 0.0060575537208 0.006897478051 0.0077924436726 0.0090824907283 0.010996899708 0.014703713499 
0.020247927064 0.027143583698 0.018774559076 0.044025798685 0.04753748197 0.013182380094 0.016510622624 0.033027171939 0.0013775397896 
0.050667916116 0.059498425789 0.065119354022 0.063646129716 0.064301657562 0.066531711105 0.067951416362 0.066601515988 0.064409519246 
0.062815870126 0.061164398563 0.058771774742 0.054666041407 0.048153230805 0.041248701692 0.0020957778804 5.6030524771e-06 0.012325206241 
0.015417704454 1.9004828576e-06 -1.016243302e-05 4.0379572681e-05 -4.2265607063e-05 -3.9834303475e-06 2.8515948093e-05 -2.4305757561e-06 1.0631096175e-05 
-2.6837668583e-06 -1.2751795088e-06 4.8377774574e-05 -1.9204680643e-05 -2.3606006906e-05 1.292988869e-05 -6.1007845216e-06 -5.0729983617e-06 -2.6145450735e-06 
2.251922176e-06 2.034489424e-05 1.9498358201e-05 4.4948225091e-05 -2.3030122252e-05 0.0019397130832 -2.5076097759e-05 -3.2671024822e-05 0.01990453184 
0.011405713635 -2.1467176361e-06 0.018455251669 0.010181132617 0.01878786283 0.0008706008361 -5.176972706e-07 0.024434219728 0.0079957964044 
0.016077142496 0.018462527121 0.0347938717 5.3401848672e-08 3.17040356e-07 -2.4858507903e-06 -2.2656829438e-05 -1.9370058895e-05 3.0538035806e-06 
-1.1885891879e-07 -8.0179271285e-06 -9.7314808506e-07 -5.6341205537e-06 0.002244733399 0.037652378257 0.013162813398 0.010752991051 0.00874675036 
0.00787423896 0.0050244419632 0.0028218766775 3.9152899823e-06 1.364499364e-05 -1.7096189069e-06 -1.8720060908e-06 1.0866883235e-05 3.477903441e-05 
1.8447733353e-05 1.3418178602e-05 -4.6074362718e-06 -8.0805096666e-07 3.5340111015e-07 5.3043501072e-06 0.0018407894866 0.0048144543869 0.0058459871528 
0.0072835997419 0.0073579623387 0.0062976200126 0.0046493766244 0.0029223308491 0.0013720110504 4.2116565138e-06 5.4174914534e-06 -5.5001074964e-06 
0.0032620964719 0.00011333097708 0.013765236143 0.001556199865 -6.1654845396e-08 0.0047668174629 0.0054764169288 0.005309766076 0.0056136177837 
0.0048820115602 0.0030401408396 0.00070411284123 -1.3628855162e-05 1.2121658102e-05 -1.6175254164e-06 -2.8571238487e-06 2.60745216e-05 -2.0672264154e-05 
-2.8311169094e-05 1.146922837e-05 6.448218901e-06 -4.1467753072e-06 0.00014480895458 0.0046796358055 0.00709958093 0.0074633508649 0.0090564181967 
0.010426813836 0.011698653801 0.013476488965 0.015694331453 0.018488151933 0.027806151598 0.0051477018705 0.0088400456985 0.013579387543 
0.043532947562 0.0017107748896 0.011229505285 0.048692023703 0.049505850844 0.05437211841 0.054877010505 0.049801145629 0.049261913022 
0.047903156058 0.045669978401 0.045077792483 0.037568605129 0.031277672706 0.01163669208 0.0090656526867 0.048831118139 -1.9868219845e-05 
0.0116229985 1.3782876749e-05 0.01501286311 8.6502512693e-06 2.852699492e-05 5.2211952996e-05 -3.3005977111e-05 3.4346416238e-05 -1.2543275753e-05 
3.1709641485e-06 -1.269675273e-05 1.9041888347e-05 0.011803678796 0.011767868284 0.01121347651 1.2128259254e-05 -2.7545141243e-05 1.0310687532e-05 
4.0552971765e-05 -2.3454817833e-05 4.4115628345e-06 -2.024735867e-05 -2.1894225903e-05 5.382828778e-06 -3.1352154444e-06 0.0069198581004 0.016215999463 
0.012328662587 0.0068381829253 0.024526423825 7.4066319736e-08 0.016522545484 0.017116918108 0.015372524143 2.7602762513e-06 -8.5073939362e-06 
0.00091161485649 -7.7310265899e-07 -8.4438552722e-06 -3.8924950629e-06 -1.4394160147e-05 -1.8514362981e-05 0.017521081899 -3.9562254092e-06 4.5865954316e-06 
0.00078219793267 0.0041771258839 -2.8114344595e-06 1.7853121498e-05 6.4791945635e-06 5.6362662326e-06 0.020465802093 0.010548071612 0.0090412338143 
0.0057458951887 0.002717639984 0.00012000330013 -3.340128794e-06 0.001877895698 3.6376088958e-05 0.0072597877562 0.0047831062184 0.0097598775879 
0.00014753793382 0.0083216805158 0.011325881359 0.013638635733 0.015188446221 0.01743957786 0.020424755434 0.024954896206 0.0067783133703 
0.018342059309 -3.6511399235e-05 0.030366823584 0.0089896901944 0.035153827738 -3.5001571457e-05 0.035020532205 0.037610664412 0.034632636146 
0.032248880003 0.022128976333 0.018811491628 0.019876409812 0.034389022631 -1.2907543443e-06 -3.1436293329e-06 0.034331307065 0.015715998827 
1.641944082e-05 1.9826861589e-06 -2.8947699496e-05 0.0065370604777 0.0076618871066 0.0031326192419 3.1987981338e-05 -7.9625198051e-06 -2.7546522824e-05 
-1.220336435e-06 0.037270090062 0.025825629573 9.5307619593e-06 0.0011231467123 -9.4868406481e-06 0.017306234913 0.021400764531 -2.5343266094e-05 
0.019348280431 0.023862728424 0.026803073112 4.0292604762e-06 0.0246452555 -0.00019970217245 0.57722698516 0.59843994574 0.24806504387 
0.18948038144 0.17311976816 0.16704315687 0.26462701171 0.2278120269 0.2408809849 0.25661420842 0.25853301065 0.2599101169 
0.26120406976 0.26272100422 0.2640180018 0.26430099995 0.26475699839 0.26447803319 0.26342106313 0.26258099741 0.26144014489 
0.26019499964 0.25981225022 0.25893930487 0.2591550072 0.26058001204 0.26566401376 0.27539045563 0.28328940168 0.39298191679 
0.36889394314 0.23533851657 0.2137729953 0.22150697424 0.26405644469 0.16704814719 0.26380530635 0.26689327289 0.26609699247 
0.26515099613 0.2675679968 0.26767705209 0.2674310166 0.26736500197 0.26661400064 0.2663080188 0.26654805639 0.26764200171 
0.26491415706 0.26611421621 0.26550200139 0.2656123375 0.26810699847 0.2706389949 0.27720250238 0.29364852335 0.41151479414 
0.00014086746948 0.00023993806684 5.4043463929e-05 3.8824410674e-05 3.7880055734e-05 3.4622847562e-05 2.7218166981e-05 1.4281423398e-05 6.3998207881e-06 
-7.8364240123e-06 -3.8730074273e-05 -5.6990255161e-05 -0.00010830618841 -5.8347902817e-05 -4.9895084152e-05 -4.0144896154e-05 -4.2565430601e-05 -1.5140333102e-05 
-1.3010195467e-05 -1.8376239376e-05 -1.9524279814e-05 -6.3897542837e-06 1.0854121644e-05 1.9096247891e-05 2.7415109892e-05 3.9429774917e-05 0.00026453402038 
0.00013747318494 0.09541227093 -0.0052660935127 -0.00085114578609 -0.00042329533878 -0.00018706456656 -0.00012816843143 -8.152063558e-05 -8.2389414139e-05 
-7.5894454303e-05 -5.2830094544e-05 -5.8663991926e-05 -4.9721549093e-05 -4.4100968388e-05 -9.5770405766e-05 -2.8871107522e-05 -7.0695609173e-06 9.2420086136e-06 
3.3989823552e-05 8.4079481551e-05 0.00011227698743 0.0001393039058 0.00014927236374 0.00015276020306 0.00016030190397 0.00014199390839 0.00011932257528 
9.3064170026e-05 6.3984634095e-05 2.3991582739e-05 -4.0907787131e-06 -1.5055627202e-05 -2.3044876561e-05 -3.085967822e-05 -3.2730074938e-05 -3.4242143063e-05 
-2.8143867278e-05 -2.1253674161e-05 -1.3395422026e-05 -3.8112609501e-06 1.1647400304e-05 3.474817596e-05 5.7631742689e-05 8.0191399624e-05 9.8880103938e-05 
9.5578089866e-05 -1.7496999458e-05 4.4963580664e-05 6.9190340859e-05 5.5880620109e-05 6.2029705827e-05 4.7487856942e-05 2.7126112208e-05 9.1082532316e-06 
-4.8749508666e-06 -1.3903848132e-05 -2.251791944e-05 -2.9662555937e-05 -3.4399220479e-05 -3.8431697307e-05 -3.1414811641e-05 -2.139087787e-05 -9.9715618446e-06 
9.3506315595e-06 3.9587867755e-05 7.9924124913e-05 0.00010969282984 0.00014411373408 0.00014936526922 0.0001515558201 0.00014745911251 0.00014787594115 
0.00012220619837 0.00010079051807 6.4184143985e-05 3.3389682777e-05 1.8557937115e-06 -1.6141232374e-05 -2.2832766104e-05 -3.3026558336e-05 -3.6732648039e-05 
-4.3244455429e-05 -3.9455876307e-05 -4.6628511731e-05 -5.9621769774e-05 -0.00010224182658 -0.00013652866811 -0.00018071284504 -0.00029523979959 -0.00061936573357 
-0.0021009377195 -0.0091151408106 0.038164807731 -0.061112322083 -0.0022655965831 0.015455019772 0.030778413008 0.032378367755 0.028680628181 
0.028248551203 0.026740979136 0.026698571102 0.028014318739 0.032365375873 0.033498569108 0.043343884713 0.099646970875 0.085065530556 
-0.038800682926 0.034108788099 0.02791807868 0.030763427147 0.032068030712 0.034450252023 0.034487636507 0.034824723588 0.035080330593 
0.035217167208 0.032725277699 0.032676722262 0.036467844974 0.022120401128 0.045865455447 9.2898552878e-05 0.00029351114027 8.8854247375e-05 
4.5042131628e-05 2.6221066055e-05 8.2809748326e-06 4.6653824506e-07 -1.3348517337e-05 -2.3175556273e-05 -3.5473814882e-05 -2.9243496854e-05 -3.7079590157e-05 
-6.4954762491e-05 -5.3833291465e-05 -6.0310999314e-05 -6.5611646244e-05 -9.5973267563e-05 -5.4923853966e-05 -5.4242268917e-05 -8.2207813632e-06 1.1572112769e-05 
3.1512473363e-05 4.1001936455e-05 4.6616699254e-05 5.0962660016e-05 7.6734832835e-05 0.00028152573684 9.1309290147e-05 0.03773260381 -0.0052002547261 
-0.0016045173763 -0.00062035316709 -0.00031842858842 -0.00022916803026 -0.00014634171354 -9.3869552218e-05 -5.1805684783e-05 -4.4975407075e-05 -3.9732173645e-05 
-1.96313165e-05 -1.8197094772e-05 -8.9204423224e-05 -6.1543784273e-06 3.4122543978e-05 3.3624434135e-05 6.0756059693e-05 9.2739675278e-05 0.0001502122547 
0.00017526512109 0.00019013889814 0.0002070271658 0.00018643401394 0.0001768813817 0.00015843355827 0.00012934266182 7.2651756666e-05 2.2892438166e-05 
-1.1428177051e-05 -2.6554648436e-05 -4.5145029574e-05 -5.2240074284e-05 -5.0141384501e-05 -4.9536038645e-05 -3.7632827225e-05 -2.8643401928e-05 -1.5431646454e-05 
1.221867762e-06 2.1554365922e-05 4.6471943006e-05 7.0855832098e-05 9.3007658927e-05 8.9918156463e-05 4.8170043028e-05 -5.6483728092e-06 2.7026773024e-05 
6.0356096019e-05 6.3874711714e-05 6.3924219885e-05 5.6188776809e-05 3.9342788599e-05 1.8484859306e-05 2.9995811794e-06 -1.1134736341e-05 -2.1160917375e-05 
-3.6154436423e-05 -4.5304062719e-05 -4.973855973e-05 -4.7109822404e-05 -3.5113011017e-05 -2.9203982612e-05 -8.9465761137e-06 2.2338604689e-05 5.7109621493e-05 
8.7680200679e-05 0.0001281979406 0.00013914030854 0.00016570085555 0.00015862836805 0.00014220930075 0.00013819662765 0.00011182315738 7.755418172e-05 
4.6363173385e-05 3.786747846e-05 -7.4030161866e-07 -9.8221550049e-06 -1.8513650154e-05 -1.8709064698e-05 -2.6876737159e-05 -2.4811564728e-05 -2.4748571392e-05 
-1.4394742198e-05 -4.4002295104e-05 -6.9219152057e-05 -8.9761312249e-05 -0.00025430101256 -0.00046330522581 -0.00074829452192 -0.0034612349592 0.10798125731 
-0.10168393569 0.084220402304 0.037977289935 0.029719086129 0.031604714417 0.034542975047 0.035037080555 0.034873928736 0.035004047113 
0.03543356029 0.032977277418 0.032676528729 0.033843092076 0.053072890095 0.040488424355 -0.13445622235 0.11308029802 0.034545942744 
0.033948235292 0.033594835754 0.028011788141 0.028674667848 0.029539152381 0.028191248243 0.027995929316 0.032430082678 0.033285381485 
0.03233578797 0.021561208003 0.020145818128 4.0506537059e-05 3.2368138673e-05 -0.017719618704 -0.022554774592 0.019348248494 0.011214282897 
0.36170699638 0.29781640785 0.24682283721 0.23131194431 0.22630165894 0.21194194076 0.22028794605 0.2153926415 0.22203255262 
0.18159832122 0.21790228641 0.19686391799 0.20568786325 0.19164308881 0.21458518192 0.19571781672 0.2179295926 0.19872918501 
0.21501547034 0.2027440134 0.21066654792 0.20713895428 0.21932556132 0.20786961625 0.21831551184 0.21196338824 0.21767727214 
0.21044206925 0.22045031823 0.21142319217 0.22050551661 0.20883492767 0.21781713991 0.2098394641 0.21266123191 0.2103983156 
0.2116959804 0.20662412796 0.20294052707 0.2053122415 0.2043704853 0.20304771571 0.1990501443 0.20200428046 0.19491111878 
0.20519037784 0.19339705332 0.20795940298 0.18759814905 0.21915463031 0.18893792632 0.22233000364 0.20784698867 0.2522312891 
3.2655767183e-05 -3.1404345995e-05 -2.9656850979e-05 -2.2767404732e-05 -2.0220840271e-05 4.6206122483e-05 -1.8417167862e-05 -1.7171280033e-05 2.6333604117e-05 
-1.0158060936e-05 -2.1667900303e-05 3.0029331846e-05 -1.0729961958e-05 -1.0585497714e-05 3.0539862302e-05 4.1795390903e-07 -4.2466691078e-08 3.0566836246e-05 
-8.7100091793e-07 9.5357359879e-06 -2.238489356e-06 6.8513979766e-06 2.1602001277e-05 -1.2914772615e-05 2.4650074053e-05 -2.8481646375e-06 -2.7925358877e-05 
2.8536098807e-05 2.7149928629e-05 -3.6068640326e-05 2.527805687e-05 2.9346333683e-05 -3.2028057735e-05 3.822861235e-05 4.1917429464e-05 -4.5111269658e-05 
4.9242212105e-05 4.6409768326e-05 -3.6954467763e-05 4.3309812259e-05 4.4076142967e-05 -5.3066961886e-05 4.2618954075e-05 4.1775609289e-05 -5.3740298432e-05 
3.4665214174e-05 3.701428521e-05 -5.2580690106e-05 1.8003523925e-05 3.5101868185e-05 -6.0501875016e-05 3.1121041214e-05 3.6228860102e-05 -3.7380662029e-05 
1.036581397e-05 1.1468006815e-05 -2.5056402217e-05 -1.0475253412e-05 -1.202098425e-05 3.6178178059e-06 -1.2385841168e-05 -1.8350550684e-05 1.7604229973e-05 
-3.1350018597e-05 -2.2063653134e-05 1.4977806428e-05 -2.389378803e-05 -2.6600246393e-05 3.0248638774e-05 -3.9102423879e-05 -2.7115366984e-05 3.0982200464e-05 
-3.3865383214e-05 -2.9408269118e-05 5.1322932362e-05 -2.2442582625e-05 -2.1708963019e-05 4.9727751713e-05 7.8506544571e-06 -2.4591800456e-05 1.2588858338e-05 
2.7799505281e-05 0.047401135655 0.02412870441 0.0092326262285 0.0039730714284 0.0024841718502 0.0071356345398 0.0020186657858 0.0014782083358 
0.0021998818826 0.0011017727495 0.00080544078937 0.0012367711268 0.00068828848903 0.00054729679547 0.00060284226176 0.00041918739539 0.00035593014084 
0.00036906450754 0.00030277357323 0.00033714651629 0.00024722339277 0.00025137332398 0.00024772891964 0.00027169262994 0.00020204078717 0.00020153558369 
0.00020446667792 0.00017188194793 0.00019461963261 0.00018178897806 0.00015851997269 0.00018139334472 0.00017321944482 0.00015191442146 0.00017379756218 
0.00013956982146 8.4797831116e-05 0.00012261447013 0.00012633468927 8.4005745297e-05 8.6638408738e-05 7.5665372475e-05 4.7554614536e-05 3.1209279027e-05 
1.6210877282e-05 1.9194462049e-05 -1.314928352e-05 6.8227323821e-07 5.6653232433e-06 -2.96892644e-05 1.7077949908e-05 -4.6513560964e-06 -3.488820658e-05 
4.2525081768e-05 -7.8409894018e-06 -3.6169710653e-05 5.8528747116e-05 -2.3944217254e-05 -3.9935077954e-05 6.8382783201e-05 -3.4442960228e-05 -3.7761294093e-05 
7.264511144e-05 -3.3185736008e-05 -3.5589184742e-05 7.2985662148e-05 -4.0194169975e-05 -3.3986373099e-05 7.2933170577e-05 -3.9253864416e-05 -2.6036788635e-05 
6.2759920707e-05 -3.3154270456e-05 -1.128615504e-05 5.2213264976e-05 -2.5546586685e-05 -2.8854544553e-06 3.8617570919e-05 -1.2395734635e-05 8.6657841225e-06 
2.5822997842e-05 3.3647345163e-06 1.7583188609e-05 6.2231856291e-06 4.3422420495e-05 4.3202691875e-05 7.60010795e-06 9.1267154663e-05 7.9982549288e-05 
5.761893528e-05 0.00011762537542 0.0001062925765 0.00011027709376 0.00014121042431 0.00013160339767 0.00013943866328 0.0001499193794 0.00013923414729 
0.00016717674415 0.0001456326271 0.00013056070291 0.00017917669738 0.00012335592286 0.00010301344457 0.00015661330303 8.8032799038e-05 7.3369735664e-05 
0.00011841406134 5.0121501439e-05 4.2069472658e-05 7.3541070273e-05 1.7065534426e-05 1.3159498335e-05 3.5172894211e-05 -1.1591186906e-06 -1.2723339567e-05 
7.318423347e-06 -9.9478713216e-06 -2.431076691e-05 1.6131377334e-05 -2.3251684934e-05 -2.8875757939e-05 2.6359672105e-05 -2.7540238013e-05 -2.8523051207e-05 
2.9998217279e-05 -3.0779630877e-05 -1.4060425617e-05 4.0641521956e-05 -9.8990534976e-06 1.277984769e-05 4.2481107021e-05 -0.10720415853 -3.4224041528e-05 
-2.4572518342e-05 -2.207795755e-05 -2.6494646674e-05 -2.078115818e-05 2.4746473722e-05 -2.1707918355e-05 -1.6591382003e-05 2.579042633e-05 -1.607656724e-05 
-1.2339484494e-05 1.9330358451e-05 -1.065920726e-05 -7.3731927347e-06 1.2341933432e-05 1.4814168652e-05 9.7891799457e-06 8.7809820121e-06 4.6536198201e-05 
3.9732394643e-05 3.9635034848e-05 7.1273287109e-05 7.5596744631e-05 6.5839842338e-05 0.00010341067622 0.000106274818 0.00011102338627 0.00013052123928 
0.00012441884746 0.00014548807736 0.00014085534377 0.00014292122696 0.00015608472567 0.00013403766825 0.00014395433635 0.00014836525071 0.00011614412668 
0.00012651824913 0.00013875731112 8.4574970169e-05 8.7897199141e-05 9.6516662491e-05 3.8668195293e-05 4.8774839462e-05 4.4497429221e-05 1.6492228501e-05 
2.171923023e-05 4.0838557319e-06 -4.5732407933e-08 1.1183391579e-06 1.5101137729e-05 -1.6464064892e-05 -1.2353670495e-05 2.6811328589e-05 -2.9797544544e-05 
-2.4891042821e-05 3.9396149473e-05 -3.4884323434e-05 -3.1385833712e-05 4.7847043339e-05 -3.5430351586e-05 -3.0906463869e-05 5.7153508874e-05 -3.9751675418e-05 
-3.295217822e-05 5.8866921019e-05 -3.9830811541e-05 -3.0336057048e-05 5.7715671346e-05 -3.4996558664e-05 -2.759281432e-05 5.1037997949e-05 -3.0328990146e-05 
-2.9052972462e-05 4.715958442e-05 -2.701530802e-05 -1.835844263e-05 3.912648346e-05 -2.0596283942e-05 -1.4877373236e-05 2.6560464625e-05 9.9763632624e-07 
-8.065068169e-06 1.2106197182e-05 6.0211383433e-05 7.9855636285e-06 1.1802039267e-05 9.731356494e-05 4.141083431e-05 4.6324313611e-05 0.00013580819148 
6.366599653e-05 8.1292068083e-05 0.00015825318413 8.1883032606e-05 0.00011926837221 0.00017699019469 8.7308007275e-05 0.00014470619095 0.000177212217 
0.000101277756 0.00014690087368 0.00020279061429 0.0001280816621 0.00013685537282 0.00024865124271 0.00018386883693 0.00015381963096 0.00034681713322 
0.00027066525588 0.00023374174924 0.00046782187029 0.00039545986133 0.00035154599283 0.00063295740684 0.00057289512313 0.0004305779656 0.00092823884708 
0.00095145356291 0.00061717996894 0.0016014763671 0.0020364862483 0.00096614436452 0.0028388153411 0.0060032664264 0.0018221217454 0.0036296664527 
-0.012853229386 0.0037764059855 -0.047550139058 0.08938693512 0.087537288221 0.0958020882 0.095563930307 0.048282236284 0.099063043006 
0.10277764237 0.061216634067 0.096208547393 0.1018503367 0.08723789071 0.075468528698 0.091767669084 0.090279404716 0.11260172016 
0.10712165252 0.084114817 0.10640739599 0.11026485918 0.10004938369 0.105931444 0.11066816411 0.10435410502 0.10767841217 
0.11247515306 0.10692995174 0.11272280509 0.11517917758 0.10734348993 0.11258976889 0.11461973845 0.10933248125 0.11474782155 
0.11653216752 0.1110134309 0.11602663145 0.11617314419 0.11009484147 0.11573852893 0.11498138513 0.11071649703 0.11415209151 
0.11228307309 0.10998066676 0.11270350662 0.11037119393 0.11014709358 0.11231273678 0.10942583874 0.10804421352 0.1091942144 
0.10619990725 0.10666812337 0.10871911247 0.1044376051 0.10318827437 0.10507799844 0.10042502012 0.1010084647 0.10173578581 
0.09639376309 0.09737083724 0.098681765824 0.093017676384 0.09352353491 0.093516726352 0.088700902111 0.088470863493 0.091844604316 
0.087963897581 0.081037587257 0.08898076872 0.089543663235 0.068983838336 0.018348253519 0.068063519628 0.0090699730299 -0.016401511104 
0.0060919979885 0.01444631165 -0.0037760441112 0.0054384671283 0.00077949320663 -0.0034059871488 0.012819615046 0.0088374242052 -0.00063545414857 
0.017263640808 0.014954274269 0.0090690926656 0.019440149488 0.018369903724 0.014404002545 0.020080796097 0.019645042873 0.016781438723 
0.019670363608 0.020185357175 0.017622787141 0.018225860181 0.019392996387 0.016690120467 0.014225681681 0.016833900536 0.013401153637 
0.007434576178 0.01231646592 0.006560777065 0.0027480443433 0.0067424406027 -0.0026618646106 0.014248021991 0.011955088722 -0.0046588010869 
-0.011092665558 0.026546175499 -0.012137297466 0.018840215191 0.011330091779 0.032744325115 0.0054120636569 0.0070135265252 0.012281716139 
-0.010701988927 0.0056624938445 0.0030651783198 -0.0027130228875 0.01306731753 0.0088059102703 -0.00089282058967 0.017428053378 0.015632205936 
0.0088874478634 0.019709681699 0.01854816841 0.014430205205 0.0207020858 0.020209084008 0.017320931985 0.020463875347 0.0205776932 
0.018417565073 0.019054567503 0.019721434794 0.017820794898 0.015795995633 0.01742244485 0.015268598323 0.0096003617087 0.0136033368 
0.010055461432 0.0013911972177 0.0062213030388 4.4492472435e-05 0.0026339639498 0.0052295545825 -0.0019167316783 -0.011466994028 0.012131364583 
-0.0029726570831 2.1049283435e-05 0.043639564097 -0.01659279984 0.039709528088 0.010484168266 -0.015959030342 0.062718886333 0.018293542712 
-0.0015718263642 0.01745523681 0.022370415491 0.018986743494 -0.0036991404496 0.030584679249 0.012551183769 0.025640346754 0.028427783981 
-0.017239419163 0.0080185505075 -1.6613721725e-05 -1.9843808808e-05 -1.1151298583e-05 -3.0282702963e-05 3.2533549738e-05 -1.6533939885e-06 -1.3015952175e-05 
2.5645346018e-05 -1.9433944655e-05 -2.6350889979e-05 1.8401291709e-05 -1.4179334292e-05 -1.9349587901e-05 8.9943334918e-06 -1.2655794463e-07 -6.0431204298e-06 
4.9470409623e-06 6.3940576232e-06 -9.970680973e-08 -1.764085595e-05 2.1733484037e-05 1.75347274e-05 -4.5981794415e-05 2.2117135275e-05 4.093049462e-05 
-7.8391159034e-05 4.2674050302e-05 5.1123864732e-05 -8.8073693926e-05 3.3696784481e-05 6.2192155121e-05 -9.6631355952e-05 3.678590743e-05 5.8529943511e-05 
-0.00011138730073 3.1024331773e-05 5.585717165e-05 -0.00010601386543 2.5168510431e-05 4.5352341944e-05 -9.8505995149e-05 1.9583493734e-05 3.7395531739e-05 
-8.0106964051e-05 1.1872806055e-05 2.5742861131e-05 -6.2735291719e-05 7.079736948e-06 1.4140412557e-05 -3.5842030264e-05 1.0056063831e-07 9.789444558e-06 
-1.4777168224e-05 -8.866999715e-06 3.1980336753e-06 8.0481055751e-06 -1.4970811514e-05 -4.7474753589e-06 2.7638048492e-05 -2.8376716096e-05 -7.6195966231e-06 
1.7122171987e-05 -2.5995818257e-05 -1.2394695487e-05 3.8502717477e-05 -3.093456644e-05 2.2818354124e-06 5.4020540945e-05 -1.3486142435e-05 -2.9151430923e-05 
4.1094560621e-05 0.00098422571199 0.001282763842 0.023517506788 0.050128821753 0.018651646535 -3.9491362135e-05 0.012047949534 0.0082171581639 
0.0071796019772 0.0051090913213 0.010891986814 0.0045000189568 0.0036157596885 0.0069302052375 0.0031256714235 0.0025068084822 0.0045884841339 
0.0021029766457 0.0018483623314 0.0032277023017 0.0015681931119 0.0014168477251 0.0023038729647 0.0012241523821 0.0011516097652 0.0018102565121 
0.0010356323564 0.0010216205008 0.0015022410242 0.00091211173626 0.00091489502394 0.0013279333559 0.00079332338841 0.00080126379956 0.0011782382656 
0.00069222632115 0.00066963672826 0.0010154561716 0.00048382099479 0.0004679382234 0.0008139650461 0.00029351112847 0.00023547793304 0.00051968748065 
4.3700465323e-05 1.8898251582e-05 0.00017006226815 1.8267459272e-07 1.0941367954e-05 -6.9937221418e-05 -1.7522629513e-05 -1.8723458655e-06 -3.020860475e-05 
-2.8077083003e-05 -1.7576569475e-05 3.2983796328e-06 -4.9365905159e-05 -2.0252838156e-05 2.4253301076e-05 -5.8355806404e-05 -2.2728132026e-05 5.4275245937e-05 
-6.1973155296e-05 -2.4363666275e-05 7.7673736471e-05 -6.3718096518e-05 -2.9231458992e-05 9.0318794625e-05 -5.857075127e-05 -2.643445405e-05 9.4792455527e-05 
-5.4544040658e-05 -2.4137544379e-05 9.8816136648e-05 -4.337216674e-05 -1.5951147746e-05 9.1644057047e-05 -3.0195355698e-05 -1.1875808409e-05 7.9959724983e-05 
-1.6601496987e-05 -3.8688816447e-06 5.7738049255e-05 1.851708877e-05 0.00010974478264 3.1899800426e-05 0.00025092366614 0.0003288258034 0.00023225521488 
0.00045078995158 0.00049742830948 0.00052666162147 0.00059642416586 0.00062743082144 0.00076588444295 0.00067853242676 0.00067932068586 0.00091528972801 
0.00069234281552 0.0006561853173 0.00095705732572 0.00063844793857 0.00057274587392 0.00090464758046 0.00051292708688 0.00042968090574 0.00076765371485 
0.00034956213386 0.00027185820697 0.00055542057865 0.00018563979545 0.00011570878678 0.00033420988316 2.551558418e-05 1.7055630605e-06 0.00010999883362 
-1.663084709e-06 -3.9625668736e-06 5.8223144354e-06 -1.0580536419e-05 -4.1177099777e-06 2.5159750585e-05 -1.7280771029e-05 -9.7763818639e-06 4.3070632922e-05 
-3.079319504e-05 -9.7312663357e-06 5.0947054594e-05 -1.7397176439e-05 8.6467129401e-06 1.8724944069e-05 0.012571772442 0.027476544623 0.029734516171 
0.018133772668 0.02223287485 -3.6614751848e-06 -1.6217452453e-05 -1.2997017558e-05 -1.2340172143e-05 1.6963449167e-05 -1.3501941239e-05 -8.5576263672e-06 
1.4427210398e-05 -1.1243883345e-05 -4.3972235537e-06 1.0874203789e-05 -8.6233241737e-06 2.6690692305e-05 4.7179294885e-06 0.00012288735488 0.00018192135858 
0.00011117433161 0.00027877299848 0.00034473373256 0.00033958782479 0.00042722250386 0.00049898287445 0.00055510536196 0.00054809023914 0.00060391888156 
0.00073240880014 0.00063792204189 0.0006823462623 0.00087260197121 0.00065615350488 0.0006718531845 0.00093994094595 0.00059681201018 0.00059145945218 
0.00088168159871 0.00047407727059 0.00043186104935 0.00072791319009 0.00028050799101 0.00021788020366 0.00048015419065 3.4940299356e-05 1.3828509684e-05 
0.00014740303595 -1.0898151422e-06 7.2757871033e-06 7.5177184721e-06 -1.3807336478e-05 -1.0092938064e-05 1.7152742151e-05 -2.1238641477e-05 -1.680244824e-05 
2.2999206809e-05 -3.0306206112e-05 -2.0828983674e-05 2.9001312712e-05 -2.6330265608e-05 -2.3664338815e-05 3.1567462677e-05 -2.9218517249e-05 -2.3565683283e-05 
3.533047002e-05 -2.8999327676e-05 -2.4669019444e-05 3.5592726407e-05 -2.3094363323e-05 -2.2173757001e-05 3.3975583407e-05 -2.1543564969e-05 -3.1250432215e-05 
2.8992253394e-05 -1.1347654295e-05 -2.2365839497e-05 2.3657577841e-05 -1.1260394762e-05 -1.4824304697e-05 1.5822797162e-05 -1.6036705343e-07 -1.0308795895e-05 
7.4048925402e-06 0.0001040573966 9.4240933231e-05 2.7074918754e-06 0.00033622017884 0.00030991834016 0.0003102090251 0.00053712414181 0.00047965636911 
0.00061295930907 0.00067743371496 0.0005913751656 0.00083811448087 0.00077569228106 0.00066877178485 0.00098098467837 0.00086032779414 0.00076136187957 
0.0010815239126 0.00094844879449 0.00091785403541 0.0012076122648 0.0011780923108 0.001183743501 0.0014932819594 0.0014923775497 0.0016301020042 
0.0018416135028 0.0020147295434 0.0021970095689 0.0024196757132 0.0027330010362 0.0030998602164 0.0033795654043 0.0037996493784 0.0046489346661 
0.0048330638107 0.0056346470701 0.0074914124619 0.0072723085687 0.0093192081995 0.014424851087 0.024879799465 0.012740421988 -1.7652182776e-05 
0.04627304957 0.047490152191 0.0053048115622 0.00024338154716 -0.0061560345085 0.054119220159 0.060985614348 0.066854136402 0.075036537305 
0.062344776911 0.07789173661 0.079368354214 0.072391883234 0.086895844217 0.079749586189 0.078227147093 0.090089954475 0.089534929316 
0.08175382021 0.094486891119 0.093624100404 0.086478395507 0.097298975435 0.096357480043 0.090254472148 0.099534994425 0.098042660521 
0.092803507475 0.10096027883 0.10045171993 0.094638406387 0.10194408476 0.10172056785 0.096033321288 0.10255706031 0.1019584894 
0.097032958831 0.102500016 0.10201859976 0.097183349291 0.10163504508 0.10188473212 0.097098153416 0.10089066251 0.10106189163 
0.096480111902 0.099274098134 0.099891178193 0.095235338534 0.09702503869 0.098300832245 0.09355819332 0.093923360923 0.095442067053 
0.091408579825 0.091189125425 0.092375949814 0.088425964723 0.086586305211 0.08855854178 0.084904705958 0.081745870622 0.082792825969 
0.079977383011 0.075289398975 0.076229636824 0.073361219082 0.066061996514 0.066506582957 0.064616548033 0.051474803294 -0.0041224695084 
0.0042619168164 0.00083777554385 -0.0028922160532 0.010053812522 -0.00097030885825 0.0064342160959 0.0024604324597 0.010367877088 0.0081761187614 
0.0016714284598 0.012039321534 0.011343212828 0.0055138581202 0.012641851962 0.012764232621 0.0074351329751 0.011203099105 0.012447566783 
0.0074210089846 0.0076270471236 0.010244703651 0.0051345903954 0.0011456548916 0.0052473555309 0.00097618017481 0.0022382959512 0.00085086795898 
-0.00057425402304 0.0048059054477 0.00073339554836 -0.0013658450069 -0.00031906749229 -0.0019715467 -0.0023616686628 0.029427175993 0.028836682797 
0.02579348473 0.0032929032531 0.017871503113 0.02127169568 -0.003110605755 -0.0028447722662 0.0064942568431 0.002624748594 0.010771830543 
0.0085552397386 0.0028995928072 0.012938676648 0.011984280554 0.0072969537112 0.013563529968 0.013619022158 0.0095630765929 0.012421275709 
0.013417241058 0.0098808804194 0.0091801404825 0.011498749453 0.0080633659651 0.0034028290261 0.0071802313005 0.003684224745 0.00053447930424 
0.00066151319881 -0.0009856784424 0.0019763586838 0.00080297968605 -0.0024401301618 0.0052389827641 -0.00037606440059 -0.0041697038629 0.017271922635 
-0.0039026085408 0.00032031519984 -1.5140677621e-05 0.00049125907352 7.1596213901e-05 -0.00043459939459 0.00053847896114 0.0024386470431 -0.0010851070511 
0.0010285878683 0.000900195754 -0.0012101967725 -0.00061542884643 0.048362487711 -0.0010654084844 -4.3185788464e-06 6.4848624263e-06 9.155050851e-06 
3.1908163309e-06 0.0042206034477 0.010930197813 0.043495430141 -2.2752933268e-05 0.02051947661 0.021318982168 0.0087387996548 0.0042938337551 
0.0035641805886 1.1636223708e-05 2.0353263787e-05 0.017787706895 0.023324767835 0.0067237404066 0.023233007586 0.017300715003 0.011993221183 
0.012858215324 0.020665459203 -0.00090931358603 0.00041970264133 0.013038536581 0.0012312620326 6.1218091832e-06 -8.3057076445e-06 2.3253423209e-06 
-1.0470845204e-05 -2.072739693e-06 -1.3631211059e-05 -1.4210060486e-05 1.5315060314e-05 -1.9055252069e-05 2.4087405963e-06 6.8809328117e-06 -3.6470983781e-06 
9.9710859687e-06 -4.3858887495e-06 5.9257684716e-06 1.3511007745e-05 -1.7926410393e-05 1.9934482808e-05 1.3682812189e-05 -3.763517352e-05 8.600194683e-06 
5.3910365456e-05 -6.5858330324e-05 2.3898793679e-05 5.6839122754e-05 -7.9889263286e-05 2.252594705e-05 5.9979025012e-05 -9.0385044373e-05 2.8090032313e-05 
5.4505805787e-05 -9.7824426206e-05 2.6771587488e-05 4.5906228006e-05 -8.5634688352e-05 2.9203696572e-05 3.1334251451e-05 -7.6461389116e-05 2.3225926174e-05 
2.2676505e-05 -5.3757375049e-05 1.7956108927e-05 6.7414121578e-06 -3.1511315122e-05 2.1031760929e-05 -1.7559387742e-06 -9.708345333e-06 5.6300895332e-06 
-2.8997446573e-06 -4.520675651e-06 -7.1102736422e-06 -3.0721814518e-06 1.1326375679e-05 -1.4686877197e-05 -6.9685000146e-06 2.3290808994e-05 -1.4871967635e-05 
-3.9635180374e-06 1.6961704283e-05 -2.3366959271e-05 4.7778399998e-06 1.719937105e-05 0.033450959084 0.020511179871 0.016193478513 0.013971147942 
0.011093785243 0.019815991892 0.009470545886 0.0078899599964 0.01401701394 0.0069235409051 0.0057222162188 0.0098336822994 0.0048697306717 
0.0042052559387 0.0070740769889 0.0037316901427 0.0033677881709 0.0052282413683 0.0030735464252 0.0028955369884 0.004238812864 0.0026881939277 
0.0025984565811 0.0036953091815 0.0023990941179 0.0023028220726 0.0033079730241 0.0020706763058 0.002005572359 0.0029183270702 0.0017541848014 
0.0015821789072 0.0024826528693 0.0012348454504 0.0010152032442 0.0019000489143 0.00059716082732 0.00033607349719 0.0010777014181 3.8302298026e-06 
4.2797607157e-06 0.00020040974256 -8.4555367882e-06 -1.2758416178e-06 -7.2646169494e-05 -2.1818870845e-05 -6.7982336084e-06 -4.1083315092e-05 -3.5305105496e-05 
-1.1077074799e-05 -2.5743719546e-05 -4.4741576046e-05 -1.0029895827e-05 -1.5405060245e-05 -4.4346145843e-05 -8.7257580797e-06 -2.992714644e-07 -4.0938344208e-05 
-8.7271010498e-06 1.3219329691e-05 -3.8844662719e-05 -8.2894763888e-06 2.1107234313e-05 -3.8121656137e-05 -7.4758183578e-06 2.8261417854e-05 -3.3859506625e-05 
-5.8562085696e-06 3.2746524787e-05 -2.5146649334e-05 -1.3844966934e-06 4.3530435791e-05 -1.4560159659e-05 6.9207208329e-06 4.7366747769e-05 -4.1693019137e-06 
1.4915910259e-05 3.0703156506e-05 0.00031248771288 0.00057083161575 0.00017569129239 0.00085129622995 0.0010471206276 0.00090110611758 0.0012787889742 
0.0014217942368 0.0014957043178 0.0015859698436 0.0016291233373 0.0019435771436 0.0017106337875 0.0016673923753 0.0021796553759 0.0016363456251 
0.0015224569724 0.0021681107322 0.0014065292742 0.0012218899575 0.0019134107798 0.0010530317402 0.00084429222738 0.0014929156697 0.00065185549642 
0.0004580480983 0.00099562155062 0.0002577498742 6.3370121936e-05 0.00047633435954 4.3066067038e-06 -9.8025895099e-06 2.0553249354e-05 -6.5676781499e-06 
-1.0306872459e-05 1.2825013449e-05 -7.1510802486e-06 -2.7535460209e-05 3.4103786114e-05 -1.0345003935e-05 -2.2147866161e-05 3.3554625179e-05 -1.0269287542e-05 
-1.3985309142e-05 1.7526488273e-05 2.3382826593e-05 0.0032446114331 0.0021225678952 -0.0024743936763 0.0098587643836 0.033772673918 0.02378691136 
0.028300500859 0.045578144052 0.021015242465 0.021119816554 -8.9179681272e-06 -7.0994602099e-06 -1.4529571541e-05 2.4767035669e-06 9.4782351552e-06 
-1.8460392373e-05 6.5323378401e-06 7.1044210391e-06 0.00012122919118 0.00029169815262 3.1822093433e-05 0.00047982938293 0.0006776225857 0.00052748692267 
0.00086874769884 0.0010737242614 0.0010324268639 0.0012599977371 0.0014226973602 0.0015475098732 0.001499345086 0.0016233281047 0.0019249438087 
0.0016198963362 0.0016472060454 0.0021278712076 0.001590569867 0.0015506875533 0.0021383007977 0.0013537440929 0.0012388719316 0.0019179603977 
0.00096756488188 0.00075906788707 0.0014339338823 0.00039751413155 0.00013541221194 0.00073613143621 2.0665007007e-05 2.1186143744e-06 3.273183127e-06 
2.3207166617e-06 -2.4653488271e-05 1.1339621706e-05 -4.0692058393e-07 -1.6494781062e-05 4.6206273914e-06 -7.4913387294e-06 -1.707112317e-05 9.5759505018e-06 
-6.6839963769e-06 -1.6379784956e-05 9.8745830016e-06 -1.1217166507e-05 -1.6936765952e-05 1.1449553497e-05 -1.0235952969e-05 -1.5272562898e-05 1.2930780015e-05 
-1.3547547411e-05 -1.5890737378e-05 1.1200812625e-05 -1.3489248339e-05 -1.2083187051e-05 1.4632379163e-05 -6.5013866687e-06 -1.2398102316e-05 8.4581839417e-06 
-8.1847527676e-06 6.0693853219e-06 3.6846752583e-06 -2.7869068294e-06 1.0952478485e-05 1.4212778842e-05 6.5883785847e-05 0.00025895433591 -4.7043227866e-06 
0.00065424529885 0.00083709826131 0.00062622212104 0.0012054845198 0.0013432832609 0.0014005155891 0.0016636348848 0.0016679731124 0.0020324100093 
0.0019370773429 0.001913895394 0.0024305801753 0.0021476396191 0.0021705873602 0.0027317521021 0.0024634081573 0.0025850858584 0.0031506234846 
0.0029216582012 0.003195111351 0.0037570277436 0.0036876251776 0.0041085083544 0.0045864375668 0.004685278545 0.0054869376752 0.0059050850429 
0.0062163797043 0.0072755439914 0.007690271965 0.0083519315264 0.010227050161 0.010361369256 0.011805963967 0.014885480471 0.014507924907 
0.0095780623055 -0.0018647117664 0.048016764695 0.056577201387 -0.0068895021339 0.010344842244 -6.7709313263e-06 0.00039019572418 0.061454790352 
0.064312445078 0.051507028821 0.068069502253 0.07006394101 0.0585902216 0.073029600444 0.075167909615 0.063922532247 0.077245892737 
0.079579672717 0.068654285866 0.081327109186 0.082813315936 0.07263356782 0.084124460286 0.085403710537 0.075906711258 0.08617454884 
0.087111733598 0.07822998809 0.08757564749 0.088563154381 0.079941240861 0.088877781378 0.089440393917 0.081300297964 0.089419938551 
0.089319609378 0.082007607463 0.089135440584 0.089184673662 0.082002450293 0.088731563739 0.088100200319 0.081472462964 0.087479982813 
0.086801022383 0.080383747346 0.085906257739 0.085041315006 0.078893249513 0.084075069176 0.082936186216 0.077159177647 0.081306994938 
0.079695323068 0.074846402727 0.077864242414 0.07594057686 0.071574242161 0.073326728074 0.070357856387 0.067356730995 0.066354985819 
0.06224850006 0.061185056588 0.0565796764 0.050814738961 0.040788205672 0.051528185632 0.021578542482 0.009562888115 0.0015197158374 
0.003412047469 -0.0018360560269 0.0045158433284 0.0041183437206 -0.00060078159354 0.00036888946024 0.00032153111884 -0.00076513011678 0.0042354002176 
0.0047212698313 0.00012988175222 0.002036409742 0.0032532715493 -0.00057727860971 0.00040734667086 0.00036125112305 -0.0007241096059 0.00039341839118 
0.00031609485893 -0.00089125519966 0.0010975212146 0.00050737727227 -0.00055670067561 -0.00067492212835 -0.0004406189119 -0.00034360383074 0.02134361636 
0.025091120904 0.025546923982 0.025639247756 0.0029247103169 0.0155281692 0.017161113038 0.0034514463088 0.021131263325 0.0016965615724 
0.0018127548773 0.00025010289061 0.0062477867336 0.0065905032928 0.0042090023023 0.0055803383157 0.0018608851449 0.00041981956978 0.0024513290793 
-0.00053562897667 0.00073611902326 0.00013974933489 -0.00093067646802 0.0012018401366 -0.00013618638148 -0.0012126248283 0.0019081162515 -0.0007699872651 
-0.00097113968257 -0.00089237500632 0.00060385130752 0.00094399471074 0.00068757404718 0.021134815322 0.019976083181 -1.3065325758e-05 -4.603926392e-07 
-1.1963544459e-05 9.5529621059e-06 0.00047864947099 0.0002984355253 -0.00035320018255 -0.00074689398241 0.004948125696 0.003477486101 -0.00046465647197 
0.0064472726921 0.0057429162662 0.0013334534321 0.0024487466974 0.0023922559081 0.023654624386 0.037826621706 0.036610660782 0.017509419139 
-1.319584787e-05 3.6927675488e-06 0.01304202677 0.017166217103 0.015753493149 0.010234183611 0.01550106831 0.015143820596 0.0079133666542 
0.012736950213 6.5261464927e-06 -1.7319456479e-05 0.021843506669 0.0058832180379 0.00020322002253 0.0010234191226 -0.0011676724716 0.0066251686341 
-7.331405865e-05 -0.00015427955628 -0.0015593918004 1.7996792382e-05 0.0074571780473 -0.00052755929116 0.0045397709637 0.019645988199 0.016574247804 
0.021885154871 0.015100905476 0.023432438025 0.019935833136 3.6372241584e-06 0.015595815291 9.2459762199e-06 0.016974432242 0.00062970930229 
0.00051156397452 -0.00091124849797 -0.00065343901684 0.0068217899826 -0.0017208409089 0.0091722892514 0.0026700889485 0.0039272823692 -1.3721122427e-06 
4.0727178178e-06 -3.4804412189e-05 5.8584144925e-06 1.2932585129e-05 -2.3846503167e-05 9.8797368485e-06 1.1356538433e-05 -1.777298613e-05 2.0306345226e-05 
-1.0347658002e-06 -6.8769859557e-06 2.2963967694e-05 -2.109802674e-05 1.7510700717e-06 5.2215093979e-05 -4.4593515618e-05 1.218856576e-05 6.4019522899e-05 
-6.9282329098e-05 1.6886613116e-05 6.7575635655e-05 -8.5693310675e-05 2.3040887358e-05 6.1026439648e-05 -9.8807031191e-05 3.0308432963e-05 4.0346314149e-05 
-8.5548810662e-05 3.5793940275e-05 1.967000383e-05 -7.7497944994e-05 2.9998371693e-05 9.2445667338e-06 -4.9443237555e-05 2.4879250244e-05 -4.2183638441e-06 
-2.7073087004e-05 1.9522755705e-05 -1.5991099789e-05 -9.2205504073e-06 1.9159912509e-05 -7.7282509819e-06 -7.2030525341e-06 4.6586919857e-06 -8.392902501e-06 
7.6128214729e-06 -6.1615682104e-06 -3.7548171785e-06 1.3870193224e-05 -7.675501428e-06 3.1474213161e-06 1.2577295696e-05 -7.8193155555e-06 3.3073437893e-06 
8.712553212e-06 0.029953945253 0.025185589123 0.015135226431 0.017332260027 0.016046101378 0.013961222966 0.00014334978 0.00031396278647 
0.0121430162 0.01570154262 0.01314846965 0.020340774684 0.016994335785 0.028421809434 0.014845906801 0.012584000911 0.019809674878 
0.010926093672 0.009213256503 0.014693081172 0.0080952666053 0.0070879980119 0.010914732129 0.0064936761277 0.006010776111 0.0085739504742 
0.0056721796533 0.0053892856432 0.0073384524862 0.0050352068256 0.0048260111019 0.0065393423418 0.0044823525365 0.0042496356745 0.0058153615742 
0.003895730956 0.0036491488458 0.0051165691632 0.0031637159742 0.0027216636665 0.0042704593163 0.0020936216542 0.0015163195243 0.0030428150958 
0.00079858391603 0.0002486005865 0.0015020960291 3.2516125008e-05 6.3514108134e-06 -9.6227796336e-05 2.2576939184e-05 3.9831294777e-06 -9.986369297e-05 
8.7941431753e-06 8.9101969885e-06 -9.4053849028e-05 -5.1729924944e-06 9.5397747415e-06 -9.4442269923e-05 -7.0171346689e-06 1.2864447983e-05 -9.3764260635e-05 
-7.7349498716e-06 1.4309014592e-05 -7.8947599651e-05 -6.915029697e-06 1.3724354081e-05 -6.548576231e-05 -7.9500223053e-06 1.2628996397e-05 -5.5038191734e-05 
-6.6590847966e-06 1.704772533e-05 -5.5060510329e-05 -1.2628451738e-05 1.4405318536e-05 -4.3985566229e-05 -1.3515848937e-05 1.6941764984e-05 6.0722900232e-06 
-5.576056407e-06 2.2324428199e-05 3.1824783403e-05 -8.3731016479e-06 0.00051477747756 1.650982284e-05 0.0010466907527 0.0014937132462 0.00092442483924 
0.0019519420608 0.002298019533 0.0021098919748 0.0026504075937 0.0028665671592 0.0030502663454 0.0030681725814 0.0031209520419 0.003693980766 
0.0031279018839 0.0029737779792 0.00387054378 0.0028129817514 0.0025231237718 0.0036054058743 0.0022270811148 0.0018734179889 0.0029720734172 
0.0015458025964 0.0011685729046 0.0021394489531 0.0008123890635 0.00043177575893 0.0012503590443 6.1942627523e-05 -3.5023359643e-05 0.00031739033632 
-1.2617342249e-06 -1.5842407841e-05 3.6476999687e-05 -4.2748690997e-06 -2.8945103436e-05 3.8244029712e-05 -3.5616225506e-06 -1.5921733439e-05 3.3875506934e-05 
0.020287420832 0.011442850871 0.034338936264 0.0002654537621 0.00024143261751 0.025526882366 0.031233541805 0.040348399875 0.00019902950672 
0.00051620717075 -0.00031074892812 -1.9258341156e-05 7.4643400459e-06 -2.7021272673e-05 0.00014802573109 2.6400713138e-05 0.00051607561091 0.0008680687899 
0.0004053682762 0.0011541923992 0.0015082568057 0.0012289808589 0.0019667214542 0.0023464729021 0.0021854892132 0.002670728608 0.0029453934758 
0.003230005557 0.0028358566884 0.0029291341474 0.0035372603853 0.003008218408 0.003036011923 0.0037134215682 0.0028469295839 0.0026604873241 
0.0036925899203 0.0022596174688 0.001900991282 0.0030789235618 0.0013042109292 0.0007715545534 0.0019775810882 0.00012553395294 -2.6581337588e-05 
0.00055350593934 1.9655130541e-05 -1.5640486008e-05 -2.283805327e-05 -3.7795322419e-06 -2.9078315744e-05 2.2229055569e-05 3.223104725e-06 -1.3287417292e-05 
-1.6045016217e-06 2.0001241055e-05 -1.0159657868e-05 -6.7425327471e-05 1.4478174319e-06 -3.1070727949e-06 -3.6253012923e-05 1.3944700871e-06 -1.5235191128e-06 
-3.0562718348e-05 -3.4005090369e-06 3.5861789646e-08 -3.5005080444e-05 -1.055464078e-05 7.9055553238e-06 -1.1458427297e-05 -1.0887161813e-06 8.6731380695e-06 
-1.8695882791e-05 -1.5522247587e-05 3.9770283893e-05 -4.2362547393e-05 1.5229133778e-05 1.3509141433e-05 -9.2485878571e-06 -2.2496184369e-05 0.00031637244997 
-9.2747765461e-06 0.0010229980768 0.0015053115716 0.00088932064576 0.0021035503382 0.0025349472807 0.00236942648 0.0030591334165 0.0033211499405 
0.0035936562392 0.003737861695 0.0038413518868 0.0045093787362 0.0041143328526 0.0042459603596 0.0051034327747 0.0045971815702 0.0049276190795 
0.0056705584467 0.0055162780005 0.0060361496437 0.0066502815181 0.0067344300007 0.0075608590483 0.0081641053628 0.0083654279644 0.0094566059288 
0.010089324042 0.010583153538 0.012190486189 0.012698938853 0.013813655149 0.016237706171 0.016209081673 0.018309049887 0.02206567342 
0.028978414014 0.021409825859 -0.00020833784765 -5.4735394859e-06 -0.00086233394621 0.0022232343294 0.054966996509 0.057338758126 0.059788730354 
0.061727846087 0.051763401906 0.064008881643 0.065691821582 0.055995221529 0.067282114071 0.068650198485 0.059508210123 0.069650596521 
0.070650593225 0.06186764665 0.071779184556 0.072662581515 0.064048212183 0.073742326581 0.074353222534 0.066193143691 0.074641601324 
0.07474281161 0.06762690276 0.074493035793 0.074364928907 0.067618094333 0.073803178714 0.073327609673 0.066810571772 0.072757139132 
0.072071049072 0.065663112991 0.071458632699 0.070606782562 0.064486315251 0.069889247927 0.069050706966 0.063230399064 0.067634365563 
0.066317685986 0.061279005301 0.064493332634 0.062867761661 0.058298619372 0.060458789537 0.058144504365 0.054592792781 0.056075670726 
0.051991992122 0.050399328672 0.0021674263372 0.0002192066999 -0.0007766319714 -7.2234407707e-06 1.1492650352e-06 5.7550858257e-06 -1.5516223524e-05 
0.00021647430983 0.00026090487114 -0.00027197248871 8.1212261766e-05 0.00044835284976 -0.00043300570498 0.0003250060022 0.00027103948258 -0.00037654030054 
0.00057347642706 1.1849992275e-05 -0.00023757798965 0.00075001852348 4.5199203744e-05 -0.00068703513257 -6.9294449724e-05 -0.00017897733428 0.0012965087251 
0.021456711835 0.021887755121 0.005552882514 -3.7009968388e-05 0.0003004614261 0.00015027297084 0.00061989866309 -0.00018151926426 0.00039228848086 
-0.00036571750834 -0.00016040215383 2.4259151101e-06 0.016299847449 0.011963875993 -0.0027734131665 0.0084537046003 -0.00031754255902 0.00039964923007 
9.1943220458e-05 -0.00046233129176 0.0042725010515 0.012565309892 0.018945657204 0.015312355241 0.010417444265 0.00061583056043 7.4263529279e-08 
-0.00047771171775 -0.0004095944808 0.00087879489083 0.0061785491825 3.454398888e-05 2.1615897157e-06 0.044200545868 0.020772773449 0.019565922273 
0.017694824732 -4.417699493e-06 -1.6532122955e-05 0.039119096054 0.014178582096 0.011038628398 0.0081537092875 -6.5540210574e-06 -0.00019445269138 
0.00015285312067 -4.8049641339e-05 2.5783196895e-05 0.0059215871913 -6.948159919e-06 0.00016153652165 -0.00042466960765 0.00024124979946 0.00030120150949 
0.0001398780178 -4.5249327311e-05 0.014315881579 0.012064940581 0.0048531593115 -0.00040786056338 0.0002247410394 0.00036026603966 0.051574815168 
0.046389220024 0.048730072283 0.017883295116 -0.00036973118768 0.044839800501 5.4014474422e-06 0.0081282673369 0.0082999662205 -0.00031580694811 
0.018588328392 0.017094470072 0.013093806227 0.03894607308 0.018299599827 0.01945077191 0.016415411461 1.8408922764e-05 0.010249276837 
0.0094015405828 0.041473140382 0.0097180180856 0.012315728702 -0.00041535253408 0.00035542393499 0.00025279530378 -0.0012516400196 0.0043286465302 
0.0078103700031 0.0027665319457 0.0060509472205 0.00042292260136 0.0060683353596 -4.6041359967e-06 -3.1767292227e-05 9.0854736217e-06 -3.0342622116e-05 
4.4857497218e-05 1.9171839624e-05 -2.8976772367e-05 9.0039229112e-06 3.188294179e-05 -2.0293887966e-05 3.9941142489e-05 1.386625494e-05 -4.6057538736e-06 
6.7771715866e-05 -3.8112043917e-05 7.5311833658e-06 7.7900341e-05 -7.6804686582e-05 1.9400604288e-05 5.0404930161e-05 -8.1018556776e-05 2.8092469302e-05 
6.0064849173e-06 -6.0804304059e-05 6.6527187398e-05 -1.5852237464e-06 -2.4279149988e-05 4.2814943992e-05 -3.8622150024e-06 -4.0137860806e-05 2.37731178e-05 
-1.7627308512e-05 -1.5050409125e-05 3.3561482674e-05 -2.0989963522e-05 -1.2151435575e-05 3.3541858965e-05 -2.0092619748e-05 -2.5333901316e-06 1.5244532934e-05 
-1.5534467624e-05 7.1124207467e-06 1.0113408063e-06 -7.5242857381e-06 2.941165793e-05 -5.4258962269e-06 4.7583946959e-07 1.1229350719e-05 0.011150971424 
0.0091418161352 0.00042054531129 -0.00031871952228 5.5432561389e-05 0.010960774131 0.011630423303 0.0090547775544 0.035487674084 0.029493701591 
0.042684590766 0.025649323162 0.022079785572 0.032093532583 0.019388011352 0.01670184517 0.024290164254 0.014646611349 0.012792527874 
0.018721689179 0.011083823929 0.010061626438 0.014334685844 0.0098816381533 0.0093345669182 0.011900851833 0.0088280623874 0.0083982104978 
0.011013067207 0.0078349730663 0.0074819769232 0.0098358683542 0.0069811172677 0.0066343943188 0.0087621504663 0.0061240588527 0.0055676179005 
0.0077364937734 0.0047607933403 0.0039228924376 0.0063430759462 0.002792739275 0.0017857795077 0.0041641050503 0.000620523234 2.43625615e-05 
0.0015264779009 2.566008999e-05 3.0507735555e-05 1.6056355453e-05 1.5420522312e-05 5.1922164664e-05 -9.5111727828e-06 6.2859167048e-06 6.2305426579e-05 
-4.1219091346e-05 1.1105486352e-05 7.0794909805e-05 -0.00012033860657 7.1395472643e-06 7.1271013428e-05 -0.00014171862989 9.0294974701e-06 6.8637455517e-05 
-0.00018409857824 1.6375626309e-05 6.9135469296e-05 -0.00018696079143 2.9923614046e-05 5.7383528505e-05 -0.00018476970965 2.0936679345e-05 3.4557172544e-05 
-0.00014717386605 6.2163164267e-06 2.3859614313e-05 -9.5769405734e-05 -1.7301539702e-05 5.8344431358e-06 -5.2851560977e-05 2.7644062991e-05 0.00063122923719 
0.0014520624199 -4.0487821513e-05 0.0023397350608 0.0030318721763 0.0021711814494 0.0036240908361 0.004121098713 0.0039167821221 0.0045147213649 
0.0047636610626 0.0051119087146 0.004971019786 0.0048743625014 0.0057265342784 0.004781520271 0.0043919400894 0.0057238581895 0.003936866126 
0.0034077889531 0.0050402053635 0.0028174169637 0.0022603239869 0.0037390753084 0.0018136530362 0.0011946597408 0.0023639263858 0.00057487079215 
-2.0258691924e-05 0.0010912934722 -2.3385576134e-06 -3.8472676796e-05 5.3455821109e-05 -1.2817239965e-06 -2.453201419e-05 0.013013393238 0.012173174247 
0.016124224822 0.019573885242 0.00010572770675 0.00032059388705 0.004171808015 -0.0010336385013 0.00016746881275 0.00075384027805 0.0014298033924 
0.0018778272001 0.001306859636 0.0024470510976 0.019447018768 0.020301204028 0.0037292637367 0.0043701758327 0.0035048440058 0.0047563051175 
0.004708512866 0.0054222275793 0.0049878968072 0.0221910347 0.022718883375 0.0047843957838 0.0047101822737 0.0058647317704 0.0044713484445 
0.0039714646575 0.0056402946502 0.0029954654401 0.0021912704368 0.0043442128724 0.0012224522376 0.00020630717863 0.0019969532951 4.2790781275e-05 
3.1826623152e-05 -8.813652122e-06 -5.5294905625e-05 0.023063133403 0.023320455811 2.0587113972e-05 -5.0481662266e-07 -1.2975321193e-05 -3.5057396958e-06 
5.5776176992e-05 -3.3117678298e-05 5.3703139155e-05 3.1913075807e-05 -1.1001366183e-05 2.0178990446e-05 3.3714424061e-05 -9.3620634411e-05 3.3300552616e-05 
2.8078880613e-05 -9.8419857065e-05 2.7020208646e-05 2.7933773958e-05 8.470118792e-06 3.022623217e-05 2.3256747527e-05 -0.00010651750083 2.4553297226e-05 
6.3627817433e-06 -0.0001166939934 2.3685215166e-05 8.8190847171e-05 -2.8698301242e-05 3.9870674632e-05 5.7752822208e-05 -9.8548731441e-06 0.0009775121102 
0.0019658372584 0.0006539785974 0.0030909665361 0.0039093027327 0.0031121553482 0.0048901423859 0.0054663191638 0.005394911242 0.0061261467538 
0.0064605714953 0.0073787044774 0.0069204978459 0.0070709924243 0.0083414178528 0.0070976829835 0.0074858923417 0.0086931943948 0.0084722534254 
0.0092375895508 0.0096414918094 0.010280135238 0.011383636717 0.011906072066 0.012346070487 0.013751835737 0.014306324175 0.015318904087 
0.017298257153 0.017462399568 0.019589251529 0.022345472195 0.022151343825 -2.7346897835e-06 3.9389054335e-06 0.043566349615 0.045551877899 
0.00030375888639 0.0001095809604 0.010157494095 0.012490948672 0.010767812473 -7.7295362134e-06 1.6178881598e-05 -5.6057884461e-07 0.017200540762 
0.016601828574 0.00075430559043 0.00052996996403 0.047720393728 0.049704040154 0.040977396963 0.052189146278 0.053600604977 0.045109336218 
0.053294944505 0.054226748999 0.047004172258 0.055305736326 0.056571722006 0.047927113434 0.057895954659 0.059010830794 0.050226887298 
0.0608563638 0.061122636528 0.053203567027 0.059419234624 0.059174791829 0.053300858111 0.05886132749 0.058219050395 0.051354935205 
0.057702768497 0.056996601348 0.050532141038 0.056342949142 0.055767990021 0.049305846554 0.055950461069 0.055399265385 0.048990884546 
0.054548968303 0.053283704368 0.048474103161 0.051591764347 0.0501375265 0.046164191076 0.048088106351 0.046282068277 0.042770798075 
0.043972910985 0.00036707353834 5.283693767e-05 3.0395128893e-05 0.00029837148439 -0.00030608096697 -0.00015475066537 -5.1956766488e-05 0.0004144229718 
-5.3371883515e-05 -0.00012650662921 0.0025624239748 0.0001210854075 0.0012613671412 -0.00049741691238 -0.00023506883603 0.00018668844916 -9.7164716723e-05 
-8.3026682966e-05 0.00013931614727 0.015298405444 0.010909463643 0.033235592795 0.0088486744956 0.0048806712983 -0.0011152744526 0.0012938546032 
-9.2609182573e-05 -0.00028352742938 0.00021886435908 7.5402280536e-05 -0.00020750055431 0.0050737298453 0.0085182019625 0.00021070972861 0.00021846528522 
-0.00038940752123 -0.00020283204779 2.2256178097e-05 0.0013727953082 -1.5200943315e-05 2.1477911732e-05 2.2025104346e-05 0.0039273493219 0.010374402476 
0.0064696332975 0.0035364496357 0.036982360593 0.040146438685 0.035806136414 0.02903378118 0.017636506984 0.018089819591 0.0095458295181 
0.0096337112143 0.016502749639 0.014632562823 0.01364080572 0.0066598458001 0.0054279736812 -6.5865590606e-05 8.6917528209e-05 0.0075215183854 
0.0090544137495 3.8693543593e-05 0.0085280643214 1.7707255369e-06 -0.00039716212363 0.022944191655 0.017832044202 0.024516385979 0.024827107219 
0.019395806634 0.015992955356 0.015499325561 2.7213409502e-05 0.028371089727 0.025019905891 0.0025195404978 0.00098276283224 -2.3880826858e-05 
6.9491118702e-06 0.038839601944 0.00014438997336 0.00022803766882 1.1686893866e-05 0.0013015435616 -0.00013900867847 -0.00045310790887 0.00027734233798 
0.00013958815765 0.011960846748 0.013498530933 0.019144601196 0.0027431972812 0.012424582381 0.0069351127504 0.0083305762369 7.313303969e-06 
-0.00037324361296 0.00024629085094 -0.00012004792076 -7.7367894916e-05 0.00016893983597 0.0026357386709 0.017552765863 0.00021945253583 0.00015363639786 
-0.00035886605616 0.0041962537244 2.7848418241e-05 -0.00032374531919 0.00011084081193 -0.00010240855281 0.00015521243254 1.5498556729e-05 2.5963338048e-05 
6.9254377557e-06 0.015193923667 0.021115613987 0.010477732193 0.00023796576967 -9.3105820131e-06 1.3813274646e-05 0.015317146782 0.006410715271 
0.0082271703285 0.0067530324879 0.0050951720712 -2.104808277e-05 3.3124842212e-05 -2.0379252217e-05 4.9087309417e-05 -2.5867869533e-05 7.0866659114e-05 
-2.1459145583e-05 -2.1539521997e-07 7.1288506942e-05 -6.7450588629e-05 6.0122325341e-05 -4.6367211103e-06 -6.6817753284e-05 8.6753587126e-05 -0.00012619548288 
0.0001014042729 0.00010732337047 -2.541460796e-05 3.1893907387e-05 -3.4351626953e-05 0.024909993991 0.024862851469 1.9095033681e-05 -5.431708274e-07 
0.00011976264885 -2.933332787e-05 0.024735627065 0.025028586287 2.8220667165e-05 -3.4951105687e-05 -8.1419279582e-06 7.1186307402e-06 -3.9424300631e-05 
-2.0122486754e-06 2.1529959893e-06 -3.5712498153e-05 0.00016752998836 -2.8351293926e-05 -7.9177263462e-05 0.0057268053138 0.0072998670009 0.0055215292146 
0.010060873848 0.0033938953293 0.033746256335 0.029770218008 0.026000415682 0.035781716554 0.022702036239 0.020023070712 0.027446126171 
0.016869574029 0.015097311164 0.020739670889 0.014466774475 0.024817557999 0.025146735255 0.01210092678 0.011559937525 0.010657724287 
0.010245886566 0.012816930461 0.010046064174 0.0095900336587 0.012104120563 0.0062760660172 0.0048146854491 4.0905447234e-05 3.6562684713e-05 
6.0330868531e-06 6.1538427003e-05 -0.00015296349763 6.4746970811e-05 7.3561056582e-05 0.0001395522262 8.6793557725e-05 0.00013254886107 -0.00010494103885 
6.0622438758e-05 0.00012885851853 -7.9893367722e-05 3.1270334829e-05 0.00011803619756 -0.00012888721974 3.8639842651e-05 0.00010924048991 -0.00012902008202 
6.8402719868e-05 0.00010781920381 -0.00014804936254 6.2100354436e-05 8.0578402173e-05 -0.00022551208949 1.7085005584e-05 1.7631702511e-05 -3.2282817043e-05 
0.00083218257273 -9.0222495934e-05 0.0020325839852 0.0032721246966 0.0017434393013 0.0045170296434 0.0053858960521 0.0045886614774 0.0058329032403 
0.0063293866006 0.0065775784381 0.0067090236011 0.0069025603081 0.0073896971493 0.0061849964258 0.0053954870597 0.0033412311265 0.0027007715139 
0.0014355732088 0.00051561415544 0.0025391086672 -9.3011667031e-06 -4.102726309e-05 4.5661496269e-05 0.00023532032924 0.00016346080123 -0.00033496127461 
-0.00043116540148 0.0076716699845 0.0075670001233 0.031539744032 5.5569607468e-05 -6.5581632032e-05 6.7170247082e-05 8.3542724726e-05 8.71426047e-05 
2.6069244955e-05 0.0034471109622 0.0049280789038 0.0068103975684 0.0080935997678 0.0072114102876 0.0088941998165 0.0094978231987 0.010546548029 
0.010549046453 0.010848626871 0.011924060283 0.0108151173 0.010806766306 0.013122600619 0.01180664923 0.024806660089 0.024199475043 
0.013496989077 0.01461992178 0.014310220174 0.016578417551 0.018255218418 0.018325629931 0.019377491126 0.021661603012 0.021233051308 
0.024670613313 0.028014270491 0.026970352789 0.016527740295 0.017380517424 0.0170832928 0.0010533566008 0.0036615122284 0.039386109779 
0.038912018664 0.039675373426 0.040908368624 0.033454090262 0.042810220013 0.044292787848 0.03591108276 0.043932446322 0.045721200445 
0.037682588824 0.04412305401 0.02371742865 0.022905592534 0.042898507638 0.042755078618 0.036276119129 0.043729100741 0.043104342891 
0.036212202047 0.040655950637 0.039946965952 0.034702131781 0.041181483597 0.041580506941 0.033881113051 0.042659783553 0.042023662549 
0.036218918587 0.040283882583 0.038856845894 0.035915610743 0.037362532715 0.00046575756953 0.0012002367905 0.0014926426024 -0.00045556839653 
-6.0048889425e-06 -1.4153363019e-05 1.7666808995e-05 2.3728672327e-05 0.00072463234971 -0.00010018180809 -5.3947025102e-05 0.0083557426116 0.0060503499143 
0.015306695956 0.014833450178 0.017037593216 0.017046084912 4.5829331819e-06 0.0003069837345 2.0867947309e-05 -1.6332273715e-05 7.8167771014e-06 
-2.9406462597e-05 1.8502527253e-05 2.6811419102e-05 0.034260262122 0.02260754821 0.020649960408 -4.1684973583e-05 0.0045933576271 0.0053497664831 
0.0036332238878 0.0028484423914 0.013169688981 0.011525536377 0.00011792376224 1.8767779907e-05 0.035987726369 2.2542709049e-05 -4.8837676954e-05 
4.2188156627e-05 5.2675948637e-05 -0.00013867687994 0.0097736768484 0.012811261798 0.014538769457 0.013504939327 0.0087629651641 0.0078018986766 
0.0028856945996 0.0013205253634 3.439804359e-05 -0.00015148910868 5.055217586e-05 -7.03485062e-05 0.018241369868 0.010382215515 1.1615645633e-05 
0.0068560092611 0.0074207175954 0.0093048504839 0.00714168684 -0.00011088565818 -0.00014147685138 0.00049695832331 0.016615350616 0.01860908525 
0.018202437961 0.027841997716 0.027260286746 -4.7078216484e-05 3.8504892145e-05 0.002558221568 0.0026113054784 7.6816496537e-05 0.071475195485 
0.019100010789 0.037091029846 0.013574611597 0.043243570112 0.00741445745 0.0041783465004 0.0028930499822 0.0004675980643 5.1124704913e-05 
2.8842062934e-05 6.4006709072e-05 -8.2258701425e-05 0.00012251018208 6.4113489261e-05 2.9688509782e-06 9.2966575511e-05 -4.4559794504e-06 1.4593103167e-05 
-1.520410333e-05 -1.2481280624e-05 0.00039238288049 0.002030195931 0.0033472964393 -0.00014916332083 0.01380851125 0.014254620149 0.00066582624071 
-0.00014723879659 -0.00060834807409 0.032947442751 0.016473611014 0.00019743299592 0.00011113444997 0.0098408591891 5.4316370155e-05 -5.7567837188e-06 
6.3265068867e-05 0.00063142690493 0.00014015017818 9.3984036098e-05 -0.0002495939578 0.00022378790573 9.263781159e-05 9.5811744387e-05 -0.00017961709579 
-0.00014131802276 0.031733730765 0.0045823066035 0.0085165160175 0.00050021175859 -0.00019985556286 6.8893470569e-05 0.00059770655966 -0.00050719084026 
-5.531273242e-05 8.5609626223e-05 0.0083196797914 -4.8149528595e-05 6.0802908093e-05 0.0037860579653 0.0012789414638 0.021401513475 0.017672616059 
-0.00012694804113 1.2916671682e-05 9.0156760734e-05 7.4549883158e-05 0.018921935146 0.016000427026 0.021714401305 9.0299416572e-05 -6.1753446564e-05 
0.027286598453 0.029925904675 0.00028944472723 -6.4531226439e-06 -2.8339486942e-05 -8.8489576295e-05 6.2153177327e-05 0.005871805615 -6.9926724331e-05 
8.6376282633e-05 -1.7030940504e-05 -0.00013468591658 0.0014557700993 0.0011134836133 0.0021543908152 0.028747568659 0.02538062708 0.021627548467 
0.029734666728 0.022988172228 0.025264945372 0.021548694135 0.011116801711 0.013761577152 0.0041936533665 0.00026185728124 4.8964000713e-05 
7.2763577317e-05 0.00011250252256 0.00015472177529 0.00013271110369 0.0081586579139 1.9128841699e-05 9.4466230121e-05 0.00084066321635 -1.855689917e-05 
-1.9513642549e-05 0.0042480333379 0.026301153844 3.5979882873e-05 0.025432099418 0.020926914092 1.0081950416e-05 -0.00017815653167 0.015109721446 
0.028128721702 -5.1526258097e-05 0.018769804331 0.017331123959 0.029343828759 0.030476379364 0.03163033937 -1.4146214617e-05 0.0070562025072 
0.0097474823256 8.6247990146e-05 -0.00019970860914 6.0299700269e-05 -4.896941797e-05 8.4863539115e-05 -4.3649239727e-05 -0.00011519416692 0.0086643674572 
0.00038784470626 -0.00023321381054 -0.00022669238529 0.00010852312063 9.6094173861e-05 0.0092005334299 0.025669792953 0.028238032376 -8.6263046539e-07 
-0.0001417331919 -0.00019098397624 5.5006907095e-05 -4.9249380422e-05 9.6585882681e-05 0.0044237675073 0.00018215944626 0.014810510393 0.014025602812 
8.8131698475e-05 0.00014566081824 0.015444889563 0.016939997573 0.01701125927 0.015968879957 -7.7249283953e-05 2.5812972713e-05 3.7926950543e-05 
8.9119253294e-05 -0.00021104521552 -0.00027703857692 -0.00016297164574 0.018527001262 1.2072995663e-06 -5.8792834337e-05 -4.5597137414e-05 0.017445700433 
0.0001141003274 0.00011201216 0.029907536231 -2.2601897219e-05 0.022310771167 0.027685451957 0.026431059078 -2.3798900472e-05 1.598642744e-05 
0.00080892703202 0.030385288066 0.029410868178 -0.00031389909562 0.0002975089261 0.021331701835 0.019118793317 -0.00021731486995 7.7622119176e-05 
4.4714683266e-05 -3.4886107179e-05 2.6989670504e-05 -3.5208713034e-05 -1.9857700006e-05 3.6451112234e-05 -3.0491904135e-05 -3.6337006733e-05 4.245184946e-05 
-2.7448972419e-05 -2.0600143949e-05 4.8994100277e-05 -1.9914141748e-05 -2.0102045389e-05 2.4839388939e-05 -1.0927758066e-05 -1.592670425e-05 2.0731564284e-05 
-7.5371590623e-06 -8.6180138252e-06 1.74794598e-05 7.2946426305e-06 2.3736949353e-06 -1.3130571484e-05 1.0907329115e-05 7.8229411431e-06 -2.8545035071e-05 
3.7276197367e-05 3.2157672849e-05 -6.0050460189e-05 2.9521212224e-05 5.1341886122e-05 -7.4823631491e-05 3.9853841422e-05 4.9053158791e-05 -0.0001011680077 
4.2136596213e-05 4.2698933463e-05 -0.00010734479953 4.0915772794e-05 4.4902433491e-05 -0.00011338214298 4.4101566866e-05 4.2021611856e-05 -0.00010278888381 
4.0776286944e-05 3.0967109422e-05 -8.9815756774e-05 2.4870629229e-05 2.0525270699e-05 -7.8321642074e-05 2.1352506006e-05 8.570999804e-06 -5.2879563929e-05 
9.7891401633e-06 -1.1500632655e-05 -3.6506345823e-05 1.0208688036e-05 1.1326167619e-06 -6.8230415345e-06 -8.7244839693e-06 -6.6532031095e-06 1.763945775e-05 
-1.0665497453e-05 -1.7107463513e-05 2.1439534583e-05 -2.177818599e-05 -1.9624050741e-05 2.1046640212e-05 -2.5986202959e-05 -2.8895883928e-05 5.0993824113e-05 
-3.5023122683e-05 -3.6125132222e-05 5.1418456091e-05 -2.2410028334e-05 -1.6050152882e-05 3.1108295462e-05 8.4561465468e-07 7.7250432817e-05 3.2272215834e-05 
-3.2058010975e-07 -0.024069007299 0.01027686561 0.019493416363 0.0032638246074 0.0085214971125 0.00097950312058 0.0021548384973 0.0025444553718 
0.00079543092161 0.0012839207885 0.0013800920821 0.0010862372479 0.00093518914701 0.00094776452532 0.0008775860659 0.00061366389016 0.00059205782073 
0.00044147164458 0.00041509550686 0.00039036203623 0.00035148233779 0.00032637095401 0.00024930738047 0.00021533644008 0.00029084522461 0.00022459669372 
0.00020452940677 0.000254349945 0.00017607746594 0.00015018224128 0.00023611501023 0.00014797644519 0.00013907029353 0.00023274288758 0.00013532183347 
0.00015587858078 0.00015779747896 9.335743493e-05 0.00012015210627 0.00013984832804 6.9856050308e-05 0.00010004727618 8.5071583693e-05 2.3201175296e-05 
3.7267123867e-05 2.5086342246e-05 -2.4398961045e-06 -2.2415406638e-05 -1.6104440546e-05 -1.4693925627e-05 -3.5766164586e-05 -2.6696494171e-05 -2.1236489057e-05 
-5.7570155991e-06 -3.5708618139e-05 -3.1131555974e-05 1.9856853504e-05 -3.8850572023e-05 -3.5795567421e-05 4.6556641135e-05 -4.3529940978e-05 -4.1215286068e-05 
7.485346696e-05 -4.6734166249e-05 -4.3866484254e-05 9.4448345548e-05 -4.2619557296e-05 -4.1245004631e-05 0.00010771947195 -4.2162626194e-05 -3.5472749183e-05 
0.00010493140624 -3.4083977815e-05 -3.2824447319e-05 9.8508005303e-05 -2.3495042677e-05 -2.8875614285e-05 8.6301220799e-05 -7.6515545779e-06 -1.7905182898e-05 
7.2900940796e-05 5.7279042556e-06 -3.9235026229e-06 4.2795596957e-05 2.1599253029e-05 4.0690728913e-05 1.349993436e-05 7.7683258428e-05 9.1329705843e-05 
5.6118935084e-05 0.00012887877887 0.00013983970361 0.00011881188486 0.00016133661809 0.00017172283486 0.00017521249837 0.0001688619555 0.00017726465455 
0.00019653700485 0.0001677078851 0.00017092613741 0.00020049768831 0.00013952290378 0.00014429785166 0.00018171888293 0.00010701756253 0.00011020818592 
0.00014406563168 6.6180180028e-05 6.7182803571e-05 9.5453831176e-05 2.9816450854e-05 2.6543495788e-05 5.1200122794e-05 -2.8373842023e-06 3.0340865051e-06 
1.2891305261e-05 -1.3563922129e-05 -4.6098771231e-06 1.3443814441e-05 -1.9687587177e-05 -1.0266928016e-05 2.7360694403e-05 -2.801324928e-05 -2.2892122663e-05 
4.7271014999e-05 -2.5733140616e-05 -2.8788069869e-05 5.0915464241e-05 0.060296374597 -1.0846052115e-05 -2.6526569395e-05 3.3649660144e-05 -1.4852883881e-05 
-2.3933187545e-05 2.0192994788e-05 -1.1053009198e-05 -1.7729912199e-05 2.6832760434e-05 -9.0372608045e-06 -1.3722012431e-05 2.3960273431e-05 8.4733367586e-07 
-3.7727888905e-06 1.7280185595e-05 7.1962166532e-06 4.5257968063e-06 1.0100653513e-05 1.7334178582e-05 2.4965461056e-05 3.6323895513e-06 4.7619160058e-05 
5.7561848101e-05 2.3674110571e-05 7.8882033565e-05 9.2495169878e-05 5.9294499927e-05 0.00010962358725 0.00012851494717 8.8910609711e-05 0.00012738182424 
0.00015153342777 0.0001257527845 0.0001368717355 0.00014591481611 0.00014774166916 0.00012823024603 0.00013564153292 0.00014357580346 0.00010139145475 
0.00010989890779 0.00011804345983 7.3397416011e-05 7.2736634207e-05 8.8613459827e-05 3.4854236051e-05 2.7219807934e-05 3.9868114387e-05 -6.2520348667e-06 
-1.2868941655e-05 1.2287356436e-05 -2.0299805427e-05 -2.5247468343e-05 1.9834279656e-05 -2.677660847e-05 -3.7297804962e-05 3.379157315e-05 -3.0306107913e-05 
-4.1275677743e-05 4.2465125891e-05 -2.6938806187e-05 -3.1078166505e-05 4.7945544781e-05 -3.0992182479e-05 -3.7334479974e-05 5.5765035211e-05 -2.7757064408e-05 
-3.6037875902e-05 5.6028517141e-05 -2.4417590443e-05 -3.3033409165e-05 5.6808003369e-05 -2.8781617307e-05 -3.0858095991e-05 5.3087188199e-05 -1.914867271e-05 
-2.4837429715e-05 4.4180181797e-05 -7.1760583885e-06 -1.705360063e-05 3.1666057787e-05 1.9777006559e-06 -3.7806086933e-06 1.9661291192e-05 3.5322579925e-06 
3.2724629006e-05 8.1844414499e-06 1.8663207709e-05 6.7637153581e-05 6.0136864093e-06 4.7616275379e-05 0.00011169522348 5.5012423535e-05 6.7631817563e-05 
0.00014798865785 0.00010278147863 7.9858182598e-05 0.00017075656195 0.00012266081381 9.3364473725e-05 0.00017806273 0.00013217655057 0.00011515443612 
0.0002074794375 0.00011683719316 0.00014002947206 0.00023627467161 0.00014542744699 0.00018278385071 0.00029553763598 0.00015321870552 0.0002470264688 
0.00038113019914 0.00017466965653 0.00037599772141 0.00049974392759 0.00021050406174 0.00056504208983 0.00070703174739 0.00022586170791 0.0010538115415 
0.0010942716541 0.00022409265706 0.0020071254808 0.0017329065224 0.00035237369339 0.0029191424158 0.0039461592503 0.00071824670671 0.015801933501 
0.0065782153338 0.0016141746577 0.030020199247 0.077912851678 0.078001284278 0.078141391908 0.0887624862 0.04697619317 0.074155490542 
0.085302064362 0.068061167283 0.10382161448 0.10453912268 0.086170915543 0.10520784669 0.11366281379 0.088109047475 0.10543807818 
0.093322625505 0.084650579081 0.10817467272 0.10624315149 0.093471336329 0.11098559954 0.10686424351 0.099409323666 0.11215967833 
0.10914661354 0.10165730694 0.11121955173 0.11012534763 0.10382344389 0.11422468311 0.11166355576 0.10816232735 0.11577076094 
0.11524680232 0.1080699263 0.11467728115 0.11498477974 0.10990900951 0.11511655157 0.11615343222 0.1103230957 0.11420161948 
0.11573084205 0.11021992002 0.11352115666 0.11616650171 0.10859122109 0.11066874038 0.11419637609 0.10702333279 0.10882785298 
0.1112148833 0.10640354112 0.10439382136 0.108728874 0.10261615007 0.10308993345 0.10658028764 0.10150688621 0.099725174113 
0.10358487094 0.09701849374 0.096420232658 0.1009487549 0.092714770901 0.094424671742 0.098084410555 0.08817866345 0.089955197363 
0.094122692683 0.080611790586 0.088698273557 0.089193387413 0.075447861816 0.086612238683 0.092491154013 0.065991021995 0.033898028533 
0.017799121938 0.007853409956 -0.0057916523114 0.027799359397 0.0068383860263 0.0089556105945 -0.016142823532 0.00036224756332 0.0055702729953 
-0.0048923702859 0.0086395239396 0.012893471311 -0.0011593841856 0.015165129337 0.017225775746 0.0082879279199 0.018126805301 0.019313858908 
0.013906182738 0.019620704575 0.020079195507 0.016718943404 0.019899262525 0.019648203075 0.017518077147 0.019207708099 0.018062921475 
0.016468271162 0.01711209367 0.014767767823 0.013773134319 0.013101768731 0.0082400929982 0.0083621852314 0.0051628856368 0.00053252716834 
-0.0010152286568 0.0059802608125 0.00092514978261 -0.0020904280967 0.010993037357 -0.0055532625995 -0.0021145682037 0.0018908152574 0.07834743428 
-0.01106071063 0.012210141431 0.0030406485026 0.0043896546267 -0.0041070009857 0.0018899535085 0.0075115183986 -0.0017062549217 0.010137185052 
0.013820508351 0.00054611212558 0.016011842118 0.018043675817 0.0098843500958 0.018719377917 0.019768219644 0.015081895063 0.019832735694 
0.020142939189 0.01727781784 0.019910316931 0.01962618832 0.017726611939 0.019121700248 0.018284768782 0.016662683875 0.016424599009 
0.014023305863 0.013372873012 0.011883510043 0.0070432205347 0.006979298849 0.0062129398236 0.003320830294 -0.0021199777369 0.0095577164577 
0.01159274273 -0.0043992153996 0.041407192291 0.0020187274178 -0.0094230221283 -4.8124414967e-06 0.032151497855 0.011113870385 -0.046937086912 
0.029976164605 -1.3973227313e-05 -2.943810736e-05 0.039433596317 0.025891274538 0.046787143678 -0.049421147493 0.016390945584 -0.005315979067 
0.028006705691 0.063393178979 -0.04608486474 -5.0242791126e-05 0.026544518601 3.7368451121e-05 -1.3439813849e-05 -1.9237336169e-05 -3.4147385992e-05 
1.2991507131e-05 -9.8521111632e-06 2.0274354872e-05 -1.9170540666e-05 -2.1640608801e-05 -1.1978150643e-05 6.634182517e-06 3.1688052616e-05 -3.9731629467e-06 
1.9366562691e-05 1.3966851547e-05 1.5325556578e-06 5.3460272845e-06 3.3041949728e-06 8.4997193587e-06 5.9300982656e-06 -1.8516374765e-05 1.438795528e-05 
2.0326686458e-05 -3.5208741462e-05 5.5958782001e-05 3.6250424861e-05 -5.3083350814e-05 6.6769046567e-05 3.2127056686e-05 -7.3485669497e-05 6.7051181462e-05 
2.9539284223e-05 -9.1120786047e-05 6.6696287441e-05 3.263175738e-05 -9.6876162007e-05 5.7960057058e-05 2.7699178905e-05 -0.00010168863844 4.5895592589e-05 
2.6991937925e-05 -8.7853812706e-05 3.7328327165e-05 1.9097313496e-05 -7.1777480757e-05 2.4387795878e-05 1.7595223831e-05 -5.1810199895e-05 1.4663366601e-05 
5.598353733e-06 -3.2135536342e-05 6.6990393306e-06 1.055286051e-05 -1.7129570305e-05 6.4648319849e-07 -1.1908111654e-06 2.853624842e-06 -3.5693608293e-06 
-1.1053438863e-05 1.6099708676e-05 -5.9660528221e-06 -2.7649605772e-05 1.9748534151e-05 -9.7497622216e-06 -2.8036979732e-05 1.9382192472e-05 -1.8907660353e-05 
-3.66136032e-05 3.681548983e-05 -1.3610726001e-05 -3.0873009877e-05 3.1835371088e-05 0.0073396076001 0.0098189221286 -1.1893673237e-05 -1.4850190394e-05 
-0.040290680407 0.019730081158 0.01126998302 0.016795488864 0.014927552865 0.016472973114 0.023862910463 0.055074235141 0.025816732786 
0.0047640950362 0.0063188748513 0.0093525668769 0.0033275276248 0.0042469875014 0.0065839989026 0.0024145390138 0.0029002835323 0.0044513855733 
0.0018652415862 0.0021047624933 0.0031801291823 0.0014734277281 0.0015726620612 0.0024143670655 0.0012624706777 0.0013287312785 0.0020147039525 
0.0011105699385 0.0011211109229 0.0017211642416 0.00097517127401 0.00096017339041 0.0014759034715 0.00080393460694 0.00081408820997 0.001257247764 
0.00060748293289 0.00062600861547 0.0010277553347 0.00036873131954 0.00040252621364 0.00073485789572 7.4204227611e-05 0.00014427975607 0.00036849295975 
8.0549564219e-06 -8.1910410756e-06 -4.8841125628e-05 -3.9452123757e-06 -2.7166965665e-05 -2.8391358858e-05 -1.1727948735e-05 -5.1200469566e-05 -1.0530066167e-05 
-1.3592901206e-05 -5.9818222393e-05 9.3451046958e-06 -1.6550848071e-05 -7.4096070061e-05 3.1359806793e-05 -2.1824053677e-05 -7.9951107966e-05 4.4881874966e-05 
-2.468364113e-05 -8.3922439659e-05 5.354699379e-05 -2.6288909071e-05 -7.8757896129e-05 5.8940400231e-05 -2.2193059176e-05 -7.2002351136e-05 6.5067425243e-05 
-1.7697412062e-05 -6.0382698944e-05 6.6979566726e-05 -1.2522350576e-05 -4.6364354854e-05 6.0208017434e-05 -4.3650577693e-06 -2.8257588304e-05 4.0930979507e-05 
6.3655703643e-05 -5.2996521509e-06 1.9274025382e-05 0.00035941249646 0.00025786580707 0.00021665476698 0.00060299146953 0.00052952999917 0.00064779786717 
0.00076216389489 0.00073662048509 0.00096648617681 0.00082143482172 0.00084479365949 0.0011569669352 0.0008169688929 0.00087423433849 0.0012320222193 
0.00071471002793 0.00080705248378 0.0011949194288 0.00053332514931 0.00064637627896 0.0010037643465 0.00034002913413 0.00044782458262 0.00072684746121 
0.0001474357988 0.00024130554321 0.00044186122352 -6.445854852e-07 4.5762731619e-05 0.00015684662187 -8.5415629643e-06 -1.0426070287e-06 1.3691988049e-05 
-2.8258427113e-05 -9.7518619053e-06 1.9240979269e-05 -2.6728014712e-05 -1.2823843869e-05 3.3889876069e-05 -4.1101329301e-06 -8.3301940111e-06 3.0347699267e-05 
0.0036511108776 -0.0011516290622 0.020976302985 -0.015631788567 0.024207764913 0.0044189525631 -1.3024786185e-05 -1.6124568256e-05 1.8663047038e-05 
-5.6054389846e-06 -1.3555192432e-05 1.8092538199e-05 -3.1314664224e-06 -9.059009031e-06 1.5924811237e-05 5.9871197171e-06 -3.1784055158e-06 1.0555632874e-05 
5.6164292524e-05 9.4685989763e-06 -1.2196881909e-06 0.0002143522379 0.00015508564179 0.00016023664233 0.0003809826775 0.0003000415414 0.00039209645901 
0.00055017712763 0.00045388975093 0.00062501029547 0.00065562037706 0.00058637392613 0.00081591256591 0.00070005726894 0.00067113448444 0.00094079370587 
0.00067145372416 0.00066304237433 0.0009759076013 0.00057043288143 0.00058331779449 0.00090338493886 0.00039536071307 0.00043825268659 0.00072273481255 
0.00017655778391 0.00022563279921 0.00044032635728 1.4704380965e-06 -5.8951452359e-07 0.00011030076853 -8.6577036017e-06 -1.8972198506e-05 1.3510963033e-05 
-1.3983938116e-05 -2.3809183116e-05 2.0376121289e-05 -1.4987517418e-05 -2.825921921e-05 2.533300105e-05 -2.0545313303e-05 -2.4963347448e-05 3.0414316457e-05 
-2.0819019498e-05 -2.8659080328e-05 3.283078312e-05 -2.0491872848e-05 -2.6614078717e-05 3.6020981944e-05 -2.3325712496e-05 -2.6384089596e-05 3.5081828265e-05 
-2.0326998014e-05 -2.5842185241e-05 3.4162990769e-05 -2.3434818954e-05 -1.2553341347e-05 2.7255403711e-05 -1.0128583776e-05 -1.0713165265e-05 1.9454384209e-05 
-2.3447556719e-06 -1.9455866585e-06 1.0895641551e-05 4.2215782414e-06 2.0465467184e-05 3.9148013207e-06 0.00017179978294 0.00018244768537 6.0622780348e-05 
0.00038675249552 0.00040562290888 0.0003983560261 0.00052799001588 0.0005968046424 0.00068837951899 0.00063612808189 0.00073841072058 0.00089233554096 
0.00072148012622 0.00083504291062 0.0010359384888 0.00087376335532 0.00093712379991 0.0011505561282 0.0010260273874 0.0011027860857 0.0013744950641 
0.0012778231552 0.0012828501276 0.0015798344985 0.0015773508782 0.001557604815 0.0018925759813 0.0021996514075 0.0020316711825 0.0024555886529 
0.0030693487827 0.0026266793548 0.003131578135 0.0046917881691 0.0036730331399 0.0042988098233 0.007134389832 0.0052738120703 0.0062009170664 
0.012198956211 0.0076929135082 0.010200246438 0.027957177874 0.01579865251 0.02218778029 0.050032849696 0.073196849328 0.070787330117 
0.061173501215 0.058287079468 0.056948673772 -4.1244758328e-05 0.049816405591 0.076973158202 0.081548676929 0.071531102839 0.087442997909 
0.080369091159 0.079963145456 0.090152452342 0.092541372734 0.082757434038 0.092449359972 0.093388575232 0.085798686944 0.095048987578 
0.095504012146 0.08879359975 0.09739550874 0.097635465949 0.091642050819 0.099162407065 0.099764209157 0.093468087462 0.10086893246 
0.099994846148 0.094918391892 0.10206334515 0.10147670305 0.096207917229 0.10227432201 0.10177347926 0.097049157005 0.10201283855 
0.10175306165 0.097059740903 0.10095858205 0.1006273601 0.096321805406 0.099526096065 0.099341849192 0.095043137916 0.097911470486 
0.097021825924 0.09309862473 0.096172265759 0.09431831766 0.091202950109 0.093114407474 0.091809732954 0.088730378856 0.089411289486 
0.088090403057 0.08528180137 0.084758323904 0.083061575338 0.080344133867 0.078689125712 0.078059583648 0.074161530852 0.07134677572 
0.071045537995 0.066330055067 0.063259369451 0.061914363879 0.057102504922 0.013645914476 0.01398116421 0.021087555386 0.019146723314 
0.022747099506 -0.027798222993 0.0019066798704 0.0015471644866 -0.0046956296986 0.00080687715112 0.0011674611831 -0.0019531961671 0.0020582040038 
0.0062973653224 -0.00075798158983 0.0079865220981 0.010290708205 0.0013388483816 0.011099175865 0.012130378774 0.00576987955 0.012594361836 
0.012476433692 0.0078993920674 0.012049968317 0.010898091037 0.0076255892795 0.0098700112648 0.0076494821251 0.0055035127592 0.0055584768006 
0.0020037171191 0.000945746282 0.00079306475949 0.00085147063977 -0.0014804440474 0.0012527125279 0.0024158933059 -0.002874138634 -0.001425324623 
0.0065055529206 0.014714159603 -0.0050110718685 0.0012931661185 0.00048080356727 0.00065445983601 0.00050814799582 -0.0011732412859 0.0034439884971 
0.0067901082357 -0.00091400262414 0.0088816096003 0.01058177462 0.0023438151627 0.011633987915 0.01225945306 0.0060793497534 0.012645062996 
0.012339318857 0.0076864682633 0.012095643716 0.010910440647 0.0075549030412 0.0097345772967 0.0071793961623 0.0053230912928 0.0052100612306 
0.0011726973032 0.00090586975062 0.00063955239751 0.0018281257466 -0.0010754824051 0.0004279523634 0.0035366655459 -0.0018488685419 -0.0023714651149 
0.0013346402739 -0.00097712849699 -0.034407471462 0.020806530647 -0.007748178242 -2.2476460374e-05 -3.2711533818e-05 3.7922599328e-05 2.7291489792e-05 
0.0028977053238 -0.0015835364038 0.0044827599555 0.020049858146 0.01479622667 0.041586322626 -1.7920211287e-05 -1.9564724465e-05 2.5520116154e-05 
0.0034118003678 0.025983441189 0.0042822144626 -0.00032391287837 1.6928886457e-05 0.013643198865 -0.0010077155063 0.018197407791 0.028903133907 
0.022988814944 0.021699286215 0.020998681186 0.012692558696 0.052097282974 0.045281035754 0.016256283373 0.019017675874 0.022555756179 
-0.0079922887131 0.0075900260356 0.015081934208 -0.0025566716423 0.0085094948299 3.7940130161e-06 9.9933917241e-07 2.2447812246e-07 -2.234607761e-06 
1.1820382144e-05 -1.4030636449e-05 1.8129613789e-06 1.7037112779e-05 -8.2169038056e-06 -1.5704719885e-05 5.6501083873e-05 5.9302178656e-06 -3.9437609359e-05 
6.3245565723e-05 1.1593731771e-05 -5.3835453603e-05 6.5736234636e-05 1.8339868792e-05 -7.8865127451e-05 6.0173930221e-05 2.546220047e-05 -9.2187793674e-05 
4.9907450668e-05 2.5981941932e-05 -9.3199027881e-05 3.384987357e-05 2.8481841086e-05 -9.9530032069e-05 2.6751825366e-05 2.8237868912e-05 -6.5636359623e-05 
1.180574555e-05 2.2140405005e-05 -4.7087889452e-05 -5.1446108203e-07 1.6085822945e-05 -2.5104416818e-05 -4.4491098581e-06 6.5258940886e-06 -1.2943559449e-05 
-4.5600815288e-06 1.6544678618e-05 -6.2384861678e-06 -6.8497629197e-06 -5.95171716e-07 8.4298556734e-06 -6.2197108666e-06 -8.9194602179e-06 1.4320749484e-05 
-8.8451627098e-06 -1.499826855e-05 1.6485994035e-05 -1.658567344e-06 -2.2817086928e-05 1.0165992605e-05 3.0823308765e-06 -2.213735183e-05 1.0573497521e-05 
1.7078059181e-06 0.019260661507 -0.0028085720737 0.01080635375 0.013433181232 0.0047808215772 0.015685795668 0.010707156196 -0.0028881434411 
0.015594090876 0.019448069705 0.019059336489 0.034048233408 -1.3993259303e-05 0.0058855828164 0.0069333315651 0.0045186837298 0.0051637433911 
0.0074841894384 0.0037026089744 0.0040282164431 0.0057647333054 0.0031859961628 0.0034184781126 0.0047330866889 0.0027890448473 0.0029505497991 
0.0040975073589 0.0024060914642 0.0025380239652 0.003574264733 0.0019491761724 0.0021132779209 0.0030232838771 0.0013655632759 0.0015891726863 
0.0023780111681 0.00068898323849 0.00096009495334 0.0015881352358 1.1213301425e-05 0.00024167865446 0.00068614585886 2.2496598853e-06 8.9150294661e-06 
-8.0054218918e-05 -1.1380517002e-06 -7.3512944797e-06 -6.7726996781e-05 1.4679868845e-06 -2.0824871436e-05 -5.114540532e-05 1.7634097861e-06 -2.8359378997e-05 
-3.3340682921e-05 4.7252960682e-07 -3.1982757212e-05 -2.0444394861e-05 -2.2120373251e-06 -3.4558472136e-05 -1.6495602497e-05 -3.7016413772e-06 -3.1786938881e-05 
-1.0358380923e-05 -2.1752774492e-06 -2.5990298158e-05 3.5316053518e-06 -5.0605780914e-06 -2.7384960114e-05 -4.0699120824e-06 -3.3769552292e-06 -2.8816297137e-05 
-1.105495379e-05 1.7394743401e-06 -2.6593507629e-05 2.593545183e-05 5.9180260977e-06 -1.7722831832e-05 2.1926176761e-05 0.00059418535219 0.00025088059709 
5.4162553089e-05 0.0012498654767 0.00097304069982 0.0010179119125 0.0017459745439 0.0015662883282 0.0018455835267 0.0020376589688 0.0019758807003 
0.0024537163533 0.0020971557136 0.0021258715262 0.0027783553373 0.001893738204 0.0020465815258 0.0027383219951 0.0014980930361 0.0017427445806 
0.0023805422804 0.001031974891 0.0012938471855 0.0018480201227 0.00053854334806 0.00080501184137 0.0012313839201 6.1902126132e-05 0.00029706148697 
0.00056929022106 -1.4988021039e-05 1.5567883396e-06 3.4618174888e-05 -2.9899894548e-05 -7.6023929076e-08 2.1225518863e-05 -2.3381057628e-05 -2.8676345929e-06 
2.7447296094e-05 7.2498262534e-06 -5.3941503848e-07 2.0721615125e-05 0.010319018915 0.00050444351535 -1.435561714e-05 7.5057032793e-06 -1.0397707958e-05 
9.7351468067e-06 -1.1955715654e-05 8.8237340049e-06 0.00034533133272 0.0001446479707 0.0001141963115 0.00077101135906 0.00054666012327 0.00062669087947 
0.0011995694415 0.00096714942499 0.0011915979825 0.0015074095452 0.0013430649294 0.0016860068377 0.0016787107609 0.001574788336 0.0020222682564 
0.0016718253886 0.0016548906015 0.0021694764718 0.0015120678048 0.001571153578 0.0021170571529 0.0011699511429 0.0013235172151 0.0018541100409 
0.00064499235644 0.00086777940924 0.0013324898377 4.1125720591e-05 0.0002906269029 0.0006071669593 -7.951182424e-07 8.5131547339e-06 1.1858816008e-05 
-1.4369260232e-05 4.3305440716e-06 1.6916303387e-05 -1.1413056962e-05 -7.8300341342e-06 9.0383611387e-06 -1.6326103021e-05 -7.9368347242e-06 1.2191525895e-05 
-1.4348831704e-05 -1.1289831784e-05 9.2216286947e-06 -1.8467965612e-05 -1.4351347576e-05 1.1732287708e-05 -1.3661917404e-05 -1.5018590145e-05 1.4321683798e-05 
-1.2983870616e-05 -1.3420358696e-05 1.3948119991e-05 -1.0554016811e-05 -1.4703249828e-05 1.1319918148e-05 -6.4882100195e-06 -1.2880364726e-05 1.9718046835e-06 
1.5975773987e-05 -2.4767681595e-05 -6.6254859245e-06 2.9528478219e-05 -2.2937518692e-06 -1.1696524521e-05 0.00043565272813 0.00022281769552 4.8222838497e-05 
0.0010228772161 0.00085084601186 0.00081361243111 0.0014685850418 0.0014106822877 0.0016154871399 0.0017727912151 0.0017576027109 0.00217917608 
0.0020604434126 0.0020589415478 0.0025264922277 0.0024612646465 0.0023947958503 0.0029623504897 0.0028157772096 0.0026844630191 0.0034650861802 
0.0033716255442 0.00316218925 0.0039486029127 0.0040708403442 0.0037520901143 0.0046470945848 0.0052933608405 0.0045937992066 0.0057483287243 
0.0072843458873 0.0062192557228 0.0076177240506 0.010387920775 0.0083637010445 0.010445335843 0.015159127059 0.012008010793 0.014996461329 
0.021079235406 0.015902888401 0.020593476925 0.029955679282 0.071004588701 0.068746730481 0.065115211114 0.059817161379 0.060287487866 
0.013374393459 0.0029004300626 0.025037427156 0.025097203521 0.022497833763 0.021772669515 0.07450824261 0.073575279557 0.064701696707 
0.077317254811 0.076329640509 0.067285060321 0.080999958296 0.079849378483 0.07061915011 0.084132077386 0.083004293127 0.074663755414 
0.086056518784 0.085439791694 0.077730536901 0.087394756685 0.086464326186 0.07921000454 0.088590935873 0.087708936701 0.080183216366 
0.08953121881 0.089007188189 0.081454327915 0.089153619418 0.089389930998 0.08207836889 0.088077889026 0.088544222984 0.081484903243 
0.086325171437 0.087441736308 0.08015342044 0.084420963239 0.085649462258 0.078477278519 0.082742268282 0.08352436451 0.076684796605 
0.079449295554 0.081031668501 0.074293803683 0.074732526392 0.077032625833 0.070254182959 0.069222066898 0.071810965253 0.064867534715 
0.061641843186 0.065208713002 0.058210065383 0.053151966375 0.0571923063 0.05006765179 0.041313480701 0.047149154346 0.040467760121 
0.00030030580261 3.8087083028e-05 0.0013267208293 0.021668540763 0.022032999857 0.015067343003 0.0078505881568 0.0095220475616 0.013646669606 
0.010071706455 0.022698513818 0.029367704522 0.00057621064236 -0.0011617962249 0.00076845416103 0.00040179998937 0.00065174657343 0.00047388243833 
-0.0010402997094 0.00038836296822 0.00050362561729 -0.00053514923972 0.0021447589015 0.0034529198818 -0.00076019016876 0.0042702363216 0.0046583698134 
-0.00059657871768 0.0045049245388 0.0039216940748 3.4880488817e-05 0.003119086979 0.0017398819279 -0.00063878396934 0.00036876845268 0.00078953738061 
-0.00077790072804 7.1149075039e-05 0.00096828494398 -0.00082447347121 -0.00035989929719 0.0011477349091 -0.00095440066393 0.00051443198156 0.00043579372168 
-0.00045251640745 -0.0063059820171 0.012417623022 0.0003753787356 0.00054420757921 -0.0006943232241 0.0002491572127 0.0010024278985 -0.00061204527409 
0.0022201401601 0.0033138825843 -0.00050240105097 0.0040197520347 0.0043659769773 -0.00042239760689 0.0042945932025 0.0038665982566 -0.00018769788898 
0.0029701219146 0.0016573777525 -0.00046566692346 0.00021086213928 0.00081711278518 -0.00057868298185 0.00020772406097 0.0012807326958 -0.00070821580869 
-9.1591652641e-05 0.0015633521288 -0.00087140547163 -0.00087468900955 0.0009938491169 -0.00021239277927 0.0012689450781 0.0026388546296 -0.0019014362334 
7.2829989825e-06 5.790357434e-06 1.6056757188e-05 7.8575243027e-06 2.6709114664e-06 -8.4103403459e-06 1.1591460938e-05 0.00057985124313 -0.00056264899233 
-0.00096201490338 0.035638163507 1.1878763189e-05 -5.9580114672e-06 -5.5272247312e-06 1.018815121e-05 -1.9557133089e-05 -1.4256970355e-05 0.017600418016 
0.014640406898 0.023207771447 0.027774551107 0.0048961764573 0.017041379263 -0.00049760532372 0.016921660865 0.0048307708389 0.015716390839 
9.9980139936e-06 0.019243301844 0.024379681849 0.051042824469 0.042092222781 0.016953080236 0.016784756137 0.0083426586833 -6.8860602198e-06 
0.0077954259746 0.013479227122 0.032635136382 0.017602060921 0.0022220305558 0.00034003059426 -0.00066161698527 0.0016107896413 0.0047562164088 
-0.0013130216212 -0.00067808096361 0.0070290359761 0.014956148504 0.015454976671 0.0040263860117 0.047862544779 1.1504310096e-05 -2.0719427513e-05 
6.6432333024e-05 -5.6787515114e-06 6.9724498782e-05 8.0748736716e-06 -6.5594078308e-05 6.2271873222e-05 1.5526729228e-05 -8.3546397959e-05 4.3949101474e-05 
2.6357652113e-05 -7.6029091537e-05 1.036995054e-05 2.699048687e-05 -7.2224871168e-05 1.2945779823e-05 6.3014623656e-05 -6.2860182443e-05 4.9522623534e-07 
2.9742458477e-05 -3.9346921696e-05 -1.3454024825e-05 2.7185233005e-05 -3.1762684872e-05 -9.2905937988e-06 1.9126172494e-05 1.2849639021e-06 -9.4637966624e-06 
2.8028370296e-05 5.4007324301e-06 -7.5642661451e-06 1.5208024742e-05 2.4125346062e-05 -8.1887488563e-06 -3.6834017237e-06 2.2346386126e-05 -2.1454679428e-06 
-7.2346385123e-06 1.0183706132e-05 4.3275395873e-06 -9.1854085544e-06 1.616458399e-06 -1.1092181117e-05 -4.5140669792e-05 -4.4134919129e-05 0.0016091251521 
0.0076603688338 0.00093846096092 0.00055024086564 0.0068961539802 0.0074368237085 0.0080229292742 0.0089962360839 0.0098838002509 0.010121517396 
0.011738003814 0.012133235487 0.006047999326 0.0063961942621 0.0085402468615 0.0053746232436 0.0056812355461 0.0075468496736 0.0045727357151 
0.0049137648503 0.0066260156629 0.0035785201981 0.0040263276845 0.0055712102446 0.0023659091555 0.0029074932201 0.0042512953785 0.00098877870929 
0.0015949020761 0.002675446848 5.7018213989e-06 0.00020560751503 0.00088722022537 9.180379562e-06 4.1859980235e-05 2.8283739654e-05 2.3788401019e-05 
3.4375955987e-05 1.4561272242e-05 2.7087276146e-05 3.1463118634e-05 -7.9729305933e-06 2.8402031381e-05 3.0034465935e-05 -4.156372e-05 2.7533724419e-05 
3.2550706756e-05 -6.4388037605e-05 2.2149855286e-05 3.5116451042e-05 -7.9694395952e-05 2.5249727227e-05 3.4616006101e-05 -9.196333231e-05 3.9379161257e-05 
1.9531246389e-05 -0.00010438627958 2.697197979e-05 9.3357732764e-06 -9.0241965266e-05 3.8578827888e-06 3.0007409106e-06 -6.453496149e-05 9.9199228279e-06 
-1.6581035258e-05 -3.6138908588e-05 0.00045605337235 -6.1097560731e-06 1.2194568894e-06 0.0018116148191 0.0012167298132 0.0010488811507 0.0028782180037 
0.0024040628933 0.0026594053041 0.0036161775421 0.0033347054793 0.0039117558273 0.0038665749419 0.0038595713904 0.0046631150409 0.003631602373 
0.0038643839857 0.0048372200345 0.0030077048173 0.0033914975789 0.0044258754434 0.0021716485895 0.0026215302515 0.0035402067189 0.0012602978525 
0.0017360953376 0.002406697129 0.00037698648569 0.00083426604631 0.0012865241753 -3.4242881409e-05 -6.4606742442e-07 0.00021282424396 -3.2016121759e-05 
-2.0455981796e-06 4.9707642852e-05 -2.7088370904e-05 -1.4827069817e-06 2.9565819394e-05 -7.1939650107e-06 -1.1700139896e-06 1.7719410065e-05 0.016758737763 
0.012869657042 0.0068422914511 -0.0016577445447 0.06302895784 0.060791248747 0.0066824444697 0.00038522699927 0.00045295885592 0.0089415139584 
0.0066736122364 -0.0010030254454 -7.9143370793e-06 0.015894883361 0.017900013594 0.00018683982787 -1.4503164058e-05 0.0004479490749 5.1765787675e-06 
-2.4032722527e-05 1.1678013199e-05 0.0017622456027 0.0013262897125 0.0014116539923 0.0024976506474 0.0021312078519 0.0024523979528 0.0028953028057 
0.0026938226217 0.0031955985381 0.0030108645938 0.0029318862828 0.0035961597822 0.0029036359009 0.0029482176573 0.0036859391483 0.0025035117174 
0.0027101920015 0.0034955906021 0.0016951031039 0.0021056812187 0.0028254305366 0.00061339255661 0.0011388478474 0.0017658687769 -1.7369380539e-05 
3.2516115868e-05 0.00036557696868 -1.340448178e-05 1.1432171781e-05 2.1530621121e-06 -3.6067549395e-07 1.7377173484e-05 6.7902378886e-06 -1.4693873947e-05 
1.6159024943e-05 -2.4694367391e-05 -1.1770209127e-06 9.8624249454e-06 -2.4815584849e-05 -7.2151483079e-06 1.073132946e-06 -6.9573989812e-05 -1.371761444e-05 
2.4733416008e-06 -7.708750535e-05 -5.8134215724e-06 2.0343680571e-06 -4.6531633029e-06 -3.1782546162e-06 -6.8303221654e-06 -3.3865043195e-05 7.7914457489e-06 
-7.8012768828e-06 -1.7640343753e-05 -9.4690427657e-06 -3.9635186903e-05 4.2284883411e-05 1.0362903208e-05 -1.6440559944e-05 7.9379900274e-05 0.00050075476511 
1.930863998e-05 1.0722720853e-05 0.0017500143621 0.0011899161667 0.0011107138148 0.0028581628244 0.0024310854672 0.002673800131 0.0034672211221 
0.003301366071 0.0039194286431 0.0040536602688 0.0038809790083 0.0047118835177 0.0047875809842 0.0044866879574 0.0054992611382 0.005461327642 
0.0051475453687 0.0063569511132 0.0062905441044 0.0058415144233 0.0072075083907 0.0074235066856 0.0068163920373 0.0082392365036 0.0092366186433 
0.0081365062118 0.0097872535378 0.012465395442 0.010647324984 0.012528779076 0.017254844544 0.014340138049 0.01728150049 0.023717469881 
0.01945740969 0.023269502277 0.027889408865 -3.4060539028e-06 -1.4957491295e-06 0.020368302873 0.020811029426 0.052909116266 0.050565623668 
0.057593156633 0.056595929482 0.051368899929 0.013333883274 0.018138450768 0.017958122051 0.015349551151 0.033631378777 0.029237895102 
0.038688176263 -0.0019751292929 0.0087970709045 0.058200489383 0.056822206638 0.047708492033 0.048799165471 0.06776490982 0.065825103205 
0.057198197056 0.071786612147 0.070540717535 0.06251153239 0.071422766341 0.071107141477 0.064567034924 0.072399453996 0.071720652342 
0.064250519631 0.074164384088 0.07344097573 0.065613037058 0.074867909682 0.074858772874 0.067442070592 0.073567051104 0.074180896164 
0.067445535351 0.071687749735 0.072510246173 0.065703322959 0.069978540471 0.070921922167 0.063871782871 0.068226117734 0.069130695617 
0.062346004463 0.065394900448 0.066993008008 0.060308902824 0.060823742107 0.063306395364 0.057247815735 0.054501297222 0.05748188299 
0.051963863954 0.047101800329 0.050962559968 0.045383881761 0.0044430673515 -1.7672214556e-05 0.0243642617 3.4556063707e-05 -1.3960877835e-05 
-2.6247296588e-05 0.017729277138 0.010977725069 0.007277306507 0.015852769727 0.014547428227 0.018624309443 0.01580820791 2.0654566437e-06 
-9.1241159092e-06 1.8149101596e-06 7.3214446947e-06 -3.7110577481e-05 2.3264472467e-05 -1.1321176674e-05 -0.0011230505916 0.0015515205031 0.00026828463408 
0.00017537011558 8.2304879631e-05 0.00059381931011 0.00011574416306 -0.00070419908141 0.00036877926002 0.00016325316249 -0.0007227286024 0.00034059734784 
0.00021059171 -0.00044326286704 0.00032294748393 0.00023161364502 -0.00053174236257 5.6494336077e-05 0.00075881001941 -0.00073195477648 7.6542102408e-05 
0.00071290521405 -0.00032714016046 -2.5395338203e-05 0.00078641716425 -0.00041959091765 7.4617350405e-05 1.7521187807e-05 -9.6901980882e-05 0.00021381576872 
0.00031821511814 0.00020001844563 0.00033569368386 -0.00040093308255 0.00017889060122 0.00035495415907 -0.00047025189424 0.00014436562545 0.00040527127265 
-0.00046740261079 0.00012060630024 0.00048510471325 -0.00050018060638 0.00010284640951 0.0006356867372 -0.00050366329889 6.139612375e-05 0.00071538669959 
-0.00042394080313 -3.6749474338e-05 0.00065335073341 -0.00037446224264 -0.00023345975108 0.00015377070546 -0.00013078492675 0.0018530422356 0.00023556318788 
-0.00065644263917 -0.00056748847675 0.0002530335821 0.0028972008376 0.00032428254564 8.4297072921e-05 -0.00031483802119 -0.00041139719845 0.00021556973995 
0.00020438943902 -0.00041667923751 -0.00025836626183 0.032276307408 -4.9278049866e-06 9.608972221e-06 0.021020161718 0.021674473845 0.041537430862 
0.035156587338 0.0016340226859 0.0057328880068 0.0065482699032 7.5310623864e-06 0.010528711518 0.00066776841236 1.0758024286e-05 -2.6385993382e-06 
-2.3347654221e-06 0.015905884878 0.013471017733 0.015729781763 0.014525137266 0.0047600251637 0.016598762332 1.0635636037e-05 0.010640261966 
0.013400568874 0.019208020128 0.019429986707 0.0050159971356 0.0071250954165 2.0561308246e-05 1.5137769597e-08 -6.2311731456e-06 0.017974207769 
0.021337889067 0.028259410146 0.021165816324 0.013008794886 0.0076681220758 0.003493247746 0.043006700008 0.0067685223166 0.037844438778 
-0.00031100998597 -0.00010351825965 0.013322380395 0.019601422633 0.017445474881 0.01753622209 0.019793606269 0.016740295336 0.01621595773 
0.03918787721 0.03155757993 0.027058484489 6.7328121144e-05 -8.9037608912e-06 1.5976702366e-05 5.3042935511e-05 -6.845997537e-06 1.8079564973e-05 
1.713572468e-05 -2.8083749543e-05 9.0934095899e-05 6.8138613167e-07 -2.4577479842e-05 3.8507591999e-05 -7.144347362e-05 -2.607613185e-05 4.7797345845e-05 
-1.1802010771e-05 -3.9194197862e-05 1.0079175365e-05 -1.299261618e-05 -3.2992535335e-05 1.1034417638e-05 1.5886936193e-05 -8.3351082372e-06 8.0573207969e-06 
1.3269186706e-05 -7.1534190112e-07 -9.994955784e-06 5.612331001e-06 -5.3649577587e-06 0.00026882583078 0.0035888899628 0.045503857817 0.042178568285 
0.056171788329 0.056985635133 0.010624381676 0.011302152433 0.0085168575657 0.0090392112458 0.006975824592 0.0075608477074 0.0096757173342 
0.0056196259179 0.0065044956393 0.008344743824 0.0033909065939 0.0044132160733 0.0063914808269 0.0013098597935 0.0024008298083 0.0039852499111 
1.4892966844e-05 1.9820602311e-05 0.0011706560343 4.8694610676e-05 1.5633128532e-05 -3.3872048492e-05 9.8865396116e-05 2.5114515993e-05 -5.6205359043e-05 
0.00013679382854 2.1828141395e-05 -0.00015125049501 0.0001506654605 2.2753380695e-05 -0.0003098266682 0.00016241649086 4.8599023618e-05 -0.00028496446917 
0.00016356086646 5.9014715734e-05 -0.0002130852622 0.00014434018717 5.4739037791e-05 -0.00019075567952 0.00010870969585 4.7975378002e-05 -0.00019618373326 
7.7913288748e-05 3.7887943943e-05 -0.00016651950423 4.7603573373e-05 1.2679095353e-05 -0.00011988027638 5.5407914783e-05 -1.6917574792e-05 -6.9371163201e-05 
0.0019866782233 0.00091722876203 0.00045666818936 0.0041986530472 0.00324959294 0.0032961169893 0.0051852567334 0.0046226384284 0.0054350869198 
0.0060692494371 0.0058387933784 0.0065395797734 0.0059366059878 0.006175282301 0.0073335143962 0.0050090560455 0.0056052489799 0.0069415595166 
0.0037043894635 0.0044004054714 0.0056634981463 0.0022698567936 0.0029737570706 0.0038621663074 0.00095303391266 0.0016652067325 0.0021644356031 
-5.5724519685e-05 0.00023403945946 0.00062765558606 -3.1874169309e-05 -5.7131454747e-06 8.7127217218e-05 -2.0045607918e-05 -5.2929220046e-06 2.4371358627e-05 
1.4525015886e-06 0.03233490088 0.00077661206104 0.003166025936 0.0024655216922 0.00050135560273 3.8247582811e-06 0.016531295448 0.015888870953 
0.0017923856059 0.0011516076172 0.0008868480098 -5.1091030894e-06 -3.3713923073e-05 3.8527878138e-05 0.0042036813831 0.0037306136113 0.0040975089214 
0.0046358458357 0.0044607691348 0.0051174481606 0.0045265333129 0.0044995257083 0.005373387886 0.0044863717957 0.0046020262971 0.0055865916516 
0.0036221679756 0.0041100000652 0.005280555326 0.0020129144678 0.002816934968 0.003966922923 0.00011366145024 0.0009982395922 0.0018667894417 
-3.3547746734e-05 2.8652256188e-05 -3.251607484e-06 1.0064286001e-05 5.1093007782e-05 1.3642033676e-05 3.0672254005e-05 4.5528391565e-05 -2.6780245192e-05 
3.3476406348e-05 4.158397936e-05 -0.0001298230595 9.7911619885e-05 3.3357643243e-05 -0.00011529786733 3.2324886961e-05 3.0883779855e-05 -0.0001063658446 
1.9517408633e-05 5.3420720723e-05 -0.00019988240565 -1.5974286315e-06 4.565769975e-05 -0.00014334459289 4.2439671468e-05 -2.8551088405e-05 1.3796611549e-05 
6.0465412961e-05 1.8489085313e-05 -4.9207096674e-05 2.0633704025e-05 -0.00010352281041 1.5564925994e-05 0.00042817189137 0.0012530031185 0.0042457142313 
0.0031912207591 0.0022164478554 0.0057739641483 0.0052678481619 0.0058049467359 0.00637746477 0.005994578911 0.0072778807118 0.0076164023157 
0.0071328745768 0.0081932578247 0.0087104449261 0.0082564097063 0.0096715536811 0.0098619940247 0.0092790586472 0.011029532265 0.011501692569 
0.010602771432 0.012490234899 0.013663043001 0.012362085187 0.014432366505 0.016816867245 0.014567944615 0.016760965284 0.024599207719 
0.02117257213 0.022971240135 0.0037086851747 0.0085606259458 0.0077695150893 0.011562409147 0.0054995924305 0.014552198925 0.015507198472 
0.05141355215 0.048402295039 0.0411426745 0.00036537650606 0.0065239502173 0.0071987387504 0.011160189162 0.056333170075 0.056042969264 
0.049224564625 0.057876746507 0.056722754192 0.049327068405 0.061090044256 0.060324175879 0.052096211963 0.060644931524 0.061309840079 
0.054764853408 0.056979585267 0.058085792658 0.052432024852 0.055871908635 0.056694008582 0.049840369671 0.054265763603 0.055208134732 
0.048982696499 0.052044922226 0.053216601911 0.047158043191 0.049569602594 0.051617950723 0.04573375304 0.042492890637 0.045830673085 
0.041690881814 0.035936656674 0.039305213777 0.035091983159 0.012298465139 0.0063017504162 0.0068413520416 0.0059501206372 0.010161753357 
0.054059427048 0.046625802361 -3.8619115574e-05 0.00017651949195 0.013920077511 0.012781019999 7.6483913814e-05 -9.7862241433e-06 -4.1664000131e-05 
0.01209251061 0.013116916826 0.014105715693 0.00016456810841 0.00025829088558 -2.3786746397e-05 -1.1563492541e-05 0.00031442698414 -7.3524251892e-05 
0.00032096781694 0.00025306448626 -0.00012157301023 0.00015206444428 0.00021686212064 -0.00016014243752 0.00022047567995 0.00021221150928 -0.00013511641288 
4.2335184854e-05 0.00032062503638 -0.000291591907 -9.6435708708e-05 0.00033654515732 -0.00018132738575 -4.9421179706e-05 0.00022972148938 -0.00011665036019 
1.7298260267e-05 1.9366649459e-05 0.0095702918601 0.0099632937585 0.012491716719 0.011236778121 0.012804771646 0.015925641303 0.0083886213321 
0.011327451056 0.013041410262 -0.00094544445685 0.00062391696537 0.00017494713452 0.00034130615898 -0.00049096675501 0.00015476546674 0.00037135344689 
-0.00043603096313 0.00013040163232 0.00042545023018 -0.00041047793288 9.4741907911e-05 0.00043785069357 -0.00044596121792 4.6759673377e-05 0.00043177603743 
-0.00040776200653 2.7889960864e-05 0.00029482068697 -0.00036248680047 -3.982058598e-05 0.00016314743439 -6.879289176e-05 3.8206326564e-05 1.3119942864e-05 
-3.5013387358e-05 7.641236248e-05 1.6970770496e-05 -4.4620647918e-05 0.042541735897 -5.5917662622e-05 0.0049271938812 0.007683535809 0.018209618332 
0.012860863579 0.01404601044 0.03337195625 0.037461791653 0.013097408692 0.01375793315 0.011068156822 8.8009657745e-06 0.0016724272315 
-0.00020978863644 0.0097392893573 0.0060645043081 0.009241909879 1.35055791e-05 0.019042363897 0.021942310105 1.1559110154e-05 -3.7260993425e-05 
0.01414498785 0.017945867208 0.018127403298 0.013819757896 0.015641009115 0.020699208994 8.895525485e-07 0.0024861177188 0.016828347266 
0.014755975724 0.028523169688 5.3252245295e-07 -1.1651187377e-05 4.1450953017e-05 0.030800342816 7.8785038995e-05 0.00019962378702 -0.00036416300327 
0.0022746558107 0.00016677491237 0.0038882926567 0.011615075255 0.0158746053 0.005053324182 -0.0010779460969 0.012828986825 0.011028227419 
0.00034404774139 0.0094703493141 -8.6961345584e-05 -0.00011964074082 0.00014673581905 -6.2135214878e-05 -3.1780721632e-05 4.1256527231e-05 -6.3206966875e-05 
-0.00025886748815 2.8446628858e-05 -9.8622442489e-06 -4.3452005973e-06 6.8242838723e-05 -0.00024763047891 -0.00016950305838 0.016885467147 0.018670214145 
0.016568104928 0.00056626467978 -0.00016862157572 0.0094695401245 -1.3081483511e-06 0.0014234716692 -0.00033741797097 -0.0003882802794 -0.00011528008861 
0.0006732438757 0.0042172847099 0.0078479574479 0.0034287082706 -3.3851907017e-05 8.8411132685e-05 -4.4680348451e-06 2.1333697589e-05 -4.7149884378e-05 
-3.3321807308e-05 0.038567926646 -9.1194509906e-06 2.5353224674e-05 7.8071711036e-06 -9.7417369496e-05 -3.3084259103e-05 -4.9513756614e-05 4.4652415242e-05 
-2.5634614817e-05 1.4199907779e-05 -3.2739658807e-06 0.016419995856 0.01471339866 0.0016794166492 0.0035464262143 8.2085648489e-06 7.6257778897e-05 
6.5354984019e-05 1.834666939e-05 0.00018653040504 4.7850555014e-05 0.00014183921429 8.0727346062e-05 0.00015365096839 0.00020703130457 9.4551850297e-05 
0.00013329469646 5.929382146e-05 9.7317042825e-05 0.00010520663493 0.00010144987276 8.952382368e-05 7.004426166e-05 3.3304529035e-05 1.37705706e-05 
0.0088377483118 0.008914092051 0.0074470272947 0.008375608399 0.009940776957 0.0051210291552 0.0061755236968 0.0077269713827 0.0028633379433 
0.0037403621354 0.0043295437571 0.0019512031414 -6.3104570708e-05 0.00075694549797 0.0013943445726 -2.7242494169e-05 4.2350103439e-06 6.808484367e-05 
0.0026741489522 0.0017542436121 -0.00035211662471 0.00051627020491 0.024653915768 0.00012618373261 0.0022035152104 0.0064169679926 0.0058828529681 
0.0049644481601 0.0037545311719 0.0061494613348 0.011879032148 0.014233121377 0.00081863234937 9.8048537252e-05 0.00090434717832 -7.8791986127e-06 
-8.9656005535e-06 0.0065900075576 0.0068011684227 7.3786422529e-05 -1.0116393202e-05 0.010257716975 0.0093744360572 0.011914080959 0.011393914699 
0.012390273473 0.013484312283 0.012875455456 0.014554979194 0.015659067083 0.014466054955 0.016563100788 0.018358823743 0.016838504739 
0.018652833836 0.02200666181 0.020216644382 0.022351947826 0.011130399083 0.0011911905657 0.00013404954391 0.010805632652 0.0089169563739 
0.027589490716 0.0069878965607 0.0066410577809 0.0034245232794 0.010158150564 0.015218005554 0.017447302372 0.017774406795 -0.0005777005943 
0.00022896683203 0.00026901368994 9.1198611659e-05 0.036706241133 0.033681198742 0.0060981137107 0.045761835275 0.043481011054 0.0091528439718 
0.011140340264 0.041681327696 0.041720368207 -2.7648741437e-06 -1.6086813695e-05 2.0728834621e-05 0.041902020831 0.042327672233 0.042465196912 
0.043283995521 0.036675541945 0.039988440699 0.041102882736 0.036345474143 0.038504732448 0.038697540125 0.033980903477 0.041818461629 
0.003822776466 0.0064932714903 0.018333599955 0.019969437024 0.016011453801 0.017096055627 0.020189579029 2.2814308501e-06 0.0076388642717 
0.0090550514112 0.0050911237568 0.0078888149475 0.014750786354 0.015589687174 0.013142114195 0.012225206468 0.0099727793359 0.009797129435 
0.041863811794 0.041179996993 0.035249810228 0.03629495398 1.214280535e-05 0.00011084245527 -0.11966545739 0.013513303409 -4.3046399552e-05 
8.1899078108e-05 -3.380159783e-05 0.038498848861 0.033014179352 0.041440021443 -3.6620503771e-05 2.3327406997e-05 -6.3542443565e-05 0.015685634663 
0.013807424884 0.014368539129 0.016823533597 -9.0196991119e-06 0.03116488947 0.026195467404 0.00013830660219 -0.00015538204511 5.5672708616e-05 
-4.4656888238e-05 -3.0659564297e-05 0.011719610964 0.0140349527 0.0068381191699 0.0030613379563 0.0013614365447 0.0036140026172 0.0071845406968 
0.011123857504 0.00012722891351 0.030960685743 0.028868808307 0.034638335475 0.0020748728905 0.00043142005117 0.0072729520163 0.0082048471574 
-5.3736942936e-06 0.028131366312 -1.9742658402e-05 -9.7989138211e-05 -1.8535410869e-05 6.3565527644e-07 -9.4923488039e-06 0.0057649732771 0.0075156038574 
0.0089980664299 0.0046990886406 4.3569114709e-05 0.006424680889 0.0066231415882 0.0067425985012 0.0017680913123 0.0032255425358 -5.3147117869e-05 
0.00028975662551 0.0091988029041 0.0093402660585 8.1367349061e-05 8.5747255907e-05 0.00023544979899 0.00010184727679 0.0001099208003 9.1168503624e-06 
-2.7563042793e-05 6.5882342144e-05 -1.0352186886e-05 4.0568276059e-05 0.018709982642 0.023052693267 -0.0011680084522 0.012819035287 0.046041013801 
0.0097005074198 0.011986529078 -2.5819365295e-05 0.035278600134 0.030148535213 0.029414199435 0.019545317635 0.022609081543 0.011775719575 
0.043464849336 0.023047241691 0.023345411794 0.036487411355 0.023706432629 0.024315898857 5.5301023184e-05 0.024936034339 0.024670310117 
0.027053382931 0.0048200771985 0.00011610754374 -0.00010939319443 2.9347740828e-06 4.6319078371e-05 0.0013893862258 0.00013420597836 0.020295169721 
0.00020531723876 0.00012091669169 1.0513561926e-06 0.00048828907249 -0.00012323832894 0.00015406850786 -3.4027457232e-05 -2.0642627406e-05 0.0045799162181 
0.00015534197091 0.002244461242 7.7601700135e-05 2.8145896033e-05 0.00061576386197 -0.00045241311195 0.0046790216039 0.016760479624 0.017318565682 
0.019845228365 0.015974919244 0.015837486137 0.015583860009 2.012237872e-05 0.00015211615002 0.019328167551 0.017984737181 0.006968787005 
0.021288489734 -5.2448678091e-05 1.1372464922e-05 0.016916529221 -5.8040239214e-05 -2.0152831757e-05 8.2524440459e-05 2.0442377371e-05 -0.00013957496243 
0.02771137726 0.027033357182 0.018881920104 0.017170421605 0.020432214661 -6.0215134984e-05 -6.6269666286e-05 -2.2975756331e-06 -0.00017119435447 
-0.00010540242889 0.025120135915 0.025352682748 8.7291106752e-05 -0.00018212051194 0.02521138389 0.026713190552 0.022759614235 0.0082112386602 
0.01025757208 0.01704913059 0.005468347882 0.030434616647 0.032157397326 0.0035264917772 0.005964358153 0.01724793224 5.9392153049e-05 
-7.8080309443e-05 0.028684949202 0.02820298166 -0.0002708437942 -6.3835811608e-05 -2.3931966574e-05 0.00028100514646 9.4433932985e-05 0.01486242277 
0.025342884875 0.02507180676 0.0073813924943 0.024449608422 0.024185863954 -8.1265628296e-06 1.7118349242e-05 0.028098964049 0.029604136498 
0.025975235577 0.024089107077 0.0008634197989 7.2905487137e-05 0.008264905373 0.027189719521 0.020461346565 0.0019630171701 0.021523274452 
0.021412099304 0.023486829635 0.024162073858 0.022773095822 0.023520118434 0.030646660468 0.023695910407 0.028955742644 -0.00011603715368 
-0.00012087739514 0.027933765509 0.00036773257882 1.32813133e-05 0.0091671981911 0.023400081553 0.022986343153 0.021287107983 0.018505487476 
0.022592827132 0.021696964278 0.019428015848 0.0035870975728 -0.015716661678 0.0254195382 0.016916959782 -0.00098998718319 1.3540069699e-05 
0.097309024191 -0.027428852318 -3.1665536344e-06 4.3897592787e-05 4.9790745304e-05 4.8078009286e-05 4.7681299639e-05 5.0141670745e-05 4.3319953003e-05 
4.132242282e-05 2.9910141952e-05 2.358735179e-05 1.747148272e-05 7.211457775e-06 3.5391018663e-06 -4.6848242508e-06 -5.1237455831e-06 -1.9027819802e-05 
-1.1567613713e-05 -3.7484241907e-05 -1.8252550995e-05 -5.3443399359e-05 -2.0664961162e-05 -6.0323184712e-05 -2.319630934e-05 -6.7398999591e-05 -2.4394491109e-05 
-6.5631984888e-05 -2.3002114441e-05 -5.6671800481e-05 -1.8461385026e-05 -3.8614490069e-05 -9.4066216474e-06 -2.5948687948e-05 6.0730104035e-06 9.618555063e-06 
2.9575368567e-05 4.4445157694e-05 5.6134572609e-05 7.0454680794e-05 7.9905907016e-05 0.00010011014305 9.7677091431e-05 0.00010074809847 9.5883391079e-05 
0.00011172603846 0.00010982564773 0.00011025987301 0.00010829769768 0.00010690136104 9.356096069e-05 9.7629674146e-05 8.5738625051e-05 8.3042891709e-05 
6.869752969e-05 5.7366316552e-05 4.7482843472e-05 3.6617891482e-05 2.5960843607e-05 7.6156982656e-06 9.7483092711e-06 -5.2608997042e-06 -1.2600519805e-06 
-1.9093350174e-05 -1.2066233258e-05 -2.8078092197e-05 -1.6964803968e-05 -3.9786089652e-05 -2.1496331532e-05 -3.7997234026e-05 -2.6113671745e-05 -5.8030934932e-05 
-3.2012978792e-05 -7.5552485813e-05 -3.493345462e-05 -0.00011226586256 -4.434574074e-05 -0.00015902018099 -6.9451301763e-05 -0.0002148149255 -9.6718959119e-05 
-0.0003449789173 -0.00016364697974 -0.00057763259879 -0.00022357810658 -0.0009565999025 -0.0003403220141 -0.0047750451729 -0.0020713085776 -0.00039425171264 
0.029078553945 -1.3420281727e-06 1.8736038676e-05 -0.017558061066 -0.014972767935 -0.00060797340621 -0.0017710535672 -0.0004371679977 -0.00085544049772 
-0.00026691045491 -0.00045703938622 -0.00013417296952 -0.00028534462434 -9.3001853048e-05 -0.00016222596159 -6.4432221382e-05 -0.00012338617754 -5.1528688327e-05 
-9.9628568387e-05 -2.5435030599e-05 -8.8119955542e-05 -2.6146654604e-05 -7.0602006175e-05 -2.1355711879e-05 -6.7987660686e-05 -1.586538371e-05 -0.00012033226133 
-2.179325774e-05 -2.4204516289e-05 -1.0155007787e-05 -3.7524726097e-05 -9.4149338644e-06 -1.6114258568e-05 4.9452405492e-06 1.3696905365e-05 2.0766819381e-05 
4.6799935989e-05 5.0946652167e-05 8.1166155767e-05 8.0133890457e-05 0.0001034427468 0.00010007979221 0.00012468495149 0.0001170696146 0.00013468100479 
0.00012775416997 0.00013830406411 0.00012019278063 0.00013201446643 0.00012333754783 0.00012118653853 0.00011173459817 0.00010186533458 9.1757303037e-05 
7.825576961e-05 5.7812106327e-05 4.2296018864e-05 3.3047613672e-05 9.1118312574e-06 1.1639632353e-05 -1.1404891809e-05 -2.5969627692e-06 -3.3729659346e-05 
-1.0799483763e-05 -4.6872942956e-05 -1.7906036072e-05 -5.4261972841e-05 -1.9991287133e-05 -5.6987764186e-05 -2.103194904e-05 -5.7078610423e-05 -1.8885953766e-05 
-4.9404091844e-05 -1.6449458159e-05 -3.8692402622e-05 -1.3298089253e-05 -2.2703458948e-05 -7.4405538199e-06 -7.4336720046e-06 4.9393547495e-07 1.0149406581e-05 
1.8575728946e-05 3.4399949351e-05 4.0655024463e-05 5.7416821487e-05 6.07667328e-05 7.5096594965e-05 6.4613544188e-05 7.8845008024e-05 5.0906587281e-05 
2.2770888628e-05 0.00010464205151 8.4219823048e-05 0.00022823825933 0.00023428218864 0.0002846526898 6.5053424211e-05 3.0792473901e-05 1.88465311e-05 
4.0269371647e-05 2.0841351577e-05 3.1777683311e-05 1.4913399192e-05 2.6712474022e-05 9.0525697066e-06 1.4081130405e-05 4.1445723331e-06 2.3610925075e-06 
-7.2314030253e-07 -1.1368595333e-05 -5.2811845484e-06 -3.510386965e-05 -5.9389127354e-05 -1.4082576904e-05 -8.0645834409e-05 -2.3130156092e-06 -5.0652137836e-05 
-2.2632805079e-05 -7.0386976353e-05 -2.3467916077e-05 -7.0159848206e-05 -2.4622824313e-05 -6.8084721572e-05 -1.7661519581e-05 -3.6829189358e-05 -1.1263829171e-06 
-6.2211172331e-05 -9.0721900588e-06 -2.3596114637e-05 1.2503019597e-06 -2.2424546586e-05 -5.0942107535e-06 1.0800408842e-05 2.6924175359e-06 1.9336416153e-05 
7.4910013622e-06 3.1618305156e-05 1.3458291037e-05 3.8837144852e-05 1.6539071199e-05 6.5899295122e-05 2.1780101132e-06 5.235219664e-05 0.00010231462391 
0.0002816989581 -7.6612995574e-06 0.05109564378 0.07420398248 0.072550713636 0.039375834741 0.029505606844 0.035304666507 0.032450708064 
0.034185033728 0.037979795691 0.033506202863 0.033837124255 0.032794322398 0.034071202751 0.031891015097 0.034014172236 0.032456973484 
0.034272050222 0.030654041039 0.033897853256 0.031788294738 0.035347786984 0.026428520758 0.038036353814 0.020977650735 0.084499947238 
0.06222828615 0.033649367184 0.06366441977 0.074542185374 0.034585512708 0.086133421404 0.034399261186 0.034799800951 0.033171777781 
0.030901523436 0.032753852812 0.028987812801 0.032308950624 0.033231781034 0.03252536012 0.033584059914 0.033030132054 0.033462582511 
0.033523232669 0.033095071664 0.033554747618 0.037336670555 0.035660747122 0.032544979447 0.040765425875 0.033828086195 0.065964585065 
0.037340315763 0.023965779063 -0.026352086449 0.021037735482 0.020266428979 0.025118853055 0.024386085959 0.023331220208 0.024264613352 
0.022603520495 0.022911062008 0.022718686876 0.021093136976 0.020940290122 0.024719706428 0.0379923027 0.037438570146 0.020781894672 
0.00053792276281 0.0078730985262 0.021072500038 0.024721078195 0.024856892792 0.022315220215 0.021715517883 0.029557279242 0.024522493609 
-0.012759556163 0.020188341549 0.057780237183 0.004305431022 0.0068842480968 0.0047818768158 2.4477307184e-05 2.5103284068e-05 8.1469896674e-06 
-6.2671220388e-05 0.0028200307132 0.0035918129071 0.0034145065712 -5.218914135e-06 1.4348066464e-05 1.6215210652e-06 6.934881438e-06 -1.4226734341e-06 
-2.1667501076e-05 -1.3161671822e-05 6.2923033548e-05 -2.1804007231e-05 -4.6173084055e-05 0.0043157780082 0.0083530470822 3.8244792813e-06 2.5584716199e-05 
-1.8896380143e-05 -3.4560407802e-05 1.4509800639e-05 8.0006282108e-07 0.0030227962244 0.0023518088826 0.0028141877947 -2.5984475119e-05 -2.2913740607e-06 
-2.895581311e-05 9.8666781406e-06 9.8590332246e-07 0.0094362438953 0.0078721332405 0.0091287941494 0.007562061861 0.00095921100214 -2.143058525e-05 
-0.0013415150808 0.0010000445202 -1.9804565983e-05 2.753091918e-06 1.8886037923e-05 0.0075748673125 1.8288598214e-05 -1.2109246986e-06 0.025275497868 
0.033932720635 0.017816955958 0.027757744799 -1.0895514585e-05 -1.7899013235e-05 -1.230812753e-05 0.049826817605 0.057285260462 0.055925781295 
0.063844946861 4.9029227871e-07 1.076836898e-06 2.6635912815e-07 6.3055508764e-05 1.2610294211e-06 2.9171840587e-05 -8.3257940584e-06 0.0024292175528 
0.00094465245455 0.00037452303423 0.0010950988238 0.00037793724775 0.00011995898118 0.00012618763005 0.00026526052777 0.00013530679702 0.000337935886 
0.00050443020981 0.00074216237659 0.00052513186615 0.0006687608779 0.022957966089 0.020505476996 0.019730369236 0.017340143534 1.0901563697e-05 
-1.8877861431e-05 1.0636605653e-06 -4.7300835654e-05 -3.6068857816e-06 3.967346797e-05 -1.7646438751e-05 -5.6713026692e-06 1.4013064597e-05 2.8471340154e-05 
1.8332416851e-06 6.8754079278e-06 -1.1979062918e-05 2.5829139559e-05 0.013562170711 0.013720051588 0.0092662332373 0.00022206380811 0.015176779394 
0.016228671447 0.016946424018 0.018361732517 1.4900188438e-05 8.8597076897e-06 -4.2617055987e-07 5.3744475354e-05 0.022147334888 0.018733767245 
0.022460875917 0.019435242935 4.4145939084e-05 -3.516819578e-05 5.6753076993e-05 4.3064907779e-05 -5.2450832023e-05 4.6751587827e-06 4.7635802055e-06 
4.0040596024e-05 0.0010921168196 0.0020309233386 0.0018615680956 -3.2772163654e-05 -1.8072026576e-05 4.0211354444e-05 -1.3250699346e-05 1.0292198553e-05 
0.0075886678393 0.0068574057143 0.0077285718669 0.007050723307 3.6154805521e-05 -9.7891949269e-06 4.4224853395e-06 2.9872792283e-05 -2.1538189656e-06 
1.0718016059e-06 0.00024891250242 -8.1149301337e-06 -8.4973389355e-06 -9.3603356577e-06 1.8734390636e-05 3.5469921541e-05 3.3424790871e-05 -2.2699183182e-05 
-4.0023898474e-07 5.6288361752e-05 0.0019003332701 0.0012943914781 0.0014467352229 1.9996872783e-05 -1.3379928568e-05 -2.2534694425e-07 -4.3664978339e-07 
1.5834121384e-05 8.309981967e-06 2.6679043291e-06 1.4460844944e-05 -2.5677198014e-05 0.00065088052146 7.4989327781e-05 0.00010896283779 0.0001602450158 
-7.3049369338e-07 2.7082217655e-05 2.6721209604e-05 0.0020277092988 0.0014042110132 0.0016688613736 0.0031993957657 0.0036078905051 0.0036607648307 
0.0042288487612 0.00045803153275 0.00015900342856 0.00052750857658 0.00022359206981 0.001197999777 0.0018545124511 0.0012323855701 5.4158866544e-06 
-4.9602423874e-05 1.1935908671e-05 -0.0012146950696 0.0053951594466 0.00052851439591 0.034018213513 0.028721893359 0.03353821552 0.027717124563 
0.024654002929 0.020896571537 0.021468945879 0.021271160804 0.0008162043664 -0.0002444109348 -4.392955097e-05 0.00028736629613 0.00027422679268 
9.8289081613e-05 0.00014124926758 0.0010825320993 0.00026275711447 9.2295620382e-06 2.3146176586e-06 2.0169179945e-06 1.2448335902e-05 -2.8739520487e-05 
3.5446396546e-05 1.7944616316e-05 -7.2674050277e-06 7.4575139863e-06 -1.3030895472e-05 2.7293584161e-05 -7.1030507426e-06 -2.9581887697e-07 0.044169339644 
0.050336812666 0.041231523878 0.04673307787 1.5146646669e-06 1.8811105608e-06 6.8576228785e-06 0.079444441452 0.071908468245 0.080090133296 
6.19569629e-06 -2.6669444162e-06 4.7206481724e-06 -6.9017178389e-06 1.5510298597e-05 0.00094523814564 0.0026972324187 0.0049106883142 0.00028176494918 
0.00083880077083 0.00020892016796 0.045380627778 0.054511540057 0.062516956721 0.081234927906 -4.5394924039e-06 -4.5947400761e-06 -4.9092727413e-07 
0.0016776285364 0.00094912990488 0.0013771495761 3.5925494147e-05 5.1892091484e-05 5.6682787527e-05 0.059452236814 0.067258855256 0.060565895227 
0.094631460948 0.093615384542 0.08562970851 0.046870086042 0.052687147601 0.043314671763 0.00060564481438 0.00016785833038 0.00086795878418 
0.00056790011781 -5.933757831e-06 1.1220137614e-05 2.3048952179e-05 2.3938718553e-05 -1.0973363721e-05 1.3348594533e-05 0.021820992018 0.016754054526 
0.024643651511 0.062042724816 0.048908584444 0.04884896851 0.056024270559 0.00092359860341 6.9309403612e-07 8.8637613129e-06 8.0157689101e-07 
1.8586901813e-05 0.0007658429312 0.0012193787539 0.0016435167737 -4.0971733989e-05 0.057406914537 0.057677891922 0.050065426409 0.0092715096697 
0.0075769665007 0.010743389852 2.5170354651e-05 4.2350393295e-06 1.2535518758e-05 -1.2552548792e-05 0.030321887832 0.035116947775 0.038814556739 
0.00019746361305 -8.8693823238e-05 -1.6789000828e-05 5.5432230069e-05 3.7522295731e-05 9.155929894e-07 2.0416297262e-05 3.323186971e-05 0.00024649119642 
0.00031643737177 0.0002092425147 0.0020979142053 7.4466141227e-06 -3.2995371876e-05 5.6870868633e-05 0.0020145182748 0.0028437586719 0.0021346680889 
0.0004119298844 0.00028726497988 0.00032680481797 0.08048259393 0.070581873005 0.078595336249 0.11407576571 0.094325280017 0.11011380314 
-3.1860960053e-05 0.04517048254 0.050542598768 0.039492723392 0.11257516996 0.10160923181 0.11286247945 0.0025384677653 0.0017583954152 
0.00011655301202 6.7330446335e-05 9.519994087e-05 1.9900688401e-05 -1.3964350802e-06 -1.4544718229e-06 8.7654473065e-06 0.0014631860066 0.0010482625043 
0.0026977662534 7.946771161e-05 -1.6769176497e-05 -2.7350285513e-06 -1.6761741187e-05 7.1698614141e-06 -7.6784123657e-06 2.0203400815e-06 0.0011584864206 
0.0013958183143 0.00064054115148 0.00094566422025 0.080876795712 0.088121250865 0.033978469314 -1.2684979423e-05 -1.8140826072e-06 1.5186479344e-05 
0.0008294571828 0.0011387590404 0.0013284050131 0.02278703216 0.029535257273 0.020005583964 0.025975694685 7.1741844997e-06 2.642489147e-06 
1.2033128767e-05 0.059077553381 0.056097044999 0.049500230971 0.01913281829 0.016962366555 0.017743343097 0.10875730282 0.1019334467 
0.10575829319 0.010735048076 0.01460700834 0.012387415884 0.022246236497 0.030164829665 0.025901708562 8.7984889846e-06 3.1010396301e-05 
-2.1083897033e-05 -7.4027902854e-05 -4.2309590528e-05 2.5515486276e-05 0.014207466297 0.016819019633 0.012307247742 0.048991018186 0.048347947037 
0.042740685878 -0.0081849616263 -0.0025802820612 -0.00042166192929 0.021962261224 0.025448126671 0.02441804566 0.011527813145 0.014462599348 
0.013302949807 0.042977119233 0.069656991317 6.8559903919e-05 0.0012558116667 1.5478723294e-05 0.050479146185 0.055730663927 0.047988374838 
8.215899618e-06 2.4695731335e-05 -8.1828003252e-06 0.10440143578 0.09137827538 0.10085118453 0.018353487135 0.045677884324 0.075683555868 
-0.0097806016476 0.05038693274 0.01657375008 0.010421495768 0.015147457105 -1.3930266852e-05 1.6456280529e-05 -3.042288509e-07 4.9451611123e-05 
-4.3174684724e-05 0.00054798466396 0.00038246106924 0.0007209952351 0.00049223232238 0.015001112454 0.017684258836 -2.9816742881e-05 9.9066012258e-06 
0.018923903513 0.012547169147 0.016684390164 0.00069536801282 0.00071131809838 0.00028388198133 0.10787951782 0.10685305118 0.10724648074 
0.0005284373292 0.00081126096155 0.00029124295248 0.0058049431072 0.0096367506755 0.0056038816081 0.00929407071 -6.3997474297e-06 -7.9375636839e-06 
3.362539246e-05 0.012441649307 0.073811440136 0.065707355715 0.073202835243 0.00012553945528 -0.00022391808952 -5.2790807254e-05 0.00014617466479 
0.011406909131 0.011905258183 0.013675804169 3.2379941051e-06 1.5411622002e-05 -2.7184679667e-05 -3.2372300811e-06 1.2452665342e-05 -1.3969783983e-05 
7.0202275104e-06 0.0025008653099 0.0004274645118 0.006399025078 -3.219962963e-05 -6.1025247308e-06 -3.1446952492e-05 0.00014058069322 0.00026999436857 
0.00015536442914 0.0039201737139 0.0049432134757 0.0056184464258 0.00041522032858 -1.2643825696e-05 5.4169050823e-07 0.11112228045 0.11176848467 
0.015084307974 0.017326470337 0.013335457465 0.013074112992 0.014690409908 0.011617419469 -6.9142677744e-07 0.00084965425514 0.015478837232 
-0.00025867139158 9.0056268253e-06 3.1260342226e-05 5.9085934384e-06 9.4469523505e-07 -1.5760142546e-05 -2.2366524794e-07 9.5907488782e-06 5.6845177429e-09 
0.0017273275984 0.0024917526145 0.0020404051991 0.0080665542057 0.005673393192 0.0071816886586 0.042298146376 0.050370109421 0.036041801725 
0.044052944121 0.00011777981684 0.0035860355408 0.0026091995285 1.4406403924e-05 3.0866917917e-05 6.5867431694e-06 1.9297979595e-05 -5.0495289025e-05 
2.1741891709e-05 -1.1217895508e-05 2.335975228e-06 -5.5381762674e-06 5.1652397679e-06 1.6138931037e-05 3.4652268767e-05 4.5134950613e-06 8.1000537481e-06 
0.019117715557 0.014804438567 0.0003350605811 0.00031549016851 0.00048291944501 -9.9270934833e-06 5.0638485532e-06 2.6409606058e-07 4.8966552644e-06 
0.0045704352457 0.0057022345729 0.0047033066984 -2.1839155647e-06 -3.5717209551e-06 3.1141184923e-05 5.6423970135e-06 -3.4910540595e-05 -0.00012451233446 
-8.0292840606e-05 -3.3738973284e-06 -4.2330436464e-07 2.0614581668e-05 6.393338945e-06 0.00037688339955 0.00079459446303 0.0062459006202 0.0066506879771 
0.0081857696948 0.0085971572192 3.7204077846e-05 -6.3851602157e-05 0.0069526018773 0.0067589508102 0.0088224652849 0.008505612408 -2.011580613e-05 
-2.0270764168e-05 2.4368209253e-06 0.0081204441452 0.0064815969917 0.0031424783072 0.0033617596225 0.0039781597377 0.0042208582478 -0.00050905698205 
9.2894958341e-05 0.0033350232054 0.00023143286351 0.0004753126782 0.0012558331818 0.0014949089399 0.002235385532 0.0022907323292 2.735684258e-05 
3.0646921107e-05 3.6484181767e-05 1.6107902201e-05 1.6190231084e-05 1.5561150034e-05 0.010470443422 0.0048452119965 0.0059688258203 6.4383006313e-06 
2.2410127983e-05 -2.4323764081e-05 4.2286249676e-06 1.5807522946e-05 8.7818724191e-05 0.00026480611548 7.7937382566e-07 0.0011415876475 0.00083440341068 
0.010449775691 0.011242435738 0.009369179353 0.00014716279822 0.00031747144697 8.773179062e-05 0.00082487727854 0.00063985966059 0.00042058631671 
3.4803360449e-05 7.2747600264e-05 5.2700120964e-06 0.0077540312697 1.7742180212e-05 -8.6641639271e-07 -1.2155612507e-08 6.7630059346e-05 7.5544607902e-06 
-0.00024602357296 0.00010946140419 0.0019730085289 -0.001893769906 -5.1554108057e-05 6.7830508468e-06 2.3546042935e-05 2.9207392776e-05 0.00013536406833 
5.3508051139e-05 2.0689859243e-05 5.8646997811e-05 6.7080914883e-05 8.9350579552e-05 0.0029489347252 0.00058544614651 1.4102653037e-05 0.0053576589585 
0.00368137766 0.0064287903645 0.00028108068061 7.150559077e-05 -8.6684693125e-05 -2.2640985201e-05 6.348149613e-06 0.0027893527197 0.00076145490123 
0.0032541276396 0.0012579438813 0.0036833055867 0.0007528427233 0.00013624324591 0.00025106023738 0.00013395342493 0.00032189528344 0.0019362499605 
0.0010664733114 0.0027355020068 0.002068541678 0.00069028624088 0.00023824861374 3.3871629661e-05 -0.0064916927569 -0.00055012606358 -0.00093620486607 
-5.9716031691e-06 1.7589636835e-05 1.0557238497e-05 0.00012430707237 4.5642653198e-05 0.00021724825374 1.4257021336e-05 -1.5566970197e-05 -2.4056019409e-06 
7.5404446782e-06 -8.052913575e-05 -1.2449488218e-05 1.7848791642e-06 -4.2721688023e-06 -5.9398441675e-06 -7.1157308313e-06 0.0027776974342 0.0026775433974 
6.453549313e-05 -0.00011351835437 7.7375646612e-05 1.9600188373e-06 4.7259674741e-07 -8.3572869438e-06 4.9524651141e-06 6.8186427313e-06 6.0543566905e-05 
7.5927485966e-06 3.2782443892e-05 7.1149669514e-05 0.0047449522318 0.005192240924 0.0039755405643 0.0043013634557 0.0052982716419 -1.6791499474e-05 
3.6680402802e-05 9.5396203496e-06 -2.0791147651e-05 0.00018099024823 0.00054430224834 0.00028944417376 3.7052813098e-06 0.00030857443365 7.1653252976e-05 
4.7904503472e-05 7.5593705773e-05 0.012521220676 0.016882702899 0.010469398844 0.0027512172872 0.0020187203563 0.0018338213848 0.0001227712694 
0.00048097626934 0.00016988745331 0.055585230971 0.063316456732 0.0003639147993 -5.5906499283e-06 3.1598879752e-05 1.3216108611e-05 0.00052989378289 
0.00016327223274 -0.00025893046673 0.10794828393 0.09741736499 0.10231026955 0.11364651183 0.097073909621 0.10281263562 0.012863410334 
0.014688987869 0.0091803496757 0.0044113409267 0.0056044237434 0.0046171164691 -1.3680735472e-05 -3.854143007e-06 -1.0234191647e-05 2.5139779966e-06 
0.00048053254823 -8.7752530634e-06 -7.0709262101e-06 6.6951221976e-06 0.00016244827926 1.4437087177e-05 -5.5525036132e-06 0.00012516098735 8.3792750765e-05 
9.4561558632e-05 0.052274951839 0.062126790155 1.2748460803e-05 -1.8002698949e-06 0.00051515947741 0.00071022642958 0.00090228317956 -0.00015011130236 
0.00092390879961 0.058906392797 0.064895851906 0.060037765033 0.066479875902 0.0021348902166 0.0031698446783 0.0019433236615 0.0040760428275 
3.1716904798e-05 -1.1012709923e-05 -8.1022934146e-05 0.0046161355552 0.0049383438034 0.0032988795553 0.079281903254 0.071204570831 0.072070549546 
0.064313322707 -4.758376675e-05 -1.5940849678e-05 -3.3102376747e-05 7.3614657096e-07 -4.3219786299e-05 8.2509497842e-06 5.460880214e-06 -3.3291206239e-06 
2.4937775914e-05 5.0495608841e-06 0.039344526822 0.040998156088 0.046120293823 0.0080467890206 0.010089293112 0.0089039725501 0.011003907514 
0.01332869213 0.012084114585 0.00035052384952 -0.00039597875656 3.2571495517e-05 0.0023879352886 0.0041947616007 0.002870326408 3.0536153233e-05 
0.045443826969 0.055626807357 0.041111144021 0.0096473137113 0.0008253730306 0.0080153546073 0.0055343937629 0.010963712357 0.013280456954 
0.0094216854981 0.0071796437607 0.015262320758 0.0030839873961 0.0056147642951 0.0068706147538 0.053227423732 0.045381355292 0.052767392502 
0.045125890747 -8.8978138013e-06 -1.2790408543e-05 3.8754605265e-05 0.015942529853 0.015430287835 0.016992595058 -0.0010763226696 0.00047283159933 
1.2773581306e-05 -2.2026079045e-05 3.5502205673e-05 0.00013709366801 0.00020627588587 0.00011980900439 0.047673844813 -3.7688538907e-06 2.8170167138e-06 
0.005806659455 0.00732888226 0.011177616452 3.1904011284e-05 0.00022684666216 0.0004437833068 0.0007190480994 0.011335432989 0.0095628014921 
7.5604966823e-05 -0.00030907669793 0.00017091602188 2.5998187661e-06 0.020008842487 -1.4695354948e-05 -5.5592014723e-05 1.1163807423e-05 3.2768090428e-06 
0.00090349299184 -0.0014162131985 -5.1693026158e-05 0.0063220353199 0.0023504933962 -0.0023063686921 -3.2549992953e-05 -8.3634348892e-05 3.2139035925e-05 
-8.3891482075e-07 0.014619583596 0.017873276736 0.01242705521 -7.2105943201e-05 0.00017228420581 0.011752075308 0.0048595178294 0.0086306406654 
0.040136832765 0.037592293613 -1.4614876752e-05 1.3628568707e-05 -0.00011040828007 -1.630270348e-05 -5.4828485796e-06 5.2931657531e-06 3.8107029243e-05 
-1.0476447576e-05 0.0090243357595 0.0073701121236 0.0070084025307 0.013517432489 0.010196110205 0.019924915755 0.018018323432 1.1675113943e-05 
0.0009462543017 0.0015439228078 0.00095049670802 0.053766193646 0.052898696311 0.025114258432 0.026407077446 0.027622522355 0.02931613541 
0.024165404823 0.02832125842 -0.00028052343128 1.9335435635e-05 3.073704274e-05 0.050444602652 0.04293998965 0.043589048492 0.00030674203227 
-0.0014498918137 0.00050398464459 0.040897098878 -1.6666066735e-05 9.6343008144e-07 1.1242200107e-05 2.7873239015e-05 -7.0372983173e-07 2.7490553149e-05 
5.5128132583e-06 2.3944330627e-05 2.203497918e-05 0.0088480984517 0.020317569708 0.016682441115 0.011789358109 0.017991602887 0.0027765506838 
0.0025858913793 0.023013796396 0.015408506366 0.016341810102 0.014749700565 2.0073748709e-05 -3.3392049919e-05 2.9441197638e-05 2.7505433799e-05 
3.4702072333e-05 2.6021052616e-05 -3.3202364332e-05 0.0013948268463 0.00095616683883 0.0015748648022 -3.5467129106e-05 0.00010414320295 8.1422848784e-05 
0.021522018056 0.018470546001 0.035857221276 -1.9118297946e-05 0.00022923498214 0.00061976285679 0.0015639865795 0.0017854948274 0.0010533135687 
4.9122390036e-05 -6.9152196064e-06 -0.0060064624783 0.049976518439 2.2012444049e-06 2.8008240235e-05 2.951542616e-05 -3.0679151526e-05 -2.8817957539e-05 
0.0090942653823 -5.6141841463e-07 0.0083031112097 0.010043533108 0.011350505965 0.0028623649938 0.0029202061427 0.003638454823 1.6678907157e-06 
-1.1130141915e-05 6.1661386756e-06 1.155355699e-05 -7.391029504e-06 1.8174757283e-05 8.7196186372e-05 0.018618194703 0.018544152307 -2.2992558599e-06 
-6.6002776612e-06 -1.7126742887e-05 0.00057449231294 -4.0193494026e-05 3.5330436803e-06 -9.872454785e-07 -1.253848542e-05 -7.8185040193e-07 1.4916974793e-06 
-2.9456259807e-05 9.2660455814e-06 6.1745691946e-05 -5.0868749893e-06 -4.8324399004e-06 -5.6232058726e-06 -5.1263791195e-08 -1.1228442544e-05 2.0538800715e-06 
1.2773659304e-05 3.0258082795e-05 0.0010375374284 -0.0016468275971 -0.0029434467922 0.003854468042 0.01401516914 0.014024340432 0.015308327487 
0.014190065327 0.011099218911 0.0019571181491 0.0013548482105 2.9781328378e-05 0.013047288941 0.016114511855 0.01145146426 0.012033187203 
0.015262268758 0.0093479665624 0.012075724799 0.001929850042 -9.5623842346e-06 3.6442951555e-06 2.1609628282e-06 0.0083808818193 0.011955043724 
0.010411087339 -1.4933368901e-05 2.2313050937e-05 9.8811619627e-06 1.4345946995e-05 0.0045246909098 0.0040948150779 0.0024361645855 -1.1261654942e-05 
-5.8457959427e-06 -1.7562366377e-05 3.2701536512e-05 0.019093510744 0.00099078287207 0.0015345363571 -5.8836239304e-05 3.7855185512e-06 -1.1007338634e-05 
-4.2584339928e-05 9.7576570207e-06 0.00073813183408 5.0925391235e-05 -1.0034933194e-06 0.0060903441523 0.004504593018 0.0075633985642 0.022357702136 
0.0055935955169 7.3718881283e-06 8.7918793533e-06 5.638544315e-06 0.096161437139 8.6120443951e-07 2.5771661668e-05 2.0999994356e-05 0.016780287409 
-5.4144854269e-06 -4.3294148049e-06 0.054055199515 0.0005561708476 0.0012507307215 0.00069185698189 0.0014959574894 0.0028974052465 0.013860423788 
-4.0901618787e-05 0.071984656067 0.070995968672 0.078833415128 0.077967206585 -0.0001988913619 -0.00013138854134 5.1727939285e-05 0.00022548524347 
1.0135249578e-05 0.00021471547108 0.00092240561595 3.0334064398e-05 5.1318814062e-05 -7.3235798405e-05 1.491857011e-05 -1.6094629519e-05 1.3158463963e-05 
8.6679100517e-05 -0.0005579119588 6.4437214089e-05 0.0003122844203 9.1950478154e-06 -1.98267545e-05 0.0065920632562 -0.00042863326437 0.00028287406851 
2.3505602898e-05 -2.1984354109e-05 -7.1307774399e-07 1.1690661932e-05 6.9165810679e-05 -0.00035411198058 0.00059612949865 5.2616031057e-05 0.00016137898797 
-0.00012346173105 7.8331551035e-05 1.7313521272e-05 -5.6011194294e-05 -1.4551177426e-06 0.048519443062 0.054783446812 0.05552955307 0.062535434474 
2.1995492366e-05 3.1363717075e-05 -1.2593017201e-06 -8.1539896388e-06 9.1422170554e-05 0.016784611026 0.020356744727 0.0095347688803 0.014098417897 
-1.3690984538e-05 -0.00032108706132 3.0124904514e-05 -2.2231914082e-06 2.5313929783e-05 -6.6836204763e-05 5.7042745409e-06 4.0171744849e-05 -1.4341484436e-05 
0.013278091292 0.011055479842 0.011265679347 0.0088992761974 -1.585469232e-05 0.0059240960624 0.0081071279559 0.0066328149912 0.023090293055 
0.019808062823 0.00092047795844 -8.8197888531e-06 0.0013108004416 0.001449405072 0.0022419956379 0.002461609987 1.0189653269e-05 -0.00034694810561 
-0.00014182694779 -5.784963388e-06 2.6227372502e-06 -6.131668983e-06 0.088608824915 0.097167154734 0.08131757856 0.089026028558 -2.5071265385e-06 
-4.3846699962e-07 0.00597456554 0.0044879864671 0.0052325996359 2.6144800518e-06 8.8025769943e-06 4.3943639787e-06 -4.5521731833e-06 -2.3298911806e-05 
3.4615958441e-05 3.9885551894e-06 -1.3664694463e-05 -1.1078926049e-05 -3.1679509495e-06 0.030577189487 0.031515069454 0.027006320964 3.0508821414e-05 
1.9816966853e-05 -1.0279219625e-05 2.8910776165e-05 1.67785966e-05 0.0075389513532 0.0058515957526 4.197125437e-06 -2.0037999758e-05 -9.1529888093e-05 
9.1107771311e-05 3.174019071e-05 0.021101983808 0.02214056106 0.00034080329062 0.00015759337433 0.00010309874408 -0.00046670380993 0.0013366138077 
0.0023872717834 0.00042001388698 0.0012748184986 0.0016609983357 0.0010909380915 0.001759405561 0.0011947745529 0.012607224097 0.008429765586 
0.017839394779 0.012602824521 -0.00043102199619 -1.0601526137e-05 0.0001911851421 0.076799478345 0.08446779046 0.08375841035 0.092769987539 
0.02623759831 -5.5207645488e-05 -1.4345865352e-05 2.4335917805e-06 4.3668368209e-05 4.6170992057e-05 0.0028941339536 0.0021831902024 0.0011417003697 
-2.6700711685e-06 1.9727820572e-05 -1.4085777355e-05 0.029362986894 0.021871734456 0.025621704706 0.0013927566096 -0.0065663936327 -0.00092195353581 
0.0017243589268 -1.0161687807e-05 2.6163635222e-06 4.136012538e-05 1.1435933893e-05 -3.2699416261e-05 1.1532434993e-05 0.00015631638053 0.020340613112 
0.021704639646 0.024662076242 1.3759444135e-06 5.0840075957e-06 6.9387501856e-06 0.024119631134 -5.4940989184e-08 1.3731631776e-05 0.083227366539 
0.073084783172 3.9541091343e-06 2.3882024022e-06 -1.8421446651e-06 -7.6787105389e-06 0.00017636494799 1.8211999266e-05 2.6035583178e-05 6.6775848427e-06 
0.00043196541623 0.0011163574713 0.00014728362238 2.3870199895e-05 -4.3562857731e-05 -2.7584295768e-05 5.1759159374e-06 -1.7267600921e-06 1.1130465647e-05 
2.7552338939e-05 0.00092132382597 -5.0592682127e-05 1.0037928904e-06 1.2050120893e-07 8.9642044056e-06 1.7450910265e-05 -9.5722203748e-06 4.9289096762e-07 
4.5655590731e-06 0.012430451326 0.013957329728 0.015400176234 0.016956070592 0.016396585255 0.011641229315 0.010798541477 2.2445860836e-06 
-1.7207189595e-06 -1.8481267246e-05 1.4822231732e-06 -4.7364842816e-05 5.1386708956e-06 2.9746232694e-05 0.00029870328938 0.00021914998642 6.2809560212e-05 
-0.00030532166711 0.0065262052124 0.0039992894644 0.012183026784 0.0082686782698 0.06609018762 0.074876573197 0.0015788628528 0.001053344309 
0.0019182875541 -3.4742125351e-06 3.5451020305e-06 0.10333076498 0.10197780575 0.10075974128 -2.9841341195e-06 -3.3027242481e-05 -1.2956263541e-05 
0.0003068651525 2.2493097751e-05 -2.6399575054e-06 -6.455392369e-05 3.1170622102e-05 3.7409185938e-05 1.650402628e-05 9.6533982369e-07 -5.8708199938e-06 
-6.7975631092e-05 -1.8174084246e-05 4.5551070915e-06 0.00092316570275 0.0013560897521 0.00086242057153 0.019858243616 0.018111263433 0.019229366475 
-7.018879698e-06 8.3132399271e-06 6.3361579589e-06 3.1204301783e-05 -1.6212583729e-05 7.9796880548e-05 -2.7968533768e-05 -0.015139134438 0.01315557951 
0.03203258648 -8.9983166657e-06 -4.8475976558e-05 -8.3238196371e-06 0.021627319078 5.5088200086e-05 0.0027906335569 -1.5836840546e-05 0.0034844299032 
0.0040983079889 0.014461810053 0.018003647388 0.016477337873 2.4968843525e-05 1.9584065865e-06 -2.0931336738e-06 2.7577113353e-05 4.868818684e-06 
1.6565075029e-05 0.0098305120556 0.01066120547 0.0084751060396 -1.9685982339e-05 -1.5764444672e-05 3.6578481791e-06 0.00024537665304 0.00030921647181 
1.5108648837e-05 7.0828375662e-05 0.0027812907065 0.002025987878 0.0035558718575 2.9868764913e-06 1.2089745359e-06 0.00023064894917 -1.3073779465e-06 
4.5526315355e-06 0.063529165427 0.07032754118 0.065821626213 0.072863948377 0.00014289525388 0.00045316988376 -7.6129453862e-06 -4.7345515434e-05 
-0.0001322384997 0.00029640914215 0.069978623915 0.014447280073 0.0036905761052 0.0040658167292 0.0058041610804 0.09051976952 0.089140361906 
0.00059381465329 0.00020694677222 0.00016375653895 -1.668455426e-05 0.07055642433 0.073108647427 0.080520919462 4.6242242454e-05 8.0570013495e-05 
-6.3200656314e-05 0.10590754776 0.10918969994 6.8633438274e-06 1.0233145571e-05 -0.00038037492321 4.4770922054e-05 -0.00062576865802 -6.9622207589e-05 
0.00018042041793 1.2197915978e-05 -8.5178983908e-07 -0.001657605887 0.00020796932812 -0.0015307657909 0.0088749823925 0.0095965902925 0.011687267836 
0.012968357895 0.016821201155 0.013377676424 0.00081359334146 0.00031487755412 7.4564613073e-07 -5.7488792276e-06 0.00021593861824 0.00034681684843 
0.00025251490055 0.003017391606 0.0016106502097 0.00016346501185 0.00011245428892 -6.5738281231e-06 1.1187139137e-07 0.0024685401241 -2.988436141e-05 
0.00010680872217 0.00091888015915 0.0014840811545 0.00010115849006 0.00021351707314 3.852646194e-05 0.017521478282 0.00028559106097 0.01215552669 
0.011219853622 0.017035823033 5.5152156801e-05 8.1467449011e-06 0.00015401653419 -1.9471434798e-05 0.0026576361528 7.9564940705e-05 5.77620101e-05 
-7.0851741615e-05 3.9659994865e-05 -1.1081700379e-06 -8.1833116568e-06 1.4523773217e-05 2.8258318465e-05 -1.0007734042e-05 -1.2171986947e-06 1.2320820183e-05 
-3.153209621e-05 0.0075728061028 0.0051867312084 -0.0012342894048 0.0034502776282 -2.4141216862e-05 -2.6749708836e-05 0.11121467153 0.09964511682 
0.099385030322 0.093619896769 0.0014819447523 0.00082658202897 0.0017487154911 0.0025137573955 0.0018031622322 0.0025941327862 0.0052613065054 
0.0076722295192 0.0072224816723 0.036345844868 0.047119173176 0.042930269958 0.11393424656 0.11393015274 0.11328807002 -2.1227214467e-06 
2.8406887113e-05 -1.4984539386e-05 0.00032973709654 0.00043239706898 0.011330442313 2.3657343727e-05 1.9202088153e-05 0.043154307677 0.052274817033 
0.033084182585 -5.1567560836e-05 4.578064549e-06 1.9146118407e-05 7.3364077775e-05 0.020232315459 0.019583970666 0.015598741377 0.00014533344354 
0.0039974401914 0.0011585895287 0.0011898244422 3.9014202753e-05 -6.0957198341e-06 3.9282112091e-06 -4.6515368211e-06 -0.00047289922949 0.0037155567482 
1.6537965274e-05 -3.7672422006e-06 -1.4026130731e-05 0.0017154923242 0.0018915975684 0.0025183953743 2.2668474859e-06 0.0010604439418 0.014833140493 
0.01272229184 0.012058879479 0.029964585839 0.0030148081031 0.0019173199048 0.0021803471762 0.00068479653703 0.0029347608434 0.0041665443102 
4.1932317609e-05 2.7792049337e-05 1.3728207767e-05 -7.3703755579e-06 1.318253775e-06 0.0029214636833 0.0023240275961 0.0033415547201 0.0011651695093 
0.0018023533698 0.001590913062 0.0046594298003 -2.6798814573e-06 0.0055668961615 0.0020886970488 2.514667023e-05 -4.2368788519e-06 2.7758570952e-05 
-5.499712059e-06 1.6175706831e-05 0.00016838615624 0.00011478931192 0.00019261950537 -1.2954232973e-05 -2.5965663072e-06 2.1583270766e-05 -8.7436934813e-08 
2.9993239016e-05 -3.2622994183e-07 3.0249199883e-06 -6.0393114407e-07 1.1334359776e-05 -2.2080971684e-05 -4.8081188801e-05 0.0049396703197 0.0062846491481 
0.11258983237 9.7080173493e-06 4.781542131e-06 4.4285225621e-07 -1.0736025297e-05 -4.3568026445e-06 -0.0002546710676 0.00018907927093 0.00066841397757 
0.00021740789987 0.00050465243846 5.4364682558e-06 -1.3275401549e-05 0.0054544295763 0.0074977205041 0.091841146843 0.087905795385 0.089625221067 
0.05216215337 -2.0819115454e-06 -2.2854288382e-05 -8.4152055095e-07 -4.2260668464e-07 0.0001347725872 0.018262856453 0.016642226051 1.2732217892e-06 
-5.306884289e-05 6.213774297e-07 0.0076368187916 0.0057401079898 0.011972120937 0.013974415808 0.015678827191 0.0029052755153 2.727778231e-05 
7.2115428624e-05 -0.00020212495167 0.020560892462 0.017887625612 6.2869555043e-05 0.00076349379618 0.00031264599788 -0.0010393465732 0.00013665316697 
1.3675551284e-05 0.022410033064 0.0017496358628 0.00079134537513 0.00074286423975 0.00022134227586 0.01212642532 2.90042893e-05 7.5009937933e-05 
0.01071466442 0.014396284152 0.013176923069 -1.7854837412e-05 -8.396260614e-06 0.0079870023653 0.001564259762 0.0010770782803 0.07851479765 
0.070339108144 0.077652026826 -0.00016185050265 9.5303927479e-05 0.018393466084 0.0027668891376 -0.010802304595 -0.0030230060657 0.010865981146 
0.00025685453857 0.0001923095396 0.036427609523 0.034960293583 0.024458865014 0.028904015772 0.047189044918 0.041216394939 0.04686892459 
-6.1946431622e-05 0.00012081180417 -1.0808211612e-05 -2.6227393541e-05 3.5750275412e-05 1.4273004844e-05 -1.9100440459e-05 0.013051107449 0.016953891969 
0.014338391707 -2.6777491549e-05 -0.00015358451891 0.00020204005399 0.0002880723729 0.000166845788 2.4826691517e-05 -0.00031503934194 4.6387666512e-05 
0.00019726116051 1.9265558803e-05 6.935069128e-05 -2.4999514772e-06 -0.00043533422823 0.020429636891 0.0162952359 0.011163306828 0.046317028055 
0.049275848632 0.05576490136 1.3058067943e-05 -1.1196519045e-05 -9.25779105e-07 7.3097938739e-05 0.0045594187538 0.016529683294 0.01391696348 
0.0041993569778 0.0053901067155 0.0019939968809 -6.3349888506e-05 -7.458419892e-05 -6.4823747177e-05 2.0302533684e-05 -1.700843769e-05 7.4158050512e-06 
0.063859949304 0.0630733896 0.0017913598277 0.0025274058164 0.0023710962925 0.0076540036242 0.0072586988716 0.00025540964982 0.0019441085413 
0.00016216933757 0.00017521733308 3.6022057786e-05 0.0074459415755 -3.1338000989e-06 0.009165573774 -9.9358251403e-05 1.4897427792e-05 2.749277525e-05 
-4.4970673988e-06 1.7448629955e-05 -2.8418011605e-06 -2.3499689947e-05 -8.8150057124e-06 -2.3633928509e-05 0.062742162426 0.021504545251 0.0081446846705 
2.5616405539e-05 3.1830942365e-05 -3.5415725033e-05 0.0010751859721 0.00064752754441 0.0098652982248 0.0090281129897 -2.926447447e-05 3.258558659e-05 
0.013441865861 0.00013953053907 0.00019707818786 0.00021172234203 4.4230716318e-05 2.6916493814e-05 2.2901824048e-05 -2.844440313e-05 0.013279276613 
0.01382397005 -1.1126577918e-05 -1.120921173e-05 -1.719069151e-05 0.0014439140793 0.00024966321754 -0.0034882833032 0.0091750107549 4.9107078749e-05 
4.3095116711e-05 1.510099254e-05 2.5147672422e-05 0.042114515232 0.049487695684 0.043570133848 2.7559807816e-05 0.060753396259 0.06759880204 
0.060944183525 0.024183391636 0.056968922416 0.067058305821 6.1128580966e-05 3.9211495506e-06 -1.4544419462e-05 0.00014778743978 0.000192046984 
1.0611825756e-05 -0.0001670493479 9.2530695517e-06 0.014854427476 0.014037379619 0.00020677509449 0.00060703874381 0.0025833419243 5.1243854031e-05 
0.0018057324287 0.0018849376983 4.1406242715e-06 -4.3365984507e-07 -2.0158608925e-05 -2.3024567652e-06 -1.5214946635e-05 -4.4960832106e-05 1.2253156331e-05 
0.00725601028 0.0086703970701 0.0064465137093 0.0076940113941 7.8625655296e-06 -6.0652036806e-05 0.00021252548698 0.0038360662863 1.9855687407e-05 
5.9901731884e-05 -3.1025412902e-06 -2.3770233373e-06 -6.8600405871e-06 -2.5793987977e-06 -8.1443739768e-06 -9.0173841693e-06 -2.1976882479e-06 -1.3349864268e-05 
-5.1770665558e-06 -4.1001355721e-06 1.7643843772e-05 -2.1276400755e-06 -2.1233403886e-06 0.028230600948 0.019277498558 0.00092148104067 0.00022404374639 
0.0022979956595 0.0029547109068 0.0017546987458 0.0023197155156 0.066948183771 -1.1160724336e-05 0.1064099036 0.10430355361 0.063956670152 
0.063323037164 0.055390569915 0.11707796976 0.071088916183 0.071919233225 0.069068814418 0.076298505231 0.0008533201639 0.0032057017951 
0.0053038062342 0.0058820597946 4.5832089682e-05 9.1408788661e-07 0.0010547784735 0.0020472254405 -1.5612058171e-05 1.0257952681e-05 -4.913088711e-05 
0.0036373230244 0.018918735001 0.015416822001 -1.1266420579e-05 3.7288302094e-06 -1.68722125e-05 0.010263915473 3.6178832725e-05 5.5417243112e-06 
2.4670845069e-05 0.014136339807 0.0124291714 -3.9034032441e-06 -3.5491176191e-06 -1.5362208595e-06 0.018555325549 0.016421665803 0.078637944773 
0.087035754396 0.077063989292 0.084596851512 -0.00033829165143 -0.00023310469869 6.8265201264e-05 -8.3284964e-05 7.6031472569e-06 -7.7170208706e-05 
2.6818878051e-05 6.9965748175e-06 0.0044691853815 0.0071088340384 6.7441198051e-05 8.7390242825e-07 -0.00014819955074 0.00014993519461 1.0630437229e-06 
-7.6499313734e-05 6.6721834957e-05 0.0016458060857 0.0014973584857 -8.6262110079e-06 -3.2234211909e-05 0.035061415657 0.059203057783 -6.0030578751e-05 
2.7078160843e-05 -1.6192675974e-05 -2.1784698281e-05 1.6115977291e-05 0.0018526014392 0.0008570125065 0.0013987554894 -1.885465896e-06 8.0713237047e-06 
4.0004638362e-05 4.1354626714e-05 -5.1765166059e-06 2.7744108345e-06 0.00051803905726 0.010479466308 0.0013853596167 0.0011026301698 0.021208962086 
0.020881300356 0.020158488716 2.3142663369e-05 -5.2343292517e-06 4.315072919e-05 0.00052033427511 0.003356910416 0.005027194136 0.0047693939679 
7.3764821871e-06 3.0973225719e-05 6.0710511823e-06 -8.1203339945e-05 -1.3374847977e-05 -3.3885347847e-05 -0.0059217930763 -4.0421640321e-05 0.11399847759 
0.011332450476 0.0078481796331 0.0047986611609 0.013285831555 0.0002436587395 -2.0991976382e-05 0.00016142127838 0.086947178266 -4.8449410932e-05 
3.836194299e-05 3.5404140914e-05 -5.7764318004e-05 0.0032362356533 0.0030471061895 0.0016302751489 0.0010062918468 3.6926937478e-05 2.7804285625e-06 
2.4224902994e-05 0.0075436950739 0.010670220101 0.012990109671 5.9286978508e-06 2.6266046703e-06 0.014474883148 0.016351830921 1.8299393821e-05 
3.4386727191e-05 0.11311177093 0.11426307112 0.0018916784776 0.1136647918 0.00010612574172 8.4589757208e-05 0.09643550997 0.10240526107 
0.10267561925 0.061236088537 0.067840971383 0.073222251917 0.082277007229 0.015727059893 0.012802925693 8.3343117316e-06 0.030842145733 
0.029425904078 8.3312992724e-06 9.0994715992e-05 0.00048310128946 0.088979852854 0.059002717734 0.061715675809 0.065311713546 0.068598929914 
0.020789520946 0.020605093084 -1.5942717496e-05 -0.00032099857425 -8.133984785e-05 0.033299014455 0.026278316258 0.022418202912 0.00036519956481 
0.00065563357648 0.025617769259 0.027144232714 0.025528478378 0.002242486422 0.0029811849571 -2.9492749479e-05 4.3288437676e-05 0.0032622169954 
0.0024096080955 0.018863767694 5.7493945887e-05 0.00011181838988 0.00088456945732 0.0073648529167 0.0004589160388 2.589767573e-06 -4.9081926411e-05 
-9.2298144572e-07 -1.7853856663e-06 9.0812376195e-05 -4.6445711465e-06 -1.4119931769e-05 1.9077599085e-05 0.0093452583982 0.011206841543 0.1148478933 
0.11405927996 2.1192836628e-05 3.5440484815e-05 0.00023373679665 0.00018393464693 0.00065602346087 0.0030950935705 0.0028671163324 0.0039916405267 
8.2767930089e-06 -3.159114589e-06 4.2991670999e-06 0.00051324921411 0.020087536925 0.014097556309 0.016576534952 0.051034560204 0.044642703805 
0.040560972697 0.001214800034 -9.6531975551e-05 -0.00019497732143 2.2596346961e-05 1.2356030815e-05 0.011951083106 0.017097952853 0.0079021576097 
7.4074794037e-06 -3.4288168486e-07 -1.1681027815e-05 0.081840554971 0.080472215301 0.073300129339 0.11134643807 0.10724026192 0.0004581472149 
0.0045212910968 0.0034381236246 0.065969306086 0.073775581416 0.00039050718609 0.030490044128 0.03531277062 0.038505725672 0.034945392877 
-1.5925074777e-06 0.022943557022 0.025306630698 0.074874500431 0.074484310144 0.082009806271 1.0281761337e-05 -1.2815148698e-05 6.7346224612e-06 
0.090603860074 0.088197683048 0.0036000376162 -0.00096795314997 -0.001065733684 0.00082898209337 0.097485084086 0.10283394889 0.10330218381 
0.11405245459 0.091269880167 0.075397345091 6.5089797774e-06 0.0041812043168 0.053471036695 0.072634567936 0.08709329142 0.020306769942 
-8.4738819305e-06 7.4074057989e-06 -8.62257503e-06 -4.1981614957e-06 0.016678132256 0.013232242485 0.016924155487 0.01618246495 0.010017449345 
0.044319972148 0.053306753035 0.052875062444 0.076798072115 0.087408974721 0.079746857611 0.0069852270298 0.012167120595 0.010682626431 
-3.395512773e-06 -1.3957400446e-06 0.01028193331 0.0073630280766 0.015543695729 0.0090721849358 0.016746786875 0.018486835648 0.0018537330711 
0.0012236746018 0.0088291867601 -1.4938227348e-05 -7.458040707e-07 8.8920276445e-06 -1.415006851e-05 0.090931305949 0.092116936432 0.085334932189 
0.002700455888 0.0037571627576 0.0039526023264 0.0030536026575 0.0023283679947 0.0034951681723 2.877057325e-05 -5.8628979593e-06 -2.7882399361e-05 
1.4971842614e-05 -2.2956436932e-05 2.090118829e-05 0.00047416968429 0.059578993339 0.060639212297 -3.2384755511e-05 -6.441206209e-05 -1.2560032256e-05 
0.0016953062506 0.00031028967669 0.0042621639062 2.0419150517e-05 0.019382851348 2.3262266463e-05 0.0061749498173 0.014854466801 0.028059358935 
0.024623234477 0.033459170793 -9.4183149006e-07 1.1020682625e-06 -5.219037112e-07 4.8014333115e-06 0.00083476147347 0.029307210318 0.034663718331 
3.0333967142e-06 -6.3717606023e-06 0.0037046376989 2.638822205e-05 1.7222909982e-05 4.3204334528e-05 0.046997670659 0.05551517981 -2.5148013411e-05 
9.0629968438e-06 -5.0358530547e-05 -2.8849625035e-05 5.164077583e-06 -5.637059919e-06 4.6103579358e-05 1.1043342757e-05 -1.5529717622e-05 0.0028411324322 
0.0022640765038 -2.0656232093e-05 8.4847409008e-06 0.0028386854919 0.00020190497689 0.0044245113943 0.00066507648586 0.0026710574939 0.0022291372336 
0.003370869179 0.0031400702079 5.5614676292e-05 0.00045308926516 0.003163140111 0.0041160666828 -0.0015175286012 -3.7306586461e-06 1.2001195863e-06 
5.0310663125e-06 -3.584526497e-05 -3.8661940884e-05 0.092100002194 0.075467317306 0.085628113326 -3.8647169529e-06 -2.994473384e-05 0.041549272551 
0.036537047466 0.0022251369364 0.0041139772201 0.039195258551 0.034406516033 0.040807380788 0.055078037002 -5.3420622486e-05 0.10842126597 
0.10970196312 0.11070493815 0.069251794216 0.06743073172 0.0039940978293 0.0059369475092 0.0053056209542 0.00071593724857 0.0033499834791 
4.2921112505e-05 0.0021131911836 0.010714058359 0.0088110556378 1.462786661e-05 2.3701503394e-05 0.00011475535219 0.00026210916556 8.1816596402e-05 
0.033938552994 0.038234034841 0.0074863989764 -2.845976403e-07 9.6800064349e-06 1.0126284263e-05 9.7122126093e-06 0.0074862681141 3.8690778718e-05 
1.803874564e-06 0.00024990318118 -4.9507284749e-05 3.2738229775e-07 0.0047048415464 0.0028586329751 7.825853206e-06 5.043708916e-06 -1.0301160064e-05 
-4.6789493281e-06 8.3987699663e-06 2.5059226021e-05 1.756652024e-06 1.5108428919e-05 -8.331363105e-07 -2.5513025454e-05 -1.2987247895e-06 0.031469003832 
0.04462817351 0.049578163245 5.3664677935e-06 1.7656055003e-06 -4.3556507312e-06 0.010017311304 0.0083167472209 0.007801123196 -1.0079435498e-05 
3.2396256826e-05 9.2690604879e-06 0.0062060050989 0.00569699163 0.0076059602073 0.0021687537138 0.0055368168698 0.0068375391809 4.8220251181e-05 
9.0750786282e-05 0.00019974929869 -1.8704220774e-05 0.010988571463 0.0067629520862 0.012425103596 0.0084682951983 0.089231960563 0.097505610456 
0.00028959328624 0.00048452571231 0.00055365502885 0.03572716186 0.00058077232991 0.0019158492507 0.068315364456 0.0095310579651 0.0053504203868 
0.012214759292 0.071841228743 0.094433531676 -2.1735191694e-05 -1.0180006976e-05 -2.4893596324e-05 -2.5049173731e-05 -1.2498525733e-05 0.00024570099269 
5.0534211064e-05 0.10722565874 0.10334913951 0.10668455688 0.10915678076 0.1065281658 0.10838076395 0.10514465402 0.094641903762 
-3.6242632714e-05 2.7816760075e-05 3.8628877368e-06 0.00012623470829 0.00038053806273 0.00031958098563 0.01472429908 2.4569876282e-05 6.5277436928e-06 
0.00015847242696 0.00041673940455 0.002625525889 0.0014985292588 0.001713924068 0.0024782367295 5.0269001767e-06 -1.5093798782e-05 0.01949570053 
0.013424278829 0.074322839526 0.00028753050197 0.00047614860793 -1.3334912374e-05 4.0812235189e-06 -1.6098548065e-05 -0.0023662285209 0.000624287463 
1.8237917696e-05 3.2796984911e-05 -2.885394737e-06 0.042922730002 2.1505561667e-05 0.0014135283302 0.0019921934255 0.0089717239455 0.023153323972 
0.089028464941 -7.0925180663e-06 -8.9667555066e-07 0.018369428228 0.017288941119 0.0010837444545 0.00077145458474 0.0019037428261 0.056151967554 
0.067553228553 3.8316533185e-06 -6.8257029766e-06 0.0014916732352 0.052955909433 0.06093713485 3.6420675747e-05 0.026190937117 0.019539727401 
0.015074552844 0.0035589335387 3.2563416412e-05 0.003274815744 4.1353468231e-06 0.10346209433 -0.0013108999722 0.0095842361993 -2.3168622287e-05 
0.0034201547567 -8.9711780758e-06 -1.8906411072e-05 0.0021395425491 0.0030602378549 0.00060325674012 0.064741684937 0.005352394027 0.0070669862734 
0.0076886579107 0.0031568302806 0.0036954266919 0.0075612830734 0.0067080305778 0.0054220944434 0.0046028348721 1.7910154513e-05 8.655247797e-06 
-1.114146571e-06 -3.7010616405e-05 0.0024155591071 0.003331344845 0.0030343391879 -1.6342405427e-05 0.00021226271512 4.489849665e-06 -9.4784792528e-06 
3.856537977e-05 -1.1046600507e-05 0.11315247769 0.00010013734198 0.0025013391599 0.015962918739 0.019748951538 0.015174869333 2.7536155632e-05 
0.0015201732628 0.0002712987403 0.00067330770984 0.082915328825 0.095217292871 0.098217576793 0.093340686888 0.080595512301 -2.9909222644e-05 
2.7825602935e-05 1.7181374561e-05 0.013730010824 -1.7653685989e-05 1.3513372408e-05 2.9380457122e-05 0.076570361945 0.00010338313703 0.0018753046714 
3.0546400999e-06 9.036169908e-06 1.061636616e-05 1.462537404e-05 -9.1729564366e-06 0.00141010839 1.0045517937e-05 1.4017556626e-06 -2.43680505e-06 
-1.2750808637e-05 0.00091421231978 0.010336277485 8.8571433615e-06 2.5864013322e-05 -2.2942694108e-05 -4.1553233835e-06 0.0023691746897 0.012834581377 
-0.00058813130839 0.00047918618363 4.7445981703e-06 0.10427053929 1.6900710445e-05 2.0428914515e-05 0.024278760824 0.00064355638595 0.00075249469914 
0.00069913705129 0.057087256808 0.050975723659 0.0038497760566 1.3713080673e-05 5.8628815405e-06 9.185112294e-06 0.10964517513 0.0083615510252 
6.8769093726e-05 0.00070322895507 0.00019826896303 0.00017547090404 0.0072601561494 0.0080032434071 0.012306760774 0.016842635319 0.030515154483 
0.023011415508 0.097261148665 0.088407135557 0.080660923095 0.080003333278 0.086205256199 0.094947265148 0.08713451796 0.081251694388 
0.011476816929 0.096123792305 -1.5448592185e-05 3.9414799292e-06 -5.6738090732e-06 4.0300573741e-06 0.00040953245354 0.00022240288185 0.0011764701222 
0.00078982653463 0.017754208761 0.017445714134 0.00019052034224 -0.00090097902115 0.00049788627407 0.056623727441 -1.8863894871e-05 2.9891289365e-06 
-3.4423169327e-05 0.066914269683 0.059224648359 -0.00015420150869 0.0043552053942 -2.8047856135e-05 0.0045695865726 0.0041340536737 0.0078465848723 
-4.8095326833e-06 -0.0001688478597 -0.00017409107387 8.8812257598e-05 0.0041127044599 0.0050927455866 0.00058279747373 -7.5116573926e-05 0.0015235821174 
3.5520360776e-05 -4.0355733751e-05 1.9235028281e-06 -1.339777062e-05 -0.00036570918416 -0.0002326073573 2.3381484063e-05 -1.7686308074e-05 -1.3075812882e-05 
7.5304376522e-06 -8.9795463268e-06 2.4175480987e-05 -1.0346170086e-05 8.8889888179e-06 1.7000367739e-06 -5.6309462787e-06 0.019433303473 0.018147243203 
0.019468790383 1.7832878866e-06 -5.5302258372e-06 0.0052645686819 0.0059284481919 0.0033501776843 0.016817130921 0.0015629984345 0.0074908553069 
0.0054065999693 0.00016982582434 0.00016431602881 -1.7308956304e-06 -4.3534784567e-06 3.5755674157e-05 3.1814532775e-05 -1.1299607655e-05 -2.0634422999e-05 
0.01405375422 0.012821802003 0.014640658169 0.012137610454 4.1686566626e-06 0.0033004562691 0.0032124414479 0.00042061822621 0.0019873416241 
1.6373809144e-05 -0.00010414821904 -5.132699438e-05 0.060476581945 6.6788606143e-06 -0.00022902216238 0.0082476859135 0.00015626211782 -0.00016443867204 
-1.2245877513e-05 -2.2020141665e-05 0.0060217203767 0.094386929195 0.094378669773 0.075729339061 0.074081706807 0.066344537889 0.067033332022 
0.03590418312 0.036094651813 0.081890641715 0.00039686880444 0.012029556852 1.3084214596e-05 6.4460365793e-06 0.0023865329377 -1.3906774111e-05 
-0.0094479998619 0.045537085442 0.00012728988571 0.017567611235 0.00025728827004 -2.4161521562e-05 -2.2247076527e-05 3.0543870581e-05 0.0092242248548 
0.0061671772829 0.0055828374163 0.0021569136497 -4.4045908922e-06 0.00080652380789 -1.2028131589e-05 5.0609517953e-06 9.2726535949e-06 -7.7980714254e-06 
0.0042234469125 4.1864834238e-06 0.00067157633857 0.00065932289685 0.0026491529544 -2.6206084762e-07 -1.9132472588e-06 1.0679048676e-05 0.0075783014787 
0.0018633673314 0.0010877107201 0.083877667539 0.091868759698 0.092682591345 0.00039722752753 -6.1166913408e-05 -1.2554114164e-05 7.6346371992e-05 
1.6855634948e-05 -0.00014268568885 4.5658536143e-05 5.2480866942e-06 3.6300488967e-05 0.010490102229 -3.6275704471e-05 0.0050266516021 0.0046367803468 
0.0062420084252 0.00011256269998 0.00020782073601 0.0058759038124 0.0045812604025 2.5699823723e-06 0.00083258083671 0.012441203957 0.011353469231 
0.017265613718 0.012385468451 0.0091481235122 0.0093920868606 0.011254305239 0.0058727255383 -7.590718641e-06 0.010245823126 0.040158989781 
0.041124354337 0.034686614229 0.069353681874 0.061855626481 0.097693385717 0.099397144895 -2.8589989408e-05 2.0497476781e-05 1.4407117195e-05 
0.097379568616 0.10327224389 0.076773069181 0.084580256608 0.012888794566 0.015409083825 0.018861066994 0.11280430427 0.0075602607719 
-3.4285868214e-06 0.00055009064489 0.00024405437037 -7.6134434724e-05 -1.8335165441e-05 2.8405616828e-06 0.0078545504176 0.0074173424307 6.2463378224e-05 
-0.00010870350907 -0.00019831032825 0.00011869246054 0.00035314234961 -0.00049729265856 0.00011275143535 0.00010727973078 0.0043857449255 0.005452661672 
0.01980975119 0.00055472792568 0.00026277135367 -2.1461932117e-07 2.7069244773e-05 0.0095084049686 0.0084750082699 0.012957434954 2.0019118923e-05 
-1.1157022891e-05 0.034762801045 0.023520484381 0.028805469967 6.3010769443e-06 -1.5631215952e-05 0.0019904660496 6.4605488881e-05 -3.8873735285e-05 
3.267148021e-05 1.9930939968e-05 0.0063997273615 0.0052031512712 0.005008400448 2.8184438889e-05 -8.3309494585e-06 0.016867803462 4.1051137482e-06 
1.8602789538e-05 0.010015037691 0.0026480653727 0.0024810560579 0.0027082770433 0.0010493676176 0.0016271906781 0.0039837120243 0.0075035589004 
-6.6270270706e-06 0.039425176005 0.0016885454991 0.0026271834265 5.6288752379e-06 -0.0017031169293 0.0013701509505 0.0012595410292 0.0034094194881 
0.0066254576213 0.0066519032781 0.031491099162 0.073973642813 0.070844783922 0.03675371473 0.0032685743051 0.0042415504092 -0.00016918946411 
-0.001894710235 0.069421663003 0.05574389385 -1.4028784995e-05 -4.3698691126e-05 0.025358667222 -0.0042629084067 -0.00021455653653 0.00070462210207 
-0.0028036690185 1.0418535495e-05 -6.8715715187e-06 2.1535981465e-05 -5.7440987572e-05 1.1156503823e-05 6.9843604361e-07 0.00015120921217 2.1949887979e-05 
-1.7209817898e-05 5.5187555341e-06 0.018785804013 1.4333555447e-06 -1.2144869717e-05 5.2604696778e-06 0.0059939705772 0.0021503900348 0.0027324373576 
-4.1979644853e-06 -1.1589899776e-05 0.0011658711862 3.6986706076e-08 0.01330269572 0.00088012854646 -5.5791276156e-05 3.1484960353e-06 3.1618790372e-05 
-6.07131073e-06 -8.52198e-06 -1.5660305931e-05 5.6188767363e-05 6.3655598293e-05 1.3114820478e-05 0.0050400698325 0.0083951709257 0.0054793858465 
0.0057406220643 8.9393912682e-07 -3.9614897895e-06 -3.1987459624e-06 -5.7483280373e-05 0.0024120023861 0.0019571414173 1.4610080704e-05 0.0039430021625 
0.0028401587002 1.6172732171e-06 3.807884493e-05 0.019851050809 0.018901607699 0.019648375686 0.11046816692 0.10969257337 -6.0494240713e-05 
0.072534346341 3.107116673e-05 0.020463193291 0.036051055356 0.043247225087 0.0499909636 0.0086422893254 2.8878106388e-05 3.680723849e-05 
-6.4389052849e-05 0.027558797563 0.014365963804 0.0098995679766 0.018062887694 0.013203083276 0.016918285347 0.019930597234 4.0235123558e-06 
-0.00035317150347 0.0047835887391 0.0029388198598 -1.0141958585e-05 0.0071303799834 0.010576986331 9.9836287094e-05 3.1000772621e-05 -1.7808539342e-05 
0.0034326163265 0.0037336166052 -1.1204492473e-09 4.2674486319e-05 0.0083820875178 0.0003854753754 -0.00089543456147 0.010018784853 0.010227227728 
0.0013961717771 0.0020484451326 0.0075777370731 0.00074722427117 0.02338804408 -9.5788092062e-06 -1.086703229e-06 6.5227426107e-05 4.3618043387e-05 
7.1622872013e-06 0.099901267724 0.0060438138743 0.0065707795392 0.059201608801 2.0463618953e-05 -1.5565255859e-05 0.0010950506681 0.001246090638 
0.001667187714 1.697691222e-05 4.5955162538e-05 4.5490827861e-05 -3.6203166414e-05 2.6926019696e-05 1.8418801217e-05 0.0053139806582 0.0045137438927 
0.040010456709 0.043249906889 0.023404436842 0.018738169978 0.019140653353 0.017904144188 0.016533680972 0.0059387585772 0.0064205113166 
0.0018168293402 0.034752256208 0.0093015902566 0.045076829075 -6.10896845e-05 6.5732849538e-05 -4.6859506012e-06 0.00012443912843 0.0001661908419 
0.00010093086115 0.00025502305865 1.041144828e-05 -2.1387686294e-05 0.00085452169397 0.015725226243 0.017475658841 0.013792215184 0.022338962011 
0.088968635769 3.9779460025e-05 1.0416866409e-05 0.00019229419322 -1.2146016301e-05 9.2119076788e-06 1.490274507e-05 0.00075159060287 -0.00070993361566 
0.00016099669336 0.0067335881276 0.0027569401015 -1.2927886383e-05 0.0239299613 0.093066682663 0.098962962707 0.035671162054 0.029532852173 
0.027832559521 -0.00011690769348 0.00015001322022 0.0046705936576 0.0038971032461 0.022406052453 0.064771969659 0.00066020222721 0.0010029480777 
0.00075483953193 -1.2715231051e-05 1.45787013e-05 8.7225736641e-06 -5.0984230261e-07 -1.9659996157e-05 -1.8580908907e-05 0.0013281148446 0.00092104650039 
0.0015167924277 -1.321258784e-05 1.1208581836e-05 0.00096144217164 3.9083375855e-05 3.7613380253e-05 2.6133840053e-05 -1.073399883e-05 -2.0718600576e-05 
0.0060542646678 -1.5162296902e-05 1.0675897713e-05 8.4266071315e-06 0.00246970165 4.157332039e-06 -1.4136613283e-05 0.0069487636592 2.6701031835e-07 
3.2891084639e-05 0.11167601069 5.6126000513e-05 0.0023437378813 0.0028108499639 0.0012367289077 0.0021813820792 -0.0041843879667 -0.00044101136125 
1.1620148962e-05 2.6962595862e-05 0.00012317570979 0.0010478622336 0.0010579512953 0.0004551215432 0.00099298787846 -6.821981261e-06 1.9462212806e-05 
0.0079511191371 0.0063979451134 0.00037566541211 0.00020447806045 -1.1078557543e-05 -2.5454683263e-05 -1.4261254395e-05 -1.4307460957e-05 0.0037798702126 
9.5482877143e-06 -3.8701304949e-07 2.5023474303e-05 0.0018298590936 0.0003420682499 0.00042818308908 0.00060404364351 0.019671684733 0.018589108272 
0.11277057026 0.00014070062754 5.7087256351e-05 0.063138995595 1.9727034035e-05 0.0011755187612 -0.00016088693172 -0.0015243763449 -0.010426524091 
0.0011273910618 9.6921008267e-06 0.014624313121 6.9400833387e-06 0.015368664047 0.00049098086217 -0.00029297950232 0.005385426504 0.0042611988921 
0.0057392459565 0.0045001307484 4.9361261879e-06 -2.3214265885e-07 0.0050131329772 0.059561374391 0.010587125495 0.0055245507726 0.035833062378 
0.01395798517 0.04192018964 -0.00056603620157 0.0001967724111 -5.4083360044e-05 0.067927100053 0.067217218116 0.0041174455346 -4.2860282942e-07 
-2.3076716872e-05 3.9541859992e-06 -5.8202307349e-06 7.9984657395e-06 -2.2959939026e-05 -1.8503633113e-05 0.0056115855354 0.0087504232595 0.019255887416 
0.11314621186 -1.3502529311e-05 0.00020192504074 0.00067004819638 0.031079137558 0.054766263075 -0.00046388880044 0.11149836177 0.11097232401 
5.0193853374e-05 -1.5567138908e-05 -2.3823510296e-05 -1.5383701082e-07 6.2965570347e-06 -1.0912159432e-05 2.2345505384e-05 -1.5911957054e-05 1.4778034972e-05 
-1.9343666738e-05 0.0092903475853 0.011816210728 0.0098853686256 0.021055308629 0.00012477744725 0.00021902177908 6.6271843929e-05 0.00012283992022 
1.4885163752e-05 -1.3239836139e-05 8.6606347805e-06 0.012208798582 1.6921293082e-05 3.286040538e-05 5.9662128363e-05 -6.3362185992e-06 0.0013785509758 
0.00011260483965 1.9090080813e-06 2.685884632e-05 0.0050324674107 0.015779740549 0.012709220035 0.022858056423 0.00049528938705 0.0060786263873 
0.010119577872 0.0047244559367 0.086529311406 0.095485636688 0.089379131395 0.081898010293 0.00055803079553 0.094637775282 0.1010966648 
0.0087722063845 0.0053527929881 1.4893066013e-05 -7.8186575544e-06 5.2885706338e-06 0.012666950805 0.026966977446 1.257219035e-06 0.00010139540221 
0.019231293657 2.5900901608e-05 -2.3274388865e-05 -2.5861375634e-05 0.097519515429 0.097441770016 0.065346913518 0.069361390381 3.5880202777e-06 
3.2846078752e-05 0.0069230575646 5.0085421231e-05 0.11394702815 0.11380407085 0.11450443342 -1.1818081059e-05 0.1147759032 0.00031346315284 
0.00013400088833 1.817687879e-05 -1.1659678291e-06 -7.4099310678e-06 -1.1626760936e-05 1.2751118378e-05 9.751324444e-06 -6.4104703377e-05 0.11186451066 
0.036115793998 0.080595674737 0.10767136814 2.4430888733e-05 -6.1418060379e-05 0.08798919928 0.099921583561 0.10122685788 0.00013201169851 
-1.331117731e-05 -5.3400084011e-06 0.083677923943 0.0011664822538 -1.8434516284e-05 7.117855138e-06 0.0010164864106 2.9277380422e-06 3.7773805569e-05 
0.00032113852686 0.0035021598653 0.0068302834156 0.00013714107255 0.00073386823903 0.0011591002044 0.00082539752796 2.1155590157e-05 3.3483050788e-05 
-8.3220358458e-05 0.0016447054552 -0.00062102546651 0.011358890311 0.0035037949265 0.016588025035 0.01738410423 0.018518840291 0.006823396971 
0.0080396861229 0.0073388373842 0.0085260003259 0.0011082255749 0.016773566473 0.00010233232657 0.00090435594794 0.0016432232267 0.00057511150388 
0.029428335301 0.0046788405965 5.0285237627e-06 -1.4589403004e-06 2.0765794881e-07 1.417503978e-05 -5.2389337851e-05 4.3144706946e-05 -3.0230969474e-05 
-3.5264064851e-06 0.00022292641967 9.6441286033e-06 0.0067127151411 4.1589273072e-06 0.0051409861419 0.0072162382136 0.0055991982176 0.0041854688749 
-8.609226778e-06 -0.00017342573564 -1.7935625681e-05 -7.8870990002e-06 2.0251098487e-05 -2.5714143465e-05 0.018765482497 0.018347313206 0.023201407608 
0.004808560155 0.0033422015925 0.0051044999754 0.00016436043983 0.00016500565132 0.00020982339291 0.0086922862342 0.00070309667521 0.0026997440886 
-0.00060786308522 0.0092134595293 0.028077601546 -2.5691469344e-06 0.0052252199626 0.0057721854161 0.0074345099634 0.0056022520775 -2.4982633604e-05 
1.5214258129e-06 6.174597959e-05 -3.9474797107e-05 -1.021078012e-05 0.0036388751527 0.0010962430264 0.0010785222047 0.0062256259092 0.02857789085 
0.0096500188913 0.0030705504824 0.00076869691883 0.001104204092 0.0025186353071 -0.00058694370515 0.0032142017837 6.3163302368e-05 0.014442451964 
-0.0025264437754 0.00086189964033 -1.1563923729e-05 0.0037559225625 0.0034071936247 0.068754127686 0.00027242861109 0.012772702161 0.011126560667 
0.013455400062 0.003720644333 2.8130197732e-06 3.8991324333e-05 -2.7969822319e-05 3.2231096006e-05 -6.9427791105e-06 0.0087569079006 2.8553641267e-05 
0.0044398935771 6.6147906292e-05 1.7455987671e-06 -2.049321958e-06 -4.9635247845e-07 0.0019130475195 -1.2102892966e-05 -0.00016187913006 -0.00015930239678 
0.0010299650014 0.0010061533704 2.3869222348e-05 0.001174095839 0.003738834291 0.0016434041757 0.0021627634648 0.0016255350632 4.4253612332e-06 
0.0012420864382 0.0007162946572 0.00069889148781 1.6887972158e-05 0.00012822797629 0.0011636077155 0.0010610657514 0.0002492734163 1.1602888437e-06 
-0.00073891333112 0.00088968621525 -2.9346241128e-06 -5.2657648069e-05 -1.160238303e-05 0.090660141602 2.1122988772e-06 0.10104449742 -0.00053346653028 
3.0234845028e-06 4.6912284613e-06 -3.5182767506e-05 0.10068105776 0.00887467645 0.010543702683 0.034301871281 -9.388854849e-05 0.097439681719 
0.00061781946583 0.033622106304 0.10202555457 0.00041335517716 0.091718289187 0.075917137946 0.0040073174678 -7.1021037776e-05 0.00035505957519 
0.0064620188989 0.040170710777 0.010188968495 0.00027385513337 -1.9818773373e-05 -6.415221655e-06 7.5553270197e-06 -3.2778375998e-05 0.017056142457 
3.0984973937e-05 0.0047030288529 0.0001166300258 -3.4142045213e-05 0.0016477591268 -3.6799823421e-06 -2.1150652103e-06 1.5128912673e-06 0.091492753349 
-1.4234620552e-05 0.0082567290417 -2.5786210129e-05 -8.6091383747e-07 7.8266157235e-06 0.019138916309 0.082757407798 0.00095856923648 0.090651120612 
-3.072423362e-05 6.4874110081e-05 0.0021186162534 -7.659353376e-06 -0.0040786876106 0.00014530538813 0.00030077166096 6.6514071367e-06 0.00279164513 
0.0011088955236 0.00090915177375 0.00012706591628 -0.0001611662398 -0.0013054145592 0.0045740216105 0.005013508591 0.0094966282085 0.01328381021 
-1.1508916065e-05 -1.7099447491e-05 2.588204326e-07 -8.1183732353e-05 3.0063986437e-05 3.3092817445e-05 0.0029184210808 0.0030255674547 0.0022074431885 
0.0037013297579 0.0051918826319 1.1985823346e-05 7.2951124436e-06 -1.8182087009e-05 2.3900416097e-05 -1.4768820078e-05 3.4112319571e-06 0.0042671407605 
0.00059308358237 0.0024036955913 0.0012902462005 0.0025648848673 8.0895978308e-05 -7.6511893997e-06 -1.1672296597e-05 0.026073435158 0.052802315656 
0.065897010174 0.0021266823929 0.0031979962917 0.0039330998306 5.8338747863e-05 8.1217356857e-05 0.065326224803 0.073286362328 0.00050737838744 
0.012304509187 1.0013979431e-05 0.0046616982778 0.0045632715299 0.0040043882024 0.0001672521454 0.0001342026443 0.00057896776377 0.033026178404 
0.0014370724084 0.023726393582 0.036896752484 0.087757575415 -2.702736391e-06 0.044928280415 0.0040050871202 9.9408623369e-06 0.016144967948 
0.00024334452992 0.016901339672 0.0016508686196 0.012642557189 -0.017904944439 0.05056214971 0.017701744947 0.020995832691 0.022555885949 
0.01311493435 0.036150296641 0.017106291945 0.018356070081 -9.5216135993e-05 2.6593531361e-05 -0.00015968456571 -1.296489533e-05 -0.00019764886603 
0.0020631682783 2.556014598e-05 0.0016595381831 0.019835609627 0.018043188057 0.018387155871 0.018399941852 0.001262969754 -4.9197166238e-06 
1.6286532986e-05 0.0005527239408 0.010083109427 0.004374517326 -5.0723352449e-05 4.9788196909e-05 -2.6303472766e-06 -1.0235975714e-06 0.00041948179249 
3.2412430072e-05 -3.6551462239e-05 0.044428748521 4.4117558385e-05 5.9897134064e-05 -8.3122061579e-05 0.0011047486612 -8.1604996828e-08 1.2929719531e-05 
-1.7772856408e-06 0.0051545843813 0.062851092014 0.078276027869 0.00026479060777 -0.00055696899778 -0.00017252382024 0.0048971486518 -2.7989701421e-05 
0.00011100891825 0.057792081773 0.060433968567 0.0031443963055 0.0035346982465 -1.0304061526e-05 -1.9555946986e-06 -2.6663138408e-05 -5.2505975997e-06 
-8.6766011622e-07 0.00010584596471 0.023950183905 8.7633879607e-05 0.0001523298187 1.7869392484e-05 0.011598984378 0.0031830076262 0.0044492932596 
0.0048668106411 0.0037765779408 0.015983912118 0.012687162388 0.00051601291674 0.036047452857 0.056859276498 0.00014988336097 -0.00027173292523 
0.056883896924 -0.00041065881801 0.0032233201091 0.0033460897703 0.008878847954 0.0010098777264 -1.0430859072e-05 -1.4418219266e-05 3.9018874922e-06 
1.3546611874e-06 0.0049514609746 5.7600955789e-06 0.033344501854 -6.2744670626e-05 -1.3878366101e-05 0.00084128901875 0.10373738387 0.098004893471 
0.0070972945931 0.017344149728 0.016756820405 0.014436715921 0.013271448501 8.8775925382e-05 4.5067999218e-05 0.0045165693804 -6.6264679673e-05 
0.015258346842 0.054741332592 -0.00088082781423 0.018504733844 0.017581713441 0.0043362021779 0.095252568081 0.0131413875 2.3023307761e-05 
2.0781866139e-06 -1.4082404478e-05 3.9347767718e-05 0.0037701181415 0.0054620855576 0.008234100401 0.010326247485 -3.1240610148e-05 0.087256933356 
-1.6023133145e-05 -8.2929490258e-06 2.4368599932e-05 -1.3361665625e-05 0.0092704382803 2.0372849199e-06 0.0080503245488 0.009345025781 0.0081634592357 
0.025373300931 0.021159963594 3.7317925167e-05 -8.2728080382e-05 5.0839880891e-05 -5.1037991901e-05 0.012239903023 0.013783084692 0.021378474403 
0.018932295305 0.015248934042 0.01572836553 0.017263420146 0.029237113202 0.030379727345 5.7269508465e-05 0.033741307932 4.8437667375e-05 
0.0070736062123 0.0057836068586 2.6349827089e-05 0.00081422895755 0.0029893651266 4.2681681515e-05 0.0095537279597 0.0077611344725 0.0057108053795 
0.0061828796296 0.001593849651 0.016882513845 0.027529778069 0.02250820663 7.1249636717e-06 7.8270630747e-05 0.017193497612 8.0399057302e-05 
0.037546605672 4.7854200892e-05 -3.1149687726e-05 0.00096370684852 0.004833329697 1.1436572948e-05 0.003302753228 -0.00011470629775 -1.383960134e-05 
-1.9135736867e-06 -8.5206257972e-06 7.3392352529e-06 0.0195565362 0.029062954395 -0.00021152454339 -7.0022100418e-05 0.0027505733206 0.024178108712 
0.020848167732 0.0015126494342 0.00043437404168 0.0079168472857 0.028528369851 0.022300446078 0.0012341690267 0.00077040196572 -0.0018170187342 
-0.00074132001703 0.012740032606 0.042059710754 0.0036666555916 7.0630413484e-05 0.0045652517295 0.0011655542751 0.013498511817 -2.1755757551e-05 
3.8634144816e-05 -1.3330813926e-05 4.6777589763e-06 2.0951311662e-05 9.7971667274e-06 0.0002314770827 0.074746923459 0.082007669563 2.9779927874e-06 
0.086573439922 -4.628466645e-06 -8.5309519391e-06 2.1365384438e-05 6.5578737419e-06 -1.9383143979e-05 0.017018326525 0.00034069101476 0.0022336660792 
-0.0007841422676 0.00020330174577 0.00059307480798 0.097125114927 3.0654984073e-05 3.7663544217e-05 2.6072366207e-05 -1.2050166699e-05 3.2397260081e-05 
-2.0747117074e-05 0.022316851399 0.00064437344784 0.0023761457339 0.00019609288774 0.045394098469 0.018143628438 0.0001820392069 0.11137623308 
0.088792112484 0.086231504474 0.0083198653801 0.0060767127206 0.014229668834 0.00016246329338 -2.2429840301e-05 0.010897773239 4.9970064825e-06 
-2.5402136307e-05 0.0013875463782 0.00098511478026 0.0008047379891 1.7155411467e-05 -1.8045060087e-06 -2.0092749601e-05 -2.6466379146e-05 -1.1421637799e-05 
0.00069005341452 0.0069409385862 0.048336275709 -3.2260733329e-05 0.00022976535788 0.015350788115 6.6626725177e-05 -2.7438477926e-05 0.0039790371459 
0.00081819052716 0.0092301281855 0.017654434937 0.00013980279639 0.017877745675 8.035679875e-05 -3.6199010494e-05 0.00013865754865 -3.2927598676e-05 
0.0057585334367 -3.4884759387e-05 1.8994345143e-05 5.8852983184e-06 -1.3444440938e-05 0.0048153235403 0.00025152454464 -0.00017213666526 0.0046915340923 
6.1102287101e-06 0.0071529634254 0.0035312132896 0.09329231091 4.5180437926e-07 0.089425499906 0.050436857049 0.075128077985 0.017079356871 
-0.00088501299724 0.0035591045173 0.0011329297244 0.0024687494264 -1.7802038409e-05 -8.204134135e-06 0.0059923065674 0.079360419395 0.027850162516 
0.025146363838 0.00055271127562 -1.8013524402e-05 7.3237734633e-05 -1.065661139e-05 -2.9197837812e-05 -3.8615948459e-06 -6.7150607714e-07 0.074033178 
0.021854010437 -1.7062647382e-05 0.058435140591 0.00038524798691 -3.1355512756e-05 1.8389563253e-06 0.00058265940445 1.0883855526e-05 0.080084878168 
0.0067330237531 0.00012729442966 0.0056244607665 -8.6381151642e-06 -1.878839694e-05 0.0042265626841 0.081066130628 0.080980265424 0.050565869893 
0.071076246655 0.0013194396721 0.026421337042 0.086092146344 0.0020238197873 0.00018305353237 0.036975689559 -0.00022271576064 3.0729348074e-06 
-8.570623462e-07 0.10898096603 0.10445992504 2.2679258299e-05 
Minor%20Principal%20Stress 1 12442 double
0.41789842035 0.38793418 0.3423245135 0.43694162632 -3.3409071793e-05 -9.7824043757e-06 -3.081166411e-05 -8.3661240493e-06 -0.10222196904 
-0.093142348129 -0.021208024651 -0.19461509273 -0.12597698242 -0.099803599228 -0.064472238368 -0.15833744228 0.11369575563 0.11936966226 
0.12410377325 0.1358636679 0.1447127671 0.15218608845 0.14226368805 0.14463456537 0.14574389647 0.14407492894 0.14627476974 
0.14672808018 0.14708071148 0.14632020369 0.14721323417 0.1457150525 0.14498741184 0.14481315124 0.14196918614 0.1411617592 
0.1398408536 0.1382793936 0.13824809031 0.13750777984 0.13733477598 0.13749881196 0.12242115735 0.11591839557 0.13628909686 
0.1484632818 0.13529951047 0.12724251982 0.12010069077 0.14160583514 0.14379541193 0.14255984518 0.14270989005 0.14665381237 
0.14726306244 0.14657932034 0.14916808061 0.14720509331 0.14673854829 0.14533607907 0.14386743923 0.14008406764 0.14105402216 
0.13705392793 0.13536387543 0.13398387866 0.13290675838 0.12888532359 0.13777935971 6.0377378593e-06 5.9483820573e-06 -0.00091547756825 
-0.0025411271659 -0.0045245214292 -0.0068470243956 -0.0095444130435 -0.012343929943 -0.015039727089 -0.017456829663 -0.019529308327 -0.021366701876 
-0.022415809432 -0.022817307776 -0.022459210962 -0.02142521397 -0.01968791669 -0.017614828198 -0.015000313098 -0.011884525613 -0.0092164591926 
-0.0064683794821 -0.0041205119713 -0.0021194486378 -0.00068298799716 1.6291978588e-05 4.5961046613e-06 -0.089502677336 -0.0026611428489 -0.00110998317 
-0.00060352557293 -0.00038040388972 -0.00027038940415 -0.00018648008166 -0.00012992963391 -0.00010104465338 -9.1431045219e-05 -8.3959090574e-05 -7.7075732392e-05 
-4.2084723037e-05 -5.4354772072e-05 -2.9739805622e-05 -1.4599393851e-05 -1.0430045009e-05 -7.091371661e-06 -8.8367996903e-06 -9.5400859079e-06 -9.857506084e-06 
-5.5859526714e-06 -7.0820512047e-06 -4.6101730676e-06 -1.4119813444e-06 2.6115323051e-06 3.9976436742e-06 5.2639932687e-06 -1.0744934562e-05 -2.7117117277e-05 
-4.5074849777e-05 -5.6252882785e-05 -5.9533227802e-05 -6.0233620883e-05 -4.9510366793e-05 -3.998190244e-05 -2.5841675784e-05 -1.4780116117e-05 -1.0049110566e-05 
-8.9490667445e-06 -1.0512395653e-05 -5.0670286598e-06 8.7738280486e-07 4.1501327758e-06 7.5802193393e-06 7.239984423e-07 9.2350607445e-06 2.7167066477e-06 
-3.2419910612e-07 -1.8717566639e-06 -6.4112180704e-06 -7.6313426882e-06 -1.3613298368e-05 -2.5050782637e-05 -3.7352513252e-05 -4.6337603719e-05 -5.3626922896e-05 
-5.2857938664e-05 -5.2193817355e-05 -4.3823866478e-05 -2.9481535268e-05 -9.8859643301e-06 4.2376067233e-06 1.0052637928e-05 1.0062234061e-05 7.2886274446e-06 
-3.1522367947e-08 -1.1737576464e-06 -1.950677917e-06 -3.9096947052e-08 -2.6773436347e-06 -5.7889445042e-06 -8.6774799643e-06 -9.0454025959e-06 -2.1634732088e-05 
-3.3043345943e-05 -4.4230431398e-05 -5.9212128861e-05 -6.8644105857e-05 -7.538739165e-05 -8.452287323e-05 -0.00010026287429 -0.00012935639779 -0.00017137122366 
-0.00021123563712 -0.00034457657586 -0.00058747824601 -0.0010157679336 -0.0053497514471 -0.19673713237 0.0070740980055 0.0034282162179 0.001142662164 
0.0011424138239 0.0028149027241 0.0029593720048 0.0019585580258 0.0032996883075 0.0040762769699 0.0010761352323 0.00048245519903 -0.0011186829715 
0.12284628771 -0.00022786920921 0.0014145317956 0.0017837086667 0.0022478339346 -0.00040304944171 -0.00056103456255 -0.00073184353938 -0.00047327288931 
-0.00028316862823 0.0020960328665 0.0018463511398 -0.0022981575909 -0.010430361426 3.1166905468e-05 2.0041546353e-05 -0.00075548635049 -0.0021753527172 
-0.0041352969014 -0.0064107000484 -0.0091433785434 -0.011872934852 -0.014584032827 -0.017525116516 -0.019861427963 -0.021531308576 -0.022478613375 
-0.022842205531 -0.022425806771 -0.021347510059 -0.0196407075 -0.017424218178 -0.014902416439 -0.012080512991 -0.0093571370053 -0.0066542069955 
-0.004343926648 -0.0022847441352 -0.00084067758055 5.2682438583e-06 -8.9558763872e-06 -0.1909783314 -0.0077676814931 -0.0018154383488 -0.0010678597303 
-0.00057516756443 -0.00033443246426 -0.0002282416931 -0.00017504312442 -0.00011093572472 -9.5162696065e-05 -7.6137331233e-05 -7.1827538854e-05 -6.6896929243e-05 
-5.7824034637e-05 -3.5539801626e-05 -2.1421038992e-05 1.9279729396e-06 1.0041486146e-05 3.0447069574e-06 -8.0481908546e-07 -2.0239785435e-06 -2.7435652813e-06 
-9.0354669269e-06 -1.1387911677e-05 -1.4212440689e-05 -1.2947006181e-05 -1.1790756045e-05 -1.0986169135e-05 -8.9076287533e-06 -1.9727532468e-05 -3.9359754566e-05 
-5.5025289926e-05 -5.7828152686e-05 -6.277053015e-05 -5.8099196357e-05 -5.0169198042e-05 -3.6954513115e-05 -2.0484158179e-05 -5.9417126703e-06 5.9294090203e-06 
4.969314295e-06 6.7635858712e-06 3.3534682644e-06 -1.0409788997e-06 -6.1337921689e-06 -1.4873870044e-05 8.8285152936e-06 4.8261533596e-06 5.7603074353e-06 
4.8523662176e-06 2.1005638669e-06 -9.238803192e-06 -2.0899873592e-05 -3.2242371891e-05 -4.5134969288e-05 -4.8552010438e-05 -5.6218327665e-05 -5.1861320913e-05 
-4.027654156e-05 -3.2433736045e-05 -1.532969474e-05 -1.6117213876e-05 -1.3142116075e-05 -1.3511793717e-05 -7.7727555918e-06 -2.4188411918e-06 -2.0373809185e-06 
6.7234828266e-07 6.6458596301e-07 3.0236076332e-06 5.2243776338e-06 6.1405044293e-06 7.0422566329e-06 -8.9004673417e-06 -2.6456779539e-05 -4.3189223066e-05 
-5.1655277808e-05 -5.6811456736e-05 -6.2608196425e-05 -6.9758916728e-05 -9.1137253073e-05 -0.00011533737573 -0.00014928790891 -0.00022721302226 -0.0003149128728 
-0.000516944332 -0.00087451372086 -0.0019893326518 -0.0039376276488 -0.028266606888 0.13407565191 -0.0040952711587 0.0012549970713 0.0013264096676 
-0.0010967654512 -0.00073569935256 -0.0007645307353 -0.00073829181332 -0.0007536094551 0.0014778301999 0.00092542599588 0.0005520860539 0.0063213305264 
0.0016116490271 0.0011896332607 0.0018269692932 0.0020261530069 0.0034203665785 0.0034366477084 0.0034630774762 0.0036550205665 0.0040222596059 
0.0017018904958 0.0013189762233 0.003221712084 -0.021133060227 -0.00035327236649 -0.0010487639206 -0.0022422403108 -0.0037308718505 -0.0055097500384 
-0.0074689864107 -0.0096875528076 -0.011794652694 -0.013861255047 -0.015671085219 -0.017138160422 -0.018229674715 -0.018827843142 -0.01888021588 
-0.018333113169 -0.017211165444 -0.015809745924 -0.013957161594 -0.011800455093 -0.0095774380286 -0.007348930638 -0.0053507403613 -0.0036028360677 
-0.0021615310978 -0.0011538656127 -0.00045475030205 -0.00010805686523 -0.0046494486757 0.00030069167933 7.9820583221e-05 3.6298195776e-05 2.8994290879e-05 
1.8258577751e-05 1.9784094463e-05 2.6545814744e-05 2.2780110529e-05 2.3808481315e-05 2.2152851655e-05 3.6908821083e-05 -3.1109403946e-06 2.6203379334e-05 
1.6683861676e-05 -8.0105196485e-05 -0.00016450197439 -0.00024247936803 -0.00030673302437 -0.00033386626968 -0.00033938481554 -0.0003303865642 -0.00031407127392 
-0.00028875484804 -0.00025333802765 -0.00018295317942 -0.00010200585386 -1.8447523458e-05 -1.0376775887e-05 -7.776514827e-06 -6.5351332749e-06 -4.4858104036e-06 
-3.1034229123e-06 2.5887283963e-06 2.7268570251e-06 6.1281832692e-06 6.4476036101e-06 6.5694922418e-06 -3.9165101488e-05 -9.5277710301e-05 -0.00015068777536 
-0.00019812453981 -0.00022576944186 -0.00019941169971 -0.00015062467117 -0.00014011655695 -0.00011259454079 -7.5204647257e-05 -2.7678486089e-05 -9.3861955267e-07 
6.6074607736e-07 5.5066353782e-06 5.9758589314e-06 1.7344208367e-06 4.8087228287e-06 7.0268167123e-07 5.4037712804e-07 1.0996897812e-07 3.1766361592e-07 
-4.5420599966e-05 -0.00013513835532 -0.00021437953106 -0.00028161448953 -0.00030529561727 -0.00031766741007 -0.00030491750346 -0.00029223407064 -0.00027610679513 
-0.00025665978616 -0.00020401857753 -0.00013215063147 -4.360558054e-05 3.4574301192e-06 1.1859643714e-06 2.9924306378e-06 1.2707128095e-06 1.061794774e-06 
-1.3465803632e-08 8.0420119056e-06 7.5283915685e-06 1.3543246988e-05 1.1128222941e-05 2.0438200137e-05 5.5584726473e-05 -2.2593927718e-05 0.00046160784892 
-0.024611649163 -0.055604563374 -0.056055938215 -0.056707316099 -0.033503307718 -0.0097142272062 -0.033928007568 -0.033744661627 -0.03331144582 
-0.033200118911 -0.034385578835 -0.034135750904 -0.034121061754 -0.035004316843 -0.035508954308 -0.03475767524 -0.033898529046 -0.033637962803 
-0.033023697535 -0.033027949508 -0.032585790605 -0.032137745861 -0.03275442349 -0.03384451733 -0.036012478544 -0.039496934779 -0.046761978019 
-0.021961980373 -0.030678787172 -0.0074638700353 -0.0022637121111 -0.002331380818 -0.0023191255391 -0.0020484826184 -0.0022759851192 -0.002265025085 
-0.0023211293659 -0.0022294832474 -0.010102909362 -0.032386331848 -0.0089213131764 -0.050982735096 -0.020144650935 -0.030604115793 -0.0088424689721 
-0.0024998079395 -0.0024251726846 -0.0023367792659 -0.0023357521407 -0.0023630758292 -0.0023956508285 -0.0024797996077 -0.0025020731376 -0.0072409395041 
-0.030824851894 -0.035907593185 -0.0023614485256 -0.0067298187676 -0.0045363354368 -0.0261453332 -0.01721883469 -0.0017851541396 -0.0029349577412 
-0.0042338410204 -0.0057220151089 -0.0074505403333 -0.0092831136386 -0.011046621452 -0.012605502655 -0.01385976046 -0.014922853685 -0.015623418527 
-0.015855003009 -0.015708111238 -0.01496112778 -0.014018934884 -0.012775571988 -0.011048882251 -0.009245692463 -0.0074581568512 -0.0057630076615 
-0.0042481662495 -0.0029564960039 -0.001909047807 -0.0010353365745 -0.013693345679 0.00093223351779 1.2874539222e-05 3.6944242097e-05 -0.00011862619535 
-4.1874196245e-05 -4.589754955e-05 1.8493288416e-05 -2.2540505265e-05 -1.8489670024e-05 -1.3503918044e-05 -1.1991917236e-05 -5.2443972474e-06 -3.0254142003e-06 
-6.7982097814e-06 -7.7798363328e-06 -0.00035455434323 -0.00070615136857 -0.0010124853429 -0.0012070238283 -0.0013284385289 -0.0013721688321 -0.0013584303636 
-0.0012551067307 -0.0010707235608 -0.00084816393486 -0.00060118502996 -0.00028454503637 3.4895500058e-06 1.8084759473e-06 -3.7405311645e-08 -2.7897278879e-06 
-3.5831156427e-06 -6.1701055301e-06 -5.5939861671e-06 -4.8115600617e-06 -3.540772997e-06 -2.6629418283e-06 -8.9911150198e-06 -0.00025584779053 -0.00048129286243 
-0.0006906336792 -0.00083586932823 -0.00088206761614 -4.8747615154e-05 0.0017857264424 -0.00057393947946 -0.00052313334133 -0.00040681920512 -0.00021486082728 
-6.5787839263e-07 4.2334925836e-06 -2.2681684223e-06 -3.3777392188e-06 -7.6560553505e-06 2.0757015604e-06 5.2827285321e-07 -4.6939518699e-07 -1.5891411434e-06 
1.1173635208e-06 -2.9153267832e-05 -0.00040745695851 -0.00072848419783 -0.0010144634573 -0.0011601232214 -0.0012481147392 -0.001268762419 -0.0012358779176 
-0.0011813855862 -0.0010366770677 -0.00085480730961 -0.00055951939079 -0.00019524283267 9.7738597533e-07 8.7571197093e-07 -1.8946529894e-06 -1.4227855837e-06 
1.2523150418e-06 8.1574077416e-06 1.5419561777e-05 1.0014076309e-05 1.0517983426e-06 2.1740149676e-05 4.7408369367e-06 2.6179577698e-05 -4.6051023224e-05 
0.0001546527315 -0.014613216342 -0.00075541603745 0.0010631661444 0.00065441932663 0.00061504258946 0.0025770269002 0.0023645754977 0.0018594748577 
0.001913981825 0.0020175927811 0.0019019477955 0.0020699511527 0.0020469215761 0.002016502855 0.0018373870014 0.0017719971503 0.0016860805939 
0.0017236747534 0.0015984133371 0.0018671996553 0.0018803923697 0.0019610183941 0.0017823854848 -0.013484052329 -0.0072230579908 0.00012262983889 
0.00011875486493 9.5097497728e-06 0.00011076493436 0.00012925169488 0.00015231996883 -0.001325665159 -0.0082822118422 -0.013929283221 -0.0024372034483 
0.00049104497576 0.00019246507646 0.0015200403363 -0.0096978708291 0.00022025288865 0.00019331425161 0.00018851662885 0.000177380421 0.00018684105257 
0.00018209155319 0.00019298224703 -0.006752359986 -0.01554240359 -0.010610023538 -0.0058736992192 -0.0071877352044 -0.014450171877 -0.0072139008717 
-0.00041963975835 0.00035350489648 -0.00033852342876 0.0004968713554 0.00018937989629 -0.0055234871051 8.8021757815e-05 -0.0029417772626 -0.0041176054168 
-0.0054716146945 -0.0070410594711 -0.008491631253 -0.0099645591668 -0.011243250193 -0.012242405765 -0.012980691606 -0.013364468922 -0.013312096517 
-0.012906068358 -0.012274916681 -0.011352463351 -0.010096381243 -0.0085884798505 -0.0070523346815 -0.005599460685 -0.0042733219768 -0.0031147020498 
-0.0020946596039 -4.5615206188e-05 3.194129243e-05 1.9568066588e-05 -1.8484887016e-05 -3.1565732572e-05 -1.8439513628e-05 -7.2592725257e-06 -1.0084886427e-06 
-1.5041155668e-07 9.876818329e-07 -1.0048992355e-06 -3.1427403186e-06 -2.8905384495e-06 -0.00016917289418 -0.0010083156989 -0.0017616607674 -0.0023083670768 
-0.0026112395569 -0.0027674452063 -0.0028119437861 -0.0027331882575 -0.0025187957087 -0.0021209598374 -0.0015294140677 -0.00089482628177 -0.00020778701346 
8.2354005312e-07 1.1994261629e-06 1.8942094492e-06 1.8242041252e-06 1.1394292777e-06 8.2514213037e-07 9.2717341891e-07 1.7014694582e-06 6.6779064883e-07 
-1.0392125362e-07 -0.00032294590438 -0.00083343547309 -0.0012763058783 -0.0016281764103 -0.0017922412639 -0.0013387319165 -9.96400414e-05 6.826164334e-05 
-4.7526162106e-05 -0.0010424496572 -0.00070896597781 -0.00022805036733 -3.5779086509e-07 -1.7568945772e-06 2.259157564e-06 -7.3575440425e-07 2.87202147e-06 
-6.1794618539e-06 -2.5814761134e-06 -4.1602849866e-07 2.6337917493e-06 2.8529960031e-06 -0.00052093179914 -0.0012188733816 -0.001904911752 -0.0023272593434 
-0.0026237692951 -0.0026867670225 -0.0026771562836 -0.0025605261337 -0.0023182540143 -0.0019352253643 -0.0013659123879 -0.00060951394985 3.2406420321e-06 
1.1255404475e-05 1.2836822158e-05 -1.7094995183e-06 -2.2027009582e-06 1.2795796695e-05 -1.9184567122e-05 1.5539951982e-05 -6.0933185226e-07 -2.8615084951e-05 
1.4382491939e-05 -5.7217122152e-06 1.3216418095e-05 -0.0034401349593 0.00016624839299 -0.0036075411122 -0.0085747344853 0.00012801546183 -3.3190048785e-05 
4.1384759093e-05 2.3831947253e-05 5.9702397036e-05 8.7691882042e-05 6.654253892e-05 8.2806254175e-05 8.3493851663e-05 6.1784794177e-05 5.6045091012e-05 
7.0150010902e-05 8.6230047491e-05 7.4574013967e-05 8.5302872417e-05 0.0001030573568 0.0001421938366 0.00012964140564 0.00013766933156 0.00012711581967 
-0.0001896146238 -0.014969852794 1.9562953135e-05 -0.0040458471074 6.3979856218e-06 -0.0012509147815 -0.0040926292647 -0.0076375374799 -0.0092509736213 
-0.0019248182191 0.00016385409204 -0.00010266221983 -8.2009912608e-05 3.6352294686e-06 -0.0025977823261 1.7091600403e-05 2.357538423e-05 -0.0019188074613 
-0.0063895038701 -0.0094149278643 -0.005364169175 -0.0039886362237 -5.3958787744e-06 -0.0012242736413 -0.0064677980481 1.882666903e-05 1.1658345095e-05 
9.9538062625e-05 -0.0011943485335 -1.3123092956e-05 0.00018026338355 -3.6648302573e-05 0.00030071409857 -0.0095346120766 -0.0033379816201 8.1410105471e-05 
5.8992528735e-05 -0.0067901212811 -0.00030135744028 4.2536247221e-05 -0.0034801614634 -0.0050532445287 -0.0062575196809 -0.0074933012331 -0.008809968638 
-0.0099980826718 -0.010783354718 -0.011303465287 -0.011441621928 -0.011195550427 -0.010677757136 -0.0099879953659 -0.0090051057687 -0.0077221978301 
-0.006291271823 -0.0049847406691 -0.0038319653055 -0.0028518243709 -0.0019791774859 -1.9044029293e-05 -3.0337994238e-06 6.8202680367e-06 -0.0045325413903 
-5.2272555431e-05 8.3637684183e-07 4.5745882991e-05 3.7320684742e-05 9.4693305208e-06 -7.8986357193e-07 -1.8231578675e-06 1.8422763396e-06 -8.6804825203e-07 
-7.7005619873e-07 -3.440986671e-06 -1.7702490929e-06 -1.4118811448e-05 -0.00079106656568 -0.0022594837308 -0.0033465044778 -0.0040154661916 -0.0043782947924 
-0.0045418609152 -0.0045295388835 -0.0043118480357 -0.0037738874447 -0.002965912594 -0.0019185755814 -0.00085823022458 3.004126662e-06 3.8659754693e-06 
7.4546334242e-08 2.6642648386e-06 -1.7281038123e-06 -5.2843508664e-06 1.8551361808e-06 1.3492572117e-06 -6.5431037214e-06 7.9517248651e-07 -0.00019013643898 
-0.0010676531462 -0.001844101236 -0.0025384448319 -0.00013029883978 -0.0048429410124 -1.6531925468e-05 -0.0052345722889 -0.0009346220849 -5.3145420497e-05 
1.3403980404e-06 6.4417939348e-07 7.6467582917e-06 -2.3643594481e-06 2.0748732214e-06 -6.2053262342e-07 -9.1140680454e-06 7.1857283682e-06 -6.8022409893e-06 
-0.00022753585951 -0.0013961713339 -0.0026263666729 -0.0036566867629 -0.0040964907802 -0.0043203864937 -0.0044241512422 -0.0042622752655 -0.0039516578083 
-0.003455413228 -0.0026466170304 -0.0013985006374 -1.1359962396e-05 -1.5829121717e-05 -1.1245148255e-05 3.4065269352e-05 1.5569008789e-06 -1.304426658e-05 
-9.4632806373e-06 1.7392423677e-05 -1.3590280224e-05 -9.8537685977e-06 2.6245408847e-05 -1.8365806759e-06 -2.0522458179e-05 -0.0038953007714 -0.0098332983841 
-9.6632220125e-06 2.3192306981e-05 -8.7567732304e-06 3.7368495347e-05 5.9491940559e-06 -3.5702060176e-06 -6.0549849049e-06 -9.7318505563e-06 -7.9980871265e-06 
-1.0328148313e-05 -1.516848655e-05 -5.8970590375e-06 -7.9936724859e-06 2.3462915835e-05 -4.0631722947e-06 -4.2441744796e-05 -1.2703054662e-05 -0.009588760133 
-0.0015754857236 -0.0049493746583 -0.0064586521765 -0.0063302881217 -0.0073228752069 -0.0070670861898 -0.0033215542389 0.00010979618924 -7.6378806704e-05 
-0.0027968459839 -0.0073677454956 -0.0047101317835 3.316532738e-05 7.2319042457e-05 -0.0041915561003 0.00018453727532 -4.6052741433e-05 -0.0065105839827 
1.8288662397e-05 4.0417066432e-05 8.9556978831e-05 -0.0044943032894 5.6759976168e-05 -0.0033601136552 -0.0072300236396 -7.755475188e-05 -0.0068747481742 
1.8340340131e-05 8.4054492501e-05 -5.7707973178e-06 -9.3639031027e-05 -5.0306271246e-05 -0.0024469714162 -0.00010893853569 2.0793905252e-05 -0.0042799264307 
-0.0050592277831 -0.0060097156387 -0.0080559472619 -0.0089476416468 -0.00969261223 -0.010143229224 -0.0099488638369 -0.0092646284273 -0.0089026980569 
-0.0077244340721 -0.0069463464184 -0.0055281916255 -0.0041658484853 -0.0030006478809 -0.0021910703705 -2.3458957975e-05 -0.0076189111512 -1.5207872428e-05 
3.5533442395e-05 2.1053727961e-06 -1.5008877741e-05 -7.3969772832e-07 1.0798500718e-05 6.1344506377e-06 4.631390447e-07 1.3870233819e-06 9.2845267932e-06 
3.4075291917e-06 4.5205147739e-06 3.7627183096e-06 2.1065448489e-05 -0.0021116460433 -0.0040107267971 -0.0052312474938 -0.0058143770796 -0.0061123776726 
-0.006216048452 -0.0060906996465 -0.0056160039164 -0.0046768285238 -0.0031798436841 -0.0011519860099 -7.5350148252e-06 -4.499407604e-06 -3.6957291867e-06 
4.468605631e-07 -2.4855381096e-06 -1.3120889563e-06 5.0853715778e-06 4.626058231e-06 1.1802067166e-05 6.3640609675e-06 -0.001073591165 -0.0021841413433 
1.2803109003e-05 -2.5683158547e-05 -0.0072365818087 -0.00036958949695 -6.8299353259e-06 1.0383773071e-05 1.0905143935e-05 -1.2390761434e-05 1.574037826e-06 
7.6883319439e-06 -1.0107541627e-05 1.5115803152e-05 -0.0021602792231 -0.0045417811265 -0.0060071007615 -0.005705178815 -0.0061275417836 -0.006132198966 
-0.005519821934 -0.0053682180396 -0.0043809996676 -0.0028324211549 -0.00059229958899 2.6697484753e-06 6.1037439157e-06 1.1299791083e-06 2.7382821378e-05 
-1.6260429619e-05 -6.4582839083e-07 -1.4683798678e-05 2.1683136212e-06 7.0910899303e-06 1.7141249e-06 -7.2835201561e-06 -1.9101336191e-05 -0.0062251553026 
-1.9988360574e-05 -0.0010291030347 7.7254487762e-06 -0.0096865150277 1.9584737087e-05 1.1615251188e-05 -2.0570551958e-05 -4.2200709515e-05 6.6692243203e-06 
4.4116074152e-06 3.4914762407e-06 1.7698141352e-05 1.9634092152e-05 -1.7463323767e-05 1.9323463457e-05 -1.987285041e-06 -2.6497503738e-05 -1.0845572246e-05 
-0.0076811695504 -0.0072683332615 -0.0068063060121 1.3182229841e-05 -0.0065079936701 -0.0044309931454 -8.7169118606e-05 4.5465191929e-06 -0.0052494801588 
-0.0075914536249 1.0284632429e-05 -0.0070132145829 -0.0002591081381 -0.0034689146823 -2.0267998507e-05 -1.9314860195e-05 -3.2846746397e-08 -1.1063683606e-05 
-0.0001044632034 -2.7446990457e-05 -0.0048805400728 -6.0528633487e-05 -3.1022737424e-05 -0.00064869832043 -0.0072460169115 -9.1490771672e-05 -0.0059448783246 
1.3670165682e-06 -0.0067013493381 -0.0067044992148 -0.0069826213911 -0.005121016619 -0.0045536420601 8.7513073798e-06 -0.0069006617848 -3.0721103725e-06 
-0.0022821764089 -0.0068374384982 -0.0082375296177 -0.009073532318 -0.0093321306491 -0.0083509549046 -0.0070005924927 -0.0048617233035 -0.0034075984568 
-0.0019222961804 -0.0073641047548 1.0207502499e-05 3.7057336934e-07 -4.5206142569e-06 -5.9513658679e-06 -4.801461473e-06 -1.5815165628e-08 1.9868741148e-05 
-3.3173929633e-05 -0.0013384494455 -0.0039202815956 -0.0061779384805 -0.0068695225346 -0.0072368762249 -0.0074035107458 -0.0073266660534 -0.0070747261303 
-0.0064805723054 -0.002728663734 -4.6647829288e-06 -1.9948890415e-05 1.5261122313e-05 2.3932296392e-05 -2.7733448934e-06 1.57371032e-05 -6.2930098909e-06 
-0.0009931560759 -0.0061571257286 -0.0075001604564 -0.0064845368406 -6.148025782e-06 -8.7022071534e-06 3.5236809111e-06 1.3534717434e-05 4.5393647907e-06 
-3.6709194221e-05 -2.1692303113e-05 9.1550138687e-06 -2.2113663307e-05 4.3995495717e-05 -4.7980510621e-05 4.436168709e-05 -1.0830806099e-05 4.5446204543e-05 
3.5556180715e-05 3.7130301979e-06 -2.0333187088e-05 2.6546471361e-05 -3.6029674545e-05 -9.19233299e-06 -0.0017768607432 -0.0024053964525 -0.0085126565158 
5.4193944145e-05 -0.0029059147512 -8.9046448712e-06 -0.0071822945704 -0.0039200511826 2.9129194399e-05 1.7295128516e-05 -2.2074233016e-05 -0.0051885252727 
-3.06188105e-06 -2.5648478313e-05 -0.0079640413043 -8.5792458129e-05 -6.9812133012e-05 -0.0071015844143 -0.0048421647858 -0.002028871639 -3.098589621e-05 
-0.0033177229067 -0.0073452651797 -0.0072310747763 -0.0056692450565 -7.5645156055e-05 -0.0082322985716 -0.0076518810003 1.3645561117e-05 -1.655960492e-05 
1.96506632e-05 -0.0074626481246 -0.0063115995205 -0.0077016509149 -0.0089302731017 -0.001099635794 -9.2823382953e-06 -0.0076402884519 -0.0003363642096 
-0.0010206778848 -0.002115267403 -0.003566267341 -0.0053907302592 -0.0073567548359 -0.0094844708764 -0.011518624434 -0.013791715736 -0.015690013683 
-0.017168409974 -0.01828633454 -0.018860380539 -0.018768865778 -0.018149300695 -0.017063567867 -0.015542469433 -0.013740068706 -0.011645812919 
-0.0095528791408 -0.0075089386009 -0.0054501229974 -0.0037978455117 -0.0022847012325 -0.0011177688451 -0.00040281039641 -5.3756189134e-05 -0.02639616038 
0.00029223020105 2.4959674757e-05 -6.2602136456e-05 -1.4873014217e-06 -3.1130185501e-05 3.9997872914e-05 -2.0663124021e-05 -1.2417567736e-05 -1.3298654831e-05 
-1.6623152919e-05 -1.1929195517e-05 -8.1724433699e-06 -1.5578881211e-05 -1.968577634e-05 -4.2357887069e-05 -0.00015457652266 -0.00026080586961 -0.00034733873495 
-0.00040775232582 -0.00042555620204 -0.00044139070763 -0.00041169152881 -0.00039206096716 -0.00034463295052 -0.00027454046408 -0.00017921417517 -6.9262900278e-05 
5.3951370204e-06 6.7810186323e-06 6.4612886225e-06 5.8499463947e-06 2.9329419212e-06 4.1910746936e-06 -9.379642073e-07 -6.8398307838e-07 -3.3508233023e-06 
-4.365234833e-06 -2.787353101e-05 -9.6594168392e-05 -0.00016359242399 -0.00020503017827 -0.0002112765565 -0.00020708029156 -0.00014807936202 -0.00013470376117 
-0.00010372948601 -6.9180949261e-05 -2.2817829436e-05 8.538203623e-07 2.1046933896e-06 -3.2089456103e-06 8.6248855847e-07 -1.2512196026e-06 2.9673039134e-06 
2.5512571131e-06 4.081284613e-06 2.6347563578e-06 -3.9268759047e-07 -4.8318681175e-05 -0.00013460810623 -0.00020763210509 -0.00026501374396 -0.00030849206156 
-0.00032360309566 -0.00032226778742 -0.00030460233131 -0.00026620514049 -0.00023339697348 -0.00017033598523 -9.7112435563e-05 -1.7913350992e-05 -9.2018057633e-07 
-6.9488139905e-07 1.2535375659e-07 9.2543478338e-07 2.2320768516e-06 9.1760341352e-06 1.3842817734e-06 4.2094790214e-06 8.8304625098e-06 -7.3724649172e-07 
1.3210629186e-06 0.00010439599161 7.7600353359e-05 0.00019024920194 0.00066860454739 -0.014648128411 -0.01194234075 -0.011104918025 -0.035781326516 
-0.053587115702 -0.032934994512 -0.034807181696 -0.036477487654 -0.036647789315 -0.03526302368 -0.036250529723 -0.035462668816 -0.034975629202 
-0.035026302484 -0.035467036521 -0.035553183194 -0.035608505827 -0.03602587729 -0.035282740944 -0.035354458564 -0.035701101495 -0.035907394528 
-0.036059064811 -0.037069037514 -0.035602385897 -0.043663929328 -0.097205356853 -0.035981251789 -0.031126172241 -0.0093266557332 -0.0020818423948 
-0.0021548639398 -0.0021799759184 -0.0025146771773 -0.0022113311988 -0.0022563781453 -0.0022918526074 -0.0025042923627 -0.0090995109993 -0.03189432501 
-0.036140515928 -0.086305370831 -0.038396586423 -0.024618790153 -0.0050846814339 -0.002129160596 -0.002096038617 -0.0020954464291 -0.0021161390265 
-0.0021334182405 -0.0021239674397 -0.0021788330031 -0.0021358906015 -0.010369283609 -0.031900291727 -0.026484468138 -0.001157029516 -0.023039935357 
-0.00016533201628 -0.022569182275 -0.018170746406 -0.0016318395089 -0.00075946150862 -0.0042645352432 -0.0058455406074 -0.0074275122813 -0.0091199437763 
-0.010718579971 -0.01238954702 -0.01379183245 -0.014776180867 -0.015404478522 -0.015727010011 -0.015398498343 -0.014669285961 -0.013651927293 
-0.012292396314 -0.010776303527 -0.0091534671783 -0.007478991258 -0.0058413412632 -0.0044128164154 -0.0030245309562 -0.001851618567 -0.00094245128413 
9.787384034e-07 -0.00058123863847 -0.012886038781 6.4249006652e-05 0.0015543016559 2.273438645e-05 6.7048464492e-06 1.0358910519e-05 8.4067061138e-06 
1.2294121555e-05 -1.2661370462e-06 -2.5635250395e-06 -1.4853278118e-06 -1.9735320957e-06 1.4645455614e-07 1.8480844331e-06 7.0125193744e-06 -0.00026948496588 
-0.00074044004905 -0.0011504302122 -0.0014532477659 -0.0016355132054 -0.0017214625322 -0.0017366133474 -0.001684338289 -0.0015321232085 -0.001266621965 
-0.00089513160348 -0.0004720241575 -4.0261610327e-06 -2.9457965719e-06 -2.0278902597e-06 -2.9187355632e-06 -2.5747324316e-06 -3.0042496249e-06 -1.2695252163e-06 
-1.4760080216e-06 -1.3513615529e-06 7.725635874e-07 -4.5390616743e-06 -0.00027977212513 -0.00054985617636 -0.00078228285129 -0.00089032975794 -0.0089255826947 
-0.020944077597 -0.00093873617951 -0.0005795946256 -0.00050634650466 -0.00035223885866 -0.00018257783801 6.6202369562e-07 -1.3108628425e-06 -1.4092968286e-06 
-1.7757284093e-07 -1.6805025237e-06 1.0759104395e-06 9.7514095289e-07 -2.2125539486e-07 -2.5684274912e-06 -1.4137037788e-06 -7.2494349462e-05 -0.00044637497375 
-0.00077312313559 -0.0010294326498 -0.0011985033169 -0.001288530292 -0.0012987014335 -0.0012409107297 -0.0011497817463 -0.00097277861064 -0.00072067865174 
-0.00041393605671 -8.5986862325e-05 6.4517698323e-06 8.3774489189e-06 4.1735904565e-06 4.148659835e-07 5.925503615e-06 1.6255771395e-05 -2.1133751398e-05 
1.7074993107e-05 -1.2473705271e-05 2.8296440498e-06 6.4330784316e-06 2.8859227215e-05 4.9186404612e-05 -0.00012006894631 -0.0011150313101 0.00075725790802 
0.00038650294905 0.0014518093625 0.0002765473175 0.0019097141567 0.0018506067334 0.0020974592109 0.001997357061 0.0019604308632 0.0019691635803 
0.0019104435982 0.0019741332732 0.002052279674 0.0021261067176 0.0020272269601 0.0019700283253 0.0019532710922 0.0018490274042 0.001877462071 
0.0016975673106 0.0017074400183 0.0019036546161 0.0019971413735 0.00057370453864 1.3896533396e-05 -0.008957474782 -0.015666535201 -0.0082304628064 
-0.00076037563543 0.00014311502784 0.00024852098815 0.000170412852 0.00019179138862 0.00020633916674 -0.0010883535174 -0.0078657930448 -0.014750895789 
-0.0074665309309 -0.01389579073 -0.0063181081939 4.6763746669e-05 6.1002233193e-05 5.7380400331e-05 6.2864597822e-05 6.9380045357e-05 6.9243140596e-05 
-0.0011603852015 -0.0083908688801 -0.014847355907 -0.0073749727743 -0.01318614099 -0.0028120042163 -0.011497499122 -0.00053886333819 0.00022971087604 
-0.0005234924443 5.237785404e-05 0.00061898942578 0.00052245489221 0.00076200592499 -0.0069270111391 -0.0043023165822 -0.0083609042027 -0.0097924107552 
-0.011041845771 -0.012105333434 -0.01281636349 -0.013176615823 -0.013137267433 -0.012709038999 -0.011901377591 -0.010855201173 -0.0096981894268 
-0.0083474224791 -0.0069610142265 -0.0056648450698 -0.0043764120278 -0.0031836398459 -0.0021102507845 -0.001228220211 0.00034659854308 2.75859837e-05 
1.330797956e-05 -0.0069789882689 -2.590200311e-06 2.0813817489e-05 -3.8370635815e-06 -1.1320535443e-06 5.8707246336e-08 -3.2621555424e-06 1.4591679634e-06 
-2.3223391228e-06 2.3630142127e-06 1.7443971479e-06 -2.7003907437e-07 -0.00082081184358 -0.0017853710253 -0.0025652373048 -0.0031209384931 -0.0034951504345 
-0.0035948146976 -0.0035039024137 -0.0032568522798 -0.0028519914314 -0.0022490875623 -0.0014479686283 -0.00046516168352 6.4371790131e-07 -1.9061512669e-06 
-1.3954809604e-06 -5.9942742437e-07 1.3583545001e-06 1.5145374562e-06 1.4899160793e-06 2.070341388e-06 1.0981767663e-06 -1.7293481788e-07 -0.0003848427085 
-0.00094167324174 -0.0014300641889 -0.0019113857989 3.3419274127e-05 -0.00063621544176 -0.00015929943304 2.5169934789e-06 -8.2239278016e-07 9.5307304327e-06 
-3.5697119783e-06 3.1010096165e-06 5.4042047265e-06 3.3452049426e-06 -3.3583804794e-06 -4.1037844361e-06 -5.6005552808e-06 -0.00062970906136 -0.0014395881456 
-0.0020359500387 -0.0024288834269 -0.0027071382853 -0.002784114845 -0.0027551424557 -0.0025221389651 -0.0021761754831 -0.0017006688079 -0.0010510113676 
-0.00032263187093 7.1101273267e-06 -1.495901258e-05 -1.0466386662e-05 8.0239283264e-06 8.1457142009e-06 -2.804599426e-06 -7.9059696266e-07 1.1672743273e-05 
7.0731501903e-06 -3.2187158895e-05 1.7281208843e-05 -1.5792827243e-05 -3.1945795872e-06 8.5577871799e-05 0.00030218801638 -3.1019067098e-05 0.00025282895514 
-9.9786160552e-05 -0.00010756896187 -6.5041336413e-06 2.0687276477e-05 5.4391298721e-08 1.085598536e-05 6.8672693064e-05 4.9180697372e-05 6.4398664032e-05 
6.2005151225e-05 6.3767830824e-05 6.0068181018e-05 7.0443371432e-05 8.3419587039e-05 8.4637989845e-05 5.5937835248e-05 7.4695406387e-05 5.9747079869e-05 
1.3432937221e-05 -1.1262752968e-05 -9.3771166678e-06 -0.0056537276303 0.00024160978197 -4.4126874323e-05 -0.007985935297 -0.0088207648974 -0.0070042322456 
-0.0040833340783 -0.00099074052746 4.2336039984e-05 -1.1926373692e-05 -0.0012358470738 -0.0045894243466 -0.0077609906325 -0.0090408278575 -0.0088733749427 
-0.001825771411 -0.0066194484984 -0.0034467822417 -0.0011502155335 -9.5369078495e-07 -1.0785782946e-06 -0.0013672544252 -0.0040060451839 -0.0071490854435 
-0.0084309033151 -0.0032243656923 -0.015698938092 -0.0056171965321 -0.00097708768725 -0.0043941730263 -0.0011871996193 -0.0032024420784 -1.4072624412e-06 
0.00013274897657 0.00011595998077 0.00016301053689 -6.944637824e-05 0.00014245820809 -0.0045548996532 -0.00010593296042 -0.0060240308223 -0.009758827598 
-0.010720013416 -0.011238557995 -0.01138864541 -0.011119306235 -0.010489428834 -0.0095348466697 -0.0083807071849 -0.0072884672799 -0.0060965749014 
-0.004905596413 -0.0038647357976 -0.0028523519165 -0.0019554102966 -0.0035191544195 0.00015296044913 4.0921063348e-06 -6.8892102005e-07 7.2871660909e-07 
-7.6472161851e-06 2.3633697574e-07 -8.0039805068e-06 -1.3090267737e-06 -1.5847242021e-05 -1.3197256531e-06 5.2574852071e-06 8.7273123618e-06 -0.0018508562964 
-0.0034337934358 -0.0045960712665 -0.0053260078414 -0.0055963112766 -0.0056111823098 -0.0053764066433 -0.0049073319317 -0.0041633492461 -0.0030962615029 
-0.0015750927867 1.4239770515e-06 1.9037578096e-06 -5.5070097015e-06 -3.1229678788e-06 -3.157420101e-06 9.0173943709e-06 9.051852524e-06 4.3846192709e-06 
-1.0728943327e-05 6.0215255507e-07 -0.00035423390255 -0.0013024710347 -0.0021120015856 -0.0027541766366 -3.3561261453e-05 -0.0017169760604 1.6577063007e-05 
1.8360846754e-05 -0.00019185482936 5.9004369922e-05 -2.8865569379e-05 -0.00084860319682 5.2516657593e-06 -1.059640877e-06 -1.4464053457e-06 -8.9910758133e-06 
7.4932248786e-06 5.1673290999e-06 -2.5163149125e-06 1.2860302183e-05 -0.00037960199186 -0.0018166051723 -0.0029486974395 -0.003768182735 -0.0043218794286 
-0.0045315814247 -0.0045699417277 -0.0043517839221 -0.0038275109531 -0.0031283729322 -0.0020159287422 -0.00086911855305 1.1375689241e-05 -1.7925993647e-06 
1.1010648181e-05 -4.0811158043e-05 1.0551780895e-05 -1.026568069e-05 1.0926213545e-05 2.3466061785e-06 -6.2364315828e-06 -8.0489643324e-06 -2.333900934e-05 
5.4544058447e-06 -4.3550302362e-05 4.8583664706e-05 2.4886295426e-05 2.1196075003e-05 -2.3263633853e-05 -9.1959304743e-05 -2.8996355769e-06 -4.4242219742e-05 
2.1379429336e-05 2.0138103901e-05 -2.0779577167e-05 1.5050305823e-05 -5.9001228782e-06 -1.4053298259e-05 -1.0317404445e-05 -9.2360462362e-06 -8.5002698588e-06 
-1.0128006868e-05 -3.0694002121e-05 -1.0403828454e-05 3.1176602761e-06 4.3193397081e-05 2.602027717e-05 3.2414762835e-05 -0.0086645917856 2.0040156135e-05 
-3.661453503e-05 -0.0015329857241 -0.0073553917933 -0.0091579619943 -0.0070452842057 -0.0061212906224 -0.0050139840278 -0.0047005937766 -0.0050451685124 
-0.0064427270017 -0.0076766965183 -0.0061370880623 -0.0052155143932 -0.0072357287212 -0.0060954544136 -0.0051460120458 -0.0048106150706 -0.005274964238 
-0.0060947187573 -0.0068595115912 -0.0063058500569 -0.0022790096846 -0.010928325277 0.00029558160646 -0.006341445759 -0.0075827981718 -2.9634750196e-05 
5.4677718784e-05 -0.0037772756724 -4.6722078066e-05 7.6214651171e-06 0.00010197836908 -1.0283048823e-05 -0.0048818420896 -3.6489464512e-05 -2.4273719215e-05 
-2.8663222193e-05 2.2508708196e-06 1.0839905529e-05 -0.0087453939894 -0.01008254481 -0.0093636234451 -0.0087497853593 -0.0072607859871 -0.0058612883987 
-0.0051406577972 -0.003810047084 -0.0029404338836 -0.00213433747 2.0478813302e-05 -7.2345000749e-06 7.9436780354e-07 -1.0125303664e-05 -2.9052966478e-06 
-1.9070139076e-06 1.4489275056e-05 1.0046643057e-05 -0.00038256452655 -0.0033939073093 -0.0055143478665 -0.0066612959301 -0.007227286993 -0.0073304167661 
-0.0072201947184 -0.0069256611513 -0.006300590849 -0.0051666797372 -0.0033983206488 -0.00085189980466 -4.0363892182e-07 2.7904770966e-05 1.4072534988e-05 
1.7590064931e-06 -8.9330597188e-06 3.3750535236e-06 1.3989864305e-05 -6.604825878e-06 2.8930493154e-06 -0.00028613905841 -0.0016805477489 -0.002862086543 
1.2887898133e-05 6.1996258771e-06 -4.6693400848e-06 -2.4999834215e-06 -0.0011085986701 3.0835189174e-06 -1.2492275021e-06 -1.4822718139e-07 8.1283474359e-06 
-2.9561935789e-06 1.2610900793e-05 3.5619156472e-06 -0.0015998673333 -0.0035938528689 -0.00501731078 -0.0057950662962 -0.0062705953646 -0.0065455008049 
-0.006307806516 -0.00577113214 -0.0046811770758 -0.0035823725357 1.0283572684e-06 5.5789453028e-06 -1.3857043532e-05 7.0032633925e-06 1.4878915847e-05 
-9.4113810473e-08 1.9794935661e-05 -9.0901365206e-06 -1.1351310893e-05 3.8471118838e-06 1.4204624067e-06 1.6989592258e-05 -3.9961003564e-06 -6.985749702e-05 
-1.2012860299e-05 2.7357345042e-05 6.2655624676e-05 -1.7703167814e-05 1.6422762755e-05 1.4348558754e-05 6.2184596441e-06 1.0250045938e-05 1.1567502035e-05 
-3.3052290329e-05 2.1732000009e-05 1.7894159861e-05 2.0128518871e-05 -2.3518961822e-08 8.9988606211e-05 -4.8468799678e-05 -1.1921459396e-05 -0.0016840774338 
-1.1267670126e-05 -0.0076768800108 -1.1593779119e-05 -0.0077340170597 -0.00701460786 -0.0070241875015 -0.0076055672533 -0.0070272317077 -0.0075243912591 
-0.007605683488 -0.0060025799006 -0.0015992394016 6.5843214454e-06 1.7488332635e-05 -1.3613241989e-06 -0.0054094741585 -0.0076407180095 -0.0074425011668 
-0.0072843647781 -0.007224865779 -0.0069380377082 -0.0056765651563 -0.0028130145826 -0.0098734791004 -0.0097489721289 1.4886207074e-05 -9.2858294067e-05 
9.4831586173e-05 -3.7993958446e-05 -1.5096030822e-05 -0.004865293538 -4.6952520834e-05 -3.04014754e-05 1.4740297373e-05 -0.0037241586698 -0.0072928980907 
-2.7017127263e-05 -0.00010822386882 -0.0058114738832 -0.0063686679135 -0.0034027506988 -0.0054822454784 -1.346277633e-05 -0.0096776696605 -0.0072052914396 
3.2236647636e-05 2.0998418604e-05 -0.004442120394 -0.0022578653717 -0.0016193962206 -0.0069014264231 -1.3750228044e-05 -8.2503632006e-06 -2.9976140274e-06 
-1.2031832137e-05 1.0408311954e-05 8.7662742027e-06 -0.002125365753 -7.9366943117e-06 -0.0080550589093 2.6563498254e-05 -2.2349869408e-05 9.5891130812e-06 
-2.9086851794e-05 9.8522122424e-06 -2.8914265697e-05 -6.6267718479e-06 7.2821071689e-05 -3.3624062308e-06 -8.3726791521e-06 1.7143640682e-05 4.951311356e-05 
1.8363532094e-05 -0.0042252555937 7.1142893824e-06 -4.6424919037e-05 6.1394036322e-05 -0.0086496081682 -3.7762206813e-05 8.8339030137e-07 7.840740417e-06 
-2.1845755787e-05 6.3976955545e-05 -1.677452836e-05 -1.5493377979e-05 -4.2270605321e-05 -0.0074497781835 -0.0056828798115 -1.6288310323e-05 7.3473920922e-06 
-0.0087824418251 -0.0036989018245 -0.0091265743313 -1.5702986141e-05 -2.8460514185e-06 -1.3974498518e-05 -0.00034714374151 -0.0071188698318 -0.0073561299931 
-0.0062304520638 4.0772856296e-06 8.904055665e-05 -0.0076153382935 2.2297262608e-05 -0.0056099615156 -8.9762864321e-05 -7.6563769435e-05 -0.00085600113372 
-1.9964565128e-05 4.0942705669e-05 -5.0706112935e-05 -0.0036030780235 2.8618650914e-05 -0.0078955690033 0.43001860106 0.45636278156 0.21920075211 
0.13122978716 0.12517371209 0.12143148837 0.21751037673 0.17836311626 0.19752465335 0.22000111616 0.22452015628 0.22667942243 
0.22855551225 0.23177665863 0.23262435612 0.23233534859 0.23283377954 0.23237518485 0.23049531683 0.22865850936 0.22622369287 
0.22239579812 0.2196509906 0.2162874372 0.21368550481 0.2117872253 0.21278419068 0.21292770213 0.20251622434 0.26065275632 
0.22714668408 0.14804873996 0.14056496147 0.15869143539 0.20700003153 0.12173172399 0.21816512965 0.22642540769 0.2276332005 
0.22855391462 0.23437330322 0.23485939291 0.23485672456 0.23569558225 0.23521136336 0.23403702071 0.23283005805 0.23309760486 
0.22721846717 0.22655773928 0.22245072848 0.21857267814 0.21692202668 0.21291277738 0.21087132626 0.21284896856 0.29676032295 
-3.5785013114e-05 3.671045272e-05 -0.00028831485519 -0.0016207099847 -0.0034447432508 -0.0056124557561 -0.0081447745005 -0.010930081188 -0.013706659248 
-0.01628834176 -0.018573935013 -0.020639718318 -0.022049903991 -0.022794522836 -0.022799509599 -0.02208601315 -0.020699120452 -0.018685630542 
-0.016383249993 -0.013465731829 -0.010558385727 -0.0078234691642 -0.0052387455576 -0.0030372516209 -0.0013364707222 -0.00017665986563 6.3280644075e-05 
-1.0344478653e-06 0.094594306065 -0.0092863462218 -0.0036049469834 -0.0018488166913 -0.00095271151477 -0.0006780641259 -0.00045599248847 -0.00037747745739 
-0.00028057541221 -0.00021789267577 -0.00021011242137 -0.00018965993587 -0.00018491887638 -0.00013296950673 -0.00012552148405 -7.5167846818e-05 -2.8911760518e-05 
7.8420831962e-06 2.1285975227e-05 2.9120888539e-05 3.4636468165e-05 3.8484467348e-05 3.960187701e-05 4.2087141646e-05 3.6248691141e-05 2.771993222e-05 
2.2662217803e-05 8.5473654489e-06 -4.4079163692e-06 -3.0996646551e-05 -6.688976097e-05 -8.7803278419e-05 -0.0001134627791 -0.00011909788301 -0.00012359015648 
-9.9023582007e-05 -7.7735946288e-05 -5.386716565e-05 -3.0263004892e-05 -7.6315388138e-06 5.5268955388e-06 1.2887494911e-05 2.7506804546e-05 3.779468133e-05 
4.9906063163e-05 -6.6433508256e-05 -9.9623946493e-06 4.8158254903e-05 1.6368809313e-05 2.5621736988e-05 1.5941413547e-05 5.1686822836e-06 -1.0999249411e-05 
-3.0407269423e-05 -5.252613094e-05 -7.1674870942e-05 -9.1218886874e-05 -0.00010164727457 -0.00010940177034 -0.00010542901389 -9.3609570343e-05 -6.2165371272e-05 
-2.8516555421e-05 -3.1275677973e-06 1.7864725648e-05 3.1936402131e-05 4.7817071287e-05 4.596915936e-05 4.566876526e-05 4.2001931926e-05 4.413088933e-05 
3.5749305456e-05 3.0745422767e-05 2.0625108512e-05 9.5821735455e-06 -3.2687063823e-05 -8.671245315e-05 -0.00010362461928 -0.00012983353534 -0.00014099048237 
-0.00015920489313 -0.00015765657647 -0.00019721492587 -0.00024522622761 -0.00034171342284 -0.00046572231292 -0.00062173323778 -0.001016324803 -0.0018514638647 
-0.0049613849069 -0.041413080718 0.0027793894792 -0.13765839015 -0.12615329884 0.0020251158462 0.0011127933793 0.0012872891968 0.0052387628151 
0.0065253214347 0.0058687052643 0.0058359852452 0.006565605227 0.0015166002304 0.0023951422308 0.011440664424 0.07230185014 -0.018001316304 
-0.080237145259 -0.043028500807 0.012238810206 0.0035176247263 0.0024885194643 0.0017877285048 4.0258425782e-05 0.00068219254832 0.0011137749178 
0.00092924465632 0.00077427888073 0.0023597759637 0.0044998168581 -0.0023802728385 -0.03333966609 -1.4479310968e-06 7.3206478258e-05 -0.00021530917575 
-0.0013458007241 -0.003072049202 -0.0052212901898 -0.0077485335448 -0.010520277735 -0.013269974514 -0.016136964154 -0.018830243721 -0.020780017964 
-0.02217521161 -0.022836211725 -0.022810412685 -0.022061329698 -0.020642808919 -0.018687439883 -0.016240719522 -0.013524619698 -0.010701245845 
-0.0079410118442 -0.0054089541713 -0.0031967516828 -0.0014139927094 -0.00022943683422 3.0636941476e-05 -2.2957777524e-05 -0.011788337879 -0.036147973752 
-0.0070141567522 -0.0029808166791 -0.0014328879052 -0.00094489623512 -0.00058236312916 -0.00041650688753 -0.00025100897465 -0.00021867977063 -0.00017613878104 
-0.000145383517 -0.00013314893059 -0.00012351001766 -9.9922704463e-05 -4.7879654602e-05 -1.6216451941e-05 1.6856238643e-05 2.8625506823e-05 4.7074885498e-05 
5.472545162e-05 6.063599914e-05 6.7441842341e-05 5.7838608279e-05 5.2300417439e-05 4.5632911114e-05 3.909389457e-05 1.7969040572e-05 -7.9128960741e-06 
-4.250122517e-05 -7.8424634253e-05 -0.00012730867241 -0.00014824854572 -0.00014630936865 -0.00014931088413 -0.00011580576163 -9.5582751497e-05 -5.4024842187e-05 
-2.4029486546e-05 1.4436253957e-06 1.5011211079e-05 2.5873941057e-05 3.5855167876e-05 3.5137755058e-05 2.765797371e-05 -3.8123245034e-05 -1.6456494486e-05 
2.9951809191e-05 3.0056915943e-05 2.2811937341e-05 1.9785100423e-05 8.994265337e-06 -1.6932405491e-06 -2.140301942e-05 -4.7471652564e-05 -7.1123554806e-05 
-0.00010331719454 -0.00011818120763 -0.00013313966701 -0.0001266227303 -0.00010429670765 -8.6828764894e-05 -4.9923640575e-05 -2.1668999455e-05 -5.3473616459e-07 
2.1808231995e-05 3.6316492291e-05 4.1272643139e-05 4.9875499098e-05 4.598464085e-05 4.1114525909e-05 4.4040038803e-05 3.7020261862e-05 2.1334698234e-05 
1.1005876638e-05 -1.3798771635e-05 -4.6642903696e-05 -7.7805453877e-05 -9.8531880227e-05 -0.00010296409587 -0.00012150650724 -0.00013800817451 -0.00017032524589 
-0.00020461204457 -0.00027784136425 -0.00042619485749 -0.00060135643846 -0.0010215312317 -0.0020836045694 -0.0037235721582 -0.012100750672 0.028076581822 
-0.18932472459 -0.0038426494291 0.014760669871 -0.00066975127122 0.0020275401582 0.0021142563618 0.00060268557637 0.00040797363779 0.00039454565715 
0.00050017213884 0.00027979789991 0.0019960348676 0.0021441751353 0.019731837127 -0.10429159082 -0.24429201925 0.024702218993 0.0042872462059 
0.0019676628008 0.0013855722781 0.0062493074383 0.0070789290153 0.0071128926409 0.0072180520593 0.0077312789575 0.0020566210359 0.0025052970132 
0.011864281472 -0.0077764277994 -0.075038635004 -1.037119538e-05 -2.0795282117e-05 -0.084020179317 -0.085830418382 -0.12537554336 -0.11111200383 
0.24251364816 0.2251469935 0.16142325927 0.17452807561 0.17528002876 0.16593281946 0.18385584989 0.17464542094 0.18625050499 
0.16716147449 0.18395917876 0.16953204404 0.18407114404 0.16810933924 0.18973089433 0.17072927657 0.19153290952 0.17378132842 
0.19007185655 0.17654456978 0.18699407441 0.17767196663 0.19498083741 0.17730557803 0.19324569268 0.18076222587 0.19193952098 
0.17836543844 0.19378313999 0.18078847256 0.1927908605 0.17875296771 0.19092457193 0.18165897776 0.18680146824 0.18343940665 
0.18634206095 0.18198922523 0.17991031873 0.18011293577 0.18149956801 0.17964885761 0.17740131488 0.17675059185 0.17388806305 
0.17597507242 0.17235052868 0.17505568766 0.1678361428 0.17829432393 0.16648962363 0.17526302851 0.17908713959 0.18066990236 
-3.4601384048e-05 -0.00012200401344 -0.00023850554296 -0.00054389759513 -0.0010439684359 -0.00062680757078 -0.0016316680717 -0.0024365465804 -0.0015509819755 
-0.003175449652 -0.0041690972199 -0.0029164120403 -0.0050542102302 -0.0061953391774 -0.0045701087146 -0.0071712631264 -0.0085011633395 -0.0064418700508 
-0.0096178582909 -0.010984585568 -0.0085758538116 -0.012046255912 -0.013358026431 -0.01076533566 -0.014403632481 -0.015611665829 -0.012886051953 
-0.016526047233 -0.017530622667 -0.014827107543 -0.018271786399 -0.019163839229 -0.016506986589 -0.019719125162 -0.020192958315 -0.0177987058 
-0.020518503498 -0.020707464479 -0.018627374933 -0.020738161845 -0.020557890608 -0.01899080283 -0.020288254839 -0.019773836991 -0.018742841636 
-0.019215490367 -0.018378011894 -0.01791464757 -0.017655527923 -0.016642337701 -0.016605233473 -0.015703380249 -0.014429700517 -0.014975200117 
-0.013354623842 -0.011847077179 -0.012932183069 -0.010734084605 -0.0094305184287 -0.010683493218 -0.008305603573 -0.0069556520752 -0.008433210969 
-0.0059574516453 -0.0047932353389 -0.0062983485712 -0.0039207949626 -0.0029346286676 -0.0044091548223 -0.0022181576974 -0.0015073363204 -0.0028045587754 
-0.00096864197692 -0.00059468679679 -0.0015615087065 -0.00025227965322 -0.00016042430275 -0.00070944252135 -1.9947840303e-05 -4.0180577329e-05 -1.7478426945e-05 
-0.00024398098829 -0.0053602427765 -0.0049903408023 -0.00014476028128 0.002076639278 0.000172104826 -0.0015410602798 0.00084519806766 0.00021734122316 
-0.00085091714216 0.00038073598243 0.00011842587133 -0.00057848941916 0.00021692314702 7.9334412364e-05 -0.00040898669574 0.00013517148881 3.9320295472e-05 
-0.00030895570585 9.6713825679e-05 9.1067351912e-05 -0.00020727084347 8.080517392e-05 6.1165824791e-05 -0.00011544387429 6.0809978433e-05 5.3087430016e-05 
-0.00010810186554 4.7621033859e-05 5.8406830705e-05 -8.367889218e-05 4.5451185768e-05 6.1717089863e-05 -7.0413284411e-05 7.5479693024e-05 9.4067563889e-05 
-7.0899207534e-05 1.1438934379e-05 1.9004830457e-05 -9.1426070649e-05 2.4210859438e-05 1.874807273e-05 -3.7756638986e-05 3.3652626674e-06 -7.2700253695e-06 
-2.5828578134e-05 -3.6683705203e-05 -2.0420352311e-05 -5.2438359473e-05 -8.2708791754e-05 -6.7561994398e-05 -0.00010886979928 -0.00012565659092 -0.00010818936016 
-0.00014908234628 -0.00015624279368 -0.0001419326576 -0.00019563372013 -0.00018034062102 -0.00016073690126 -0.00021893854692 -0.000186813587 -0.00016513490967 
-0.00022319927885 -0.00017958124062 -0.00016704824691 -0.00022270920983 -0.00017488104109 -0.00016022008163 -0.00020508863542 -0.00016253954116 -0.00014341832789 
-0.00020110439384 -0.00014122349717 -0.00012175012713 -0.0001828360013 -9.5442891918e-05 -9.1216225683e-05 -0.00015090895435 -5.1782709169e-05 -4.7355313622e-05 
-9.7132553809e-05 -1.6806618315e-05 -4.9568590689e-06 -4.7841668667e-05 -4.5184086635e-06 2.711640178e-05 -1.9929903563e-05 1.6588455259e-05 3.0678133219e-05 
-3.9479873649e-05 2.458532101e-05 3.6333343813e-05 -4.5786951535e-05 3.0994985729e-05 3.7574497192e-05 -5.6129516843e-05 3.4378763812e-05 3.1456327591e-05 
-5.8792196785e-05 3.6433957229e-05 2.8123480598e-05 -5.1609654651e-05 3.2919075986e-05 1.7486318521e-05 -4.3768069941e-05 2.4776658053e-05 9.6425928163e-06 
-3.2484777683e-05 1.2302465718e-05 9.5118399544e-07 -2.0619318653e-05 1.9846621603e-06 -7.6492611793e-06 -8.7477073401e-06 -1.9427595212e-05 -2.0327996299e-05 
-1.067334279e-05 -5.0243580659e-05 -4.9563887909e-05 -4.6083603121e-05 -8.408455583e-05 -7.8223255231e-05 -8.1802740085e-05 -0.00010962784073 -0.0001035409372 
-0.00012415928222 -0.00012259623025 -0.00012300367939 -0.00013843563362 -0.00010571986344 -8.6462691045e-05 -0.00016469010835 -0.24007088944 -7.4115066323e-05 
-7.6103486274e-05 -6.3977695732e-05 -8.7282882812e-05 -7.2837150414e-05 -8.5317019464e-05 -6.3640089488e-05 -6.1052377525e-05 -7.7283049048e-05 -4.2152404473e-05 
-4.1175515276e-05 -5.7677745666e-05 -1.7255906191e-05 -2.1225142732e-05 -3.33669191e-05 -5.8938563419e-06 -5.1452364058e-06 -1.0522004789e-05 2.1706678722e-06 
3.4171709719e-06 -1.0839190998e-05 7.6108850119e-06 2.035341841e-05 -2.6781318658e-05 2.2202352159e-05 3.1703205335e-05 -2.9369358917e-05 2.99074118e-05 
3.5557620153e-05 -3.9280884646e-05 3.8685000131e-05 4.4841327054e-05 -4.7405733964e-05 3.7640144067e-05 4.6624731523e-05 -5.1090350722e-05 3.5443432758e-05 
4.438147531e-05 -4.9359037017e-05 3.4997345148e-05 2.6909208334e-05 -4.4903565443e-05 2.2060798007e-05 2.2502221037e-05 -2.9086620272e-05 -1.4892862642e-05 
-6.8179706007e-06 -3.2080724473e-05 -7.3054819753e-05 -4.9781549031e-05 -7.5829321817e-05 -0.00011952055821 -9.4766425193e-05 -0.00012686006116 -0.00016125587752 
-0.00012727838961 -0.00017055091305 -0.00017732461935 -0.00014405711168 -0.00020010850238 -0.00018155335495 -0.00015667806526 -0.00019919770898 -0.00016988049656 
-0.00015733932418 -0.00019624688351 -0.00016076686451 -0.00015029623937 -0.00018513343579 -0.0001453315283 -0.00014499295216 -0.00018225247113 -0.00012615168761 
-0.00014039741782 -0.0001736355108 -9.4771372481e-05 -0.00011203426341 -0.00015416335904 -4.7805958534e-05 -8.1920919587e-05 -0.00011786983604 -1.3069773701e-05 
-4.2799393728e-05 -7.5884200552e-05 7.7630423883e-06 -1.6184722398e-05 -3.4674934726e-05 9.4431408643e-06 1.7049211412e-06 -2.7064612143e-05 2.6212972427e-05 
5.4659004325e-06 -3.8570258981e-05 3.2716893593e-05 4.1677570757e-06 -4.5489605772e-05 4.3272890758e-05 3.7611740176e-06 -5.1037639859e-05 3.7761609526e-05 
9.046249676e-06 -6.0378397848e-05 5.7213324008e-05 1.9599926659e-05 -7.4941223295e-05 6.191289554e-05 3.2184907362e-05 -0.00010250040377 8.8725935956e-05 
3.9533504327e-05 -0.00012860473623 0.00010411971868 7.4991575918e-05 -0.00017217348767 0.00014086831764 0.00014430734211 -0.00025117795983 0.00021277136872 
0.00032529098664 -0.0003560113124 0.00021772993604 0.00072495396323 -0.00067588193522 0.00048398194346 0.0030001281519 -0.0019691661299 -0.010268381296 
-0.084570742997 -0.010291653314 -0.08796150617 0.033607093402 0.014374027678 0.022057779147 0.02123008275 -0.06441832476 0.015956930482 
0.023001967305 -0.06029592499 0.018680824694 0.019924986853 -0.0095207091566 -0.0058267795566 0.0032192880112 -0.006416027149 0.018231548803 
0.012707677952 -0.012827011733 0.015777938726 0.015005886969 -0.0093514533869 0.012120528181 0.012539151998 -0.0079889086902 0.0099321158879 
0.01082235359 -0.0073079592382 0.013572023859 0.013019211287 -0.0086538242561 0.011584532841 0.011733011536 -0.0083387459584 0.013117427226 
0.013860372155 -0.0083985152667 0.013830313025 0.013670157299 -0.0096423226381 0.013732735858 0.012917378256 -0.0097750152725 0.012364247982 
0.011085661377 -0.0094941316528 0.011586813722 0.010471663266 -0.0082371351811 0.012674571115 0.012362135269 -0.0080268880574 0.010150147655 
0.011119423775 -0.0073402041891 0.012967857666 0.013114400919 -0.0078989295001 0.012006665284 0.01247254774 -0.0075874876635 0.011540912096 
0.012721961392 -0.0071597143857 0.012151211442 0.013995804565 -0.0069699452202 0.010095738072 0.014046879299 -0.0075039288524 0.012896931221 
0.019007873866 -0.009244321507 0.014806789705 0.02658088138 -0.012091817385 -0.0020722674616 0.033805060531 -0.033980030751 -0.071623093299 
-0.0088318862169 -0.026974792559 -0.037901833818 0.001096300829 -0.0041254431959 -0.020049087789 0.001484426301 0.0002616736878 -0.0012485838579 
0.0013501762514 0.00071012291968 -0.00083106184775 0.0014502625551 0.00099253012013 -0.0006595286725 0.0012371941359 0.00096661505219 -0.0005737480613 
0.0010065709124 0.0013462774191 -0.00067387375544 0.0010701871227 0.0015584897204 -0.00064927087719 0.00051975430445 0.001356898375 -0.0009462581869 
0.00037738135372 0.0019402022366 -0.0014338422002 -0.0060873578412 0.0032529792819 -0.0051985061908 -0.029342554965 -0.0047499107065 -0.023792091383 
-0.042193737547 -0.012865184317 -0.044968753305 0.0094154603688 -0.0043395365201 -0.0090824479365 -0.073867406609 -0.010163344498 -0.028876608612 
-0.048607758824 0.0019627607813 -0.0056222111538 -0.021819288824 0.0015970053779 0.00071799581193 -0.0024193399062 0.0011735229337 0.0011220084474 
-0.00064736653035 0.0010906268307 0.00070796792231 -0.00048811299573 0.00095221399368 0.00071920091792 -0.00036533226976 0.00093324281377 0.0007966732287 
-0.00027902600033 0.00088366529166 0.00083384171204 -0.00031608158006 0.00075088379209 0.0007834474304 -0.00042761129241 0.00049679256474 0.0016881896453 
-0.00059152122882 -0.0053956257884 0.0017965537999 -0.0011302467492 -0.033369885337 -0.013142914855 -0.019786095051 -0.093956310798 -0.03366516545 
-0.044024101241 -0.00010168134251 0.0090848735348 -0.030511130457 0.017438743795 -0.024081865635 -0.031703952151 0.043413247719 0.0025630899886 
-0.022026960583 -0.014696357281 -0.0020234227643 0.0080423604307 -0.016280299744 -0.020840813031 -0.010930341353 -0.046964949884 -0.018974882638 
-0.043971881348 0.0067055521064 -0.00142884116 -0.002064116445 -0.0026042074202 -0.003391680746 -0.0023221848624 -0.0040009748175 -0.0048890742718 
-0.0035428310425 -0.005647936396 -0.0066302629126 -0.0049481478303 -0.007466681406 -0.0085804489412 -0.0065742320256 -0.0094840514673 -0.010521440945 
-0.0083671923914 -0.011405959122 -0.01241432944 -0.010197078581 -0.013190963707 -0.014080203227 -0.01189679049 -0.014722298524 -0.015444675412 
-0.013353130945 -0.015947324146 -0.016488805269 -0.014538433785 -0.016819472617 -0.017135866416 -0.015423803902 -0.01724273317 -0.017281281578 
-0.015906781074 -0.017194645755 -0.016939405432 -0.015947383612 -0.016555355671 -0.016027680891 -0.015485866488 -0.015542516004 -0.014852028621 
-0.014618837482 -0.014229137747 -0.013334883082 -0.01349507672 -0.012458560034 -0.011398919967 -0.011974162486 -0.01051391892 -0.0094081795583 
-0.010166820406 -0.0085245692119 -0.0074261954239 -0.008340589716 -0.0065749375436 -0.0055780866982 -0.0065713397753 -0.0048496784046 -0.0039588746988 
-0.0049556084709 -0.0033179039039 -0.0026129126196 -0.0035500174889 -0.0020781187489 -0.0015439428876 -0.0023509931038 -0.001115512616 -0.00079031968195 
-0.0014126022703 -0.010921913075 -0.016093467772 -0.00044670241501 -0.0068186765719 -0.00084736008746 -0.00031493498683 0.0014430864249 -0.00041828767207 
0.0010988103573 0.00020011898966 -0.00051700607588 0.00059805017157 0.00012751326625 -0.00090364325438 0.00046234312935 0.0001029465283 -0.00084916131074 
0.00021575802373 -4.862767295e-07 -0.00058552289075 0.00017192455225 0.00013820118793 -0.00022663281278 0.00012726633899 9.1348080892e-05 -0.00027996181083 
0.00011398568872 9.1348339441e-05 -0.00026954203051 8.9125306169e-05 8.1498598964e-05 -0.00022185151026 7.5330450015e-05 8.2091698704e-05 -0.00018885065557 
7.5154359053e-05 6.282589171e-05 -0.00016731259186 3.3014777346e-05 5.8799727301e-05 -0.00013254428745 3.9612282812e-05 4.1048981786e-05 -0.00011558212379 
2.3178417293e-05 -3.9658331967e-05 -9.3137240563e-05 -0.00020921427411 -0.00027542037236 -0.0002031111644 -0.00043599816903 -0.00049902389272 -0.00053015127059 
-0.00063180859188 -0.00069304993752 -0.00083394086694 -0.00078146179169 -0.00079848993968 -0.0010637193006 -0.00086521159312 -0.00085959136388 -0.0011988304076 
-0.0008923699476 -0.00087412830964 -0.0012672117391 -0.00088245954233 -0.00085526976977 -0.0012772177744 -0.00081920280318 -0.00078755452584 -0.0012202157934 
-0.00071781378579 -0.000673894161 -0.001079979117 -0.00058723068034 -0.00051422280059 -0.00089192795428 -0.00041769625997 -0.00033693456631 -0.00066946343116 
-0.00021426163782 -0.00012260708919 -0.00041319772976 -1.7588185202e-06 4.9773115105e-06 -9.4409839746e-05 1.8526996698e-05 1.1390995403e-05 -4.7106207399e-07 
3.4050843555e-05 1.4440182305e-05 -3.4869334619e-05 4.4575115691e-05 1.6818952566e-05 -6.03673305e-05 5.1308217383e-05 1.9910658861e-05 -7.8467343577e-05 
5.4180927856e-05 1.8653782752e-05 -8.4543663187e-05 5.3455423105e-05 1.6826465224e-05 -8.3843860406e-05 4.8280998934e-05 1.3359929711e-05 -7.255571474e-05 
3.7518353972e-05 1.2616935139e-05 -5.7556756119e-05 2.3008499114e-05 8.0873144995e-06 -3.4488646274e-05 1.0256372048e-05 -4.2862872561e-05 -1.4753104312e-05 
-0.00013568222749 -0.00019734256115 -0.00011608223413 -0.00028267080399 -0.00033766724669 -0.00033252118281 -0.00041580749188 -0.0004719359697 -0.00054863186541 
-0.00052537582838 -0.00054299497491 -0.00071371607346 -0.00056837275954 -0.0005001814284 -0.00084189597332 -9.7600186168e-05 -0.00029329260571 0.0024420433013 
-0.0011526835091 -0.00059341988064 -0.00036598095083 -0.00037335002408 -0.00034958628857 -0.0003275042144 -0.00051765619245 -0.00027751869645 -0.00024648748345 
-0.00043627822536 -0.00016516594289 -0.00011871930445 -0.0002907026571 -2.4294780633e-05 -3.5892566205e-06 -9.2783248155e-05 -2.078113928e-06 1.3145102068e-05 
-7.2341021957e-06 -6.6217967055e-07 2.9159090698e-05 -7.2529023696e-06 1.8873320981e-05 4.8570597911e-05 -5.3676169688e-05 2.2654833055e-05 4.9841465577e-05 
-7.8316265206e-05 2.7488938031e-05 5.5187407958e-05 -7.6834718502e-05 2.4803197447e-05 4.4759572222e-05 -3.8543965092e-05 2.1237286507e-05 4.1892601453e-05 
-3.5658700653e-05 1.7328530811e-05 2.2907998786e-05 -2.8908976656e-05 2.0825606567e-05 1.7067323739e-05 -1.9140635461e-05 1.0541071263e-05 -2.8153420403e-05 
-9.4791147881e-06 -0.00021829128226 -0.00026832983313 -0.00021068244252 -0.00044424061719 -0.00048256099038 -0.00054086150812 -0.00063763166166 -0.00066264659456 
-0.00082957850499 -0.00075732647332 -0.00075449357351 -0.0010335441702 -0.00081186935755 -0.00081230582534 -0.0011431208648 -0.00083124562249 -0.00081773223592 
-0.0011892518782 -0.00080297518204 -0.00079802894875 -0.0011800809945 -0.00075682951622 -0.00076390911311 -0.0011391028997 -0.00067295127636 -0.00068886920636 
-0.0010519444763 -0.0005591275152 -0.00056357453206 -0.00089881014804 -0.00038514752804 -0.000366400102 -0.00068034673541 -0.00015219613213 -0.00013412747989 
-0.00036677983808 2.0708516204e-05 -1.1044588766e-05 -3.7872426281e-05 3.2421540573e-05 -5.0181077999e-06 -2.6407105448e-05 3.7588873985e-05 -1.1567582505e-05 
-3.3995646478e-05 5.4638858831e-05 -1.1582304684e-05 -4.28409526e-05 6.4616632061e-05 -1.0609176517e-05 -5.2666150974e-05 7.7478218271e-05 6.7141613528e-06 
-6.4124472635e-05 5.3540856762e-05 3.6526694674e-05 -0.00010787901707 8.6760558469e-05 6.1580623392e-05 -9.3553063479e-05 7.5617347612e-05 9.7642290625e-05 
-0.00014537736562 0.00014369447275 0.00016446035443 -0.00030171813481 0.00013318697877 0.00027058520148 -0.00023318620929 0.00010562984281 0.00050360440264 
-0.00031057115464 7.2879350957e-05 0.00087092802442 -0.0004439618141 0.00021485452654 0.0014742706276 -0.00013606617687 -0.00074525278218 -0.00065063194154 
-0.010010867802 -0.0050052416579 0.0032994720097 -0.02492791502 -0.02310635842 -0.013264536387 -0.010096276869 -0.012278217317 -0.0027646498454 
0.0015147060237 -0.0032154369883 -0.0039252799461 0.0012165129174 0.001101148695 -0.0087994674365 0.0012887192565 -0.0024224977089 -0.0023978980189 
0.00041266834631 -0.0019568026745 -0.0021959164477 0.00061317947189 -0.0016912598378 -0.0020899716799 0.00063532893088 -0.0022785240934 -0.0021209010843 
0.00042827755063 -0.0019946261462 -0.0015658440286 0.00044441342519 -0.0023033624166 -0.0020449929265 0.00050398541264 -0.0021979964506 -0.0027427445723 
0.00046112110151 -0.0022173091281 -0.0028055300847 0.00044950631887 -0.0024306689732 -0.0028671533444 0.00042910335855 -0.0021288842441 -0.0023910068681 
0.00044279204904 -0.0019943241005 -0.0018879293946 0.00041314448871 -0.001877032542 -0.0019763914656 0.00038332047146 -0.0024782114828 -0.0019697943346 
0.00037520717375 -0.0020731419779 -0.0021476320229 0.00041329799915 -0.0023331980638 -0.0021725851641 0.00052060326194 -0.0020890721802 -0.0026818958996 
0.00058810296459 -0.0019155500732 -0.0026832317597 0.0007180294598 -0.0026694717543 -0.0029118564011 0.00094449921225 -0.0024969314587 -0.02911606374 
0.0028368208454 -0.020731868661 -0.017455668626 0.00099041812081 -0.013220461097 0.00019761983687 -0.00024955788424 5.0061457535e-05 -0.00020742479301 
-0.00065899872672 -8.4434488252e-05 -3.3592696514e-05 -0.00054375680846 -0.00017743738301 -2.4980012816e-05 -0.00048586762052 -0.00015156107478 0.00012337092862 
-0.00047131765162 3.2823038913e-05 0.00035370435279 -0.00055753670729 0.0007265114842 0.00047253490238 -0.00021882993823 -0.0067429980738 -0.0021250606826 
-0.0057157359803 -0.016081639241 -0.012263779408 -0.012869877095 -0.0070507346164 -0.024682180479 -0.012842592195 -0.00017706356498 0.0090487359498 
-0.0015136090046 0.00012795870676 0.0044870106487 -0.0078465788856 -0.024763225418 -0.01495705622 0.00043964629332 -0.00011783091241 0.00014476044794 
-0.00018161842021 -0.00011600211144 -7.48713361e-05 -0.00014275160194 7.7801465091e-05 -0.00019664680404 -0.00016639110983 0.00015549237165 -0.00027586547007 
-0.00010304154033 0.00015095098358 -0.00027694006613 1.3212218704e-05 3.9880335315e-05 -8.8108945214e-05 0.00019907137674 -0.00028174845726 -0.0063391278621 
-1.1425700737e-05 -0.0037572415548 -0.018996497668 -0.01111464622 -0.013919925916 -0.013862437791 -0.022936772086 -0.01924249304 0.00089713703352 
-0.022566122573 -0.010669587288 -0.00099891121081 -0.00034551396401 -0.0063691239264 -0.0042801435526 -0.010887845358 -0.016113359274 -0.015984853969 
-0.00089090129464 -0.0063077580743 -0.013220114767 -0.0042180495252 0.0010355695644 -0.012117054701 -0.00046108809026 -0.00026884068299 -0.00012834896566 
-0.00071936367831 0.0038056555505 -0.0072765152273 0.00034070744409 -0.0003026759121 -0.0021115807322 0.00033544183326 -0.01051802829 0.0017133565487 
0.0018884402794 -0.00047765624648 -0.0013002317772 0.0017971739501 0.0004787189241 -0.00066627958231 0.00047943067181 -0.011390101871 0.0025918273837 
0.0026663747581 0.00019500773277 -0.011613444737 -0.0074586129316 -0.00030974793824 -1.9191130681e-05 -0.002934596955 -0.0036009691594 -0.0041861768112 
-0.0049348139922 -0.0035314422454 -0.0056142639758 -0.0064706353643 -0.0047816945287 -0.007265508281 -0.0081438160804 -0.0062358651533 -0.0088888825116 
-0.0097287511986 -0.0077831788673 -0.010490439114 -0.011232003363 -0.0092673520843 -0.011903133613 -0.012501285945 -0.010679630832 -0.013029520102 
-0.013513995836 -0.011846997346 -0.013883347344 -0.014223438268 -0.01273396354 -0.014419897925 -0.014525721369 -0.013317394474 -0.01449635648 
-0.01443014348 -0.013488700376 -0.014217733635 -0.013864472048 -0.013252029721 -0.013529812657 -0.013102568168 -0.012714821399 -0.012611352818 
-0.012028900262 -0.011910753773 -0.011376260815 -0.010557745034 -0.010788230468 -0.0097874758731 -0.0089174328616 -0.0093740902829 -0.0081387690768 
-0.007269829351 -0.007817350595 -0.0065349282071 -0.0057030199596 -0.0063061565567 -0.0050369459655 -0.004274544105 -0.0049016960258 -0.0037155020768 
-0.0030496937535 -0.0036632933969 -0.0025497611616 -0.0019998544095 -0.0025801009152 -0.0005764008635 0.00069651988758 -0.00038390462698 0.0007022688065 
-3.6812247411e-05 -0.00025822959878 0.00043667372856 1.1403806385e-05 -0.00031526891537 0.00036905122618 7.9859585398e-06 -0.00046307996445 0.00025624866327 
4.3494576798e-05 -0.00041542896667 0.00019371419661 5.5137808353e-05 -0.00035089899658 0.00012764487137 5.9222981288e-05 -0.00026189313412 0.00010048782555 
6.2721131708e-05 -0.00020964348969 8.0002696146e-05 5.1737022285e-05 -0.00018437859902 6.0754173129e-05 5.9118644564e-05 -0.00016824123409 5.1968017089e-05 
3.8259719513e-05 -0.00014971607988 4.0100407298e-05 2.5877348989e-05 -0.00013185661962 2.1827689354e-05 9.6490986381e-06 -0.00012178382292 -6.235652513e-05 
-0.00030213599083 -0.0001047368126 -0.00067757179746 -0.00089773749896 -0.00063409416538 -0.0012383078616 -0.0014263006932 -0.0014005893893 -0.0016791194669 
-0.0017840188145 -0.0020407561912 -0.0019387343351 -0.0019882878083 -0.0024513404455 -0.0020813022849 -0.0020834501576 -0.0026711630852 -0.0021265962477 
-0.0020915695925 -0.0027673275039 -0.0020777615017 -0.0019938995633 -0.0027483095326 -0.0019202158594 -0.0017811780889 -0.0025997185217 -0.0016293792834 
-0.0014630255006 -0.0022958207223 -0.0012198746579 -0.0010398540539 -0.0017965981962 -0.00077347360753 -0.00054962265392 -0.0011850235106 -0.00026627960251 
-1.3180985501e-06 -0.00054427810023 7.648615142e-06 1.8021936655e-05 1.2976113905e-05 2.5086415273e-05 1.7472111104e-05 -2.4087353583e-06 3.3567652013e-05 
1.3287932179e-05 -2.3042187107e-05 4.6024480903e-05 1.1447784452e-05 -3.5399876601e-05 4.9788555113e-05 8.3375676938e-06 -4.4605637315e-05 5.1009688198e-05 
3.4038273728e-06 -4.6530298866e-05 4.6930128965e-05 -1.9270432274e-06 -4.092269838e-05 3.9160325601e-05 -3.781473578e-06 -3.2882526852e-05 2.3515086486e-05 
-8.3180697111e-06 -2.1468807259e-05 1.2186727923e-05 -1.0393456856e-05 5.5690480186e-06 -0.00013590298045 -0.00032993641097 -4.1996351415e-05 -0.00053146409101 
-0.00068991050913 -0.00055130644495 -0.00086324744947 -0.001017509843 -0.0010293821957 -0.0011550818507 -0.0012566377685 -0.0014242737301 -0.0013147970789 
-0.0013672982531 -0.0017653124499 -0.0016846405224 0.00016734481241 0.00045672977365 -0.0089437175408 0.0013977208509 -0.00016725128258 -0.00035250522506 
-0.00025733401762 0.00038326671241 0.00042837879838 4.9617953175e-06 -0.00079957928764 -0.00072411428581 -0.00058535812819 -0.00044922415734 -0.00085751461836 
-0.00025706469148 -8.6901402264e-05 -0.00045291957576 -1.4209703944e-05 1.7131592007e-05 3.5312313207e-06 1.2341122472e-06 2.8798772087e-05 -8.9927955589e-06 
-1.3173902941e-06 4.0377242116e-05 -2.2658454269e-05 9.8647406317e-07 4.4757199289e-05 -3.852454677e-05 6.0524345824e-06 5.0097480837e-05 -3.8724185636e-05 
8.8266760316e-06 3.0695063301e-05 -2.7272722027e-05 2.2292323462e-06 2.7875915045e-05 -3.4260695351e-05 9.8642923496e-06 2.1021317545e-05 -2.5001096927e-05 
2.3858752586e-05 6.9684489235e-06 -1.7954713636e-05 2.5173437272e-05 -4.241371059e-06 -8.4923833885e-06 -0.00023258934641 -0.00047666834417 -9.9479941013e-05 
-0.00080017751211 -0.0010130478432 -0.00085300056358 -0.0013108502999 -0.0014853364216 -0.0015595034123 -0.0016800393403 -0.0017661844709 -0.0021058196036 
-0.0019002338867 -0.0019588090216 -0.0024595309686 -0.0019818057609 -0.0020028962105 -0.0026366397513 -0.00198549672 -0.0019825935018 -0.002658031314 
-0.0019113971763 -0.0018983215222 -0.0025976435211 -0.0017651431677 -0.0016992144612 -0.0024198060688 -0.0014946553451 -0.0014170484646 -0.0021178805791 
-0.001113623091 -0.00095621712899 -0.0016420195484 -0.00059049050047 -0.00038350659587 -0.0010045254974 2.6085251e-05 1.2267958328e-05 -0.00019786442447 
1.5746269482e-05 2.1193120808e-05 -4.4257251848e-05 2.3758247294e-05 1.9905272324e-05 -3.7465479983e-05 5.3924494765e-05 -7.0068991894e-06 -2.6914669396e-05 
5.7870404925e-05 -4.4525880106e-06 -4.9654040139e-05 5.3215470578e-05 3.3025178457e-05 -7.9899124795e-05 2.848562644e-05 6.1066344693e-05 -8.2912523724e-05 
0.00010274888123 0.0001294926507 -0.00017982485727 3.6987851062e-05 0.00010898494853 -0.00013008037158 8.6822101576e-05 0.00019890367899 -0.00029946266319 
0.00011664369976 0.00034733529366 -0.00030512033627 -3.9747690858e-05 0.00054185850437 -0.00018936968862 -0.00014528742684 0.00081150325785 -0.00024396577593 
0.0020155586507 -0.010136083863 -0.0016742075002 -0.0011857432254 -0.016737661252 0.0041552081645 -0.0083628539086 -0.0097180952549 -0.00011433644551 
-0.0004486673069 0.00034810608892 0.00017606828037 -0.00033643994384 0.00030638279102 0.00016549088625 3.2194464729e-05 0.00012682662561 0.00017815190523 
-7.6623779607e-06 0.00016564995012 0.00014002036653 5.93239323e-05 0.00015751546122 7.3809019045e-05 7.6478450131e-05 0.00010322543249 0.0001119899662 
0.00010806581622 0.0001442337758 4.6502568245e-05 0.00010218109219 7.3019312176e-05 3.4423027181e-05 7.5712101186e-05 5.2566462881e-05 9.1031823862e-05 
-3.517031237e-05 5.48363352e-05 3.8579857798e-05 -1.1886807101e-05 4.3947011892e-05 9.3495893752e-05 -5.8860507802e-05 4.711521564e-05 8.6928188e-05 
2.7242523653e-05 5.6558939042e-05 9.5336189968e-05 8.433411446e-05 7.0269955317e-05 1.0401789331e-05 0.00011583440465 6.6687195169e-05 6.7956336575e-05 
4.211351425e-05 0.00011757139793 0.00011686683135 0.00013550753803 0.00015614103903 8.5512252483e-05 -4.1951954267e-05 0.00043658461078 0.00017180872605 
-0.00016868931648 0.00065375552426 -0.00011891296372 -0.0006310701418 0.00092376861602 0.00078477849554 -0.00028748073196 0.00016805701864 -0.013069113408 
-0.011526631415 -0.012059250339 0.0001247573115 0.00037616979843 -0.0010742486005 5.7176935344e-05 -0.0015069574433 -0.0034159668227 0.0001109709556 
0.00027845957013 -0.00028357112923 0.00042695067668 0.00031138758801 -0.00086072012523 -0.0019753259896 0.00026285352065 -0.0034408829787 -0.0068570817638 
-0.0046312477715 -0.0069492900111 -0.0091944484337 -0.0090963254437 -0.0089055131655 -0.00250038435 -0.0088346970726 -0.0062757706357 -0.00087090012345 
-0.00025315412282 0.00059633032837 -0.00049021522976 0.0011297240598 -0.0011025813274 -0.00020038711122 -0.00025618382557 0.0017756118409 -0.0019141655195 
0.00045822886849 -0.00053359228029 0.00016758950016 8.7048870088e-05 0.00020648452438 0.00011866070273 -0.00038042557941 9.4826993438e-05 0.0001585076845 
-0.00064445466968 -0.005557699825 -0.0026869507668 -0.0050833050205 -0.010238460578 -0.008805427524 -0.0092986988519 -0.005090533951 -0.01154721605 
-0.0088460656958 -0.0050827370072 -0.0054054668448 -0.002173390725 -0.0012088691492 -0.00026605099094 0.00052129737944 -0.0023875710259 -0.00089969046552 
-0.00088244626983 -0.0011154117537 -0.0029204287616 -0.0061482132315 -0.0079242836939 -0.0059850840936 0.00031262412402 0.00011298889909 -0.0013715927624 
0.00020188674677 7.6579095423e-05 -0.000363874158 -0.00031997453988 0.00019722144537 0.00064735967588 -1.2697178756e-05 -0.00032675952441 -0.00037507410031 
-0.0015673982922 -0.0011057484212 -0.0021567824084 0.00069177835313 7.0782984978e-05 -0.0033606033958 -0.00031365268487 0.00016355782258 0.0014144347107 
-0.00089580260021 -0.00079202856184 -0.00090043972048 -0.00031777760666 0.0013057113976 -0.0088988231774 -0.0096288691144 -0.0088009093738 0.00063855928712 
-0.0064024973241 -0.0092243508233 -0.012062941248 -0.0016187583414 0.0005075709942 -0.0053936873596 0.00021669710863 0.00042366037957 -0.00049784979214 
0.0010623334145 -8.8674021915e-05 0.00036937121269 -0.0032475977252 -0.0023634383375 -0.00015777998121 -0.0011937636244 -8.5918504417e-05 -0.0029576826236 
-0.0056128464539 -0.0094210766056 -0.0054418539656 0.0006486083424 -0.0035091234732 -0.00064548918883 0.00055149370291 0.00049115393372 -0.0038088026172 
-0.0044621574847 -0.0052890674547 -0.0060393263828 -0.0042361703834 -0.0066730712849 -0.0073427327981 -0.0056494542947 -0.0080117798167 -0.0086703153659 
-0.0068991608606 -0.0093921132277 -0.0099757349213 -0.008178523617 -0.010610933106 -0.011056791001 -0.0094838177971 -0.01146918705 -0.011795785752 
-0.010501525117 -0.012083368655 -0.012241535884 -0.011174063345 -0.012335896874 -0.012288626778 -0.011544924043 -0.012151872827 -0.011992129807 
-0.011425617007 -0.011699551271 -0.011449977162 -0.011067188965 -0.011050310963 -0.010649883287 -0.010440690729 -0.010113864244 -0.0095557642623 
-0.0095562512826 -0.0088565100338 -0.0081704686936 -0.0084021579327 -0.0074143257047 -0.0066953912666 -0.00700366305 -0.006011366524 -0.0053170958642 
-0.0056179576575 -0.0047213445867 -0.0040720232613 -0.0043817249778 -0.0035705951697 -0.0029928859349 -0.0033225908683 -0.0025537409954 -0.0020351469754 
-0.0024042880743 0.00040855776137 -0.00022813841433 0.00026291980512 -0.00023410853135 -0.0001806461477 0.00034758465138 -0.0018175418463 -0.0018065681299 
3.3795956664e-05 -5.5106150655e-05 1.2041435051e-06 0.00016961666268 -6.5862384835e-05 -7.9661201374e-05 0.00034940626576 1.1280503412e-05 -4.0030335377e-05 
0.00027564146336 -2.8635334712e-05 -5.7016857992e-05 0.00023942411028 1.9102889977e-05 -0.00014983767564 0.00016938625452 4.5706776372e-05 -0.00016884111034 
0.00011613360916 4.6029968797e-05 -0.00016746230499 9.1215089287e-05 4.5739226394e-05 -0.00016164598912 7.0717135617e-05 4.088864237e-05 -0.00015409144755 
5.5933839152e-05 4.0083976749e-05 -0.00014691742976 5.0780039083e-05 2.0370723983e-05 -0.00013961321167 4.6281868452e-05 7.6141274615e-06 -0.00013855710481 
4.3979213461e-05 1.0154002598e-05 -0.00013137500351 -0.00043239622623 -0.00095480583564 -0.00012424672871 -0.0015935482125 -0.0020497371003 -0.0015988051756 
-0.002535638609 -0.0028416844743 -0.0028749619436 -0.0031610546068 -0.0033090507065 -0.0037538660766 -0.0035036830175 -0.003556246285 -0.0042647331285 
-0.0036696337673 -0.0036527595365 -0.0045242520543 -0.0036867721517 -0.0036023003183 -0.0045973461637 -0.0035417654434 -0.0033863834175 -0.0044778945952 
-0.0031764103655 -0.0029124567698 -0.004086707829 -0.0025840741864 -0.0022011832853 -0.003398642111 -0.0017601345669 -0.0013532198323 -0.0024541030513 
-0.00089713194373 -0.00046971178871 -0.0013866400744 -1.2723345854e-05 2.1158028036e-05 -0.00030604417875 8.3282397186e-07 2.0538468005e-05 2.6722484181e-05 
1.2059026956e-05 1.6166000975e-05 7.1208172704e-06 2.0828041684e-05 7.4539262459e-06 -1.1559254138e-05 2.678940223e-05 -3.9221914495e-06 -4.7309791167e-05 
3.8542620743e-05 -7.7069041329e-06 -4.8232116126e-05 4.3600992627e-05 -1.1492679724e-05 -1.8086008462e-05 3.0100239434e-05 -2.0294777932e-05 -1.1145507676e-05 
2.2822795169e-05 -2.4419973924e-05 7.5080031248e-06 1.3697294407e-05 -3.7670690472e-05 2.605856507e-05 4.1985253212e-06 -0.00031025135422 4.1317940273e-05 
-0.00066013655365 -0.00099188083449 -0.00059780138518 -0.0013139251435 -0.0015981364913 -0.0014274801917 -0.0018865060721 -0.0021043415233 -0.0021599556568 
0.00073227927546 -0.000144288502 -0.00021739178455 -0.0019809421929 -0.0032085071567 -0.00031869467269 0.00045154595708 -0.0002273974308 -0.0023251384679 
-0.0027547073429 -0.0053147890645 -0.00085355311859 -0.00055082465608 -0.00018981691503 9.1854064761e-06 -0.00045566058016 -1.5098360788e-05 1.6164568695e-05 
2.048567245e-05 -1.6493340784e-05 2.0958889859e-05 5.3384918511e-06 -1.5033837434e-05 3.4917499408e-05 1.5676324758e-06 -3.1938350195e-05 2.9929743313e-05 
2.9882413564e-05 5.126990115e-07 3.5669615982e-05 -2.8704869654e-05 -1.0989326473e-05 2.8227655646e-05 2.7183915464e-06 -8.2747316268e-06 8.8783591295e-06 
-1.8088883286e-05 1.0999759054e-05 -6.1390606737e-06 -3.1707950635e-05 3.5240575886e-05 -2.2347241116e-05 -1.4582671805e-05 2.8509539459e-05 -0.00042814420511 
-1.4170500318e-05 -0.00092738251874 -0.0013478608851 -0.00080075072838 -0.0018804034408 -0.0023016130029 -0.0020222363698 -0.0027609922965 -0.0030028124844 
-0.0031597575722 -0.0031829839093 -0.003369341994 -0.0039554246769 -0.0034701218328 -0.0035100697559 -0.0042621425988 -0.0035524172306 -0.0035608816661 
-0.0044142821419 -0.0034643318487 -0.0034193452924 -0.0043777990787 -0.0032632822191 -0.003139035742 -0.0041239578835 -0.002886008134 -0.0026904059808 
-0.0037607216891 -0.0023006820466 -0.0019590825465 -0.0031138259236 -0.0013857084849 -0.00090935267629 -0.0020274967387 -0.0002899986027 2.8498282318e-05 
-0.00066295304203 6.7324246521e-06 4.3287156621e-05 -4.1262425603e-05 4.9729100333e-05 5.7169013e-05 -0.00011135308831 7.8699160302e-05 5.5322246361e-05 
-0.00012307495951 6.8850333946e-05 9.2668959549e-06 -4.7784253115e-05 3.0604954184e-05 4.1673583614e-05 -5.1605303794e-05 4.8075979461e-05 7.9218987051e-05 
-0.00015714667464 4.982196523e-05 0.00013568861173 -0.00016669928971 -7.1280900236e-07 0.00014823680947 -8.6077804112e-05 6.4418022146e-05 0.00012183271259 
-0.00018332542405 4.973727818e-05 0.00022082652677 -0.00017564099233 -3.4140776266e-05 0.00042545746411 -0.00010697820017 -0.00023242537181 0.00059972343214 
-0.00017399747172 -0.00014446203458 -0.0065152263303 -0.0036252675781 -0.012991882719 -0.0045089937384 -8.6596503649e-05 -0.00013849314148 -5.2899071075e-05 
-8.8694022228e-05 0.00037162027964 -7.831237813e-05 -4.3528785451e-05 0.0002768425985 -4.474925397e-05 -3.005722832e-05 0.0002125603741 -7.3899215722e-05 
-4.7662356792e-05 0.00019198967601 -7.6345519139e-05 -1.626952799e-07 0.00012656647037 -4.2497037206e-05 2.1578993423e-05 0.00010925144523 -2.1422790802e-05 
-1.235914025e-05 5.3714725828e-05 -1.6548542628e-05 -2.6446802229e-05 9.3399534069e-05 -2.8269815252e-06 -4.3613883667e-05 0.00010768896217 3.4810079137e-06 
-5.0580263875e-05 4.8714395772e-05 -8.4249208609e-06 -4.412658214e-05 6.8631825125e-05 -2.6522640257e-05 -3.4179116232e-05 9.171972908e-05 -1.7741237393e-05 
-3.6609350614e-06 0.00015795374218 -9.6481587008e-05 9.9207852104e-06 0.00022547756591 -0.00015717327039 -8.5398991181e-05 0.00017838726579 -0.00011772724489 
-0.00014568826467 0.00010940644377 -0.0043134296341 -0.0118303598 -0.011608929624 -0.0013245205588 -0.0011283921072 -0.0012320952872 -0.0016706197902 
-0.0027165025338 -0.0020253873431 -0.0050337550952 -0.0039799921153 -0.004855764284 -0.0062401289567 -0.0046608889826 -0.0037858849183 -0.0060961042982 
-0.0064506553086 -0.0057568412689 -0.0073692673676 -0.0068691206054 -0.0072714833699 -0.0079261122317 -0.0026364173423 -0.0063674380704 0.00011058330412 
-0.00064670960042 0.00024444699178 -0.00043277257717 -0.00046083851534 -0.00041237041674 0.00012586065444 -0.0074032980793 -0.007397326673 -0.0042824736204 
-0.0074926448464 -0.0062582522268 -0.0006155328963 -4.7589983335e-05 0.00014180956502 -0.0040186134778 0.0017656937309 -0.0048830291583 -0.0026346007959 
-0.0013733339585 -0.0039257583894 -0.00089952026882 0.0016427039162 -0.00039045418018 3.9912124369e-05 0.0001649288925 -0.0056980604386 -0.0045132482028 
-0.0058026240052 -0.007390944759 2.5214620494e-05 -0.00028284806109 -4.5426843634e-05 -0.0015998359248 -0.00013981537057 0.00087736819161 -0.0005366436305 
-0.00060041722153 -0.0033247128844 -0.0030276401633 -0.00029597095871 -8.8606538299e-05 7.4333854068e-06 -0.0013918856805 -0.0015093065711 -0.0073877189248 
-0.0045406797018 -0.00032149875151 -0.00067044662073 -0.00035124333342 -0.0022829775936 -0.00099695296235 -0.0045351508049 -0.00030588904166 -0.0065053553979 
-0.0076081948686 -0.0057936679905 0.00043791695465 -0.0016687940701 0.0008224296269 -0.0062973772261 -0.0048371804091 -0.0059707832768 -0.00023864140339 
0.00046456544166 -3.4428175764e-05 0.00049669679737 -0.0055076875201 -0.00020595484968 -0.0017683595025 0.00018282004466 -0.00020049555122 -0.0055321162725 
-0.00048439936517 0.00036680788512 7.5594428803e-05 0.00043004588493 -0.00034395459079 6.6421169762e-06 0.0005459377664 -0.0027367555812 -0.00088210716729 
0.0013501727051 6.9923263687e-05 -0.0011583793627 0.00019907116311 -0.0030078960002 0.00023821258986 0.00013605598708 -0.0015782783009 0.00076724561734 
5.6676108903e-05 0.00024044542856 0.00017313110478 -0.0012955767701 0.00057181157565 -0.0022096511438 -0.0047017645504 -0.0052471798152 -0.0056964675508 
-0.0062441830524 -0.0046501704643 -0.0067949913526 -0.0073865440269 -0.0055038415314 -0.0084365376907 -0.0089635270019 -0.0070196056786 -0.0094736427249 
-0.0097813485378 -0.008556403656 -0.010213467789 -0.01040258705 -0.0094227572573 -0.010661754496 -0.010715413881 -0.01003936238 -0.010630398308 
-0.010541202095 -0.010179496413 -0.010134513137 -0.0099533745762 -0.0096607531001 -0.0097254618421 -0.0094435067035 -0.0091320579127 -0.0087897835918 
-0.0083759269034 -0.0083429293086 -0.0079243504247 -0.0073659478773 -0.0073597360976 -0.0065801939642 -0.0059497331077 -0.006239357039 -0.0052070198522 
-0.0046195169831 -0.0048279315813 -0.0039882133803 -0.0034401407131 -0.0035503372334 -0.0030141568493 -0.0025295906773 -0.0025727898909 -5.4139973816e-05 
0.00013249539961 -0.0074707064291 -0.0063755944209 -0.0075975872182 -2.6726948287e-05 -2.0861209891e-05 -7.7466066588e-05 0.00014023397723 -0.00021300334068 
0.00015474331486 0.00015693616204 -7.2170820881e-05 -2.1852612595e-05 0.00013939759231 -2.2869782679e-06 -3.3182220584e-05 0.00010589004065 -1.5945445265e-05 
-3.6953706046e-05 0.0001668555575 2.9047480986e-06 2.1343935055e-05 0.00011653894685 2.6998128009e-05 -7.4630719781e-05 8.3484711486e-05 2.9209647663e-05 
-5.4510762947e-05 6.5883506042e-05 3.3051276974e-05 -7.4526943692e-05 5.1291315822e-05 3.2895085967e-05 -7.9534536847e-05 5.8549182112e-05 3.2441911655e-05 
-8.4952485275e-05 5.0560564981e-05 5.7372659643e-06 -0.00010798571459 4.9002031549e-05 2.2391317566e-05 -0.00011793344938 3.4474674083e-05 -0.00031633917601 
6.1017413229e-06 -0.001370934531 -0.0022178664534 -0.00098048253782 -0.0030928443604 -0.0036709898456 -0.0031087515274 -0.0042651482381 -0.0045884051262 
-0.0046955802935 -0.0048852814334 -0.0050383072662 -0.0056639249706 -0.0052279922264 -0.0052636725582 -0.006120067253 -0.0053740041809 -0.0053193661652 
-0.0063375177337 -0.005299738171 -0.0051555280533 -0.0063275211983 -0.0049462449848 -0.0046506901621 -0.0060226425592 -0.004237695563 -0.003782951985 
-0.0052836866148 -0.0031125297212 -0.0025026720029 -0.0040105382149 -0.0016150120676 -0.00099935347826 -0.0021867250419 -0.00035142933968 -9.8999909518e-06 
3.935024415e-05 -7.2169680955e-05 -1.3537835037e-05 2.5315869046e-05 -4.6080012425e-05 -3.1186711786e-06 2.2746656219e-05 1.0061298797e-05 6.9439883539e-06 
9.0459271145e-06 -3.509482707e-05 1.2226011994e-05 -2.1121102756e-05 -4.3914226858e-05 1.1202297415e-05 -3.800025568e-05 -2.9312625497e-05 4.8239073825e-06 
-3.0147630686e-05 4.6497252793e-05 6.0253288669e-06 -5.7536320598e-05 8.2698454635e-05 1.0332526652e-05 -5.4524632837e-05 4.2678570393e-05 1.5843484112e-06 
-5.0303766487e-05 7.8328779692e-05 -0.00059452808126 -0.0011180799546 -0.00035828085203 -0.0015937747256 -0.0020457605664 2.68820342e-05 0.00017976423843 
-0.00039872855553 0.00019196354422 -0.0058146718441 -0.0057999430862 0.00020395413504 -0.0014544676688 -4.7551595796e-05 3.7186904937e-06 -1.7182654198e-05 
-3.2107967163e-06 2.5376257249e-05 -9.1191283441e-07 -0.0018938265838 -0.00069885311104 -2.4798572964e-05 8.367369955e-06 4.5350215271e-06 -4.1219874919e-05 
-1.6244283541e-05 -1.1274934251e-05 2.0741010831e-05 -0.0010219466695 -0.0005888896997 -3.1820481829e-05 1.8468734665e-05 -2.2404991108e-05 -1.4661699453e-05 
-1.660254789e-06 3.1017971418e-05 5.1625445366e-05 -2.2229868033e-05 9.7507162152e-06 4.1189326248e-05 -4.8039001397e-05 -3.1334255398e-06 -0.0010722046274 
-0.0017461231659 -0.0007106272504 -0.0024701852601 -0.00085915593694 0.00067364585794 -0.0035421652969 -0.0040965156536 -0.0033587072494 -0.0048219583572 
-0.0049989354691 -0.0053682042128 -0.0048565628822 -0.0050120527203 -0.005843522886 -0.0051909800788 -0.0052467171125 -0.0060134718413 -0.0052503948985 
-0.005179424108 -0.0062323496618 -0.0048853560624 -0.0047263425567 -0.0058180634912 -0.0046216337637 -0.004389675362 -0.0055335251711 -0.003875195782 
-0.0034700755376 -0.0049964869219 -0.0027592364176 -0.0020003950518 -0.0036967002489 -0.0010457645931 -8.1240643246e-05 -0.0017229527594 -4.9997197717e-05 
6.9661490072e-05 2.0665755871e-06 4.4339014137e-05 8.0264287297e-05 -0.00012692021082 5.8527343663e-05 5.837264159e-05 -0.00011385683307 5.8594227273e-05 
6.3902358762e-06 2.0300053012e-05 5.1967633855e-05 -2.0208089617e-07 -4.0611548595e-05 2.7396461972e-05 6.4187501541e-05 -6.43214897e-05 6.3930938871e-06 
0.00010479631891 -0.00012093467296 1.2901259223e-05 0.00014766837101 -0.00010518328687 2.4627938756e-06 0.000120639987 -5.8258447034e-05 -2.8202696864e-05 
0.00012728581748 -7.2987904885e-05 -4.5173061056e-05 0.00032025527145 -5.8117871654e-05 -0.0018918749394 -0.001549169916 -0.00025314874254 -0.00010059552191 
-0.004910696141 -0.0044642769774 -7.0723998941e-05 -0.00014164098696 -7.5772198469e-05 -0.0010244977229 -0.00048582253157 -0.0002878469333 0.00023587780241 
-0.0004958821836 -0.00871042819 -0.0090634111978 -0.00017865846163 -6.9316349831e-05 0.00033332501696 -0.00012151862997 -2.0484712101e-05 0.00023005211183 
-0.00013441579687 2.920364869e-06 0.0001253696912 -0.00022412138808 -6.6150668955e-05 0.00014863601166 -0.00010773102878 -1.1574249051e-05 0.00016143522535 
-8.3532382111e-05 -5.7011964029e-05 0.00011779302581 -5.4007610359e-05 -9.6448415137e-05 3.7206556112e-05 -6.6472688716e-06 -8.6966014944e-05 0.00014887376371 
2.1922843195e-05 -9.6566909146e-05 6.6211262933e-05 -1.5141585792e-05 -6.8246956737e-05 0.00017679455176 -1.4162637723e-06 -5.0834828042e-05 0.00012766172442 
-6.5096853363e-05 -0.00012151418204 0.0002544668397 -8.8548807907e-05 -0.00013407094891 0.00024848942635 -9.4321581197e-05 -6.319573589e-05 0.00025690274163 
-0.00012017069369 -0.0069681534195 -0.0070388221164 -0.0064396175298 -0.0064842937637 -0.0075533337161 -0.00735003484 -0.0059001817787 -0.006385054164 
-0.0071118343957 -0.0075801897443 -0.00039285185166 -0.0010926533417 -0.0022906382596 -0.0085177785021 -0.0088682740564 -0.0038114602018 -0.0058818001498 
-0.0057391790213 -0.0020116606923 0.00029589538845 0.00015030715657 -0.00030072216244 -7.666320333e-05 8.4373388532e-05 -0.0083209294974 -0.00084896143844 
-0.0016860774539 -0.0084101289272 -0.0065963133131 -0.0063840378555 -0.0078776520324 4.9348608654e-05 -7.8381375704e-05 -0.0058066488548 -0.0055269148527 
-0.0075098560095 -0.0074677679172 -0.0019382205697 -3.2967372182e-05 -0.0035018515928 -0.0042431568918 -0.0038529923718 -0.0010406827992 -0.00022076314231 
0.00025703644019 2.7177870278e-06 -0.00016094328066 -0.00013742998858 0.0003236945008 0.00043490337505 -0.00014928793357 -0.00013988709276 0.00015287875625 
0.00071881385521 -1.0187843824e-05 0.00011470534925 -0.00013573021416 2.2039656265e-05 -0.00059588455026 -0.006340278098 -0.0045313986049 2.3379130987e-05 
5.7691724938e-05 -0.0016027021339 -4.8187428613e-05 -0.002619643206 -0.003259172372 0.00038929383632 -0.000732996882 -0.0015088453521 0.00050722253432 
0.00059078079178 -0.00012809999641 -0.00055273862805 -0.0033154203601 -0.00022552351089 -0.00012852393247 6.8216536479e-05 -0.00029125809826 -0.002385152725 
-0.0016120973086 0.00022484836473 -0.0060959238818 -0.0066205055664 -0.0021795908033 -6.9019673137e-05 -0.0025359529132 -0.0064967826208 -0.0041886462002 
-0.0040358556599 -0.00017303343941 -0.00018382968179 0.00015330689599 -7.5599503188e-06 -0.00061367151052 -0.00021166413652 0.00015572034124 -0.0056141668503 
-0.0068396605879 -0.0063240286802 -0.0073563899099 -0.0067268929464 -0.0065490870209 0.00054291765529 0.00049682696679 -0.0051379914535 -0.005612321841 
-0.0074133819373 -0.00011569545218 -0.0028127818425 -0.0077751498082 -0.0047670488765 -0.0064339364362 -0.0027875621972 -0.0041872466471 -0.0023963497982 
-0.0027947120814 0.00059775890268 -0.00019173205754 -0.00026344136733 -0.0067932017372 -0.0069545660881 -0.0060028835545 -0.00012214350146 -7.0326435313e-05 
-9.4224310913e-05 -5.193017165e-05 -1.7689768195e-05 -0.0037698363576 -0.0041772497191 -0.0074861888292 -0.0078116777146 -0.0086472245162 -0.0088859776432 
-0.0075555420797 -0.0093692325613 -0.0095193084096 -0.0087563012571 -0.0096353592757 -0.009607307519 -0.0093190504322 -0.0090487311839 -0.0088918656205 
-0.0087655549572 -0.00801876353 -0.0080007062164 -0.0075836646198 -0.0074401273435 -0.0013008454094 0.00086486755929 -0.0062529511128 -0.0059240052924 
-0.0058196948699 -0.0052316776224 -0.0010566974824 0.00063148894243 -0.004457425286 -0.0038432931719 -0.0040806680106 -0.0030369676137 -0.0025153549039 
-0.0026176384039 -0.0020091633448 -0.0074145497976 -0.0071254131079 -0.0061186668927 -0.0074554169011 6.180612492e-05 -6.7944337261e-05 0.00014493090123 
-0.0001142258904 -0.00010383323513 -0.00010180329342 0.0001510216734 -0.00014136543831 -9.9220951546e-05 5.2680531955e-05 -1.8572764042e-05 -5.8840280606e-05 
2.1858606794e-06 5.6410704917e-05 2.0628566443e-05 -6.9884030848e-06 -0.0016545243953 0.00061793640445 5.4076594141e-06 1.0737506116e-05 -6.1003500305e-06 
2.9097905543e-05 -3.6760776948e-05 5.0374087957e-06 1.7772603434e-05 6.2783344036e-05 8.3117531674e-06 -1.8918372546e-06 -0.00038649401499 -0.0017073696199 
-0.0029829258424 -0.0039517545355 -0.0028292382919 -0.0049801930931 -0.0056584269038 -0.0049888037552 -0.0059592693093 -0.0062662617324 -0.0067359082204 
-0.006467816421 -0.0065865008563 -0.0071611761583 -0.0067309006263 -0.0067050965173 -0.0075049450248 -0.0067323490568 -0.0066305775506 -0.0075804005592 
-0.0065078535463 -0.006285935314 -0.0074414796052 -0.0059551119067 -0.0055208409924 -0.0070509410551 -0.0029971576939 -0.0018608186091 -0.00054658416154 
2.4768955368e-05 -0.0012095788233 -2.3611087773e-05 3.5269744131e-05 -2.1229523658e-05 -5.1653210037e-05 1.937253566e-05 2.7518688958e-06 -5.4892826212e-06 
1.7500805459e-05 6.1960612537e-05 4.4095713438e-06 -6.2309413839e-06 -3.4973891925e-05 1.3493912237e-06 -9.3844252136e-05 -5.8874988871e-05 -3.9070228859e-05 
-6.1518011935e-06 -8.1973884332e-05 0.00015406587992 -0.00034062342723 -0.0010656849147 -3.5926711694e-05 -0.0042211445199 -0.004478484827 -0.006896744168 
-0.0064484680336 1.4147316727e-05 4.3593300167e-05 -4.7721274442e-06 -0.0032148187817 -0.0013761722583 -0.006780532068 -0.0068039960746 -0.0058952398762 
-0.005405557584 3.701648442e-06 0.00011786315267 -1.7233054599e-05 -2.3269855352e-05 -0.00014096150631 1.4741596007e-05 2.7509834125e-06 9.8788113997e-05 
1.214149541e-05 -2.6307706956e-05 5.3501028267e-05 -2.1609426206e-05 -1.5528777749e-05 8.2280113804e-05 3.4421594167e-05 -0.001784297165 -0.0011735144761 
-1.501929746e-05 -1.8120422412e-05 -3.2997281872e-05 -5.9160324732e-05 0.00013497518166 9.5071602061e-07 -6.2547061827e-05 0.00015434775583 -9.3958146672e-05 
-7.6133403968e-05 0.0001633111053 2.8703398492e-05 0.00036775577729 -0.00018149763564 -0.00024871457963 -0.000117301657 0.00013332213299 -7.2411732689e-05 
-1.8900982381e-05 -0.00010174603396 9.1009332966e-05 0.00027138482234 -0.00011799080527 -5.0393768921e-05 5.8437275967e-05 -7.7438371922e-05 -7.8428541009e-05 
0.00021533036933 -4.4202876267e-05 -0.0012137289803 -0.00030974603542 -7.1146658883e-05 -7.7099671789e-05 0.000215734833 1.3980944701e-05 -5.1053030251e-05 
9.1069259022e-05 -7.786578387e-05 -7.7719643912e-05 -8.6842947906e-06 -0.00010013944979 -4.3254835821e-05 0.0001857396214 -7.277585387e-05 -0.00017756338034 
0.00011552920284 -5.4466353749e-05 -0.00018294105445 0.00030442655827 -5.9653627312e-05 2.0513763595e-05 3.2554494006e-06 0.00014733841312 -0.0017245260861 
-0.0017271038351 -0.0023165352519 -0.0029299377176 -0.0017010916694 -0.006698783835 -0.0090545727486 -0.0059610609128 -6.1142755618e-05 2.7630521853e-06 
0.00012296381132 -5.8795328476e-05 0.00012285529261 0.00070788086535 -0.0033183319252 -0.0063649758084 -0.0070522571258 -0.0036146992812 -0.0039767122721 
-0.0026238190965 -0.0026484376663 -0.0014184401737 -0.00020921280172 -0.00081172367012 0.0011850580052 -0.0058702323463 -8.209894075e-05 0.00020953006383 
8.2337075928e-05 -0.00047338723778 -1.3593736609e-05 -0.00010947377854 -0.0071967451111 -0.0074844474488 -4.8967326137e-05 -0.0063732846681 -0.0050336801155 
-0.0053413815922 -0.0030283579989 -0.0070043443716 -0.00015422883811 9.3752568373e-07 6.7193853557e-05 7.5671235536e-05 2.5809510269e-05 1.2747025972e-06 
3.8074231945e-05 1.3650068497e-05 -0.0041400588578 -0.0040491499821 -0.004884127283 -0.00042327074316 -0.00230204897 -0.0054891915852 -0.00078227263805 
-5.9050113904e-05 6.0230532543e-05 -0.00012682038557 -1.3219554842e-05 -0.0088132245706 -0.0088684044839 -0.0061236998702 9.0326948138e-05 -0.00016718771507 
0.00023264383544 -0.00016668742951 -0.00019810909296 -0.0056574111242 -0.0044883520387 -6.2994023641e-05 -0.00016350223204 -1.4008505502e-05 0.016301666215 
-0.099886246579 -0.00012348720238 -0.0022051822605 0.008036185073 -1.7001841881e-05 -3.0396970544e-05 -5.6497222531e-05 5.2706930283e-05 -0.0062149985646 
-0.0064032253072 -0.0065836176896 -0.0057958746862 -0.0045126578522 -0.0037504415891 -0.0058711041602 -0.0063051655115 -0.0062835386437 -0.0024558480247 
-0.0011726475356 -0.0035750000599 -7.2013358546e-05 0.00012329786428 -6.051013504e-05 -0.00018496492677 -5.1984818112e-05 -3.5119869497e-05 -0.00011205987032 
-0.00097044453913 -0.0047245018034 0.00015328095311 6.8852906421e-05 -0.0066045907135 -0.0065433925655 4.708883963e-05 -0.0030293659706 -0.00074949348956 
-0.0067860612743 0.00023255167658 -0.0072208136127 -0.0069709299848 -0.0060785768968 -0.0044533772993 -0.0068487041004 -0.006676537461 -0.0075406310122 
-0.0072190974522 5.388770503e-05 -0.00017813662841 -0.00011180920861 -0.00021070333851 -0.0074481999921 -0.0072234807288 -0.0025057764462 -0.0065622747905 
-0.0010108185936 -0.0030723777056 9.8464636636e-05 -0.0019100630367 -0.0038225991675 -0.00017669184391 0.00015210728287 -0.000282842914 -4.0926995294e-05 
-0.0072865304437 -0.0073123987649 -0.0050324504283 -0.0060404920578 0.00018212528988 -0.00039509976547 3.9728317052e-05 -0.0067094959836 -0.0057478362594 
-0.00016258907923 0.00019147013834 -0.0034213437364 -0.006654736862 -0.0067865045115 -0.0074734991815 -0.0074571325889 -1.1461792598e-05 -0.0082959907231 
-0.0084380844441 -0.0074599858736 -0.007685287577 9.0516864084e-05 -6.9027757827e-05 -3.4223594979e-05 -0.0001061556128 0.00016136939147 3.4679793085e-06 
-7.788834072e-05 0.00017732889954 -7.4111855893e-05 -8.9232468197e-05 0.00013163247491 -0.00024047039036 -1.1437499886e-05 -0.0066912108925 -0.0071928769318 
-0.0072225972412 -0.0071160080825 -0.0069838201062 -0.0068337913008 -2.4661958413e-05 -0.0019437363439 -0.0065096301077 -9.848109254e-05 -0.00077980437935 
-0.00069866405183 -0.00012299666499 -8.9481230564e-05 -0.006635293274 -0.00018224010501 5.9842329839e-05 -0.0043678605565 -0.0066226109233 -5.7180517851e-06 
0.00014791910698 -0.0043262915731 -3.1135011246e-05 -4.4842838508e-06 -1.1156078202e-05 0.00010184767135 2.0258447866e-05 -0.0073333333613 4.8831362774e-05 
-8.1965829827e-05 -0.0072767705875 -0.0076818431007 -0.0073510619852 -0.0066517732247 -0.0071414209369 -0.0074048428847 -0.0051081275018 -7.5307338048e-05 
-0.006757926177 -0.0087375590929 -0.0078871013382 -0.0072285358348 -0.0073571128138 -1.1860855524e-05 1.7857402143e-05 1.5944891025e-05 -0.0089881266842 
-0.0092943592407 -0.0035798583686 -0.002260472198 -0.001654466648 -0.00025363891796 -7.1219674217e-05 -0.006593071008 -3.7387430616e-05 -7.3876170656e-05 
-0.0073586612673 -0.0066419247428 -1.5167756998e-05 0.00024555427441 -6.0153753625e-05 -0.00011033231341 -0.0015024447206 -0.0030261483972 -0.0074510377029 
-0.0073768820609 -0.0078404398332 -0.0079125258138 -0.0086885078998 0.00010701943808 -0.0085953087508 -0.0087112962007 -0.0058847386012 -0.00037488188575 
-0.0069002780582 -0.0071315691336 -0.00023434014778 -0.0014517946865 0.00025033054505 -0.00013685432158 -0.00011862559352 -0.0038532197904 -0.0015384430624 
0.00017831598904 1.0219023264e-05 6.7991869887e-05 -0.0072127300173 -0.0046121248143 0.00015037363397 3.2153708917e-05 -0.0080941268515 -0.0083854322301 
-3.5353566566e-07 -0.00021568816594 -8.5812782215e-05 -0.00098736750518 -0.0005474815561 -0.00058187282183 -0.0022208407807 -0.0015317394683 -0.0014868174118 
-0.0039074537036 -0.0029466333656 -0.002749251044 -0.005944558241 -0.0048206683176 -0.004400493448 -0.0082690869679 -0.0069293702014 -0.0063272637168 
-0.010680681158 -0.0093372153697 -0.0083893059868 -0.013023880504 -0.011699861754 -0.010521639235 -0.015598872709 -0.014176841981 -0.012706273531 
-0.017670364378 -0.01654587536 -0.014853516865 -0.019238471948 -0.018420335537 -0.016566983437 -0.020269691052 -0.01982006577 -0.017883476719 
-0.02074664973 -0.020571490364 -0.018788276172 -0.020496621528 -0.020698373946 -0.019012305992 -0.019655347045 -0.020185529401 -0.018648851935 
-0.018289707168 -0.019103736878 -0.017758704818 -0.016434339431 -0.017519792038 -0.016441766983 -0.014303861382 -0.015526006572 -0.014729532998 
-0.011871720196 -0.01323572272 -0.012750675436 -0.0094545125591 -0.010792476984 -0.010617266762 -0.0071073898001 -0.0084338270647 -0.0085066132288 
-0.0049377076168 -0.0060828022327 -0.0064355431948 -0.0031016909267 -0.0041156612861 -0.0045554452058 -0.0016320119737 -0.0023541839202 -0.0029435073897 
-0.00059022341046 -0.0010596296378 -0.0016057573231 -7.1939251503e-05 -0.00025460715419 -0.00067834656634 -3.2517516815e-05 5.251338094e-06 -0.00016688496084 
-2.5464989171e-05 -0.062909708352 0.0079858863926 -0.010756639084 0.0014796029809 0.005301825794 -0.0075833273736 0.00045980519242 0.0017982769635 
-0.0016816959332 0.00024580639377 0.00067939520559 -0.0008733313191 0.00019242354895 0.00036530130714 -0.00095864815261 0.0001070185563 0.00020652185026 
-0.00074898856478 7.6480931061e-05 0.00012395459339 -0.00043927875659 6.3167872914e-05 6.7660779156e-05 -0.00017704849076 6.5066409533e-05 5.5884618525e-05 
-0.00026189921859 5.7783328251e-05 4.3498408271e-05 -0.0002344066942 5.3415345092e-05 2.53465958e-05 -0.0001970089185 4.5374080196e-05 2.2824394074e-05 
-0.00016068407672 6.9103456188e-05 -7.2757812621e-06 -0.00015525852493 3.5759291504e-05 3.5106407784e-05 -0.00011870165373 1.1160356209e-05 -5.1950527681e-06 
-9.6080336484e-05 -4.5525809159e-06 -3.4592141774e-05 -7.2279027766e-05 -3.5602992188e-05 -9.2340732602e-05 -0.00010971276391 -0.00010140919733 -0.00014543415829 
-0.00018143065151 -0.00015173252169 -0.00019195178841 -0.00024498717376 -0.00018857502591 -0.00022220830118 -0.00030023896822 -0.00021144072852 -0.00023271820872 
-0.0003117084415 -0.00022831587691 -0.00023933760494 -0.00031244091291 -0.00022124369511 -0.00022209556905 -0.00029634026253 -0.00021367071903 -0.00020053263261 
-0.00028176421383 -0.00018962848966 -0.00017701482706 -0.00026080327242 -0.00015409919451 -0.00013887825082 -0.00021842915413 -9.518093319e-05 -8.3515931685e-05 
-0.00015410839383 -3.6690352342e-05 -1.8226386316e-05 -9.2775706379e-05 1.5882765151e-05 6.0521820182e-06 -1.8728378218e-05 2.1988507835e-05 1.4227044441e-05 
-1.9524582547e-05 3.2616319345e-05 2.463660029e-05 -5.3084787742e-05 3.6736684949e-05 3.3807627517e-05 -7.3953006792e-05 3.6209047787e-05 3.6948664886e-05 
-8.7911855639e-05 3.7074749244e-05 4.0236335652e-05 -8.8457114172e-05 3.0056583412e-05 3.5779256378e-05 -8.1760632928e-05 2.5312210679e-05 3.4010039341e-05 
-6.8628478346e-05 1.6292594278e-05 2.305274435e-05 -4.9378379534e-05 6.2842829524e-06 1.1863399437e-05 -2.7643357129e-05 -9.7702995602e-06 -1.2686679746e-05 
-5.601686724e-06 -4.8241764219e-05 -4.9349356208e-05 -3.7290585735e-05 -8.7544987547e-05 -8.3299225051e-05 -8.4419799745e-05 -0.00011023091552 -0.00011060934355 
-0.00012002197889 -0.00011361319706 -0.00011886809549 -0.00014490406144 0.043856783906 -8.486825152e-05 -0.00010066001247 -9.1066475732e-05 -6.526770624e-05 
-8.981550106e-05 -0.00013681537584 -6.4508127497e-05 -7.5239136938e-05 -8.9749539265e-05 -5.4429921699e-05 -5.6921996519e-05 -7.3125444167e-05 -3.28622541e-05 
-3.5767940015e-05 -5.6540150506e-05 -1.1024359184e-05 -6.5283670093e-06 -3.2818985508e-05 1.1554431831e-05 8.8539371426e-06 -1.3090526976e-05 2.0970757543e-05 
1.9077579786e-05 -2.0951442247e-05 3.2510014264e-05 2.7873902123e-05 -4.5776991814e-05 3.9242140543e-05 3.67532982e-05 -7.1397396019e-05 3.4500703126e-05 
3.808364753e-05 -8.513783116e-05 4.0547681779e-05 3.6617469336e-05 -5.2488957026e-05 3.5266494729e-05 3.2501791507e-05 -5.0944391666e-05 2.1449630142e-05 
2.2198001585e-05 -4.751298903e-05 1.386008196e-05 1.7840260949e-05 -3.4111448352e-05 -1.2562896567e-06 1.8063922706e-07 -2.4752711767e-05 -1.5921521903e-05 
-3.641943759e-05 -2.056276119e-05 -5.3071941005e-05 -8.7224978841e-05 -6.7080763613e-05 -9.1027547932e-05 -0.00012906818958 -0.00011720102929 -0.00011679020674 
-0.00016339980478 -0.00016043476617 -0.00014434466904 -0.0001735871794 -0.00019809430405 -0.00015939657703 -0.0001821780795 -0.00020323809255 -0.0001597848831 
-0.00017677366297 -0.00021237201518 -0.00015318323057 -0.00016221985279 -0.00020291723483 -0.00014575477147 -0.00013698804009 -0.00017910357812 -0.00012585447332 
-0.00011274272563 -0.00016164634408 -9.1716355176e-05 -7.3719188287e-05 -0.00013937700756 -6.1913182167e-05 -2.3864083164e-05 -9.6843408211e-05 -2.6999812905e-05 
6.9062387599e-06 -5.7396111509e-05 9.0360198993e-06 1.6288036738e-05 -2.2995158027e-05 1.1510042402e-05 2.1027649501e-05 -3.0769195941e-05 1.436174927e-05 
3.3884337735e-05 -4.1088085113e-05 1.4853752074e-05 4.7466551251e-05 -4.9628166217e-05 2.9219664689e-05 4.9006171184e-05 -5.4316924833e-05 3.5185418898e-05 
5.8940149647e-05 -7.581297291e-05 5.7018922848e-05 6.9883391409e-05 -8.626190477e-05 8.2671320137e-05 9.8240924908e-05 -0.00011833014169 0.00013587685545 
0.00015525748217 -0.00013781403652 0.00022235842772 0.0001797271155 -0.00019534815814 0.00038547980863 0.00027483325644 -0.00029631328935 0.00079492053514 
0.00046200243346 -0.00044735071006 0.0017385147363 0.00064529619135 -0.00079755298495 0.0022870304708 0.002583382285 -0.0018294187891 -0.00085120431609 
0.0015262725376 -0.0057271122577 -0.012554856519 0.007733967409 0.015671565953 0.00046693501215 0.012744314661 -0.016693019466 -0.0067783044769 
0.0067164671698 -0.010493156447 0.02113934851 0.021548231181 -0.0044139262415 0.017570622136 0.025356305976 -0.013319534295 0.01766984523 
0.0067966186394 -0.050735137561 0.016092972138 0.01749621283 -0.012045881284 0.016201357886 0.014764741517 -0.01198687265 0.013883815369 
0.013220789337 -0.012708108185 0.010238345362 0.011918669121 -0.012322308787 0.01274695318 0.011792902471 -0.010670869051 0.01386391964 
0.01467224237 -0.011621537503 0.012296363468 0.012990685133 -0.010645258903 0.013465817382 0.014385281445 -0.010209210709 0.01321709887 
0.013036826448 -0.0096002264148 0.013712440668 0.014303097364 -0.01055860575 0.012598214923 0.013329802768 -0.010771949176 0.01348611481 
0.011917974213 -0.010693978938 0.011355810157 0.011940535151 -0.011602322797 0.014341634217 0.012972791138 -0.01095034553 0.014411639311 
0.012632367851 -0.011680761956 0.014971939774 0.014119904168 -0.012403627454 0.017668290366 0.014985447479 -0.012458562823 0.017058907745 
0.015579855381 -0.013342945898 0.017340789529 0.014122693959 -0.011089747785 0.028674881183 0.023724533943 -0.0087545267237 -0.049085804634 
0.012037394539 -0.0099039149302 -0.072526770179 -0.03004828977 -0.031766105179 -0.0080289216014 -0.058389999239 -0.0081593409216 0.0027120663403 
-0.021032963761 0.00074463537918 0.0019463053366 -0.0027584590542 0.00080258169322 0.0012377572771 -0.00075409432537 0.00064444398689 0.0011385051175 
-0.00069701463226 0.00066161754606 0.0009409860848 -0.00061453356318 0.00065752694133 0.00068011102746 -0.00051212086751 0.00097387754842 0.00061478801964 
-0.00074357038794 0.001058418665 0.00047337667579 -0.0007834518424 0.0020080850111 0.00025676244339 -0.0011659713918 0.0013806291622 -0.0075673470546 
-0.0023487558943 -0.01334040131 -0.036566298894 -0.020824232888 -0.035159782724 -0.083901893545 -0.044708315032 -0.0037581870667 0.044136785482 
-0.088132027156 -0.031450838921 -0.027707663454 -0.0085610466072 -0.042242826954 -0.002725695756 0.0019207907407 -0.015443659961 0.00022698785833 
0.0012413106839 -0.0014796687803 0.00068018339348 0.0013975104948 -0.0010285042765 0.00074606367836 0.0013487534588 -0.00071787211037 0.00090801221128 
0.0012416974761 -0.00059197636565 0.0010846521248 0.0011523332006 -0.00060008398796 0.0012896125228 0.0013422941254 -0.00062995366645 0.0012044470778 
0.00060407744617 -0.00087048677223 0.0017135261197 0.00029936654723 -0.0012484324188 0.0025950649201 -0.0067765085288 -0.0045435361284 -0.0094471487351 
-0.032667006496 -0.02341646135 -0.0022514439051 -0.080325773358 -0.052750034175 -0.00011443312525 0.0091941089392 -0.0085587493423 -0.081888952997 
0.020783947488 -8.4047218891e-05 -7.9490636159e-05 -0.010547629545 -0.010299070596 0.01086208956 -0.089001338114 -0.023355476196 -0.018084969191 
-0.0057643055808 0.041361252609 -0.079629932242 -0.00028400917263 -0.018015246078 -0.00012385636989 -0.0019259484007 -0.0013707804633 -0.00095577540405 
-0.00055307727237 -0.00043741880798 -0.0011468986217 -0.0048529368491 -0.0039537172671 -0.0066088288403 -0.0056409320301 -0.005013246518 -0.0084587036569 
-0.0073862241582 -0.0066186687975 -0.010287653443 -0.0092988046963 -0.0082692794158 -0.012196118499 -0.011109214923 -0.0099535804697 -0.013964900281 
-0.013061558572 -0.011615318227 -0.015377210203 -0.01467828423 -0.013176949234 -0.016430926152 -0.015880904131 -0.014394581717 -0.017028425447 
-0.016765526335 -0.015231852851 -0.017147849006 -0.017190356929 -0.01572539405 -0.016688348989 -0.016984671936 -0.015723243029 -0.015792170106 
-0.016310181109 -0.015180404394 -0.014545314115 -0.015267786844 -0.014282255827 -0.012975759722 -0.013841249932 -0.013060499966 -0.011198268779 
-0.012206365517 -0.011596305219 -0.0093597663868 -0.010375435933 -0.0099932101926 -0.0075164450563 -0.0085115080627 -0.0083115393342 -0.0056668045812 
-0.0066841889758 -0.0066360027879 -0.0041257474774 -0.0049872097366 -0.0050952946405 -0.0026943965706 -0.0034546342299 -0.0036668188354 -0.0015290104291 
-0.0021291103939 -0.0023889218264 -0.00069508772032 -0.0010902630578 -0.0013409437598 -0.00016909108336 0.0010960692173 -0.00037432548347 -0.00041301820546 
-0.056812264165 0.0099597492753 -0.00036453824188 0.002473066164 -0.00088118005994 -0.0026980956479 -0.0049709042566 -0.0022832285112 -0.0018361551414 
4.9456657917e-05 0.00087756300494 -0.00064626758668 0.00010636449446 0.00072024669088 -0.00076129910953 0.00015805872837 0.00045670161256 -0.00057196868673 
5.6331131205e-05 0.00024575226983 -0.00043930929219 8.1665614756e-05 0.0001346785368 -0.00031394799546 8.1701204007e-05 0.000159666787 -0.00025659186309 
7.6629987434e-05 0.00012399625045 -0.00022430702441 6.8824510992e-05 8.4219502851e-05 -0.00019507512599 5.729907847e-05 5.6676738733e-05 -0.00016932410588 
4.3813678569e-05 3.4330100041e-05 -0.00013952434273 3.2404688737e-05 2.211956626e-05 -0.00011198089661 1.7883777411e-05 5.0892944585e-06 -8.2809626878e-05 
-0.00022925560406 -0.00016631741208 -6.1053961803e-05 -0.00052826066556 -0.00046171927263 -0.00050435487218 -0.00077313480287 -0.00073224887739 -0.00092604810613 
-0.00094914269258 -0.00093347908362 -0.0012722075259 -0.00104393422 -0.0010670547173 -0.0014997049118 -0.0010936854867 -0.0011232343469 -0.0016218408583 
-0.0010851870503 -0.0011406037873 -0.0016661784605 -0.0010445014132 -0.0010948088025 -0.0016476145561 -0.00093214617673 -0.0010015700408 -0.0015470083809 
-0.00075254136246 -0.00083910699023 -0.0013446056375 -0.00051476744547 -0.00061222812603 -0.0010317759515 -0.00023467379348 -0.00035116327424 -0.00065462674074 
4.7850974208e-06 -4.8411998687e-05 -0.00023510011828 1.1002957028e-05 1.5654453311e-05 -3.9186049417e-06 1.4700815661e-05 3.7356746494e-05 -2.6430309057e-05 
1.6276479797e-05 5.6394549252e-05 -4.9818564371e-05 1.7249267243e-05 6.7246896498e-05 -6.2918186212e-05 1.6572720577e-05 7.2655178893e-05 -6.7285415142e-05 
1.256779579e-05 7.109767604e-05 -6.2240373968e-05 9.5205193731e-06 6.3656025511e-05 -5.1851939207e-05 6.2000767201e-06 4.9574067935e-05 -3.8259798536e-05 
3.6674278725e-06 3.3311968625e-05 -1.705279305e-05 -3.9712183582e-05 1.6919595795e-05 1.7539869126e-06 -0.00021767837566 -0.00014184554732 -0.00012251027871 
-0.00038816072224 -0.00031761049109 -0.00038129418622 -0.00051197169649 -0.00047509874265 -0.00063391182538 -0.00054917520902 -0.00055104378633 -0.00080390268993 
-0.011179212921 -0.024062363992 0.010387359305 -0.042973492104 -0.0084337299348 0.00031679051028 -0.00036951333202 -0.00038223439577 -0.00054702992192 
-0.00030851661493 -0.00033649323987 -0.00050943853654 -0.00021028705469 -0.00023900154616 -0.00040045998426 -8.8579845158e-05 -0.00013333298648 -0.00024982326278 
6.3812915768e-06 1.9057556048e-07 -7.4860331725e-05 2.7667256344e-05 6.1600209697e-06 -1.004054169e-05 4.4071994128e-05 1.4182979101e-05 -2.2784830023e-05 
5.9190487044e-05 1.1362670611e-05 -4.1079603609e-05 5.0542221839e-05 1.4228225788e-05 -5.7979626045e-05 3.8839042301e-05 2.1470814613e-05 -4.4248106561e-05 
3.4883845924e-05 2.1213223815e-05 -3.7322903445e-05 2.8590547176e-05 1.6058474126e-05 -3.3453249371e-05 1.0695542299e-05 1.6995597115e-05 -2.5359294391e-05 
6.3089089148e-06 6.8880828541e-06 -1.7534886518e-05 -6.8223663835e-05 -1.9347292662e-05 -4.3272662858e-06 -0.00030734165532 -0.00026153019419 -0.00024146522693 
-0.00051418522533 -0.00047723048788 -0.00057448579674 -0.00066858427088 -0.0006519276006 -0.00085727674701 -0.00078786423966 -0.00076051966483 -0.0010575200002 
-0.0008369347473 -0.00083590984506 -0.0011812615624 -0.00084442267466 -0.00084085536575 -0.0012228612006 -0.00081229582538 -0.00080892173051 -0.0012014253416 
-0.0007422244064 -0.00074894239041 -0.0011273898275 -0.0006401781226 -0.00062307962591 -0.0010055819071 -0.00046974409128 -0.00047447290134 -0.00080729985973 
-0.00027018486994 -0.00028032217691 -0.0005468560563 -5.3569480546e-05 -5.7106174371e-05 -0.00025064277078 -7.6516236738e-07 2.6136801397e-05 -2.354908879e-05 
2.5736240887e-06 3.2830579656e-05 -3.0626550543e-05 -3.2953670916e-06 5.311470497e-05 -3.3360271958e-05 -5.2119036165e-06 6.4329843185e-05 -4.9590240018e-05 
2.5736064361e-06 7.6622256288e-05 -6.4942835637e-05 2.2394346392e-05 7.1989037265e-05 -9.6506894002e-05 4.0687861154e-05 8.7284248808e-05 -0.0001716304849 
0.00010205293613 0.0001110389232 -0.00011731942493 0.00011759760387 0.00013110215657 -0.00018068443884 0.00024603232322 0.00018481337651 -0.00021874734258 
0.00047182215985 0.00019151790007 -0.0002721073102 0.00091412121175 0.0002202829546 -0.00039031119998 0.00096215306144 0.00045763661779 -0.00058964772094 
0.001410864767 -0.00012390703394 -0.0015489991314 0.004894032498 -0.0019115686108 -0.0022533467547 0.00063169313127 -0.0029359280607 -0.0018655879122 
-0.0019831109347 -0.00065295824476 0.00074980936864 -0.00052902129857 -0.0032650257153 -0.010920838993 -0.0046216568684 0.0015799060623 -0.0062119082748 
-0.011730120501 0.0011738931631 -0.0023786185924 -0.0020392041486 3.1646743732e-05 -0.0026798822166 -0.0038355787829 0.00022525194075 -0.0029465486791 
-0.0040678390983 0.00030809349543 -0.0024569492505 -0.0037036644868 0.00042711516831 -0.0023427089652 -0.0032971645765 0.00039335508582 -0.0021068772123 
-0.0043017812366 0.00036298811377 -0.0022032025371 -0.0035519844103 0.00040031920228 -0.0022457434854 -0.0035124958136 0.00037747425359 -0.0021891442257 
-0.0026696665863 0.00038059844246 -0.002516496713 -0.0028076201897 0.00046584030302 -0.0027410629846 -0.0024274557635 0.00040118683119 -0.0026565972379 
-0.0027894851893 0.0003223636696 -0.0027255694843 -0.0031264802749 0.00039484924983 -0.0030502528272 -0.0030506605399 0.00039597342312 -0.0033550168601 
-0.0028436765015 0.00044018201159 -0.0036952934714 -0.0032332538807 0.00024122185143 -0.0042833307931 -0.002480614036 0.0004484557061 -0.004977711563 
-0.0023194481059 0.00051998806174 -0.0040687423489 -0.0030343806798 0.00083237427411 -0.015796483038 0.0049053416788 0.0092138268354 -0.013832174939 
0.0080293375784 -0.039014363209 -0.018585720234 -0.011539800494 -0.018453829136 -0.0072971905879 -0.00074831459461 -0.01419358477 0.00023980058499 
0.00058204402836 -0.0057273854602 -0.00014476631702 0.00020564354787 -0.00036374224472 -0.00018989228262 -4.8464624635e-05 -0.00025203599014 -7.9076497832e-05 
-0.00010540588555 8.4163775179e-05 -8.7347538037e-05 -0.00021889970415 -0.00013221359641 4.3422073205e-06 -0.00027047461607 -0.00020463253633 0.00022448734234 
1.7408935181e-05 -0.00035854432397 -0.001331050965 -0.007721168214 -0.0062343422639 -0.010689827117 -0.018101813202 -0.014843726912 -0.022411566881 
-0.0091604955946 0.0010754355448 -0.01765397569 -0.015116697978 -0.0086678592428 -0.0044617522482 0.00014401961024 -0.011479845162 9.9261949757e-05 
0.00029837857594 -0.0037615547917 -2.9633406713e-06 9.0080216975e-05 -0.00051036532701 -2.7652940435e-05 -5.4326223676e-05 -0.00030151312798 -2.3353874905e-05 
-0.00012255977067 -0.00021252438501 2.9227002734e-05 -8.3072272731e-05 -0.00019844157891 0.00013001306381 5.5157818018e-05 -0.00031850882173 0.00032552982048 
0.00054578462009 -0.00056033412673 -0.0021421089718 -0.0074333229424 -0.005802236524 -0.013028166231 -0.01679251106 -0.013600327437 -0.024263530366 
-0.015178831715 -0.01587123281 -0.053132801833 0.0076414779537 -0.026105722463 -0.0032313529283 -0.0025099833721 -0.0021680558422 -0.0034799183984 
-0.017856226456 -0.020425830787 -0.00077851176366 0.0077694701412 -0.011797826329 0.00063594375285 -0.0003291940944 -0.00079427994566 -0.00052345279883 
-0.0028469021057 0.00035585018792 -0.014631574947 -0.0039077025684 -0.00081200460807 0.0024611839294 -0.015781347423 0.00084740871334 0.00057117132379 
0.0009168391215 -0.0015811873744 -0.0039485839051 0.0062965102247 -0.0042932873686 0.00073059826581 -0.0079082629705 0.002442789899 -0.0010705385935 
-0.020083627804 0.0059460619444 -0.0012603587368 -0.0069147778011 0.0012499443466 -0.0079944591003 -0.0071850438896 -0.0050840744459 -0.0042921300684 
-0.0094969857147 -0.0087572488255 -0.0076531619135 -0.011029135343 -0.010258570595 -0.0091096309708 -0.01232219308 -0.011688585631 -0.010472831546 
-0.013345934287 -0.012900374069 -0.011658393483 -0.01401063632 -0.013737509172 -0.012580835199 -0.014358910388 -0.014209652851 -0.013135837178 
-0.014186459452 -0.014345001061 -0.013306213091 -0.01363451601 -0.013957485101 -0.013062564512 -0.012734798335 -0.013196700539 -0.012428132163 
-0.011549599128 -0.012173176907 -0.0114657923 -0.010238269249 -0.010932781588 -0.01033232172 -0.0087653371549 -0.0095225345869 -0.0090536525298 
-0.007239152444 -0.0080309769933 -0.0076591661539 -0.0057799061763 -0.006571079581 -0.006299381006 -0.0044077562726 -0.0051234154114 -0.0049995309497 
-0.0031232536028 -0.0038310255921 -0.00375390621 -0.0020057655996 -0.0026070332077 -0.0026235569754 -0.0010937332348 -0.0015799957905 -0.0016527445955 
-0.00089908172269 0.0026632876645 -0.0055330128171 -8.4183174716e-05 0.00069241207229 0.0013492789489 -0.0017012719814 0.0070546293402 -0.015442181461 
-0.00034406700772 0.0006608983922 -0.00037327401211 -0.00073442326336 -0.00127852568 6.229978617e-05 0.0004863011055 5.3818808352e-05 0.00033538826384 
-0.0003271062332 5.9628990379e-05 0.00022453974725 -0.00026977468677 5.8557959827e-05 0.00015872784429 -0.00022046681301 5.4768307445e-05 0.00011465415346 
-0.00019535278516 5.1688771757e-05 8.5365443549e-05 -0.0001750233929 3.9149721428e-05 6.1460633728e-05 -0.0001658976446 2.8365784731e-05 4.3165844822e-05 
-0.0001385790773 1.6810010886e-05 3.165418653e-05 -0.0001156167206 -6.6416004139e-05 2.4855148351e-05 -9.085293727e-05 -0.00083262506793 -0.00053145026708 
-0.00033684683358 -0.0015108548333 -0.0012575179087 -0.0013369493656 -0.0020411835771 -0.0018648185035 -0.002200494354 -0.0023904841707 -0.0023048147107 
-0.0028679880409 -0.0026101012424 -0.0025873840333 -0.0033212297668 -0.0026599430766 -0.0026830935377 -0.0035565441707 -0.0025834662188 -0.0026420616485 
-0.0035592475625 -0.0023794030333 -0.0024936390739 -0.0033911516165 -0.0020372246669 -0.0022226629354 -0.0030630634141 -0.0015307574395 -0.0017895646523 
-0.0025484266278 -0.0009034388444 -0.0012043341549 -0.0018424064929 -0.00016990041702 -0.00050612984562 -0.00094978182272 1.3500439643e-05 -1.9641005035e-06 
1.1616118135e-05 1.2899809802e-05 1.1903971817e-05 -1.8619950911e-06 1.2708853166e-05 2.4618909108e-05 -1.8842008985e-05 8.7821983581e-06 3.5848263773e-05 
-3.008502235e-05 3.4336334638e-06 4.7177369397e-05 -3.3137038371e-05 -1.1716595724e-06 5.4024508327e-05 -2.6217830323e-05 -7.2072842992e-06 4.9934272495e-05 
-2.1058261103e-05 -1.1158867776e-05 4.1552926254e-05 -1.0918778951e-05 -2.0152714858e-05 3.0968762505e-05 9.6655367572e-06 -2.4093249998e-05 8.4551813861e-06 
3.5317602218e-05 -0.00037324918113 -0.00016672671959 -6.2734420303e-05 -0.00078869738154 -0.00058722100541 -0.00062973668778 -0.0011328446285 -0.00096758411824 
-0.0011624465001 -0.0013816060264 -0.0013257345625 -0.0016550657584 -0.00057168783159 6.7731262383e-05 -0.00092538043548 -0.00038912458561 -0.00051548329278 
-3.5054828666e-05 -0.0001969000185 -0.00038594296365 2.6728028445e-05 -4.9535154929e-06 1.891277256e-05 3.5929906282e-05 -6.2763952399e-06 1.1052057998e-05 
5.583882874e-05 -5.3726863307e-06 -9.2225994306e-07 3.7754914077e-05 -7.7330891645e-06 -1.2719183731e-05 4.113953528e-05 3.6466285645e-06 -3.3215004095e-05 
3.0860454134e-05 1.4622196595e-05 -2.7967303445e-05 2.5682277802e-05 1.480735815e-05 -2.2356867532e-05 1.552679986e-07 1.3093748403e-05 -2.0673053582e-05 
-7.5223583734e-06 1.6459396949e-05 -2.035641625e-05 -1.1626722655e-05 1.2868291721e-05 -1.185929288e-05 -0.00056917559532 -0.00032848271517 -0.00019564882417 
-0.0011301428079 -0.00092416633594 -0.0010376530205 -0.0015597536518 -0.001405592426 -0.0017180322395 -0.0018427442431 -0.0017346856158 -0.0022179775201 
-0.0020252143971 -0.0019645376744 -0.0025551596542 -0.0020727829493 -0.0020522366731 -0.0027299315153 -0.0020258411384 -0.0020429170537 -0.002748241535 
-0.0018619304711 -0.0018943720804 -0.0026150501158 -0.0015932994011 -0.0016726266591 -0.0023292531822 -0.0012247171226 -0.0013468481516 -0.0019328637122 
-0.0007202143255 -0.00090933692334 -0.0013743568283 -0.00017637278228 -0.0003747139074 -0.00069942132796 2.383499678e-05 1.2539448219e-05 -4.3958994007e-05 
1.3217276661e-05 1.3740575408e-05 -0.00010989890919 2.2043989181e-07 3.9188508132e-05 -0.00010649721521 8.46669237e-07 6.1469472679e-05 -3.6504186166e-05 
9.2249539982e-06 6.1459253849e-05 -6.8123860207e-05 7.907692999e-05 6.3869587623e-05 -0.00014601089937 5.9314627322e-05 7.9722327767e-05 -0.0001657894473 
0.0001305121192 7.054726294e-05 -0.00011452371225 9.3340736704e-05 0.00012101392462 -0.00013369529887 0.00020598018202 8.0711335835e-05 -0.00028442820815 
0.0004595860238 7.4141227183e-05 -0.00024997974282 0.00066266828049 -6.3059536699e-05 -0.00024437646679 0.00075505409451 -0.00010609786537 -0.0002954231259 
0.00084438453164 -0.00038048613306 -0.00084255484197 -0.00028388072997 -0.00061312886636 -0.0013311523931 -0.0014887567417 -0.00046098486207 0.0004459483138 
-0.0014008499816 -7.7197089544e-05 0.00027671501435 -0.0008215394343 -0.0016164815271 0.0010529313067 -9.9366733081e-05 -0.00026197699558 0.0001687120497 
-3.1559823449e-05 0.00019630106783 0.00018637794473 -5.1442557767e-05 5.5785970484e-05 0.00020128836177 1.9362315589e-05 -0.00011720135404 0.00012824453317 
-1.8611529941e-06 -9.5602210789e-05 6.4089543518e-05 0.00016161287857 -0.00017389458554 5.7802906207e-05 0.00014583300434 -0.00019668496903 0.00010722419576 
0.00013150003146 -0.00016338300871 5.3650711251e-05 0.00011083649464 -7.1166998018e-05 4.5718263273e-05 5.3872888274e-05 -2.6505669613e-05 4.7236541718e-05 
-3.0689941714e-05 6.6069735754e-05 6.0597173983e-05 -4.7530608977e-05 5.8528606881e-05 6.7038773162e-05 1.7735523898e-05 -6.9560825159e-05 7.6009773907e-05 
-0.00010051259066 -6.8129887574e-05 9.7981854337e-05 -0.00018403758474 -5.1642600797e-05 0.00018630253675 -2.8572713135e-05 -0.00016695893132 0.00029771817098 
-0.0002083429083 -0.0002428243764 0.0002164007773 1.1655259883e-05 -0.00016948424247 0.00028475148497 -0.00054051586692 -6.1161730838e-05 0.00052329823535 
-0.0068191136714 -0.010461660632 -0.00012107118371 0.00013456304396 0.00023500582188 0.00031033375581 2.271994083e-05 0.000606992383 -0.00045957953664 
-0.00039799032882 -0.00061501717286 0.00076617153512 -0.0073980089222 -0.0078517397104 -0.0095583688992 -0.0087083071158 -0.0060972660859 -0.0035943313402 
-0.0093300892723 -0.001745482753 0.00033709615097 -0.0064561334929 0.0001339329487 0.0003616996122 -0.003294897519 0.00011849221322 0.00029653346203 
-0.00082814346503 0.00011709164572 0.00021625313166 -0.00048130933773 0.00017548670251 0.00025398994078 -0.0010009742166 0.00014814952142 -0.0018998660722 
-0.0036631015838 -0.0045198086867 -0.0064011637884 -0.0070836755131 -0.0087208321315 -0.0091954940071 -0.009470685031 -0.0095602999638 -0.0078284321077 
-0.0080960972976 -0.014333995805 0.0016708051377 -0.0055134729031 -0.0030005532504 -0.0085136250356 -0.0010190802709 0.00044387662534 -0.0056310423526 
0.00016592968435 0.0003459723423 -0.0028028759437 0.0001375260731 0.00030597537619 -0.00086061865218 0.00013319580357 0.00033399364522 -0.00042428030243 
0.00015218447723 0.00049982438511 -0.0010266099749 1.6995198959e-05 -0.0018511093655 -0.0032463351725 -0.0043463929403 -0.0062741585852 -0.0063241072685 
-0.009251955002 -0.0091275128525 -0.0088725779429 -0.010647736423 -0.0046834170614 -0.0069935026889 -0.016143184223 -0.0088741773184 -0.014903182951 
-0.0065068684302 -0.0057364551244 -0.0049373497126 -0.0062659487616 -0.00065579920951 -0.00075832152988 -0.00078627737986 -0.0048000878428 -0.011213093053 
-0.0076855949695 0.00019336669817 -0.0010631105971 -0.00085315750319 -0.00089269753913 -0.0037359578879 -0.003759414634 -0.0030378042903 -0.0034916221205 
0.0014537024909 0.00076659652823 -0.00039997833943 -0.00048378416527 -0.000514035988 -0.0032042105913 -0.00022769648334 0.0001418818169 -0.0015744791875 
-0.0011946863729 -0.00077549007416 0.00099278637077 -0.00038338533307 -0.00034451149979 0.00039549385495 0.0012166487172 -0.0043093326963 -0.0018026289711 
0.001994320665 -0.0019855231186 0.00036455278358 0.00097237717081 0.00033053217922 -0.0049288990491 -0.010962374872 -0.0041288879554 0.00093767330063 
-0.0081125357821 -0.010781886383 0.00077402259232 0.0010192803597 -0.00078342376881 0.00044920428717 0.00025508993929 -0.0071585669335 -0.0065031185014 
-0.010826739045 -0.010386654497 -0.011664837988 -0.011372438423 -0.010320918341 -0.012106593358 -0.011979735197 -0.011113739236 -0.01219568909 
-0.012197885458 -0.011405726836 -0.011847975723 -0.012050022845 -0.011412357487 -0.011168400976 -0.011493612632 -0.010883723365 -0.01017770905 
-0.010630229093 -0.010106826596 -0.0090476877615 -0.0095410981967 -0.0090036656858 -0.0078311687922 -0.0084386031268 -0.0078668616511 -0.0065532513037 
-0.0071784170811 -0.0066825548581 -0.005312188723 -0.0059145882462 -0.0054719419091 -0.0041441208298 -0.0047687244313 -0.0043622487977 -0.0030300315118 
-0.0036291428898 -0.0033450566051 -0.0020344685225 -0.0025822532732 -0.0024025267386 -0.0016661048812 -0.0036466129132 -0.0062683501158 0.00026369150559 
-0.00036422787918 1.6815551642e-05 -3.1171633381e-05 4.5597474996e-05 0.00018575408971 3.8193175766e-05 0.00024027071755 -0.00016675801174 1.7231134283e-05 
0.00035910478881 -0.0001971787491 5.0648329581e-05 0.00014607967404 -0.0001340618892 4.9886124353e-05 0.00011625532119 -0.00012876168156 4.7344453922e-05 
0.00010126090693 -0.00015370253647 3.0328911933e-05 7.4279910558e-05 -0.00015688814701 1.207526874e-05 6.0602278974e-05 -0.00014612916628 1.454034127e-05 
5.7133967932e-05 -9.5016390737e-05 -0.00045572160582 5.299999861e-05 2.8309396621e-05 -0.0018596372857 -0.0012642571139 -0.00092268961931 -0.0029985029292 
-0.0025533735916 -0.0026609938552 -0.0038461184491 -0.0035474006758 -0.0040502337329 -0.0043823451244 -0.004207568653 -0.0050278234815 -0.0045597881669 
-0.004538088198 -0.0055474538648 -0.0045212370138 -0.0045924371223 -0.0057023642204 -0.0042774188366 -0.0044259352363 -0.0056006599713 -0.0038373694785 
-0.0040774026978 -0.0052528299426 -0.0031625865431 -0.0035222135074 -0.0046255847958 -0.0022166348401 -0.0026991760097 -0.0036844990664 -0.00093865094675 
-0.0015642063186 -0.0023651359945 1.9430275937e-05 -0.0002007563411 -0.00070648658931 1.9501802487e-05 -6.6378532404e-06 2.0278646265e-07 1.7889686222e-05 
7.0752015276e-06 1.0667658831e-06 9.2019184122e-06 9.4062866157e-06 -2.6283766651e-06 -9.979942891e-06 2.1231406829e-05 -3.8234182187e-05 -1.8779936671e-05 
3.1074931804e-05 7.7271187423e-06 -2.7635254459e-05 3.1740003371e-05 4.3024816074e-05 -3.9029833538e-05 2.7825552569e-05 5.6125598938e-05 -5.4130292544e-05 
1.5389064212e-05 5.9664937546e-05 -4.8022246655e-05 6.9116693638e-06 6.625784606e-05 -0.00041359896283 -3.2800023084e-05 6.8302927882e-05 -0.0011615931717 
-0.00081604335552 -0.0007867787195 -0.001805849002 -0.0014982665465 -0.0016853461059 -0.0023576406981 -0.0020654633484 -0.0024154904194 -0.00028757228989 
0.00028461951735 0.0026916454878 -0.0056313276597 -4.7261700034e-05 -0.00015603202691 -8.8152727235e-05 -8.0519626504e-05 -0.00014921791874 0.00016674817264 
0.0022706374251 -0.003654242384 -0.0023751239223 0.00011985526355 -9.519733265e-05 8.6276288905e-06 -0.00013985879769 1.6781854374e-05 -0.00048497269852 
-0.00078653996847 -0.0004201012246 3.7505589091e-05 -3.6572821325e-05 4.5487333075e-05 2.7284553062e-05 -3.0028225181e-05 3.5010617757e-05 3.7080016817e-05 
-1.0778460845e-05 -2.2306078082e-06 2.481964994e-05 -2.7743706884e-06 -2.6158848422e-05 2.6101953162e-05 4.3339481741e-06 -1.4865754502e-05 5.0296462522e-06 
1.6809184409e-05 2.4435064673e-07 -1.9948448652e-05 1.8364968442e-05 -2.9964279597e-05 -2.3271375874e-05 3.9948884874e-05 -5.3695839109e-06 -0.00054173280073 
-1.3634417305e-05 5.8091761114e-06 -0.0016751122197 -0.001160388764 -0.0011120006601 -0.0025080002307 -0.0021651948574 -0.0023872064678 -0.0031232048564 
-0.0028718077687 -0.0034060344865 -0.003517224357 -0.003349380387 -0.0040997027082 -0.0036674550468 -0.0036034076131 -0.0045099217535 -0.0036841030671 
-0.0036571598553 -0.0046384904712 -0.0034483876809 -0.0035431022154 -0.0045000362571 -0.0030080178353 -0.0031749867192 -0.0041223523663 -0.0023930020691 
-0.0026510681729 -0.0035115395764 -0.0015200683324 -0.0019078660517 -0.0025806138871 -0.00052829929795 -0.00097141081654 -0.0014061058276 0.00011381999842 
-4.4652604313e-05 -0.00032567399925 8.5376078252e-05 4.2592959781e-05 -6.6586716802e-05 3.2738433778e-05 3.9824367255e-05 -8.1326214215e-05 1.3423503758e-05 
1.7760600962e-05 -8.9587486227e-05 6.0462266103e-05 5.8561896216e-05 -4.4640343398e-05 0.00010113532142 6.1917914881e-05 -0.00012244977533 8.7845538856e-05 
4.782645924e-05 -0.00013207966237 0.00012364881921 1.6793919226e-05 -0.00014253647623 0.00010943441452 5.0741025559e-05 -8.4340653929e-05 0.00014074159613 
9.4753927221e-05 -0.00021287076688 0.00032148497702 -1.2006846661e-05 -0.00030332505672 0.00046782038396 -0.00018280890853 -0.0002324933205 0.00053254851106 
-0.00037694089469 -0.00016298333403 -0.00032072237639 -0.001467376538 -0.0015757924148 -0.0004857726723 -0.00030505593461 -0.00027928419116 -4.2337069749e-05 
-5.0985645698e-05 -1.3698304667e-05 0.00037302516115 0.00069266053025 -0.00014499218605 -0.0011625521073 0.00038664554553 -0.00046110357788 0.00051730167086 
-0.00025064627733 -0.0026896198579 0.00048241959122 -0.00011359742727 9.2530815744e-05 0.00019787308943 -9.2776638731e-05 -7.4821699315e-05 -0.00015110426621 
0.00026627333551 -5.3180736624e-05 -0.00013051590564 6.5807425434e-05 -2.6220588006e-05 -3.3426026784e-05 6.242426229e-05 -1.879879754e-05 -8.5034629904e-05 
0.0001611872316 -4.160635836e-06 -7.1195315589e-05 0.0001022262836 -9.8077510535e-06 -1.7085846554e-05 4.5931026263e-05 -3.3365466638e-05 -3.4261056706e-06 
3.9233084048e-05 -5.4230587587e-05 1.6266118662e-05 6.5889093855e-05 -5.1308964053e-05 1.1575374486e-05 4.8927780833e-05 -4.9801922282e-05 -6.2870418158e-06 
8.6565678394e-05 -0.00012476927468 -3.8293324057e-05 0.0001607031684 -0.00018034736283 -9.5331605023e-05 0.00028062194777 -0.00017604410877 -6.6941481164e-05 
0.00038886541218 -0.00021731737084 -0.00019659245397 0.0004267916177 -6.9882704364e-05 -0.0014831433539 -0.00019473469358 -0.0097649058533 -0.0092329775504 
-0.0092722930354 -8.5129310193e-05 0.0001096686847 -8.6459591753e-05 0.00012899345353 0.00017954477833 -0.00014057579327 -0.0002919375955 -0.0010736935075 
-0.0012741021272 -0.0011952148206 -0.0085282131601 -0.0078929458949 -0.0066728516358 -0.0080257584165 -0.013218852467 -0.0029862015033 -0.0040653248307 
-0.0064709348466 -0.0056687261805 -0.0042771952459 -0.0035518999121 -0.0073535396331 -0.0025553416704 -0.0019827687052 -0.0063113816161 -0.0016147737757 
-0.0018698500002 -0.005468494568 -0.0021222013731 -0.0028140097167 -0.0053866567707 -0.0038086770071 -0.0046192472265 -0.0065083963735 -0.0062670386624 
-0.006803882911 -0.0076696793055 -0.0074159252507 -0.0062294939898 -0.0075075409085 -0.0051448945424 -0.0072625615819 -0.0016735945976 -0.0063656614451 
-0.0053433921974 -0.0043794163366 -0.0035504484565 -0.0071141800437 -0.0028863952532 -0.0023183499717 -0.0061080441916 -0.0021625326842 -0.0020925145216 
-0.0054444100263 -0.0025290893128 -0.0029767245522 -0.0055402374054 -0.0037950229512 -0.0044490624713 -0.0062047696884 -0.0056511843513 -0.0061569032802 
-0.0069607293003 -0.0071608712154 -0.0063925773278 -0.0070919450665 -0.0057997251875 -0.0024054705537 -0.0046819947214 -0.0069235446106 -0.012547623951 
-0.011520996887 -0.0076312409225 -0.0029554825418 0.00139969178 -0.0065072648369 -0.0068949909368 -0.0072719319226 -0.0053341566696 -0.0075512142343 
-0.0072589412442 -0.0078165798965 -0.0066745471501 -9.0996536643e-05 -0.0035138175245 -0.0029583905943 -0.0005441526749 0.00050012726922 0.00025678631677 
-0.00033981872529 9.6736365857e-06 -0.0014646974329 -0.00053279207924 -0.0017345634788 -0.00032471927457 -0.00042723282372 -0.0046890818358 -0.0040323803276 
-0.0032665889588 -0.00021371266089 -5.3730674411e-05 0.000304420283 0.00014211311356 -0.00054260179659 0.00012836040699 -0.0025266106767 -0.000759184262 
0.00049471867669 -0.00023725986145 0.00036839114551 -0.00059786601558 -3.2218267472e-05 -0.0054380027533 -0.0058909377181 -0.0052643641755 5.5566639907e-05 
0.00038198332302 -0.00035476676645 -0.00018979451112 0.00078678719271 -0.0016660960411 6.9155136673e-05 -0.00020959680566 0.00080702902963 0.00051621585514 
-0.0033732688717 -0.0040175605136 -0.00022469883272 0.0011079561991 -0.0005060099725 0.0010677238875 0.00018654730455 -0.0020634717415 0.00036166962851 
-5.974593038e-05 0.00034555535809 -0.0002285600721 -0.0096371183329 -0.0092365028469 -0.010526094129 -0.010630222355 -0.0099121964601 -0.01021314406 
-0.0097353852033 -0.0091224769339 -0.0095143005739 -0.0091208297143 -0.0078475338873 -0.0083223934262 -0.0080332581627 -0.0065962952407 -0.0070552510797 
-0.0065610862833 -0.0056731494888 -0.0061975804758 -0.0055005472681 -0.0043912467716 -0.0049272185113 -0.0044535512476 -0.0034231248151 -0.0039177233251 
-0.0033568919059 -0.0024990067299 -0.0030144401261 -0.0025378867659 -0.0021987301057 0.00018565317291 -4.2414567566e-05 -7.0694335207e-06 -0.00034379172004 
4.4278276735e-05 4.2277950358e-06 1.5861489757e-05 8.331714771e-05 1.9638363051e-05 6.3986098415e-05 4.2555286689e-05 5.8762578518e-05 -0.00011964415554 
-5.7799640403e-06 5.6233332431e-05 2.7045229936e-05 8.0679601852e-06 5.3135259659e-05 -8.9172474763e-05 -4.6819650037e-06 6.3961341233e-05 0.000103331314 
-0.0011863087615 -6.5611337212e-05 1.1557835433e-05 -0.0034307284971 -0.0025264817386 -0.0019696916926 -0.004994088581 -0.0044069407782 -0.0045423980718 
-0.0058880628365 -0.0056092255698 -0.0062680735211 -0.006283573051 -0.0062623457399 -0.0072548818643 -0.0063563560652 -0.0064123143384 -0.0075915887553 
-0.0061965442098 -0.0063602474075 -0.0075670076334 -0.0058416471561 -0.0060936283862 -0.0073347942528 -0.0051756090618 -0.0055523945656 -0.0068564898329 
-0.0040656522236 -0.0046221370701 -0.0059152997189 -0.0024073663312 -0.0032740439667 -0.0043860426238 -0.000223974696 -0.0013064980832 -0.002186933982 
5.9663030066e-05 -3.7159412357e-06 -4.6003525198e-05 5.615932995e-05 -2.6736399015e-05 -8.8047939694e-05 9.0705796325e-06 -1.2225567518e-05 0.00010590354168 
-1.6427246234e-05 8.5250718205e-07 -5.1564464379e-05 -7.552756414e-05 8.8654933097e-06 -6.526032994e-06 -0.00010788581143 1.8304062367e-05 8.9089085227e-05 
-8.4167180689e-05 9.7538159545e-06 0.00016490068857 -9.2571444584e-05 -1.3545461817e-05 9.1054722828e-05 -7.2723610441e-05 6.3935497243e-06 3.8820429225e-05 
-0.00037377546814 -3.1124349147e-06 0.0001058485255 -0.001514762054 -0.0009771422557 -0.00090773664774 -0.0025021064384 -0.0020559791408 -0.0022606297486 
-0.0029192662084 -0.00015061623009 -0.000352604488 8.3384202847e-06 -9.7936823342e-05 -1.6610502833e-06 -1.8498604696e-05 -0.00015932870618 -0.00016012651248 
-2.5816794022e-06 -3.2288847962e-05 6.8224031339e-05 -0.00054307837395 -0.0010210321296 -0.00043459003135 3.1195510588e-05 -5.0495462191e-05 9.1998304459e-05 
1.5082587134e-05 -1.4420975884e-05 9.9208665831e-06 1.2301951404e-05 -8.1213953577e-06 -2.2907475031e-05 3.3185072193e-05 -2.4524700385e-06 4.9980933189e-05 
-1.6423057935e-05 7.7536361951e-06 7.8063442482e-06 2.4260011713e-05 5.2005619714e-05 -4.9060629109e-06 1.2846318475e-05 5.5636483624e-05 -3.530444758e-05 
-0.0017777704471 -0.00090486497263 -0.00046774668454 -0.0032633271319 -0.0026397345499 -0.0026082308978 -0.0043784649524 -0.0039346386734 -0.0044056923167 
-0.005025520937 -0.0047133936186 -0.0055612817151 -0.0053274027558 -0.0052493404803 -0.0061780342537 -0.0055467073559 -0.0054813684023 -0.0066009394566 
-0.0053188483477 -0.0053777481162 -0.0066007770867 -0.0047938797642 -0.0050363977796 -0.0061303699171 -0.0038741025108 -0.0042840915721 -0.0052181273209 
-0.0026465500551 -0.0033763277687 -0.0042568779318 -0.00042601224901 -0.0011576890058 -0.0017089312346 0.00010445002771 5.4459353701e-05 2.3521365504e-05 
-5.9527172639e-06 -0.00019902453359 -3.2923447037e-05 3.6658092522e-06 -6.2942882527e-05 8.7074443538e-05 2.3566357224e-05 -1.6296980275e-05 8.209875891e-05 
4.9521664589e-05 -3.821497875e-05 8.3182199765e-05 2.3508854621e-05 -4.9890543517e-05 0.00010846307901 2.8468857017e-05 -3.6894399795e-05 9.4145201916e-05 
-1.2751547774e-05 -1.7673593236e-05 0.00011435006838 4.5068159307e-05 -0.0001341458412 0.00012363862752 -4.2717693003e-05 -0.00020621823219 0.00033240638277 
9.3779279042e-05 -7.3645911146e-05 0.00029258092369 -0.00038401970089 0.00032563853467 -0.00015810215342 -0.00022102146127 -7.9252436332e-05 2.7074022991e-05 
1.7572339856e-05 -0.00028402884076 0.00025189815703 -0.00093648927231 0.00013176646408 0.0002003197146 0.00048290756113 -3.3199455425e-06 -0.00011339624976 
7.7747297762e-05 -3.9295752098e-05 -0.00014277940329 0.000111379592 -2.6708449021e-05 -7.1469301979e-05 5.5464099118e-05 -6.9352219043e-05 -2.2697354119e-05 
8.5268710378e-05 -9.3229093393e-05 -2.9427087871e-05 6.6164803434e-05 -7.657368825e-05 9.9806984886e-06 9.4940163811e-05 -0.00017312023982 -1.1081371898e-05 
0.00010415989065 -0.00016785519462 -5.646096267e-05 0.0002231845663 -0.00019803038905 -6.8717675179e-05 0.00027645969661 -0.00030705622812 -1.8148016854e-05 
0.00026135646251 -0.00033805308883 -6.2888321171e-05 0.00041098469536 0.00060659741468 -0.00038973379246 0.00089728380641 0.00017658468106 -0.00027964967818 
-7.6941452288e-05 8.6742265135e-05 -0.0038812797027 -0.00034456483127 -9.9561385373e-05 7.7607852531e-05 -0.0086130844057 -0.008179469048 -0.0082648230395 
-5.1932663107e-06 0.0001055779174 -1.7431333671e-05 -0.0071270213065 -0.0069225856995 -0.0014985907938 -0.0018483229449 -0.0065035378146 -0.0067724355869 
-0.0061947990282 -0.0058403348639 -0.0071781981659 -0.0062155439027 -0.0061895175895 -0.0075607551259 -0.0056547805381 -0.0057179300227 -0.0074793769341 
-0.0063534200433 -0.0064441419905 -0.007638303732 -0.0072014844376 -0.0070993133574 -0.0078618190695 -0.0071023299067 -0.0057627036277 -0.0069938413052 
-2.818454548e-05 -0.0033273013702 2.632433132e-05 5.1237831001e-05 -3.2881689814e-06 -4.6050018809e-05 0.00013029299277 -2.7249087635e-05 -0.00016779878344 
-6.0122437346e-06 -8.2546613555e-05 -0.0080651623797 -0.00091952858115 -0.0065943335285 -0.0062771574604 -0.0081496886001 -0.00611123304 -0.0059489789168 
-0.0080185274498 -0.005969777001 -0.0059889345152 -0.0078732942067 -0.0062424693827 -0.0062704732965 -0.0077884581788 -0.0066213105378 -0.0063891421687 
-0.0074929984246 -0.006416108972 -0.0055746929556 -0.0067068641689 -0.0046463570671 -0.0024316454441 -0.00035298869323 -0.010552053755 -0.010527051278 
-0.01007066872 -0.010373532531 -0.010165667515 -0.009898895814 -0.000109595973 -0.0093101063084 0.00048343037446 -0.00051206081244 0.00098169509345 
-0.0010854190752 -0.00014730290005 0.00045403754655 -1.2747821441e-06 3.6080816709e-05 -0.00051800784058 0.00022348578311 -0.0016161156002 -0.00016593205053 
-0.0045109163448 -0.00012705081511 0.00013282331068 8.9610771487e-05 -0.004311832302 1.2392649091e-05 9.9248169824e-05 -0.0060852386902 -0.0054957619902 
-4.8668367554e-05 -6.6154654025e-05 0.0002519031439 -2.0389369191e-05 0.00013640194907 -6.7713923834e-05 -0.0033363871061 2.6186399713e-05 -7.9251056583e-05 
6.1275564939e-05 0.00037371705615 -0.0048724734752 -0.0043245371354 -0.004257104733 -0.00041098486381 -0.0071362922844 -0.0072875502839 -0.0079686350238 
-0.00016479548047 -0.0011069093359 -0.00012070518316 0.00031497463828 -0.00014930129184 0.0012154038871 -0.0017642620457 -0.0005405924506 -0.00032817674604 
-0.0017003377962 -0.0001833558512 -0.0064180419287 -0.0067249539505 -0.0057641413912 -0.0039929896101 -0.0070344850685 -0.0074665245069 -0.0068959359697 
-0.0014375999676 -0.0032951077837 -0.0049500138465 -0.0052683352919 -0.0065626647857 -0.0066153178214 -0.0036732853749 -9.7854328748e-05 0.00047935968493 
-0.0001757880764 -0.0086309077396 -0.0080988898524 0.00030240895653 -0.010016680728 -0.0030776201356 -0.0091213104843 -0.0094156558738 -0.0040823877701 
-0.00037659645032 4.8988758031e-05 -2.0954942835e-05 7.1323785233e-05 -0.005241984819 -0.0057372524498 -0.0037656019601 -0.0040370080159 -0.0032807849901 
-0.0031205300262 -0.085011521218 -0.0023060301286 -0.0027039931682 -0.0019328232585 -0.0074195523419 -0.0080694452013 -0.006033403882 -0.0077312280958 
-0.007295630106 -0.0055954009244 -0.0038598938222 0.00023367566017 -8.4418666246e-05 -6.4998425013e-06 8.2124853411e-06 -0.0025919711485 -0.0008346037904 
-0.0054491411127 -0.0043379138712 -0.0067408418185 -0.0063950707516 -0.0072725551494 -0.0071786858647 -0.0072926063444 -0.0073523380232 -0.0071794150803 
-0.007254149295 -0.0070177864334 -0.0071047390099 -0.006739434211 -0.0068769509032 -0.0044607093139 -0.0052772851663 -0.0017165509062 -0.0031190454237 
-8.4379388481e-05 1.7547012465e-05 -0.00020530962078 2.5336084256e-05 0.00013202776222 -0.00014374314625 2.4489128759e-05 0.00024635511804 -1.133044578e-05 
6.2974479874e-05 9.3564630317e-06 -5.7251893646e-05 -0.00014868451267 -2.1050875609e-05 3.6388379293e-05 -0.0019143139919 -0.0011525442679 -0.00097201715354 
6.2000648507e-05 7.6167075196e-06 -0.0090330062042 -0.0062489156004 5.6234192897e-05 -0.00042529285557 5.6955208226e-06 2.6500062475e-05 -9.8306283511e-05 
-2.566792724e-05 -0.00025360117403 0.00013343022213 -2.1527628778e-05 4.477425831e-05 -2.8762928602e-05 -1.2566986072e-05 -6.4394802941e-05 -0.00074296098904 
-0.0013810749353 2.588152673e-05 -8.0400220245e-05 -0.0052651772665 -0.0047148059352 3.8704502697e-05 2.2427349125e-06 -3.9578481931e-05 7.1906305213e-05 
-4.3961795967e-05 -1.8709491289e-06 5.3101497834e-05 0.00019665775311 7.6909497605e-05 -6.3026336625e-05 0.00010247739747 0.00011684740745 -6.345433259e-06 
-0.00012998199022 9.7225492236e-05 -4.6931327148e-05 -0.00013022873002 7.7952751742e-06 -0.00014059857297 -0.0060099857593 -3.6854255745e-05 5.336315523e-05 
-0.00018734841872 -4.9248617819e-05 -0.00073145885808 -2.9950350264e-05 0.00052182277982 -4.7057401909e-05 0.00045736944745 1.0740181985e-05 -0.0053428683731 
-0.00073512443457 -0.0014177648598 -0.0062295085805 7.0325205457e-05 -0.00022905003504 -4.2501815366e-05 -3.558761656e-05 1.3069034212e-05 6.609042001e-05 
-0.00010989783223 1.3471313733e-05 -0.00014019008694 -0.0091316301364 -0.0086751376009 -0.0078426684325 -0.00012836697876 -1.9701473433e-06 -0.00022783449226 
-6.7376154365e-05 0.00020058074953 -0.00010601180802 -3.3153768441e-05 6.0442228594e-05 -8.4979777671e-05 1.8076110524e-05 0.0002540823322 0.00047591115588 
0.00017963211262 -0.00014110986171 2.4392022488e-06 0.00021859310992 -2.195875808e-05 3.6498483148e-05 -0.00017505083512 -0.003278375122 0.00026023282584 
-9.0793051466e-05 0.0001578021945 -7.9507637626e-05 0.00021547387315 -4.9026742985e-05 2.3801860956e-05 5.0283807882e-06 -6.1430676205e-05 -0.00018017614406 
-6.3396087569e-05 -0.00020851429786 0.00036960939077 5.8822585405e-05 -0.0091709372297 -0.0083087508378 -0.25191336824 -3.9088405485e-05 -0.0062843553083 
-0.006621933662 -0.0060855994009 -0.00030322484379 0.00020774326113 0.00013316163213 -0.009245501946 -0.0095051202341 -0.0085630409876 6.7052726195e-05 
1.5187381551e-05 -5.3839110962e-05 2.5065251974e-05 -0.0020184414589 1.0932945777e-05 -0.00019901119663 -0.0089090176263 -0.0088943915228 -0.0049773717978 
-0.0043493147048 -0.0046946728507 2.5941460588e-05 9.155895586e-06 -0.00014502654392 0.00021604937872 1.3619193121e-05 5.0590613031e-05 -3.1688922598e-05 
-8.3921664179e-06 -0.006364172165 -7.0377973489e-06 -1.1433463564e-05 -5.6530254085e-05 2.2421276287e-05 -4.3741046588e-05 -9.2270671027e-05 -1.6100286186e-06 
-0.002699610815 0.00030974401419 -0.0094789731909 -0.0090945426742 -0.0027610961643 -0.0034679679547 -0.0029453167948 3.4246187791e-05 4.9544108127e-05 
-2.2122887178e-05 1.2300525263e-05 -0.00065132286664 -6.557327625e-05 2.3736992362e-05 5.040473104e-07 -2.8927721656e-05 6.7191752633e-05 -0.0010666298474 
1.6012535386e-05 -8.5924166762e-05 3.4996089782e-05 -0.0062573133364 -0.0059002320677 -0.0064730388192 -0.006419310592 -0.007068244596 -0.006973483601 
-0.0066315912866 -0.0066995764508 -0.0054382342237 -0.0059984935583 -0.00015210913839 -1.2332968907e-05 -0.0087997080263 -0.0040018081938 -4.3767541689e-05 
-9.5634560866e-05 -9.7419558415e-05 -0.0047546207854 0.00016066664654 -8.3753192212e-05 -0.00034001704679 -0.0026074926813 -0.00092081711662 4.9597670805e-05 
-7.9510116737e-06 0.00049943930476 -0.00026515870467 0.00023457225883 0.0019980056558 -0.00077683596988 -0.0028577779454 0.0012494908712 -0.0013329720495 
-5.3360051925e-05 -1.5597397915e-06 -0.0068677909943 -0.0077561206378 -0.0073711186759 -0.0069854432071 -4.4705940966e-05 -0.0073399694787 4.083564794e-05 
-7.2685987014e-06 -0.0018475450246 -0.0046880034665 -0.0073549669447 -0.0076241451704 -0.0072706875131 -0.0070340216684 -0.0060998152319 0.0006482087351 
-0.0005326869521 2.8582537666e-05 -0.0048298108626 -0.0024203406342 -0.002254328278 -0.0067215720958 -0.00018846408326 -0.00081501015055 8.5719328676e-05 
0.00095206503727 -0.00051622269176 -0.00017007539758 -2.8672533858e-05 -0.0087933625608 -0.0083509900796 3.9642627693e-05 -8.793739194e-05 0.00011675750288 
0.00022294673209 -0.00092182087346 -0.00028925326059 8.606325907e-05 -0.0015797743229 -0.00031111894878 -0.0021776812587 -0.0075377619682 -0.0076233211481 
-5.7347617998e-05 -0.00031511346964 0.00045582663929 -0.00041946788756 2.2724086156e-05 -0.0035509823909 -0.0068842174509 -0.0024101117123 -0.0071458695633 
-0.007391273362 0.0012519806785 -0.00055346638554 -0.0017783446392 -0.0046393202024 -1.9790734476e-05 -0.00013275858489 0.00021034823658 -0.00012915575336 
-0.00013996338209 -2.9067354614e-05 -0.00033377308351 -0.0002097481122 -3.968908492e-05 -0.00014362044697 -0.00012430821331 -2.4320379553e-05 -0.00095953983864 
-0.0072123648006 -8.6611296413e-05 -7.8379597532e-05 -0.0078089482139 -0.0038107326278 -0.0046964078154 -0.0055060725815 -0.0086948231996 -0.0002349306124 
-0.0013163527976 0.0019422764793 -2.5729596568e-06 -0.0023158126757 0.00076795248531 -0.0052809677855 -0.0021569802669 -7.0753051854e-05 0.00010550181723 
2.0776133785e-05 0.00039067407962 -2.233808249e-05 -0.006966896411 0.00017831677043 -0.00012356950724 -3.9806192245e-05 -9.1935610541e-05 -9.7127374372e-06 
-0.00013218495102 -0.0013733359208 -0.00056514171356 0.00017265382487 -0.00019986900228 -8.9770026223e-05 2.5872016204e-05 -4.7877026212e-05 -0.0063775102258 
-0.0045249419361 -0.00011955944674 -0.00094571367614 -4.4436414982e-05 -0.00014418828671 0.00048374026509 -0.00036773263516 -0.00021110739524 4.1328052896e-05 
0.00014838061348 4.5509470928e-05 -0.0010068948275 -0.023966034239 -0.087073114615 0.00041207168296 0.009247015514 -0.01774804721 -8.4131426335e-06 
0.071368537907 -0.044250427001 -1.0168442594e-05 3.4198933532e-05 1.7657109689e-05 4.5983287524e-05 2.1360412678e-05 3.2480170892e-05 1.4859057662e-05 
2.6706510339e-05 1.0415408403e-05 1.7245492353e-05 2.2896444497e-06 5.2056318092e-06 -6.4116106609e-06 -1.4074524326e-05 -2.3474160262e-05 -3.5045310887e-05 
-4.3342383129e-05 -6.0306327741e-05 -6.7592077946e-05 -8.5640038313e-05 -8.213927166e-05 -9.3538181096e-05 -8.8510688181e-05 -9.9585805606e-05 -9.1899139164e-05 
-9.5922283909e-05 -8.4291893883e-05 -8.1114088576e-05 -6.9254173195e-05 -5.9892381437e-05 -4.3987770403e-05 -2.8442907481e-05 -1.7065229432e-05 1.3290336703e-07 
2.1460536221e-06 2.2231394113e-05 1.0639580987e-05 4.1424699098e-05 2.0509205886e-05 5.3328354173e-05 2.4972377245e-05 4.8230198128e-05 2.8192728689e-05 
4.9574548369e-05 3.2193011108e-05 4.8598826044e-05 3.2883928077e-05 4.4385010776e-05 2.880062263e-05 4.3688581792e-05 2.3818463023e-05 4.1138779218e-05 
1.5052950955e-05 2.5722838639e-05 2.1655444642e-07 1.3143564304e-05 -1.4405840248e-05 -7.8865390478e-06 -3.3770612928e-05 -3.5534644404e-05 -5.4789134153e-05 
-6.1254134867e-05 -7.3890068106e-05 -7.8576568027e-05 -8.7471776987e-05 -9.0189560104e-05 -9.6660716575e-05 -9.6537645885e-05 -0.00010208299509 -0.00011540444379 
-0.00013000550701 -0.00014280068864 -0.00016139200062 -0.00019010200495 -0.00021724877336 -0.00025843219636 -0.00029422804637 -0.00036190180561 -0.00040784117951 
-0.0005376034154 -0.0006743288392 -0.00090673772691 -0.0012070312063 -0.0016047797299 -0.0023223882626 -0.0052175188082 -0.0051289401132 -0.010685972018 
0.019428408428 -1.0115820528e-05 1.0478897032e-05 -0.061682825175 -0.022828636772 -0.0090674471409 -0.0030359926196 -0.0026240286446 -0.0017261396904 
-0.0013201537959 -0.00093042948133 -0.00077451352313 -0.00062611433347 -0.00048670944946 -0.00040339303862 -0.00032178048453 -0.00028652333922 -0.00023474233426 
-0.00021474010973 -0.00018798411777 -0.00017638851353 -0.00015281425543 -0.00014892116296 -0.00013808285505 -0.00013651230268 -0.00013229223618 -0.00016454891657 
-4.9915226848e-05 -4.0362288266e-05 -9.8143653183e-05 -7.4021563059e-05 -7.0438950745e-05 -4.0570879968e-05 -4.6397686878e-05 -8.1445950918e-06 -2.0456441078e-05 
1.3866854304e-05 -1.6308449756e-06 3.2545560288e-05 6.9107983413e-06 3.8834945392e-05 1.4758006788e-05 5.1723617343e-05 2.1245153469e-05 6.2756450807e-05 
2.4526364411e-05 6.1328609392e-05 2.587694705e-05 5.9855673203e-05 2.3326769124e-05 5.6069377124e-05 2.2768250539e-05 4.5554591356e-05 2.0764096317e-05 
3.0592020808e-05 1.5298071859e-05 1.1316473288e-05 2.8607062135e-06 -6.0870363175e-06 -1.3880992534e-05 -3.3942980574e-05 -4.1624429668e-05 -6.5828927725e-05 
-7.1343560603e-05 -9.1683229759e-05 -8.9378836966e-05 -0.00010829079571 -9.5585073633e-05 -0.00010979487692 -0.0001005774487 -0.0001110383334 -8.9878137989e-05 
-8.7867298686e-05 -7.5424104872e-05 -6.9684790147e-05 -4.9749198099e-05 -3.9356997662e-05 -2.7631606972e-05 -1.4481238058e-05 -8.3672574154e-06 4.8431597293e-06 
5.3582388825e-08 1.8170923375e-05 6.150001298e-06 3.449235424e-05 1.5009834383e-05 4.434007265e-05 2.052674287e-05 5.0991076897e-05 2.1936950923e-05 
9.2890298683e-06 -8.8214519117e-06 -3.1416190485e-06 -3.557090794e-06 2.2249798979e-05 8.3016819509e-05 1.2386211306e-05 -0.00023808239983 -0.00078564306078 
-0.0014581890849 -0.0023097877441 -0.0032760446149 -0.0042914728856 -0.0054143470128 -0.0066039116171 -0.0079654275725 -0.0093350096225 -0.010702707393 
-0.012114910273 -0.013486608992 -0.014836012851 -0.01634241107 -0.018650104641 -0.019758508347 -0.020773203819 -0.021442604945 -0.022112008368 
-0.022520511667 -0.022799314878 -0.02291200692 -0.022796213446 -0.022520507289 -0.022062615178 -0.021453910563 -0.020636107395 -0.019661209579 
-0.018741706877 -0.017565309688 -0.016289702855 -0.014950821887 -0.013567014431 -0.011979820464 -0.010597004541 -0.009273979293 -0.0078961374588 
-0.0065330079381 -0.0053437495578 -0.0041944585065 -0.0031189493545 -0.0021506459873 -0.0013559436929 -0.0007619199256 -0.00016911099156 2.5462982634e-05 
2.5215119589e-05 -0.017514110343 -0.025170455964 -0.010249976668 0.0010222193362 -0.0035946914254 -0.00095626650217 -0.0010067181329 -0.00031231253704 
-0.0018106196983 -0.0016742656888 -0.0031513669863 -0.0018094783548 -0.0032427230114 -0.00098290346854 -0.0031218736362 -0.0006237845751 -0.0026203548443 
-0.00089211070485 0.00042271107702 -0.00063448286336 -0.00091451179732 -0.0020186740518 -0.0056967703645 -0.011988421618 -0.012111539997 0.037906652156 
-0.0088364451584 -0.0017843803758 0.0267165143 0.029394405079 -0.01232676901 0.027604023773 -0.0037929552541 -0.0051613836323 -0.0013381236799 
-0.0014411704935 -0.0025690573329 -0.00017800077225 -0.0035501592263 -0.0017468837482 -0.0038760844474 -0.0016203616707 -0.0037126762113 -0.001549476864 
-0.0030479920465 -0.0017909942349 -0.001765415919 -0.0013831914164 -0.0011605272776 -0.00036468003181 -0.0023533809984 -0.00052277276917 -0.0096506269928 
0.0024639097884 -0.077268568711 -0.081022476824 -0.0044284375253 -0.0044786424436 -0.0057872919855 -0.0038794635547 -0.0026633172723 -0.0044914471563 
-0.0035005934219 -0.0019743379833 -0.0027338165842 -0.004789240144 -0.0036132214779 -0.0044686055423 7.0105789675e-05 -0.008492383175 -0.003749077943 
-0.086805671615 -0.095168312265 -0.0037241939495 -0.0045165703936 -0.0047181870461 -0.0033213177943 -0.0032306797612 -0.00014761150432 -0.0050666625071 
-0.040512865977 -0.012571052681 -0.010181320161 -1.2893924542e-05 1.1939308303e-05 -0.00017429105447 -0.019799486281 -0.019194902514 -0.018247983969 
-0.017841596494 3.8384668563e-06 -8.5075006527e-06 -3.1488271635e-06 -0.010026142809 -0.010371311804 -0.010880865096 -0.011282995256 -0.011665465393 
-0.0047618310106 -0.0036625442537 -0.0045440607316 -0.0058266289915 -0.0059102559584 0.00061572776915 0.00050927487475 -0.0098709567761 -0.011128158109 
-0.010552978596 -0.014829895324 -0.015634438323 -0.013858440372 6.0729942127e-06 2.0664538153e-05 -6.2039150206e-06 -0.0089820573077 -0.0091899653463 
-0.00918951265 -0.013313043011 -0.014451759171 -3.1063091988e-05 1.711053975e-05 2.5321957993e-05 -3.6801977228e-05 -0.00012093705937 -0.0047391574025 
-0.0021418036207 -0.0049711481903 -0.011725851038 -0.010915193351 -0.012351574482 1.7176328848e-05 -0.011155019399 -0.010448432411 0.00011715524831 
6.328620001e-05 -0.00014847806262 4.9799418994e-05 -0.0018819551576 -0.0014345212349 -0.001214209567 -1.2081489739e-06 -0.00015417982684 -6.8676993834e-05 
0.00015084046562 -0.010791592999 -0.0095558104857 -0.0094873609113 1.2003209679e-05 -1.9823592204e-06 -1.1877527947e-06 -2.6057868908e-05 0.00054848375185 
-9.1082569014e-05 3.9896063844e-05 5.09347376e-06 -1.419483899e-05 -3.1781075011e-07 -2.1817069355e-06 1.6418374637e-06 4.7001764127e-06 3.9720935057e-05 
5.9344866937e-05 -0.00010708179734 0.00011780734022 0.00015147088712 9.8609327316e-06 -4.9793999816e-05 -5.159061672e-05 -6.5837474375e-06 -0.00042006546503 
-0.00024326546664 -0.00019018444632 -0.0014535723406 -0.00044771074857 -0.0016830982801 -0.0024883566219 -0.0028684390432 -0.0017694132725 -0.00060534572718 
-0.0069851955823 -0.0077140959883 -0.0066107741146 -0.0072736108783 -0.00025328449637 -9.9570796089e-05 6.0009650653e-05 -2.7555412255e-05 3.3817591419e-05 
-1.7659375315e-05 -2.9215437525e-05 -9.0668812027e-06 -0.00021806164465 -6.6019280361e-05 -8.3229682154e-05 -4.4181380415e-07 0.00017587286012 -6.1959912655e-05 
-0.00018354736373 -2.1214526299e-05 -0.0011804566203 -5.9242910793e-05 -0.0038210386776 -0.0023224997554 -0.012647162583 -0.01289326906 -0.011420360682 
-0.011740038824 -2.3884466409e-05 3.2653673673e-05 6.0999116348e-06 -0.00013386748803 -0.00014918425408 -0.0002241129832 -0.001696996109 -0.0021915214955 
3.0524935277e-05 -1.9463490184e-05 1.0183724779e-05 -2.6246174246e-05 -0.002864848908 -0.0030033207438 -0.0036820194338 -0.0015333073704 -0.001568222124 
-0.0022763403925 -9.0507392265e-06 -0.00037927084229 -0.00067602364556 -0.0003755851146 -0.00030131383136 -0.00020632783983 -0.00058023370269 -0.00018662306787 
-0.00029453226648 -0.00026284806192 2.2063538779e-06 -5.7454117669e-06 3.227093205e-05 -0.0050533534562 -0.005638814026 -0.0058001758972 -0.0040700945101 
-0.0036908164874 -0.0030963864919 -0.0027833682906 -0.001315936631 -0.0035229719303 4.7473980486e-05 1.8582477513e-05 1.7414517641e-05 -1.5671544963e-06 
-0.017173349037 -0.015464338985 -0.015990644136 -8.6507993521e-06 -5.4492508397e-07 -6.2672136294e-06 1.3284114599e-05 -2.3826702166e-05 -5.5665884654e-06 
1.9849190702e-05 1.186009054e-05 -4.1520829659e-05 2.9150632274e-05 -4.8662742557e-06 1.3867110729e-06 -1.8169724509e-05 2.5200798091e-05 -0.0057109498738 
-0.0044292658985 -0.0049542828291 -0.0024501876767 -0.00056690055395 -0.0009232622999 8.0738972889e-05 2.8437034394e-05 3.2734421521e-05 -7.9538688908e-05 
0.001491898182 -9.3717932316e-05 -0.00059389570631 7.7902896871e-05 -0.00996612061 -0.010664044289 -0.014247088189 4.9436760924e-05 -7.3500718482e-05 
3.6311439693e-05 2.3934195496e-05 -1.7746326063e-05 2.2395985199e-05 -0.00083254668443 -0.0010020878968 -0.00068291724422 -0.00024655155142 -0.00013984473855 
-0.00020375753769 -0.00053158444378 -0.00091742301359 -0.00056646378481 -0.0030828300272 -0.0035522237588 -0.0037236329809 -0.0042510179185 -5.226838128e-05 
7.2531439625e-05 0.00010458635028 -2.7010465796e-05 -0.0019610675744 -0.0028139987355 -0.0021762750054 2.7603880867e-05 -3.3742271236e-05 4.0513737404e-05 
-0.00050456920975 -0.00085618571274 -6.571593704e-05 -4.9434564245e-05 -7.2320816794e-05 5.1737210146e-05 2.272001934e-05 9.90772798e-05 8.4624559396e-06 
8.1384769217e-05 -9.5154334459e-05 0.0029567835023 -0.0013221105016 -0.0024006251979 -0.0069224887777 -0.0022135088631 -0.0022428702924 -0.0031156494959 
2.3824664417e-05 8.5631049985e-05 -0.00013461219678 -6.4415519544e-06 7.9070124273e-06 -2.4369025981e-05 0.00016718462594 -2.8177849573e-06 7.8817605839e-06 
0.0011232289789 0.0014630687402 -4.6974306341e-05 0.00016247308717 -8.6718781112e-05 2.5280006122e-05 2.4073288194e-05 -4.7406433594e-05 -1.2080760501e-05 
1.2697042647e-05 -0.0016087794897 -0.00098140202054 -0.0010617189318 -0.0011752650664 -0.0018667328283 -0.0011392700323 0.0013563502448 -8.6478452276e-05 
-0.0003037610445 2.4257207076e-05 2.9741658356e-05 2.7821729466e-05 -3.8104125664e-05 6.1252758131e-05 -0.0028122225972 -0.0020444110975 -0.0032868388796 
-0.002497058376 -2.3788095522e-05 -9.5473415584e-07 4.1440978409e-05 -0.00021470502837 -6.2023479197e-05 -2.2480605497e-05 1.8988585892e-05 -1.4714029159e-05 
-4.8663609545e-06 1.0277729393e-05 9.7659924597e-06 -0.0086730668781 -0.0076461097176 -0.0080930975464 -0.00011624607071 0.0002111822465 -2.401713854e-05 
2.8323724217e-05 -0.0049624741119 -0.0066472202767 -0.0053293120749 2.5808911655e-05 -0.0036983473402 -0.0046739243968 -0.0042996504044 3.5044468688e-05 
-3.6851890752e-05 5.5580636026e-05 -3.9021601307e-05 -0.00035448462168 -0.0002117133449 -0.00031119414731 -1.8266478369e-05 2.0822679389e-05 -4.8579851049e-06 
-5.1992932256e-05 6.3493067615e-05 -0.00014007600177 -0.0001022399026 -0.00043569402147 0.00076117472431 0.029182107409 -0.007422056586 0.022635937116 
-0.00091847379366 6.4715811602e-05 -6.374289619e-05 -0.00012884443559 -0.010357884041 -0.0018179576728 -0.015749046692 -3.0406120299e-06 -1.406029278e-05 
-1.5571659443e-05 1.9226357852e-05 7.2655586772e-06 -0.0015164953078 -0.0013579171773 -0.0019677223048 -9.9696269816e-07 7.6501389798e-06 1.9734570583e-05 
-5.2817434662e-05 -0.00072955035043 -0.0028920843399 -0.0013751963709 -0.0031710189112 -0.00013418116046 -3.7610740002e-05 -1.4473189446e-05 5.3224383798e-05 
6.5071288791e-05 -9.1890149005e-05 2.5958197e-05 2.4166645678e-05 -0.00010616750534 -0.00012562039032 -0.00072214967925 -0.00052798389026 -0.0003881873588 
3.1985472555e-07 2.0371332321e-05 -3.9165650438e-06 -0.00010072924623 2.1340203352e-05 5.5715679985e-05 -5.3102092931e-05 -0.0027042485679 -0.0036116535593 
-0.0027142417348 0.00020348164062 5.3775398812e-06 1.9230722807e-05 0.0013773154008 -0.00054837659003 -0.0013326819901 0.019447086299 -0.0030991173168 
0.015341708843 2.8168060771e-05 2.0779086545e-05 0.00027325332079 -0.00021448730906 0.00024628778509 -4.073693184e-05 -0.0045293698276 -0.0040356076107 
-0.0050153151702 -0.0088512742695 -0.0083557849742 -0.0087843021166 -0.0015791978724 0.0013796413802 -0.0004422020574 4.7906415807e-05 3.2401269127e-05 
-9.4788699431e-05 -0.043091902458 -0.025030325486 -0.030921906633 -4.788091902e-05 -1.8774017788e-05 -5.1222843191e-06 8.5492443372e-05 -5.6353667215e-05 
-4.2042277838e-06 0.026022223622 0.052156151862 -0.0010407883165 1.1414810893e-05 -0.0002663539014 -7.0478639593e-05 -4.4504109146e-05 -9.2503076459e-05 
-0.00012464075211 -0.00014666349643 -8.2853989402e-05 -0.0069963385506 -0.0023182438605 -0.019917899449 0.00075814188172 -5.4213815058e-05 0.038854379767 
-0.04233677195 0.039990667134 -0.0002863477731 -2.2179995835e-05 1.5433670185e-05 -0.00033186425446 -0.00060807457797 -0.00036062467688 1.7621200721e-05 
-0.00049900509427 -4.6377921781e-07 -1.2849980787e-05 1.303933889e-05 -5.9596021901e-06 -0.0015388508544 0.00017639031531 -0.00018185526952 -0.00037260441682 
0.00027332537634 -0.00014219990991 0.00013676100305 3.139887266e-05 2.5862199517e-05 -8.036315079e-06 0.013655563913 0.012508988495 -0.0077072627607 
8.8732848805e-07 -5.363957463e-08 1.1144404887e-05 1.9246901596e-05 6.3068384623e-06 9.0847520085e-05 6.1762054784e-05 -0.0010387379784 -0.00098235371211 
-0.00060590009649 0.00073972162514 -9.0230306564e-06 -1.2647218479e-05 -3.4839017308e-05 -0.0069528146408 -0.0081514105691 -0.0068942939589 -0.006912970293 
-3.8215982271e-07 -6.8215000305e-06 7.357163204e-06 -0.0016033369252 -0.00096185439631 -0.0014749789639 -4.6295653848e-05 -7.8895293511e-05 -0.0001719571894 
-2.5610689488e-05 0.00013600193112 0.00018642119146 0.00015772444903 -0.00073495283634 -0.0013179832423 -0.00075719311482 2.2073892326e-05 -7.6764355476e-06 
3.1205088221e-05 6.0046788924e-05 -9.059229541e-05 2.5236444065e-05 2.2890429248e-05 -3.6104797991e-05 -4.2216265071e-05 0.011874873643 -0.013197329654 
-3.2870024021e-06 -5.7499073465e-05 9.0428500147e-05 -8.1288373719e-05 -3.1986787153e-05 2.1185023282e-06 -0.000219010192 -5.5593832151e-06 -6.3906043788e-05 
-0.0073438238018 -0.0071073615284 -0.0061825426312 -0.0064216625388 -0.0055416338553 -0.0056794264063 -0.0042140339055 -0.0036436985655 -0.0034266376986 
-1.7937378985e-05 2.720300409e-06 1.1862762607e-06 3.468083608e-05 -7.7978143228e-05 -0.00016657411899 -4.9895519381e-05 6.3623251891e-06 -4.0028085507e-06 
-3.8008433088e-05 -0.0086929566763 5.9439407478e-06 -1.601718699e-05 -0.011912543789 -0.011646032849 -0.012792888788 -0.0013075192012 -0.016514111297 
-0.014742788588 -0.0075046197784 -0.0074190018063 -0.0066265284913 -0.013818024384 -0.013840082706 -0.013452468261 -0.012169177112 -0.014840323998 
2.855303545e-05 -4.6157165562e-06 -0.00016525625254 8.4076544119e-05 -2.2096813793e-05 -0.010117857154 -0.011345392786 -0.0091942161917 -0.010423722021 
1.0953698652e-05 1.7676063115e-06 -3.4414811839e-06 -0.0004228172746 -0.0048933158923 -0.0045134327062 -0.0053733713536 -0.0069147366026 -0.0063769740594 
-0.0064930541824 -0.0030895678542 -0.002988305388 -0.0035946669532 -0.00037579035169 2.7328113286e-05 2.8776677768e-06 2.8359521272e-05 3.100276151e-05 
1.3091266236e-05 -3.0076099788e-05 -0.00031156103994 -0.0014044545541 -1.9561614792e-05 4.221656452e-06 1.0681326502e-05 6.3072900815e-05 -0.0039995199483 
-0.0040610007419 -0.0043088971298 7.5056586622e-06 -7.9007494193e-05 2.1726578326e-06 1.868820839e-05 5.7505276188e-06 5.3619461318e-06 -0.0033486319547 
-0.0061506494291 -0.00016785876134 -0.00031730365231 -7.9751483637e-06 8.5358539043e-05 0.00010064045892 3.3445374601e-05 -0.00010931469168 -0.0019995018729 
-0.0020495702459 -0.0014793118618 -0.00072510809877 -0.00039472441225 -0.00048034177887 0.00042610094197 -0.00038765494668 -0.00013400535471 -0.0007348812375 
-0.00086718522893 -0.00054073088995 -0.00019585073929 -0.00024485768111 8.8371124727e-06 -2.74072254e-05 -1.2347809472e-05 -1.950154162e-05 2.9764946438e-05 
4.8681288024e-06 -1.6568435538e-05 -6.0291016251e-06 -8.2139010564e-06 8.1170736305e-06 -1.5750282789e-05 -3.1876686556e-07 -1.5785833116e-05 1.2325013281e-05 
-0.0014968178184 -1.0317157242e-05 -0.00013484200483 0.001087355971 -0.0011016276731 -0.0013768466469 -0.00089518507099 -0.0072864537437 -0.0074008498794 
-0.0077535392954 -0.0073530374544 -0.0049647269803 -0.023152209573 -0.0049722668072 -6.5879544803e-05 -0.0026811308425 -0.001824422273 -0.0073097490598 
-0.0073497986974 -0.0076618939006 1.1929265867e-05 1.6295671714e-05 -2.1031501274e-05 8.4530451643e-05 0.00012195334418 -0.0042544125286 0.00011391649106 
1.3585352505e-05 6.8096232896e-05 8.9894302541e-06 -6.2721605255e-06 -0.0057844331929 -0.0049879917539 -0.0058277125255 0.00017054278586 -0.00029218587453 
0.00031034830231 8.3822991727e-06 2.9739757626e-05 -0.00043695948266 -2.3525451543e-06 -1.8483420467e-06 -1.0261854225e-05 1.3219041305e-05 2.98107333e-05 
-3.9056615536e-05 -1.6522237952e-05 3.7004316411e-05 2.3404663657e-05 -5.1344367322e-05 -0.020266006263 -0.044480887531 -0.021203021304 -0.031232713538 
-0.0049454905698 -0.0050339645199 -0.0039937617512 1.1378589013e-06 -9.7332096083e-06 1.779181104e-05 -0.0016494064201 -0.0011169411922 -0.0013202930143 
-0.0058777647481 -0.0059307396748 -0.0050728365757 -0.0019609383597 -0.0024117044891 -0.0025738794467 -0.0030266439258 -0.00011023115255 2.2881191907e-05 
-0.0066313590793 -0.0074664213885 -0.0067095249796 -0.0049782012325 -0.0043228810602 -0.0057389388426 -0.0050458838092 -1.4696627581e-06 -1.1343790891e-05 
-0.0039695800804 -0.0051266581385 -0.003297501508 -1.234970035e-05 2.2869126943e-05 -1.7771399538e-07 2.9828268528e-06 -1.4638316209e-05 -0.00073364675682 
-0.00024203034752 -0.0011569010074 -0.000792698204 1.5336395104e-05 -2.2990779031e-05 -1.9594455084e-06 -0.0013210692503 1.3035069686e-05 -1.6127965731e-05 
-1.4656872281e-05 2.1922146295e-05 -7.8995944705e-05 0.00028596422298 -0.00027682204751 3.6338308227e-05 -5.3312376314e-08 -3.1175934868e-06 -3.3903522338e-05 
2.3176103e-05 -1.0891906882e-05 -3.7453350962e-05 9.4744858549e-05 9.3492619777e-06 -0.00082073621732 -0.00031361526403 -0.0003606915324 -0.0097777178592 
-0.013386917415 -0.0095462964453 -0.01767537255 -0.00051487090402 -0.0014473477693 -0.0090628557187 0.0019525103761 -0.001737286296 -0.0004300682937 
0.00064211767077 -0.0016218393719 1.167613565e-05 -2.2176549487e-05 2.9136736862e-05 -0.0018743626931 -5.1803106452e-05 -4.1177979446e-05 -9.7318600095e-05 
-4.5656007786e-06 -7.5034747513e-05 -0.007243492815 -0.0063170210529 2.8675887324e-05 -0.0026364170263 -0.0035139060174 -4.433056605e-05 1.2470881204e-05 
1.9151165002e-05 0.00045731624752 -0.00070663682287 -0.0066226095385 -0.0057822943324 -3.3124476841e-07 2.0005257998e-05 -4.525128802e-06 -0.0098641407475 
-0.014639332724 0.00012111109648 -9.992007216e-05 1.0273638788e-05 -6.794273871e-05 -7.1597711786e-05 4.8091962464e-05 2.9483019801e-06 2.7252245573e-05 
-0.005740876878 -0.0048133426392 -0.0055843329633 -1.303405769e-05 3.8143396993e-05 -2.6311224877e-05 7.0259934379e-05 -3.4372701139e-05 -2.258213506e-05 
1.2870945094e-06 -0.0063429688823 -0.0069551918262 -0.0072055701076 -0.0070809331936 -0.012597324189 -0.012074249155 -0.011292968178 -0.010424917368 
-0.0098876339237 -0.011093246952 -5.1052866391e-05 -0.00016036028877 -1.1149493932e-06 -5.7428993821e-05 6.1256441593e-05 5.0151870894e-06 -2.1646218479e-05 
1.0348406629e-05 -4.2306201173e-05 -0.0027751708371 -0.00069574178804 -0.0010561535908 -0.0014645793515 -0.00017581536407 0.00085043080667 -0.01843284163 
-0.00017165656909 0.0014889163928 -0.00056077944514 3.2204334236e-06 -0.00072589924282 -2.8507327955e-05 0.00039113832483 -3.496326426e-05 -7.3242760658e-06 
6.4747382708e-06 -0.00070256802485 0.00062173125166 8.9983077126e-05 5.0000005741e-05 -9.3966767681e-05 -1.5482472106e-05 6.0941253377e-06 -0.00013886291147 
5.1086084788e-05 -0.0097092402775 -0.00933780257 -0.010141979991 -2.6533724544e-05 3.6851868e-05 -1.1249623199e-06 -0.011837615815 -0.010111084953 
-0.00019795532889 -0.0001126699953 -0.00016859538927 2.2968019638e-05 -1.4199759868e-05 2.8416523128e-05 -1.7820521107e-05 -0.0016779546929 -0.0023674230999 
-5.734625873e-05 5.625950333e-05 -0.00017064655183 2.3059873878e-06 1.2106548052e-05 -1.3497004976e-05 1.0129996427e-06 6.042971958e-06 1.9916728774e-05 
-0.0027339572286 -0.0049638515355 -0.00078036540968 -0.01074986237 0.001315143725 -0.00010429137384 -0.014467339139 -0.012981605267 -0.009064086306 
-0.0089195429166 -0.012894387826 -0.013898828217 -0.010878665003 -0.0041918291685 -0.019578288993 -0.0046678051903 -0.0053564190485 -0.0042783238331 
-0.0048984679418 7.0924636892e-05 1.4071153565e-05 -8.090943643e-05 -0.005402707037 -0.0063300754016 0.001363535863 -0.00050503872916 -0.0019618965332 
1.6334720844e-05 -5.988088578e-05 -0.0053558588065 -0.0059689918567 -0.0064839476978 -0.0035971161101 -0.0091741941622 -0.0084206328931 -0.0085846320955 
-0.0079462170884 -5.0790424443e-05 0.00028664021973 8.6295336834e-05 -0.00065013298874 -0.0015138444135 0.0012942820421 -0.0011106852044 -0.011929590806 
5.6432245758e-09 5.0288397216e-06 -4.242126213e-05 -9.2415106485e-05 -0.00011410128733 -9.5764635384e-06 -4.7155763404e-06 -1.9856624133e-05 2.3824435024e-05 
1.0764448188e-05 1.8650862837e-05 -0.0070582729303 -0.0067291166058 -0.0061988542809 2.4440358472e-05 -3.4175089802e-05 7.6000767187e-05 -0.0069181271576 
-0.014877649439 -0.0050579151103 -2.9203268311e-05 -0.0066491800789 -0.0062012327639 -0.0072959294171 -0.014756618914 -0.015695610065 -0.014108605044 
-0.011820204473 -0.012452067199 -0.020288557126 -5.0011753612e-05 1.7113561533e-06 -1.5019951006e-05 -7.3265868195e-05 -3.5377456794e-05 6.6837289906e-05 
6.5036297564e-05 3.8626678676e-05 -6.7284920441e-06 1.56260123e-05 -3.8099033149e-06 -0.001775565671 -0.0013922510722 -0.0012009766017 -0.00086387969672 
-0.0025252045389 -0.0029254213837 -0.0021646234836 -6.1261513286e-05 5.6359957775e-05 -8.2105783896e-06 -0.00016326439725 -0.0071325169699 -0.0063361000229 
-0.0028688728486 -0.003651650164 -0.0011186129748 -0.00046823726636 -6.3305560002e-06 1.0933901338e-05 -1.9882856088e-05 -6.5986817122e-06 -3.2889765256e-05 
1.2049645526e-05 -1.4503154642e-05 -0.01217752254 0.039781252255 -0.0036546823778 -0.0051607530856 -0.0035332476774 -0.00058177043882 -0.0006250127819 
1.8099179567e-05 -0.00027895684638 2.1145103003e-05 1.539768024e-05 7.7994416649e-06 6.7322614169e-06 2.5142929681e-05 -2.376909688e-07 -0.0074096648372 
-0.0083067795491 -0.0084609640624 -0.00068478216873 -0.00070518406287 -0.00091269942053 -0.0065348587612 -0.0012367605161 -0.00056223118679 -0.0024702883074 
-0.0016765960149 -0.0021245262033 2.3496772618e-05 -0.01171687078 -0.011140851939 -0.010512939364 -0.0010535471251 -0.0015084117942 -0.00088383546417 
-0.00091392653016 -0.0003766871389 3.2404609358e-06 -0.00023856165737 -0.00044679190187 -0.00030953556651 -0.00052628566102 -0.0018879295938 -0.0015461939005 
-0.0012166074285 -0.00078997449258 -0.010147207157 -0.024603183889 -0.02003745331 -0.02348648921 -0.00021164010085 -1.5152340304e-05 -0.00079897204747 
0.00015823084683 6.3087569941e-05 -0.012073234634 -0.014153615857 -0.015924324696 -0.00076953711407 -6.5909366257e-05 0.00010100491652 0.00090542235235 
0.00032813199123 -0.00071659411907 0.00012769208096 -2.2579977603e-05 -0.00080184208431 -0.00047614460102 -0.00082791111526 -2.117800758e-05 -3.8032644734e-05 
-2.6312040066e-05 -0.0044877467858 -0.0052846600903 -0.004476276021 -0.0053377170307 6.1986978427e-05 0.00016678934155 -1.7983647784e-05 -0.001009195541 
-0.0011327356529 -0.0015554968818 -0.0015644990392 0.00039638783641 9.6896258258e-06 -6.1401196863e-05 -0.00077326718427 -0.0016976707881 -0.0023803970763 
-0.010914489083 -0.010579298969 8.4705335023e-05 -0.0053414825753 -0.0058949706452 -2.66516894e-05 0.0001392612093 -0.00026887749836 -0.00027338752491 
2.0345213517e-05 -0.0055433970262 -0.0051405054573 -0.0061336782844 0.001059258353 -0.013840919738 -0.012369091351 -0.013179788525 -0.00020793519107 
-8.5761000473e-05 -0.00032185621094 0.00015053972823 -1.0282298521e-05 2.8006309953e-05 -3.0195552507e-05 -0.01268995853 -0.023884107422 0.0039607697303 
-0.0036510813042 -1.4522360017e-05 -2.8095794722e-05 1.0405671444e-05 5.6981816771e-05 -0.0053891885723 -0.006847565365 -0.0064453580117 -0.007161138934 
-0.0028462765657 -4.3222245964e-06 -2.7803548749e-05 -0.0034789602904 -0.0027279357895 -0.00030928806891 -0.0067777796944 -0.008069844703 -0.007492541014 
-0.005910335328 -0.0074723545407 -0.0043806030667 -0.0047163248835 -0.0063977929582 -0.0053920564088 -0.00062718834905 -0.0089252922013 -0.0095612336409 
-0.0099394711889 -0.00013489259732 -0.0071374483929 -0.0063994109532 -0.0090983296664 -0.0085349953925 -0.0063248360491 -0.0066441138813 -0.0064014870361 
-0.0074141700989 -0.0074523803222 -0.0075040247303 -0.006723615629 -0.0069889055188 8.1818710556e-05 -8.1119805493e-05 -3.7603417984e-05 3.7236462342e-05 
-0.013754654452 -0.014088215738 -0.0088656512851 -6.7584184307e-05 2.2491092094e-05 -0.00018205132927 -0.00020885226062 6.1462595896e-05 0.00014832847548 
-0.0052915682817 -0.0053082702675 -0.020565743452 -0.018873548524 -0.020759621732 -0.015865930445 -0.015543016218 -0.017166623813 -0.0059748582374 
-0.00018194147547 0.00019641684511 2.7413810074e-05 6.4593206518e-06 -0.0047158642109 -5.490365231e-05 -2.8862404053e-06 7.3682522694e-06 0.00017588506387 
-0.00010915337774 -2.2660669879e-05 -0.0010863770094 -0.00016343797265 2.2531443403e-05 7.0429808549e-05 7.2644238934e-05 -0.0048721619263 -0.0057265045283 
-0.0069428954949 -0.0030648230264 -0.0026384703104 -0.0020550925237 -9.4871386886e-05 0.0010720498224 3.2809379406e-05 -9.3431752624e-05 -0.0040056250214 
-0.0033268529695 2.5198386548e-05 -4.5078546387e-05 7.9557914821e-07 -0.00066476036314 -0.0010978241911 -0.0043984320858 -0.0036322861714 -0.0036546057465 
-0.014082980842 -0.012493102022 -0.00020106076623 -0.0056965522057 -0.006654583183 3.5054755937e-05 -1.5554862416e-05 3.8058992354e-05 -0.011009296845 
-0.0018706259904 -0.0012300988155 -0.0016919967197 -0.0010924853262 -4.9059865311e-05 3.7996951494e-05 -0.0098890565836 -0.010533121905 -0.0032902736344 
-0.0013611655976 -0.013410779043 2.4839505837e-05 0.00032814703787 -0.0046486024746 -0.0037086349247 -0.0038224834586 -0.0030023855747 -7.3500697806e-05 
1.0643569368e-05 -3.65220384e-05 1.0354330943e-05 -6.1338796093e-07 -3.6679022452e-05 1.9986810531e-05 -7.3800274078e-07 -0.00013607409479 4.3701956972e-05 
-0.001395758487 -0.0001265872901 -0.0050988559937 -0.0046033627672 -0.0056551939038 2.6467837276e-05 -0.00021762805823 -6.085178226e-05 0.0019621493035 
4.3360028738e-05 -0.013145982521 -0.0010359919956 -0.006183744978 -0.0066774930543 -0.0069370002221 -4.0441951877e-05 4.884725039e-05 -2.0165295848e-05 
-0.0050003786009 -0.0045091922853 -0.0039561841599 -0.00011274559621 -6.1498807312e-05 5.0376038967e-05 -0.034472427046 -0.044777210284 -0.032855771483 
6.2395972195e-05 -0.0048996647704 -0.005439225312 -0.005885502713 -0.0054791124474 -0.0049164044195 -0.0043915127687 -1.2143695103e-05 2.1270129061e-05 
-8.6242117202e-05 -9.1318748199e-05 -0.00019449544755 -7.940166941e-05 -8.657570612e-05 7.6539569961e-06 -0.002239406409 -0.0019878227695 0.0022009621103 
3.7281987119e-05 -0.0030019791616 -0.0037760947053 -0.0028812740593 -0.007489196558 -0.0070961398215 -0.018413119825 -0.019196062682 -0.017139146453 
-1.3745831817e-05 2.3889687649e-05 -2.7161968072e-05 -0.017649839382 -0.016540021974 -0.00095853066732 -0.0044133291877 -0.004319314592 -0.0051391276976 
-0.0049865101659 -6.367858272e-06 -0.0068988542514 -0.0119394837 -0.011718748452 -0.00053205969318 -0.0004368187971 -8.8784034699e-05 -0.0021585920281 
-0.0016552381317 1.0028836134e-05 1.5373923399e-06 6.6350897346e-05 2.7060916272e-05 0.00031610709496 -0.00032687393441 -0.0001161965413 -0.0010781978081 
-0.0080913418245 -0.0093180772093 -0.0087291425235 -0.014457346709 -0.013828722155 -0.01547544565 -0.0028718622207 -0.002166537431 -0.00097904241289 
-0.00055274415237 -0.00011977867416 -2.1073670237e-05 -5.7884169406e-07 -4.5708003374e-05 1.1536993117e-05 -0.0002861899769 -0.00014549899322 9.0672338676e-05 
2.3720100469e-05 -0.00093602251695 -0.00057228935226 -0.012379036215 -0.010706705273 0.012840547846 -0.0004378993505 -0.0015404067085 -0.0019879220078 
-1.4738369192e-05 -0.0028286470987 -0.018270388754 -0.017821553931 -0.019715516698 -0.01217668009 -0.01201844435 -0.011273834184 -0.011167064194 
-0.01533972624 -0.0004198952937 -0.0011112122053 1.268514336e-05 1.6780248259e-06 6.6285039816e-06 0.001254973434 -0.00038343955789 0.0004120315413 
-0.0024772320002 -0.0029839792027 -0.0033066118932 -0.0083142992061 -0.0081928199295 -1.0191905812e-05 -5.1587561457e-05 -0.01608928722 0.0084747172749 
-0.001164248873 -0.0016952052729 -0.0011808529403 -0.0011984389497 -0.00014028350719 -0.00016209542093 0.0001303846448 -0.0004362668266 8.4994427984e-05 
0.00064702343976 -0.0014274867273 0.0010488103858 0.00057933220198 -0.00016335826701 -0.00036202232329 -0.00013619310146 -0.010687971918 -0.010010888053 
-0.01064280066 -2.1006850909e-06 1.5030716086e-05 2.9595506774e-05 -0.011774373854 -0.00056254883063 -0.00037130238161 7.7012373298e-05 -0.00014031015232 
-0.0067259039117 -0.0061753137935 4.9233769244e-05 -4.6712673093e-05 3.9545514596e-05 -0.00031423122677 -8.1978949179e-05 -5.0858066202e-05 -0.0038678447119 
-0.0045816839831 -7.9086212064e-05 3.940866784e-05 -7.9709081985e-05 4.6706683581e-05 -8.6611770302e-06 -1.3150582965e-06 -0.00013428399097 -0.0045803153118 
-0.0036149459901 -0.048975803894 0.042372634265 -0.0062367880904 6.9956559919e-05 0.00010300584645 7.0767964434e-06 -0.0018689504359 -0.0021619299432 
-2.965543566e-06 8.0514832667e-06 5.8544647279e-05 -0.0015815024842 -0.00035202896579 -0.00023458818886 0.0012765772205 -0.0073164700921 -0.0071858645987 
-0.0075180004771 0.027887629833 0.046085085883 -0.0029992471984 -0.00383092038 -0.011973213002 -0.0096171797332 -0.010383051151 -0.01901700205 
1.2625881238e-05 -0.00056964814096 -0.00081464599359 -0.012358446342 -0.0055273411145 -0.012710554446 -1.8580861481e-05 4.0851117591e-06 1.688450917e-05 
1.8918227855e-05 5.4107512254e-05 -0.0011272184191 5.8174663275e-05 8.2946103111e-07 -0.00052424850763 -0.00064763176435 -9.0525779716e-08 1.7973338355e-06 
-0.00011256760896 4.7336479745e-05 -0.00014894564331 -0.0066118923463 -0.0066537406872 -0.0074462239957 -0.0025289447738 -2.2632778988e-06 -0.0075061285188 
-0.00626935869 -3.9136880936e-05 7.4942548101e-06 -0.00050364924887 -0.0046481472945 -0.0052137612402 1.0463133867e-05 8.1020632496e-06 -0.00029577614388 
-3.4169481386e-05 -0.00066861563896 -0.00033318272005 -0.0068290790464 -0.006771109455 -0.0063946354772 -0.014206564856 -0.002052489066 -1.0735007219e-05 
-0.0031438434264 -0.0096550852685 -0.0088131105608 -0.009229595627 -0.00015491527319 -0.00023992535403 -0.00011827266042 -0.0051355093261 -0.012951355851 
-0.011708277243 7.8587851279e-05 6.0963619788e-05 -0.028634361739 -0.030699203809 -0.00090634723878 -0.00093724179883 -0.014748010492 -0.00053770350036 
-0.0024311736375 0.00093735562206 -1.1419580726e-06 -1.4246868844e-05 5.8154641665e-06 -2.0896238829e-05 1.8295620333e-05 -5.8388946511e-07 6.1986962507e-05 
9.4515044278e-05 1.4234093704e-05 0.00017992436566 2.7594916872e-05 0.00018083037461 0.011854321681 0.011746758779 -0.017022164183 -0.0068283674251 
-0.0061744792238 -0.0055591372546 6.1500950371e-05 -0.00019687444909 3.7912483622e-05 -0.0014443564745 -0.0024409315776 -4.5157487989e-05 3.590583237e-05 
-7.1593549233e-05 -0.0050619460887 -0.0057050354819 -0.0064805680282 -0.0071632796647 5.3785213145e-05 6.877613495e-06 0.00050321157637 2.345570121e-05 
0.00021019308807 -3.87560383e-05 8.4751662827e-07 1.6364086923e-06 -0.0040786956588 -0.0031991796668 -0.003161748486 -0.018648113188 0.0018405468297 
-0.0070135489439 -0.0073277380108 -0.0073223787385 -7.198471664e-06 -2.2080102815e-05 1.7914990445e-06 -0.003598930784 7.4872878161e-05 2.3601190823e-05 
-5.5807152067e-05 9.1850093933e-05 -0.00011745475222 5.718169533e-05 2.1698852018e-05 -9.9922270687e-05 3.0818905278e-05 6.6211396919e-05 2.2527635268e-05 
-0.004859300108 -0.0094372908994 -0.005221275966 -0.0003193177109 -0.0002729501227 -7.512104826e-06 9.558425959e-06 -1.7584174697e-05 -1.6211863508e-05 
1.8356902045e-06 4.7156751547e-06 0.00083710178134 -0.0094401997922 3.4547788583e-06 -7.0904369289e-06 -0.016535968815 -9.6166296797e-05 -0.00015362493007 
-0.00013861924492 -3.8638296991e-05 -5.5034833405e-05 2.0127927449e-05 -2.7206086006e-06 -0.012815177491 -0.0055393119743 -0.0045321933055 -4.2902466108e-06 
5.607518727e-08 -1.0034672619e-05 -3.6241832594e-05 -0.0043051408052 -0.0049387161562 -0.0044108760804 -0.0050799346052 0.00029769103656 0.00101516355 
0.011872581945 -0.0041682458833 -0.0036000476817 -0.0028469991944 -0.0077275503886 -0.0069857195447 -0.0078454882899 -5.3457802605e-05 2.2980546731e-05 
-1.3186180749e-05 -1.0896693744e-05 -9.6159098282e-05 -0.00028005747783 1.7782244881e-05 -3.5204078563e-05 0.014012811329 -0.007620513205 -0.016563690616 
-4.6131827665e-05 -0.0074218575441 -0.0069548453007 -0.0084897887357 -0.0074639995452 2.9280870741e-05 7.9777280974e-05 -3.8130477152e-05 -0.0037267937045 
-0.0031051780379 -0.0028701931002 0.00032576617566 -0.00048865074953 0.001210601846 6.0112570787e-06 -5.6766774324e-06 -2.9975550003e-05 -0.0056347345302 
-0.0066453660447 -0.0062734147128 7.3438170477e-06 6.0302143797e-05 -0.0012739340638 -0.0063390458405 -0.011922270028 -0.012390720571 2.7937971896e-05 
-0.0049694038002 -3.1013925636e-05 -3.139263475e-06 -0.0071206200853 -0.0011710056495 -0.0071242322444 -2.2863815677e-06 -0.006466461454 -0.0065890044101 
4.1544551099e-05 2.9648923864e-05 -3.7713333916e-05 -0.00049952241576 -0.00015823111244 -7.2770747378e-06 -5.797981858e-06 -0.0069205069168 5.1801834198e-05 
-4.9689943955e-05 3.0389087361e-05 -0.0074942097871 -0.0067565339536 -0.00044784411772 -0.020256560076 -0.034493617801 -0.010347199486 0.003557591827 
-0.0018042076783 -0.0058048372671 0.00010950856666 1.3721887877e-05 -4.3966835147e-05 -9.2506704619e-05 -9.4021964047e-06 -0.00010712593261 0.0001901058047 
-0.0052634005387 -0.0050893679458 -0.0030778265665 -0.00083876462169 -0.00026614115484 -0.0012550208237 -0.00083616273478 -0.00047050729048 0.0014912947315 
0.00054982569482 -0.0070187002988 -0.0073635574251 -0.0016839234798 -0.00040745365363 -0.0018662159007 -0.0012314285971 -0.0060111742787 -0.0063529068117 
-0.0066419403226 -0.00027772868945 2.3747005481e-05 -0.00030540953658 -0.0083077889947 0.00015525686195 -0.00022234295636 -0.0018910754313 -3.3241941026e-05 
-9.7045709874e-05 0.00015605351421 -0.0033868614273 -0.0023442741703 -0.002969522942 -0.0072201583767 0.00096546842246 -0.00022332992461 -3.6897739811e-05 
0.00037249910633 -0.0010754557253 -0.00022819513716 -0.0038313260541 -0.0057169691135 -0.0040245704555 -0.0015078171398 -0.0009008904272 -0.0014977685221 
-3.4797768651e-05 0.00011580364051 2.2539249274e-05 -4.2393191455e-05 -1.1625860191e-05 0.0012927022855 0.0013225200299 -0.033864210563 -0.017267784829 
-0.0072556118875 -0.003828570549 -0.0068603824152 -1.1087617966e-05 -0.00088458366923 0.0052435569919 -0.0064506819542 -0.0055020925764 -0.0042727256145 
-0.0053257394995 -0.0046270529404 -0.0057078093605 -0.0098646685759 -0.0090356830004 -0.0071746963569 -8.0111416713e-05 -0.0034845590348 0.0014892260951 
-0.0060078340007 -0.0078408366875 -0.00017180320633 7.013049051e-07 3.154966352e-05 -2.9197088047e-05 3.857273299e-06 -0.0001685015401 -0.00026029678826 
0.000332481056 1.8444104842e-05 -4.4558755285e-05 -2.2273815058e-05 -0.0021790340289 -0.0032637418188 -0.0030592932145 -0.00022234773941 -2.9291593094e-05 
2.8168265907e-05 -0.0022075647985 -0.0025130329902 -0.0015664975436 4.9804741277e-06 5.1557961397e-05 -0.028219250573 -0.045315057253 -0.0041520574726 
-0.0026973105744 -0.0031313795498 -0.0041263605492 -8.1335630085e-05 2.1826628439e-05 1.8536338899e-05 -0.0063039116814 -1.6925596723e-05 -4.8752424091e-06 
-3.3625126191e-05 -0.0053724392017 -0.0015489534958 -0.0065454821658 -0.0061090864405 -0.0063465254677 -0.0058084953595 3.7559000824e-05 -0.0071222897571 
-0.0066432978382 -0.0058819389774 -0.004750676062 -0.00032645703584 5.34499324e-06 -4.9688560314e-05 1.8315617243e-05 2.9142106243e-05 -2.6154263003e-05 
2.976216253e-05 3.4145631836e-05 -0.0026966650537 -0.003569661292 -0.00092617372171 -0.0048456989388 -0.0062168121602 -0.0085924586337 -0.0084355563919 
1.3704975483e-05 4.9928089271e-05 -5.0069037651e-06 -2.4524689617e-05 -0.0093929581607 -0.01002789088 -0.0055336526155 0.0004660633569 -0.00024501592099 
-0.0029947253615 -0.0031829452244 -0.0027787790071 -0.002520007502 -0.0021666856438 -0.0011579655795 -0.00071525448531 -0.0019810008877 -0.0016675895863 
-0.0017351633682 -0.0019495985374 -0.0080554138917 -0.0074381525817 -0.0082957338755 -0.0112681632 0.00356977089 4.5412595929e-05 -2.3892689287e-05 
7.1795669113e-06 1.0356279307e-05 -7.1757954006e-06 -1.3722366211e-05 3.4580857e-05 -4.8198031841e-05 0.014180322929 -0.020084615904 3.1143188491e-05 
2.5938199754e-05 -6.1503908953e-05 0.039323696185 -0.0064996834915 -0.0088710049183 0.00052098307166 0.00020100818519 -3.3640792089e-05 0.00019562988813 
0.00040770053435 5.0086987293e-05 -2.4186861072e-05 -5.380581789e-05 -2.0229229821e-05 1.3409405449e-05 -0.0072858543411 -0.0062623219399 -0.0069146102131 
0.0018696266128 0.00024504143402 0.011943041039 -0.00042153011466 -0.00015701542347 -0.00035155890492 9.833261647e-06 -0.0027217240962 -0.0039506903234 
-0.0050869818944 -1.9369876909e-05 4.3774047096e-06 -0.0066002778002 -0.0077713789549 -0.0084665111308 0.00049347924777 -0.00052036155623 -6.2705258829e-05 
0.0030252866495 -0.0002669581327 0.00072086764974 -0.0075236444961 -0.010163258207 -0.006648383242 -0.0073947089331 -0.0071834455143 -0.0067963768665 
-0.0062625969071 -0.007017732806 1.0322895445e-05 9.7509704084e-05 -0.0064138382252 -0.0061456279859 -0.0068189141048 -0.0066332225423 -0.0020460220048 
-0.0012005317569 -0.0009578934106 4.7307409523e-05 -0.00010720073658 -0.00020933301032 -0.00055645692972 -0.00026600520909 0.0040999023663 -0.011412518997 
-0.01056049326 -0.0031149917055 -0.0022575549533 -0.0028587380108 -7.8808143856e-05 0.00025015273864 0.00020802234347 -0.0079453868763 -0.0087234248584 
-0.017286385722 -0.017250709202 -0.018853790699 -0.006634809071 1.8319537424e-05 0.0014298217119 -6.4087572269e-07 -6.4760230983e-06 -0.00019031955123 
-0.00043945952544 0.00054569355757 -0.00083280024171 -0.0094104610627 -0.00020414168538 3.8111750405e-05 7.931138211e-05 -0.0001005252417 1.4764941003e-05 
-0.0026757490383 -0.0023847247846 -0.0013013518854 -0.00082662596287 -0.010691963207 -0.002824721361 -0.010336162009 -0.00020010918425 0.011653166296 
0.0037554936303 -0.0028136947115 0.0022463505635 -0.00036185503078 -0.0076456631559 -0.0068966721725 -0.0086464359243 0.032488164847 -0.0073024463295 
-0.0070494813459 -0.0072861873756 -0.0073324775153 -1.6000054021e-05 2.5805627457e-05 2.3052311957e-05 -9.2654296424e-06 -0.014485827956 -0.013261026595 
-0.014333547331 -4.9936219744e-05 0.00015300814686 0.00014606092607 -0.0022449580531 -0.0015658780651 -1.4957796095e-05 0.00010377230253 -0.00028380463473 
-0.00026471637126 -0.016727139652 -0.0090042355174 6.3998455944e-05 0.012385746209 -5.171844017e-06 -0.00010017114509 0.00096948618699 -0.0020805927128 
-0.00064201242133 0.0020932507682 -0.0036094299039 -0.00030612784463 -0.019658957336 -0.00017956189899 -5.0431260285e-05 -0.0015007510204 -5.4826284775e-05 
-2.817998949e-05 -0.00044830771054 4.5520711323e-05 4.6872933978e-05 0.013666476327 -3.0332384056e-05 -0.00011459429308 -6.7992050824e-06 0.00018349098101 
0.00035699467368 -0.0022092063926 -0.0088074733535 -0.0089576802842 -0.00897331789 0.00027838017857 0.00015260507677 -0.00014765180428 2.133333592e-05 
-2.5182313053e-05 -0.0059804738985 -0.0001703741002 0.00029672287975 2.6842610272e-05 -7.0892098358e-06 -0.00015532087799 -0.017172244655 -9.4071716963e-07 
2.6294204752e-05 0.0013118837062 1.6410633525e-05 -7.7735566085e-06 -5.181383647e-05 0.00069298037856 -0.0030195133786 -0.0018075604099 -0.0040419922772 
-0.0052650944501 -0.005545188927 1.4067631774e-05 -0.00031305891225 -0.00035613921349 -0.00010098555823 0.00060441462557 -2.3592253041e-05 0.012184883166 
-0.015963391012 -0.0095677596648 -0.0098613969963 -7.0730754984e-06 -6.3720863115e-05 2.4602403455e-05 -2.1269779624e-06 3.2084293936e-05 -3.7767785961e-05 
-0.0048762265866 -0.0039568247658 -0.0046077956759 2.0021777017e-05 0.00014457099564 -2.1852364745e-05 -6.7450303074e-05 -4.7389744585e-05 -5.0153556339e-05 
-0.00012740030725 -1.4534532587e-05 -0.0072427470126 -0.0074957667039 -0.0062916328263 -0.0039393422731 -3.0966492166e-05 -9.2131698405e-05 4.9543219474e-05 
-0.00595333355 -0.0049535057432 -0.005343361156 -0.00011705314304 -0.00018294887517 -2.9696051739e-06 0.030907471146 0.027040880164 -0.0078518625746 
2.0578245216e-05 6.2174860188e-05 0.00019201779574 0.0021145254014 4.6870423923e-06 2.6141280311e-05 6.1861766244e-05 -0.00014455515183 -7.0952624603e-05 
-0.010344016972 0.00076689842447 -0.00048972394991 -1.2483407888e-05 -1.7732989675e-05 2.9953356152e-05 -0.0026851708603 -0.002007914353 -0.0027233458483 
0.0027948669889 0.00073269970702 0.00043780384727 -0.0048840515957 -0.0048670836407 -0.0079049463977 0.0018572264704 -0.0017577272093 -0.0014194736615 
-0.0092595896647 0.00085445769051 8.6458914095e-05 -0.0036168226691 5.4118562886e-05 -0.002932019645 -0.0043826172426 0.019433484805 -0.00075583564711 
-0.0088776020435 -0.008082643994 -0.0072811832535 -0.008363473654 0.00020794118536 5.6639503211e-05 -0.0014365150783 -0.00045562603453 0.00011011267939 
-1.4431934699e-05 4.3351288959e-05 1.8439237491e-05 2.503247316e-06 0.0012805064009 -0.00028013036114 1.574191845e-05 0.00018735769304 8.5880622812e-05 
-0.001187779575 -0.00070143467662 2.5768531902e-05 6.974630739e-06 -0.0011840245295 -0.00030102987171 0.00021770854341 0.0012334250389 -0.00015899724423 
0.00010076358667 6.6461804918e-05 -0.0010571277851 -0.00089853397153 -0.0025141033663 -0.0018209648303 -0.0001039850018 -0.0026748944665 0.0013634441824 
6.7398550729e-05 7.1084931153e-06 -0.0001190510752 -5.893848871e-05 0.00019105640678 -0.0002915177052 -0.00016171903131 -0.00018769505019 -0.00051991404845 
-0.00044018656725 -6.1065762088e-05 -2.1482274317e-05 -4.9095675915e-06 -3.6889168841e-05 -2.3896820611e-05 -0.0012891992269 -0.00091138618664 -0.0019712027023 
0.00024171604424 0.00010266547015 4.7731938552e-05 -0.01658647064 -3.4988403077e-05 -0.0063514080061 2.6435459353e-05 0.0069981247757 -0.0011715059188 
0.015799667695 -0.0050251254663 -0.0070081163006 -0.0063515009581 -0.0056317126151 -0.0065240336964 -0.033431571896 -8.5098415563e-05 0.00014976667768 
-0.0092042482846 -0.008819046224 7.1892886117e-05 -0.00015810976874 -5.8394384297e-05 1.156748265e-05 0.0001254366484 0.00021276633741 -3.3934093719e-05 
-0.0056961178263 -0.0055475460278 -0.0092703890279 -0.0084861778266 -0.0097109733686 -0.0089369703956 -2.6700138e-05 -0.00015254670568 6.0740180579e-06 
-2.2847555988e-05 -5.0636329597e-05 -3.9628444993e-05 9.0294684372e-05 6.2026052599e-05 0.00012339874078 1.9013975264e-05 3.8767250409e-05 2.7635933626e-05 
1.9966839063e-05 1.6475610845e-05 3.8734036397e-06 -6.0548533287e-05 0.00030799912737 -0.00010080101097 -0.015563018829 -0.0019890157508 -0.0020958687925 
-0.0016486102047 -0.00018427897821 -0.00022462915739 -0.0066358512508 -0.0050137411004 -0.029232928344 -0.00022362257292 -0.00010150860481 -0.00010084924311 
2.4257634465e-05 0.00019852248169 -0.00027635529703 -1.6031225865e-05 -5.3733731097e-06 -7.6458670858e-05 0.0001678524333 -0.00015149003052 0.011844931613 
-0.01321370099 -0.011653868761 -9.1724544403e-06 7.6363450528e-05 2.6307465498e-05 -4.7775319269e-06 -3.4758810712e-05 0.0001193822318 4.1866019728e-05 
-0.00085232255937 -4.7336912321e-05 -0.00016013982388 0.00053798633083 -0.00044026550368 -4.3278570602e-06 5.0136498486e-05 -0.0020272303462 -0.0009799378184 
-3.7469617081e-05 -1.8426880909e-05 -0.047662389876 -0.0002101060684 -0.00040342999027 -0.00027280044329 -0.0048123044843 9.4666254454e-06 -0.0046623688853 
-0.0056362811104 -9.0799414981e-05 -0.0017730247791 -4.0185606705e-05 8.393491123e-05 -0.00025331788404 -8.0763100315e-05 -4.8112944469e-05 -5.3025605338e-05 
-0.0031637820272 -0.0013746919575 -0.0010095903396 -0.0025993684352 -0.0051090023167 -0.0039732621006 -0.0045755306322 -0.0046500171104 -0.0020172040487 
7.5408350587e-05 -0.000317133434 -0.00010799655847 -6.7666959308e-05 -0.00016171692139 -8.8374242251e-06 2.4711382394e-05 5.9699225862e-06 -0.0010710316944 
-0.00085765088545 -0.0063823067625 9.7946097251e-05 4.3528715128e-05 -4.885368017e-08 -3.1269653283e-05 2.4657094646e-05 4.2871708632e-05 -1.4230362667e-05 
-9.9866294205e-07 9.8919493502e-06 -0.00082132016392 -5.6865943537e-05 -0.00018608667322 -9.7038661808e-05 9.3494927444e-05 -0.00010333213744 0.0010577603846 
5.2401056393e-06 9.7251746031e-05 -0.00028109686096 -0.00015369312068 -7.2990150859e-05 -0.0042179799158 -5.8565687529e-05 0.00012298213628 -3.7403489767e-05 
0.00040732967954 0.0001130976556 -0.0029411511355 -0.00011971367466 -0.00012003896843 -0.00046403829358 -0.00040169901246 -0.0007575983676 -8.6217974226e-06 
-7.6454596818e-06 0.010033668 0.012124578267 -0.011984640048 -0.011526973428 0.012049946761 -0.010925936626 -0.012062568833 -0.00024061751425 
-0.0065251583332 -0.0058492916389 -0.0065804059957 -1.3660194616e-05 2.6052919968e-05 -5.4805847581e-06 -4.4276122968e-05 -0.0015017236156 -0.0010464583757 
-5.2793127094e-06 -0.0047585705468 4.9870574772e-05 0.00040419368902 -0.00064278212532 -0.00026805996694 -7.2953333251e-05 -4.8192445642e-05 -5.1319025423e-05 
-0.00031277212686 5.2180305787e-05 2.0407665447e-05 -2.3552101922e-05 -0.0015422786438 -0.0012049667358 -0.00018847259214 -0.01673670399 -0.0059951400941 
-0.0083467456462 -0.008682274461 -0.0018831421524 -8.2226725527e-05 -0.00053279189847 -1.7874535526e-05 5.3295415365e-06 0.0004869804499 -0.00010873694462 
0.0014415444794 -0.010759004047 -0.010612764906 0.00019300946403 -0.00043274972935 -5.0799453228e-06 0.00016270342004 5.3517945353e-05 0.00059601323594 
0.0004265969576 -0.012530402884 -0.0093671935244 4.9060305343e-05 8.3967061505e-06 -3.3475242777e-05 -0.0083063501655 -0.00073887088832 -0.00090898140008 
0.0011479816971 -0.0003148541594 -0.0011515476834 2.8726355211e-06 -0.00014622570537 -0.0010069511679 -0.013005427052 8.8943094857e-05 -0.0082351661289 
7.2225752895e-05 -0.00071201611925 -0.00035423330872 -4.7637566541e-05 2.9510140016e-05 9.1029198924e-05 2.1036549832e-05 0.00019866964776 1.8289555379e-05 
-0.0002757824323 6.6759570222e-05 -8.2822685643e-05 -5.2551240188e-05 4.1488953152e-05 5.2246107847e-05 4.6290235367e-05 -0.0039104539694 -0.0031260994186 
-0.0040276478183 -0.00015463451526 -2.8726063811e-05 -1.9537011612e-05 -5.8976195557e-07 -0.001855952431 -4.1141932885e-06 -0.0039670371986 -0.0035360544078 
-0.001370254842 -0.0020306096218 -0.0077401779231 -2.8054171499e-05 -1.6074584625e-05 -1.6690430498e-05 1.0777119045e-05 -0.00014159262729 3.3955128624e-06 
2.2464071202e-05 -3.8600308756e-06 -1.3592734618e-05 -0.0033266907024 -0.014693733907 -0.010031919108 -0.0096001292749 0.00014764090228 -0.0001487482953 
-0.00024821358302 -0.00023775696247 -8.559082225e-05 -0.00063518536681 -0.0002162226399 -0.00022229324923 -0.0032037913406 2.7618839663e-05 0.00051116477226 
-3.6961894777e-06 -7.0568432604e-07 -0.00016895466634 -0.00013084880744 -0.00038557561022 -1.6977432661e-05 -0.0032361071521 -0.003466165843 -0.0042212882162 
-0.0047089862292 -0.0099660313628 4.4871133348e-05 -0.0010040889795 -0.0010631835269 -0.00069953729992 -0.0030544125052 -0.00039103438782 -5.1535230934e-06 
-0.0065678797191 -0.0067926967592 -0.0075397334335 0.014511972664 -0.014402508052 -0.01561803814 0.00021906606397 -9.4527406629e-06 -3.4079223847e-05 
1.9549545519e-05 -2.3525911566e-05 -0.00012180197981 -3.2315375985e-05 -0.0013430116073 -0.00076051765039 -0.00068127818505 0.009827060569 -0.00013735438713 
8.7061417341e-06 1.945054832e-05 -1.9233688675e-05 -3.0534507036e-05 0.0011242872395 -3.3743311214e-05 -0.00070997168369 0.00013225100058 -0.00015873639479 
0.00029411996576 0.001820591752 -6.2301762374e-05 3.4925650209e-05 1.7854884215e-05 -0.00019672145119 0.00083186922403 -2.5896348258e-05 2.6269492666e-05 
0.00012826828588 0.0020081160722 -0.0019708484651 -0.0022765908049 -0.0025264016571 -0.002871317727 3.2278073577e-05 -9.1060446683e-06 -5.0909451456e-05 
2.2836703479e-05 0.00054508981205 0.00018310697202 -0.0044198899176 -0.0056156353759 -0.0067751841888 -8.0448546018e-05 -0.0015849900341 -0.0021551498981 
-0.013280227742 -0.00038645761004 -2.9709648667e-05 -0.0071827465321 -0.015867442125 -0.0033215773719 0.00019277624234 0.0002237735297 -0.00013428556949 
-0.0031297816594 -0.0068732546799 -0.001533998567 -0.0038901495101 4.4956098368e-05 7.300052446e-05 -0.0001242154158 -0.0016603499704 4.8264997366e-05 
-0.0046227142984 -0.010334712766 -0.0098742494997 -0.0093463953483 -0.0061187865894 -0.0082666030762 -0.010822821236 -7.9897379564e-05 -6.350325797e-05 
-0.00012308250085 -0.00037034623484 -0.00011448615277 -0.0043646225629 -0.0037138379424 -0.0031376799097 -0.0037247878457 0.00038226744858 -0.00042439547811 
0.0011611266068 -0.0020458418469 -0.0015935642787 4.8538397494e-05 -0.0003251982337 0.00010791636345 0.00028146136357 -2.3113347428e-06 0.0001332052861 
-2.0053258232e-08 -0.0067642368086 -0.0057934905291 -0.0088593305884 -0.008324686755 -0.0097806918609 -1.8529080176e-07 -0.0048976087042 -0.0036569553508 
-6.4141335064e-06 -3.1077195504e-05 6.467213641e-07 -0.00014931327361 -0.00041973885231 -0.00010882420389 2.3509865129e-05 1.4322390682e-05 -0.00019418769571 
-1.0085675225e-05 -0.0034709774218 -0.0053837294015 -0.00015322634947 -0.0073140292958 -0.0074810631971 -6.6481733941e-05 -0.0064708765725 -0.0075526891598 
-0.0015401214539 -0.0011303556525 -2.7091862461e-05 0.013860206857 -0.00085108298658 -0.00035547501788 -7.7211806934e-06 -5.7028405565e-07 3.84075463e-05 
3.4260936524e-05 4.0634067516e-05 1.7476071821e-05 4.2488695095e-06 0.0010780936892 -0.0024030249717 -0.0025298022814 -3.828366069e-06 -0.0019249558332 
-0.067637366827 0.027694448336 3.1766516391e-05 0.00032843434577 2.2089622149e-05 -0.009374868161 -0.0088558794821 -0.0095973267703 -3.8468023997e-05 
6.5706515803e-06 2.2433586647e-05 2.1961360288e-06 -0.00026357646342 -4.1587576882e-05 -0.000865376639 -0.0014107373741 -0.0025959326433 -0.0025671330934 
5.2216493606e-05 -2.0210753631e-05 -1.168560071e-05 -1.390127988e-05 1.3926094678e-05 -0.0032370343711 -0.0041434621574 -0.0038832244604 0.00016349879558 
4.759232046e-05 5.6659011745e-05 -1.6005030697e-05 0.0014097728111 0.0012313233311 0.00010911145017 -0.0043765941166 -2.3689795156e-05 -5.6237213563e-06 
-0.00032177134162 -0.0070206744386 -0.00032681336995 -0.0097419689309 -0.0085722697979 4.3026703297e-09 -0.00016183197748 -7.4364813122e-06 -6.8382299242e-05 
1.3439415761e-05 1.4260925118e-05 -4.4274252107e-05 -7.1577224387e-05 6.0431433788e-05 -0.0085315177939 -2.5220626299e-06 1.0379911979e-05 -0.00019309316169 
-0.0015775120462 7.7725421468e-06 -5.4139420929e-06 5.7194207248e-05 -2.1946743943e-06 0.0011364461131 -0.001919382277 -0.00048366036833 -6.7287169952e-05 
-6.7186853948e-05 7.3490289159e-06 -1.3542675148e-05 3.0456032858e-05 -0.0025542647362 -0.00028376978397 -0.0027184715871 -0.0020082054076 -0.0028628822295 
0.001049154628 -0.0018646307667 4.2607442692e-05 -0.00023138662686 -0.00019980221717 -2.8288593882e-05 0.00047875045535 0.010981860759 3.8380106446e-05 
-0.00044187589497 -0.0028709804365 -0.00039290362369 -0.0027324344473 -0.00010014093528 -0.00019919500931 4.5331145268e-05 3.3982310468e-05 -0.0072737240208 
-0.0075083981234 -0.0065978328378 -0.0070342654922 -0.0058190662544 -0.0084860616449 -0.0034297654518 2.1176680218e-05 5.509323489e-06 1.9884002765e-05 
-7.3444674833e-05 -3.355610279e-06 -2.5736984333e-06 -0.015699738847 -0.02076893031 0.00073710655744 -0.00038263310345 0.00015606535591 -0.017524122387 
-0.0039331882862 -1.1322455462e-05 -0.00011494257769 -0.00025361195834 -0.0055846557201 -0.0034529726366 0.00012515462072 -2.3852781204e-05 -0.0039641432115 
-0.0033706794797 -0.0037231864861 9.0089777807e-06 -2.6515303694e-05 1.7442097374e-05 -0.0050270667914 -0.000523427101 -0.0002819150645 -0.0017901299806 
-0.0051215769677 4.3918560483e-05 7.0670908755e-05 -3.4909514869e-06 0.00056035651614 -0.0063867928817 -7.0912510957e-05 -3.2500490738e-07 -0.00060710531207 
-0.0013797184619 0.00028331328292 9.8495477409e-05 -0.000187156965 -0.011815230914 -0.01028965544 -0.0068388710852 -0.006428911559 2.5874193435e-05 
2.3818556864e-05 2.381216624e-05 8.3632830988e-05 0.0012494020516 0.0020684078878 0.00090988662117 5.8569167152e-05 2.123614827e-05 -0.011027186244 
-0.016615564296 0.053071273324 0.041644075379 -0.0061882218679 -0.0064558051812 0.0015737707781 -0.040677917229 -0.0057579074733 -0.02236077001 
-0.011756318762 -0.0078160657029 -0.0097176353974 -0.0095602419012 -0.010201770402 -0.0068239727657 -0.0078871555495 -0.0072892869973 -0.0023610359365 
-0.002649018739 -0.0072030268942 -0.00010469462505 -0.0070373755592 -0.0059693172682 -0.0021945552976 0.00022231616031 -1.4719584861e-05 -1.0949962347e-05 
-0.0014905125247 -0.0021196005368 -0.0064639402873 -0.0011705930592 -0.043494788847 -0.0012154372745 -0.0057728984521 -0.0059633942122 -0.00038210996733 
-0.001773223644 -0.0024249654428 -0.0022543806845 -0.0060733228569 -0.0052804393849 -0.0018364263944 4.1623213465e-05 2.574860678e-05 4.4143845016e-05 
8.5826085761e-05 -0.0024857848463 -0.0023026232482 -0.0030636234214 -0.015312801514 1.7181989881e-05 -2.7910578558e-06 -0.0049048034824 -1.2502740762e-05 
5.4832377297e-05 -0.011409841424 -0.010674593487 0.00035302932059 1.4478919563e-05 -0.00026253017863 -0.008046157589 0.012208569805 -0.013215415038 
-7.0195484122e-06 -0.014304616433 -0.00014441066311 -5.1126808351e-05 -2.4268282684e-05 0.00010804399553 -0.00023927394155 -0.010888034434 -0.016881929145 
-0.018692973407 -0.0027911666104 -0.0039282962063 -0.00033433573484 -0.0009334788633 0.00018369956048 0.0002090008873 -8.4544098052e-05 -0.001346786503 
-0.0051847103256 0.00031857666745 -0.00019789747639 -0.0032629011244 -6.1201587721e-05 1.6809675456e-05 -0.0074409723606 -0.0074136794947 -0.0075362937141 
-6.424126829e-06 2.3976503524e-05 -0.0022667878294 -1.5317072833e-06 4.2174374341e-05 -0.011715315134 -0.011214879624 -8.7860976829e-05 2.5874793811e-05 
-2.1588562391e-06 -1.1690476732e-06 0.0028512462779 -8.3153912956e-05 0.00015764396932 -0.0068440848709 -0.0062900624676 -0.0069112909175 -0.012083694251 
-0.013213967058 -0.0021542745187 -9.8726448705e-05 2.0095444554e-05 -0.00022720751762 -0.0066567024667 -0.0020139696989 1.1552441904e-06 -2.0321102502e-05 
1.5003676229e-05 -0.006448798928 -0.0071618460126 -0.00066137674265 -0.001853208259 -0.020539049942 -0.002852380543 1.3727461031e-05 1.0223159379e-06 
-1.0581075931e-05 0.00015761867098 0.00018370927455 -0.0001638538998 5.0021050527e-06 8.1882809893e-05 0.00011034756736 1.1469967111e-05 2.9195659114e-06 
2.7862272246e-06 2.1339010432e-05 1.1841199789e-05 -7.5087952047e-05 -0.0048470136327 -0.0040710208214 -2.4511983595e-05 3.5537005168e-05 -7.8352902932e-05 
2.9222199815e-05 1.3898032841e-05 -0.00045082445668 -0.00065083606894 1.2541795541e-05 1.4384087913e-05 -9.7967467747e-05 0.0001329257478 1.7883687632e-05 
-0.00015701042614 -0.010415475449 -0.0055485791839 6.3193997317e-05 -0.00079995755662 -0.0011042874787 -0.0050960284968 2.1168842569e-05 -0.0018694625116 
-3.432438727e-05 0.00022784345085 -1.5084266209e-05 -0.0033868587143 -2.2554283362e-05 -0.0271595532 0.017182914656 -4.2203893548e-05 9.5987083369e-05 
-2.1598200873e-05 -0.0059323960006 -0.0064868399318 -0.00038512688628 -0.00027572617888 -0.0002104299507 5.1274271385e-05 2.3458973353e-05 2.4319736262e-05 
5.8497711314e-05 -7.7017578771e-05 -0.004043783703 -0.0012349509887 -0.00081267913857 -0.00054327923107 -0.00052198040965 6.5400730834e-06 -2.7984004211e-05 
5.2719018786e-06 -0.00092943862076 -0.00050628309552 2.4289619202e-05 7.5493338488e-06 -0.001150761193 -0.0012432785697 -0.0020460419561 -9.7057921885e-05 
-1.6540477961e-05 -0.00011869721956 -0.00019146779763 -0.001769087655 -9.2227607648e-05 -0.0011855620775 -0.0023605115299 1.2410494122e-05 -1.0138032245e-05 
7.8888801307e-06 0.01047926203 1.6990159304e-06 -0.016947751699 -0.037669194874 -0.011111071821 -0.017958767587 -0.020754209375 -0.008258268226 
-0.015777500606 -0.014460865913 2.3381498259e-05 0.00034645118264 -0.00016618663698 3.2391748249e-05 -1.1173714161e-05 -0.0014721392751 -0.00088721316567 
2.4282429941e-05 1.6896395313e-05 -2.1522579429e-05 1.2618115174e-05 -0.0017298583587 -0.00011505598783 -0.0013041837967 -7.4390842565e-05 4.26344051e-05 
-3.1081344663e-05 -0.00014354500588 -1.6608608846e-05 -2.4441907159e-05 2.3011635434e-05 1.1674582439e-05 -3.424246966e-05 0.00029005217689 -0.00061421994525 
0.011945417286 -0.0058966474747 -0.0060043633745 0.00016201741347 -0.00026362480258 6.0789180817e-05 -0.0068027260943 -0.039877717079 -0.069252946817 
0.00011007617901 -4.3241412191e-05 0.00017534494676 -0.00020097152284 0.00089634452638 -0.0088223752835 -0.0084104566734 5.5923739041e-07 3.7071586559e-05 
5.0150342208e-06 -2.4440063949e-05 -0.0026537362955 -0.0035062018036 0.00032407232792 -6.9772142029e-05 7.8137084902e-06 0.00010559359379 -0.0043436713021 
-0.00060771014054 -3.6752366468e-05 -0.0057966788705 -0.0034433085161 -0.006770955978 1.2734162022e-05 1.011304934e-05 5.7233993275e-05 -0.0012050027856 
-0.00014551993524 -4.051510819e-05 -0.0012772712858 -0.00076981170806 -0.00078394005174 -0.00073945016061 9.1594684729e-05 -9.0141598691e-05 0.0002359233808 
0.011033032818 -0.00056077208855 -0.002228893013 4.0074725286e-05 0.0018508055143 6.7299577991e-05 -0.0079280416323 -0.017472721701 0.011413835156 
-0.006275881051 -0.0052345783089 -0.00017318435572 -0.003846097088 -0.0030100023946 -0.0091810282114 -0.0086728120352 -0.0080535144086 -0.0012101859307 
-0.00079652465066 1.376127776e-05 4.6992491895e-06 1.3570679581e-06 -0.00041246133703 2.9124285252e-05 -8.8238863681e-06 -0.0024449971684 -0.0048351588578 
-0.00060587876841 -0.0043247104826 -3.9240586501e-05 -1.0291719397e-05 -0.0037658180602 -0.0052352954919 -0.0039420631463 -0.0074682988163 2.16302102e-05 
-0.0052177393463 -0.00087327608214 -0.00078706953884 4.0103617983e-05 2.473405871e-05 -7.1554297761e-05 -0.0024445148509 3.2598572494e-05 -6.1975454485e-05 
4.6249336643e-05 2.1205538667e-05 -0.00016661010949 0.0016809938801 -7.4955224354e-05 3.6576964386e-05 2.1404673208e-05 0.0019872459923 -0.00055486027367 
-6.536765018e-05 3.5735011476e-05 -0.00027679309505 -0.00061743658791 -0.0022350144771 0.0035892238545 -0.0044256867749 -2.4423272681e-05 -0.0017308018695 
6.9006847169e-05 -0.0011901328705 -0.00081811843141 -0.00016465724118 0.010842296039 0.013645221806 0.0011518055945 0.0029838562548 -0.0040162918252 
-0.0086675411607 9.3251683639e-05 -0.0066254232877 0.011772030051 -0.01720653147 0.012820230558 -0.0073080125239 -0.0083073692435 1.6343802014e-06 
-3.060545421e-06 -0.00055693943567 -0.0008876648881 -0.00090935232939 -0.0019999098999 -0.0012423359793 -0.013250021047 -0.011468552061 -0.0083509321367 
-6.2665150397e-05 -0.0032146349812 0.028467207698 -0.012262870031 -0.01337510034 -0.0031203358411 -0.012991001796 0.010202368859 2.2404078503e-05 
-0.0083609813904 -0.0014113988399 0.0017638836012 0.000172737955 -0.0002638139439 -0.0015786278237 -1.8132016362e-05 -0.0011978606684 -0.0060369911383 
-0.0068783226738 -2.8152728633e-05 -1.2270087307e-05 2.5456242126e-05 3.4327597761e-05 -0.00042018751561 -7.5622186262e-06 -0.0035386607919 -0.0070849810685 
-0.0062122748657 -0.014908048578 -0.019771175001 -0.00089241874337 -0.017654902846 -0.00013428735778 1.227126388e-05 0.00024131018159 4.6541743584e-05 
1.7186995867e-05 4.4970309442e-05 -3.2245354477e-05 -0.011804191363 4.9656477057e-05 -0.014658731271 -3.4525665925e-05 2.2511244297e-05 -0.0074437091102 
0.00024734863809 -6.9433721929e-05 -0.0084479292694 -0.0095854486884 -0.0093953244387 6.6958408418e-06 -0.011109684684 1.4199612853e-05 -0.00013964805754 
-0.0050143397127 -0.00051559947269 -0.00015203645088 4.5422304062e-05 -0.0044144169522 0.00050802985313 2.6022382314e-05 1.2897886569e-05 -3.5216467363e-05 
-0.0030658450914 -0.0016508266865 -0.00068363963862 -0.0020089048562 -0.00026265685563 -0.00015289733385 -4.3724621067e-05 -3.3442110528e-06 -6.7710058775e-06 
6.318511634e-05 -0.00014907038391 8.0291054295e-05 2.0047334445e-05 4.6057410987e-05 -6.2592257195e-05 1.9495433243e-06 -9.2186453387e-06 4.8020373276e-05 
-0.0045484570868 -1.1924663417e-05 0.00047241511004 -2.4417781784e-05 -6.6621483508e-05 3.1225507367e-06 3.3187359719e-05 -0.0016458382024 -0.00020023822876 
-0.00033658795105 -0.00029364211928 -0.00017682936944 -0.0031854964882 0.00037450572688 -3.6040016964e-05 -8.6938360846e-07 4.1414034355e-05 -3.8953205532e-06 
0.00014690442675 -0.00090858156893 3.8722413204e-06 3.0466212278e-05 0.00076395110199 -0.0079787537775 0.00027387554896 -0.0076235530593 0.0007711886756 
-0.0026146715789 -0.0020217858757 -0.0071812555088 -0.00010730533312 -6.002074316e-06 -5.2524025786e-05 -0.0014365755514 4.347973011e-06 -1.4385441544e-05 
1.1187121897e-05 -1.910778262e-06 -0.015502635528 -0.014132179886 -0.0093434043341 -0.0088649109839 -0.0083650447167 -1.3765626815e-05 -0.012467050756 
1.4472983426e-05 -0.0069299325336 -0.0010656859732 -0.00067904641718 -0.00050512296498 -0.01841178356 -0.00038692272427 -0.0062513154085 -0.0021437535473 
-3.266446413e-06 -1.2119361337e-05 -0.00010812477681 -4.7791869102e-06 -5.6803472846e-06 2.1033903978e-05 -2.5495780179e-05 1.6703262736e-05 -0.0017616022727 
2.2973492938e-05 4.4673413594e-05 6.192688156e-05 2.6856694779e-06 1.1616033224e-05 5.2780963109e-05 2.9274668257e-05 -2.6914098508e-05 -0.0053450614871 
-0.0064146778307 -0.0017979719664 -0.010045663424 -0.0058885195439 -0.0024509563249 0.0052609687208 -0.0045949526051 -0.00093870008054 -0.0075676493289 
-0.0058520033066 -0.0053363194618 -0.014857085122 -0.0025981158848 3.2960827892e-05 -5.9212497774e-05 0.004922541207 -0.00061036945815 -0.00042187057619 
0.00016479331767 -8.5250941617e-06 0.00073107063793 -0.0060157587958 0.016107281145 5.3640883787e-05 -1.1237964941e-05 -0.01578311322 -2.831616933e-05 
2.2125881633e-05 0.000240507527 5.8042402586e-05 -3.6080046565e-06 -0.00033291016637 -0.0041200870781 -0.0047300859604 -0.00017561784959 -0.00014701532039 
-0.012236595394 0.00051850155409 1.1572369196e-05 -0.00085594039548 -9.9772263238e-06 -0.0012353520226 -0.0013324446571 -0.00098132977639 0.0033444226191 
-7.1329716204e-05 -6.0858219914e-05 -0.0022563629143 -0.0022035655482 -0.0012173017682 0.00029776386398 -0.00027098846847 -0.00010882542962 0.0013589508224 
-0.00085382717406 -0.0053280671671 7.2852276802e-05 -0.00027143471377 -0.020777726789 -0.0032158030189 8.8415670953e-05 -0.0048155668004 -6.6131014816e-05 
-0.0010246275831 -3.2187755137e-05 -0.0056072555286 -0.0074611646855 -0.0023964054231 -0.0001632725013 0.0014933381857 0.0020028955 -5.115910986e-05 
-0.00018202861599 -0.0040345968917 -0.001710493636 -0.018726078649 -0.016902179763 -0.016543868042 1.6629566441e-05 -3.4283141244e-06 -3.4730692129e-06 
2.370047667e-05 4.6624431783e-05 -0.0021192497959 -0.0021909768887 -0.0030566889784 -0.00060561171498 -7.6505426587e-05 -0.010183489752 -0.00010433251295 
2.9126707716e-05 4.3697898141e-05 -1.4433105638e-05 7.0478974564e-05 6.550252882e-08 -0.0012014317969 -0.0012748140889 -8.0008336169e-05 -0.00041221861766 
0.0012550438752 0.00029104481767 0.00017528163526 0.00049170026818 -0.001194176177 -0.0034859875166 3.4292814951e-05 -3.0116463913e-05 -0.0072187026166 
9.2591865359e-05 -0.014804950396 -5.222001206e-05 0.00024175287765 0.00021225749533 -1.7470200332e-05 -2.329584919e-05 1.8767673654e-05 -3.5406334324e-05 
0.00022601337413 -0.0010145685403 -0.00088532301314 -0.00018681909904 -0.00012195464773 0.00015673395477 4.3649854404e-05 -0.00062421860264 0.00052390020261 
0.00019493679015 0.0010741314557 8.3673872972e-06 -0.041383666065 -0.050498812745 2.8569061165e-05 -0.00034186316499 -0.0001101074298 0.00052457298087 
-5.6290858622e-06 6.9679588316e-05 -0.00083171806491 -0.00018734124763 -0.0043302873803 -0.00078423404163 -0.0072307987876 -0.00016880590265 -0.0056635683196 
-1.7837474928e-05 -0.0032696915213 1.4198720802e-05 -8.9854666678e-06 -0.00022706368274 8.8050742761e-05 3.8545169815e-05 7.8408334148e-06 -0.00074934032592 
-0.0059909163167 -2.0654597432e-06 -0.00013418284943 0.00023184636865 -0.0011540559661 -0.004740991449 -0.0039406940658 -0.0033440144472 7.9246116296e-05 
-0.0048114118656 -0.0062280604789 -0.0038102225338 -0.0075088299777 -0.0054710973754 -0.0074882032258 2.1135938793e-06 -0.0026528479005 -0.0023189647358 
-0.0032932167388 3.4339632379e-06 -0.00037684263145 0.0020674717962 -0.0031014355625 -0.0072993988676 -0.0088205417324 0.00020754754176 -0.0031303555902 
-0.0032932574471 -2.8584723779e-05 -1.470861186e-05 -6.8359256408e-05 0.00010385358749 -0.0045973642591 -0.0049681210093 -0.0058443756338 -0.0016688266017 
-0.0028577054526 -0.0069842239188 6.600616497e-05 -0.0071780086405 -0.0073300211889 -0.0076029030993 -6.3376045569e-05 -2.9057946819e-06 6.1151201768e-05 
1.857496324e-05 -1.2127790869e-05 5.9823469728e-05 0.00027382762705 7.3299687548e-07 -6.366024655e-05 -7.0962379948e-06 -0.0064874757296 -0.0058715188159 
-4.2948776304e-05 -0.003230805668 -2.9189835922e-05 5.9432850503e-05 -3.9200241683e-05 -4.2846808065e-07 -0.0022722743364 -0.012832890769 -0.0068946262432 
-0.007506173267 3.3428940098e-05 -6.6288256504e-05 -1.6688091071e-05 -0.0028652722811 -0.0037224041178 -4.3196977897e-06 -0.0014437074814 0.0019566930316 
0.00019945797454 -5.8764329029e-07 -2.520581618e-05 0.00010815188528 -6.6362864411e-05 -0.0073514401785 -0.0062082277101 6.4628571342e-06 -0.0020850230751 
5.0495521133e-05 -4.0288043484e-05 -0.003378005354 -3.3412774372e-05 1.4640833941e-05 -3.5588196499e-06 -0.0025592154158 -0.00019382365231 -0.0077429176387 
-0.0025696805245 -0.00010598342293 -0.0014895087843 1.9586611875e-05 3.5377859979e-05 4.9562845676e-05 -0.0001040525556 -0.00041487536487 -9.4086251858e-05 
-0.0023503874429 -0.0021719036299 -0.0001863347292 -0.00056886851459 0.00017016589802 -0.0034476428648 -1.1512199529e-06 -2.3563391822e-05 6.0597299593e-05 
-0.00014110379663 -8.7845044955e-05 -0.0048083952846 -0.0063936718753 -0.0021460975544 -0.0075365236106 -5.9181646503e-06 1.8976946676e-05 -9.6980066985e-05 
4.2211285422e-05 7.5866773151e-05 1.0824653259e-05 -5.1326117078e-05 3.0760587126e-06 -4.7311764234e-05 -0.002775698763 -1.5825069115e-05 -0.0063698694759 
-0.070274998691 -2.382431882e-05 -0.0075199735348 -1.0697233742e-05 9.5313365527e-05 -5.2197097812e-05 -7.8756508878e-05 0.0001024026745 -2.9086274011e-05 
-5.9462062183e-06 1.3758861468e-05 -0.0004573165711 6.3853109016e-06 0.00014687798264 -0.00072149100481 4.4574419945e-05 -2.7658594888e-05 -0.0071549447513 
2.4907262454e-05 -0.0074887720527 -0.010319792202 0.00016228865758 4.2184688454e-05 -0.0037442298534 -1.0349703825e-06 -0.0072791488063 -9.2690403406e-05 
-0.00023804462537 -2.9564725474e-05 -0.0010386786711 1.5454272296e-06 -7.3232448807e-05 -0.0077966322421 -0.0058577287284 2.4458254277e-07 4.1956262218e-05 
-6.6942517397e-05 -1.1267269408e-05 -0.0023067849839 -5.2421689056e-05 -0.00012444602029 0.00022249408084 0.00019780320402 -0.0078215997713 -0.013348796746 
-0.010083273254 0.0012684274636 0.029343164666 -2.4203602132e-05 -0.0084939255589 -1.0260757812e-05 -0.00012725228777 0.0001164592723 -0.00027246727646 
-0.00070729180141 -6.6927292028e-05 -0.0071440332885 -0.0013988577355 -9.5476564255e-06 7.6392065574e-06 -1.4261162843e-05 2.5904575001e-05 -0.00069002811732 
0.0002184921801 -0.00031647147415 -8.184387616e-05 -7.7469880723e-06 -0.00011644600189 -0.00029453011806 -0.0015692561612 -0.0014672844605 -8.5646975481e-05 
-0.0045255980168 -0.0037183980134 2.2823120538e-05 -0.002721684509 -0.0075528098255 -0.016487355795 -0.015972345109 -0.0071387487695 -0.00014929693146 
-0.00084353265521 0.00047728000486 2.8206380665e-05 6.9910286509e-05 -3.8917862019e-05 -6.0433579162e-05 -0.00015167398169 -2.7242013414e-06 0.010370832155 
0.014895450159 0.017231897071 -0.00017838153221 0.00015111180415 0.0029665574853 3.0568327849e-05 -0.00047441474214 -0.040475653025 -0.0030430676905 
-0.0038957991012 -8.3951182635e-05 -4.428708738e-05 -0.00011332583739 -0.0096514766742 -0.013149513444 -0.0021118942017 -0.00057524571863 -0.00046988424597 
2.5449320023e-05 -0.0011558202438 -1.0817735665e-05 -0.00016449750517 -0.00010460418355 6.1779504905e-05 -0.0063713675783 -0.00082499904882 -8.2014126131e-06 
4.566802979e-05 -0.0019181464266 1.5425084561e-05 3.3521311134e-05 -7.1087196711e-05 -0.0074963893821 -0.00847270897 2.169648306e-05 -0.013294464323 
3.815132057e-05 -0.0030588765905 -0.0053215942964 -0.0069257609411 -0.0064323409364 -1.2904931041e-05 -0.001187832954 -0.0065850465329 8.3933367539e-06 
-0.0095265292823 -6.6682650808e-06 -2.7214003018e-05 0.011903328518 -0.0036019544992 -0.00011673103618 -2.9512389159e-05 -0.017625335016 -6.0976659601e-05 
-0.0094785556016 7.9880935398e-05 -1.4745266211e-05 -1.7684899303e-05 -7.3809314976e-05 -3.1610269561e-05 -0.00019250180072 -0.0057740689553 -0.00013236646241 
3.8316352442e-05 4.977633086e-05 -0.0093155560678 -0.0070230581723 -0.0017549148212 -0.00011368520044 -1.2442798631e-05 -0.00057098408616 -2.5906682572e-05 
6.7239745174e-05 -0.0038310783847 -0.0004562552662 7.8196586798e-05 -0.0001574926903 -0.0014876188086 -0.00010717427577 -5.6854443827e-05 -0.0097247129233 
-5.7753910905e-05 2.1119184691e-05 4.1347046893e-05 -0.0042877062773 -0.0015627986269 4.579943868e-06 0.0049563946073 -5.1496139898e-06 -0.0050680360785 
-1.6425557143e-06 8.4584571812e-05 -8.5938796684e-05 -8.9234703515e-06 0.00014806661862 6.0993358602e-05 0.00010852852248 -0.0085751144438 -0.00360068078 
-0.0041759524069 0.0099353939763 0.010849781013 -0.0075967505642 
von%20Mises%20Stress 1 12442 double
0.56083517655 0.56602495771 0.52060885839 0.56632519742 0.33338945705 0.33335096517 0.33336154664 0.33334524156 0.77035798254 
0.71860786471 0.74226447565 0.78493438556 0.73510564375 0.80999757441 0.70315884936 0.78420733079 0.34208456035 0.25979975532 
0.2243117107 0.20903005022 0.1867596201 0.18578725989 0.17390483056 0.16971994894 0.16731650853 0.16681133197 0.16491285075 
0.1643432717 0.16514884183 0.16575350418 0.16621852077 0.16699957852 0.16820318867 0.16939597398 0.17217491485 0.17562649807 
0.17969509278 0.18426397012 0.19034579079 0.19799375692 0.2110052963 0.23460849226 0.30062615165 0.28008675946 0.23669748689 
0.21901148236 0.20330229098 0.20466553636 0.19977055573 0.1839672124 0.17893739078 0.17586902831 0.17279710565 0.16989097255 
0.16862556948 0.16735851056 0.16602967469 0.16647664799 0.16845291917 0.17086234544 0.17399838387 0.17779160896 0.18198046669 
0.18799909674 0.19514557157 0.20431430586 0.21800535837 0.23918849519 0.29595367581 0.33324252915 0.33330698147 0.3338291174 
0.33463014861 0.33563481929 0.33681531003 0.33820389824 0.33965818 0.3410707672 0.34237210227 0.34347763303 0.34445860521 
0.34502327295 0.34525013518 0.34504811659 0.34448096441 0.34358692267 0.34243465423 0.34107411482 0.33942240685 0.3380541047 
0.33664120682 0.33544328833 0.33443385671 0.3336863766 0.33330103826 0.33324626075 0.52563982728 0.34106085225 0.31083232495 
0.29525101407 0.28573856963 0.28077195461 0.27823665458 0.27750386624 0.27784683461 0.27920794149 0.28132357839 0.28430999712 
0.28757153133 0.29204795373 0.29672012629 0.30241496826 0.30776847684 0.31315397476 0.31751304637 0.32182181197 0.32501052282 
0.32736006893 0.32890007065 0.32946460972 0.32922558298 0.32806750215 0.3263416214 0.32419347178 0.32198287621 0.31977674965 
0.31806303469 0.31676270139 0.31608245137 0.31611002253 0.31675126234 0.31808117943 0.31992053611 0.32212145814 0.32440574048 
0.32681750002 0.32909123332 0.33098180394 0.33255279173 0.33341672388 0.33347215274 0.33355923568 0.33332892696 0.33256159673 
0.33110915391 0.32922103977 0.3267250353 0.32437646865 0.3220513992 0.31979722506 0.31782152687 0.31651290003 0.31577415396 
0.3157904714 0.31652792555 0.31782229882 0.31967271884 0.32183086284 0.32435070209 0.32647163697 0.32817732713 0.32908040601 
0.32929018426 0.32851362592 0.32689034401 0.32451945255 0.3208899559 0.31680486685 0.31171068605 0.30664719021 0.3008066467 
0.2959986151 0.29092467382 0.28682158646 0.28322545674 0.28057392689 0.27835750344 0.27720374786 0.27709018866 0.27812604711 
0.28069259335 0.28592685979 0.2948246704 0.31087091679 0.34726705698 0.61957321452 0.71960791703 0.8016487304 0.85906551698 
0.89468981621 1.0246827951 1.0397319005 0.99703781517 1.0394826372 1.0648901103 0.89161848743 0.85625321462 0.80772749601 
0.61778155873 0.64842506128 0.7919737018 0.85370439085 0.89318685806 0.67572875992 0.78393804751 0.86910012119 0.78394658471 
0.77200630143 0.89056610397 0.85225374154 0.67222980152 0.59119834264 0.33318308366 0.33332917114 0.33375490635 0.33446086764 
0.33545285016 0.3366061947 0.33801006346 0.33942605092 0.34084574971 0.34239938781 0.34364315116 0.34458288935 0.34504903661 
0.34526355011 0.34503510665 0.34444899713 0.34353105493 0.34235361004 0.3410104323 0.33952817788 0.33810400088 0.33671623062 
0.3355406516 0.33450836605 0.33378351419 0.33334644947 0.33319298208 0.58601528622 0.34006013621 0.31218726841 0.29621391848 
0.28611239275 0.28111905531 0.27828626017 0.27722388292 0.27741389318 0.27862187154 0.28078357975 0.28368964224 0.28730606505 
0.29126622109 0.29592299334 0.30091945097 0.30606105647 0.31089508328 0.31585122583 0.32025384154 0.32390943234 0.3266869851 
0.32847290576 0.32941778199 0.32938683237 0.32856977847 0.32712573173 0.32495583461 0.32277734109 0.32061370966 0.31863298421 
0.31718493843 0.31633112188 0.3161711682 0.31671952207 0.3179994671 0.31960406568 0.3218260973 0.32407893568 0.32638347945 
0.32868956092 0.33079897666 0.33231773799 0.33334449001 0.33356528239 0.33362873458 0.33332604646 0.33232719985 0.33070639577 
0.32883613407 0.32640452992 0.32406240561 0.32176574945 0.31956996333 0.31782344573 0.31655546948 0.31585016489 0.31595819984 
0.3167490826 0.31822533036 0.32013187742 0.32240960623 0.32480557814 0.32678106 0.32843201244 0.32923343552 0.32909955226 
0.32803160349 0.32598006237 0.32283927616 0.31931648301 0.3149884074 0.3097193019 0.30481931591 0.29967557987 0.29430353994 
0.28960870692 0.28570239137 0.28246415274 0.27984397418 0.27809183082 0.27713444536 0.27710412478 0.27839257359 0.2812458905 
0.2865595993 0.29657617711 0.31401999382 0.34698505224 0.44407516535 0.67484869662 0.79803840972 0.852583282 0.88949294197 
0.77118631096 0.78272064556 0.78798733957 0.78484523724 0.77394988586 0.89482492591 0.85833583194 0.79604005478 0.63367098225 
0.83934378392 0.81674097556 0.86668133585 0.90335721064 1.0312190274 1.0431648008 1.0443454172 1.0362592904 1.0173612537 
0.88727256868 0.84885292936 0.87588599637 0.70083383221 0.33332227951 0.3336864063 0.33432010605 0.33508200229 0.33602517487 
0.33708266287 0.33829076367 0.33945270031 0.34060557303 0.34158981191 0.34243169876 0.3430664106 0.34339158956 0.34341606355 
0.34310752055 0.34246386415 0.34167632477 0.34062576387 0.3394334497 0.33822452624 0.33700392755 0.33593547558 0.33499987787 
0.33425079761 0.33374505504 0.33334961053 0.33325161988 0.41337545496 0.35620509234 0.3281598188 0.31183179734 0.30277086238 
0.29654613542 0.29331664738 0.2916270942 0.29055528885 0.2909614083 0.29216878502 0.2938921793 0.2962366882 0.29936328566 
0.30294446794 0.30677295066 0.3103311799 0.31390384527 0.31711886052 0.31979214674 0.32190333448 0.32349972493 0.32443962694 
0.32474139706 0.32439039138 0.3237092415 0.3227050366 0.32134302586 0.31995427131 0.31883997114 0.31798464896 0.31754475201 
0.31760488689 0.31816081005 0.31915509824 0.32053608482 0.32217048303 0.32406566312 0.32606760061 0.3279896883 0.32966154586 
0.33117525761 0.33226508856 0.33295292183 0.33215029386 0.33112725594 0.32960747166 0.32780741233 0.32577926249 0.3237830539 
0.32190101454 0.32010960445 0.31868961735 0.31774000766 0.317262708 0.31731043115 0.31781842907 0.31873048041 0.32003995115 
0.32143590539 0.32267494908 0.32367087726 0.32425131685 0.32443687615 0.32403364345 0.32312930787 0.32152186021 0.31899644037 
0.31605134379 0.31271499518 0.30898193544 0.30497284814 0.30143090413 0.29790969671 0.29493295789 0.29257883646 0.290732978 
0.28959078197 0.28929469998 0.29057163428 0.29318834707 0.2972375865 0.30282635912 0.31252457674 0.33036751399 0.35980378932 
0.45402654694 0.41796388462 0.38692070697 0.36130634022 0.3262674494 0.28977542619 0.31405719481 0.3109078158 0.30941664606 
0.30877100704 0.30857995688 0.30880719582 0.30862825972 0.30977959522 0.31084719283 0.31024693512 0.30944699039 0.30852231362 
0.309399838 0.30999958505 0.31232834534 0.31548322496 0.32182775505 0.33428106307 0.35553738336 0.38812851079 0.58159807041 
0.33343421762 0.28989247215 0.24547448401 0.22466369098 0.21568722414 0.21188139684 0.2105574584 0.2103741644 0.21238559057 
0.21764091554 0.23066846687 0.25263792581 0.30293229237 0.35175260604 0.57901872848 0.35802241841 0.29173118499 0.24512163188 
0.22403084822 0.21441017074 0.20962695976 0.20777042152 0.20751717165 0.20880230063 0.21263812282 0.22147506591 0.24146814865 
0.28706606919 0.34964641581 0.3862885572 0.3920000058 0.41720751277 0.39301358535 0.45821043621 0.33366802968 0.33421871193 
0.33495945595 0.33588707714 0.33699267017 0.33817151859 0.33933869143 0.34041141424 0.34127711478 0.34199290111 0.34244930744 
0.3426201959 0.34247582361 0.34199300154 0.34130958453 0.34044975959 0.33930736378 0.3381448078 0.33699070883 0.33589632184 
0.33494177076 0.33416862627 0.33359176904 0.33318616367 0.29113757707 0.3687987353 0.3455552619 0.33040265776 0.32033125299 
0.31330956421 0.30780659267 0.3039944487 0.30189842977 0.30066516407 0.30025510425 0.30043476199 0.30138943382 0.30284470251 
0.30494838509 0.30734205396 0.30965323753 0.31212827458 0.31453213837 0.31650012601 0.3180701998 0.31934166303 0.32025760589 
0.32084476618 0.32111013753 0.32092537789 0.32044919703 0.31979089512 0.31904025293 0.31826624725 0.31779117394 0.31759897633 
0.31780539785 0.31845009467 0.31942753763 0.32076532395 0.3222840172 0.32396839822 0.32573178769 0.32756534244 0.32913197937 
0.33062191548 0.33189764727 0.33296474565 0.31092742328 0.36019504796 0.33167460034 0.33041837856 0.32892536582 0.32717586161 
0.32530677848 0.3235835537 0.32180090024 0.32024756438 0.31900467095 0.31804224868 0.31750761046 0.31740238264 0.31765698541 
0.31820179655 0.31898181944 0.31976968637 0.32030215513 0.32060390947 0.32077768686 0.3205676896 0.3199916327 0.31900276706 
0.3174400231 0.31543462433 0.31327044509 0.31075696947 0.30810943045 0.30553024342 0.30328561369 0.3013535939 0.29986362714 
0.29890237494 0.29874613799 0.29969213522 0.30166373243 0.30464766121 0.30848021644 0.31392507987 0.32179419667 0.33410540933 
0.35044686448 0.44674470306 0.34028104441 0.31739350738 0.30747448602 0.30132923969 0.29654589093 0.2939839785 0.29267379978 
0.29144913168 0.29121902439 0.29095045995 0.2905174132 0.29088363084 0.29055318195 0.29106632859 0.2912839739 0.29182348892 
0.2929137046 0.295297092 0.29874941878 0.30488566341 0.31465664704 0.33052975649 0.45255056325 0.30731791013 0.24937016109 
0.24127188577 0.23678530131 0.23479411034 0.23696954864 0.24339874445 0.25447915139 0.27313750008 0.29837346473 0.31656045044 
0.32142963928 0.31208829902 0.31695593675 0.31782680928 0.24753621505 0.23732077178 0.2322268981 0.22940672614 0.2301989507 
0.23486127 0.24461466253 0.26216881489 0.28986267285 0.31003494456 0.44259093473 0.26627158929 0.29282749272 0.26589409388 
0.33267999066 0.36435293931 0.35278392732 0.35046909614 0.3476548111 0.30730716762 0.30384211541 0.33356061391 0.33436749779 
0.33549453764 0.33682705761 0.33814831803 0.33949842628 0.3406490925 0.34159151701 0.34226617772 0.3426564782 0.34267211096 
0.34226672094 0.34159029951 0.34062984176 0.33947749423 0.33814428709 0.33683494998 0.33558566949 0.33447084901 0.33357096772 
0.33291098886 0.33454370824 0.32875639344 0.32310639033 0.31885862418 0.31465015129 0.31147205383 0.30949379889 0.30805871638 
0.30706014347 0.30654190596 0.30680252299 0.30750127996 0.30858984166 0.30997408874 0.31154217658 0.31311171613 0.31447358704 
0.31555807073 0.31645951683 0.31714163808 0.31759564188 0.317833435 0.31789408188 0.31793979005 0.31782189195 0.3174327874 
0.31687193533 0.31659324172 0.31655231427 0.31692420289 0.31770974962 0.31893218554 0.32037495236 0.322034269 0.32380693323 
0.32562494688 0.32746472777 0.32916468432 0.33062921728 0.33193643101 0.33295558044 0.263949285 0.39653700817 0.34018969768 
0.31286593732 0.33028017864 0.32878334869 0.32699301842 0.32517468333 0.32337356992 0.32153751132 0.31992143994 0.31841759184 
0.31734622644 0.31661288891 0.31630038666 0.31629263353 0.31663950665 0.31720579022 0.31755714039 0.31759621449 0.31767115009 
0.31751185652 0.31729380732 0.31679417756 0.31595198173 0.31482007313 0.31345162204 0.31194450094 0.31029486659 0.30861201223 
0.30721879571 0.30615250334 0.30551159292 0.30540714096 0.30590150259 0.30772277989 0.30988300595 0.31293270777 0.3161352494 
0.31973992289 0.324584538 0.33079627406 0.38380367364 0.32834545038 0.38710380506 0.29157335602 0.31890588415 0.31238514406 
0.3075692039 0.30468703262 0.30288114749 0.30175625659 0.30140214781 0.30108648969 0.30077913656 0.30080298224 0.30078537892 
0.30087992971 0.30100878438 0.30125500503 0.30149212644 0.30282667868 0.3051907423 0.30938310549 0.31679833436 0.32734870113 
0.31082000943 0.41557323294 0.25980628869 0.27102712433 0.25944130504 0.26406761583 0.27257287626 0.28446270035 0.29706794638 
0.30827216843 0.32143935834 0.31681214793 0.31173000795 0.38141154689 0.26479776114 0.25130318588 0.25388586069 0.26153629732 
0.27477087125 0.29036414818 0.30171442568 0.41443795322 0.31302192766 0.33158242335 0.27638894476 0.2564856714 0.25247563935 
0.33806380643 0.33251929951 0.33742126686 0.33645304029 0.30307268601 0.36385285907 0.29427227619 0.3015599881 0.33698079601 
0.33559981853 0.27758021008 0.35731025411 0.30914590188 0.33337124296 0.33519095156 0.33674300131 0.3384854677 0.34019634396 
0.34159505522 0.34270342147 0.34348433213 0.34378770075 0.3435232924 0.34263440387 0.3415274474 0.34013925758 0.33847061868 
0.33677773486 0.33517367062 0.33376757129 0.33268614076 0.33192599603 0.32648190877 0.31483329929 0.31522377558 0.27927592257 
0.30623553836 0.32603506933 0.32407986948 0.32176403051 0.31906164828 0.31680103338 0.31506985106 0.31306476885 0.31137394411 
0.31041289344 0.31000599829 0.31015714125 0.31078350827 0.31156626403 0.31239975777 0.31309675205 0.31360216707 0.31400003828 
0.31428248904 0.31446890629 0.31460405866 0.314828513 0.31500931168 0.31523318678 0.31563741587 0.31490821427 0.31463090949 
0.31467987477 0.31506900369 0.31606341537 0.31757615404 0.31944212952 0.32141613896 0.32351260702 0.32563524909 0.32765184146 
0.32945621901 0.33104292204 0.33246501412 0.35322208835 0.27775817175 0.32894032559 0.28179699879 0.32907226895 0.32714723335 
0.32504116308 0.32309229438 0.32121953843 0.31880289575 0.31728348282 0.31582755121 0.31478843033 0.31425719192 0.31417946125 
0.31442161938 0.31512890265 0.3145955499 0.31436937208 0.31450758685 0.31445336251 0.31422857864 0.31410289051 0.31369654187 
0.31309574958 0.31242024329 0.31153453432 0.31056159883 0.30977499304 0.30940472844 0.30945678542 0.31010957545 0.31115679454 
0.31312469495 0.31591258811 0.31870334161 0.32077574212 0.3227046902 0.325010143 0.32714932004 0.30217782085 0.38382038045 
0.31725815893 0.31461426116 0.31288556356 0.31229290294 0.31248083937 0.31211205325 0.31142130212 0.31148653628 0.31191532481 
0.31233433825 0.31225035871 0.31184257184 0.31126862586 0.31159979784 0.31281869869 0.31531483767 0.31844454347 0.38193612892 
0.33063421508 0.28076559846 0.28743922486 0.28593395476 0.2930584661 0.30019146833 0.30644439112 0.31640332521 0.30335979274 
0.27094929915 0.29322725616 0.30069948444 0.30539158565 0.35592734475 0.2748228295 0.36879992003 0.31187655106 0.28378341746 
0.30423444737 0.32745200842 0.33071581915 0.3055089387 0.30906201494 0.27319190516 0.29336132638 0.34857615722 0.2861582437 
0.32190423108 0.31098805114 0.31834107839 0.3785747336 0.33070192036 0.27025661605 0.38456574311 0.34156844418 0.33494786285 
0.33694014441 0.33970585051 0.34159780674 0.3434180636 0.34483272643 0.34568795081 0.34583735189 0.34502924413 0.34314062787 
0.34154097771 0.33941758501 0.33727251754 0.33493636087 0.3329573241 0.33148640212 0.31816789951 0.29776385288 0.31138713404 
0.32247592677 0.32446938097 0.32506771212 0.32445860115 0.32204293243 0.3213223896 0.31912315201 0.31628742806 0.31391049377 
0.31244251964 0.31155258474 0.311302965 0.31147337225 0.31172713248 0.31176185572 0.31156601933 0.31151111366 0.3112908367 
0.3109295534 0.31072328792 0.31097449715 0.31138316186 0.3119653499 0.31265875164 0.31219618015 0.31223995515 0.31274543286 
0.31380777424 0.3155342107 0.31802817353 0.32077992901 0.32310047833 0.32575982265 0.32809881373 0.32996236636 0.33153739253 
0.30975287727 0.3479203564 0.29553351831 0.34467140112 0.32709728643 0.32463802813 0.32108298739 0.31621369532 0.31387466906 
0.31184175922 0.31178789529 0.3111144856 0.31163045265 0.31040819989 0.30934633792 0.31122670154 0.31070186849 0.31085471611 
0.31178023214 0.31140747384 0.3115660608 0.31149522881 0.31132273307 0.31095396525 0.31093420676 0.31167668161 0.3130344889 
0.31507552271 0.31636513498 0.32009436056 0.32304970269 0.32416730957 0.32479077553 0.3246527131 0.32151637146 0.28698731724 
0.31853046267 0.32985775576 0.32935826452 0.37050529719 0.32097116414 0.32017290182 0.32290324189 0.32369508482 0.32356283862 
0.32160322964 0.32501987293 0.32528373046 0.32496030649 0.32407249633 0.32145428562 0.32003250785 0.31997437574 0.32063867419 
0.30078170692 0.29862558064 0.30424414734 0.3095200867 0.36183083095 0.30733146357 0.35598893124 0.30638062492 0.36006921193 
0.29726856861 0.30820862357 0.29286911183 0.30734386765 0.33347383729 0.31041293128 0.32393825649 0.31651762692 0.3661400277 
0.31220366026 0.32903221566 0.30732542645 0.3363310782 0.33794453886 0.30533912457 0.29243842147 0.30929945423 0.28586258938 
0.32748853335 0.28955523057 0.30261894437 0.29086482699 0.3026728073 0.30588593823 0.3598042596 0.29862589342 0.32068988165 
0.33555708649 0.34325994806 0.34624334955 0.3481382126 0.34861202067 0.34916724582 0.34465134179 0.3395012458 0.33561248404 
0.33240161426 0.30075613478 0.31035033065 0.32456253628 0.32727755355 0.32701540589 0.32219803961 0.31790402173 0.31536158976 
0.31147882645 0.31081902361 0.31033123338 0.30828830828 0.30789423948 0.30721151732 0.30603101238 0.30527914616 0.305250202 
0.30591870998 0.30855159652 0.30902548438 0.30969916092 0.3095888569 0.31136700329 0.31309189566 0.32507662349 0.32959356886 
0.33131647157 0.28679354223 0.30433164216 0.3082309532 0.31098416829 0.31205140604 0.31430951443 0.31840933102 0.32138860342 
0.32706364728 0.32896507881 0.32691264168 0.32494297711 0.32274252325 0.33443152065 0.33341532772 0.33425396998 0.33732116608 
0.34059793172 0.33719212829 0.3388323573 0.33237988262 0.32752081225 0.32610795587 0.33921992316 0.33242581751 0.35868002756 
0.35040275498 0.33417597418 0.32849024504 0.30719692993 0.34103391949 0.32564031962 0.31287483253 0.31104386765 0.30710889743 
0.32909766306 0.31587062106 0.35777821375 0.34152177057 0.32837782293 0.30569019269 0.30947322329 0.31045478928 0.31079932518 
0.34704168219 0.29735497973 0.29804619771 0.34968026435 0.35145790297 0.35068607414 0.30154474863 0.33173565069 0.33936478521 
0.33294330893 0.29744986762 0.34745308078 0.30204210689 0.35335950735 0.33365291198 0.33026017811 0.29897792391 0.33328877933 
0.33359481758 0.3341913099 0.33498505271 0.33595353297 0.33700672165 0.33816357445 0.33928452196 0.34054200574 0.34162185451 
0.34245322602 0.34307361647 0.34340096065 0.343361113 0.34301320406 0.34239424288 0.3415372366 0.34053018929 0.33936600212 
0.3382084524 0.33710152585 0.3359770909 0.3350960987 0.33429996414 0.33369650288 0.33335993794 0.33329689755 0.45300986652 
0.36211550338 0.33408901576 0.31641334803 0.30596021426 0.29926148952 0.29485592064 0.29229289042 0.2914438627 0.29130014088 
0.29227805143 0.29410816059 0.29632099577 0.29900729124 0.30233104096 0.305847006 0.30924254846 0.31261601736 0.31560110399 
0.31848288015 0.32079034411 0.3224260778 0.32356241416 0.3240522525 0.32398067977 0.32343773809 0.32261485183 0.32146387332 
0.32029531215 0.3191428277 0.31826633206 0.31778460461 0.31776456841 0.31825096013 0.31919177675 0.32053134474 0.32219831508 
0.32399867609 0.32594100672 0.3277967824 0.32954470938 0.33105459113 0.33222931734 0.33295176193 0.33214214126 0.33087684052 
0.32930306593 0.32756330538 0.32554492057 0.3235872808 0.32179733417 0.32012126587 0.31876757809 0.31784791427 0.31736572849 
0.31746827087 0.31803757329 0.31909923876 0.32036212442 0.32165886085 0.32294840821 0.32386720021 0.32442646837 0.32431742467 
0.32367975563 0.32233819126 0.32037722424 0.31785202051 0.31488044893 0.31136520596 0.3077127417 0.30391601719 0.30033483009 
0.29683741903 0.29410572339 0.29191715152 0.29023140545 0.2896659093 0.28990445898 0.29122528537 0.29343712135 0.29758155465 
0.30373549921 0.31421679436 0.33145637985 0.36446828602 0.40471384398 0.34911309593 0.3331908419 0.31509565392 0.3310594802 
0.34210942752 0.32060554099 0.31675519191 0.31579636117 0.3146143572 0.3133620173 0.3132160183 0.31118286224 0.31071381151 
0.30971480026 0.31061369572 0.31082436226 0.31187882272 0.31344433103 0.31453147099 0.31601681302 0.32060965931 0.32611968484 
0.33401027995 0.34699009908 0.36815658948 0.40145275443 0.68563472505 0.36309861581 0.28917288048 0.24356277241 0.22442587658 
0.21482513258 0.21141967436 0.20975967472 0.21038320931 0.21302103449 0.21722599913 0.22643740095 0.24854969537 0.29342041002 
0.36248729181 0.69007129067 0.35215314304 0.28226239608 0.24328803846 0.22591982453 0.21623461702 0.2119063262 0.21015448722 
0.21013725342 0.21127070332 0.21615200459 0.22607675444 0.24539906662 0.29023476806 0.34688839976 0.35880242607 0.37281445322 
0.33299275561 0.4334523805 0.39926731556 0.33326571764 0.33293154136 0.33498663122 0.33595319701 0.33695154552 0.33808532037 
0.33919060732 0.34032631251 0.3412846544 0.34200461156 0.34245473877 0.34261545543 0.34243225741 0.3419321245 0.34120066175 
0.34026845209 0.33923387055 0.33812202758 0.33700305207 0.33592871896 0.33503203294 0.33417611891 0.33351489884 0.33309222695 
0.33548960569 0.33234343713 0.46157431955 0.34982280327 0.36556544265 0.32418796195 0.31633316701 0.31071797974 0.30685226259 
0.30407765401 0.30252509013 0.30147635757 0.30119579186 0.30172559225 0.3029620658 0.30477072586 0.30681400754 0.30907633399 
0.3112982744 0.31337472452 0.31526480234 0.31692089288 0.31825067783 0.31915331004 0.31970488031 0.31998590097 0.32000392413 
0.31983671753 0.3193581893 0.31871909039 0.3180752552 0.31768618181 0.31755868078 0.31780358923 0.31843034103 0.31947192289 
0.32081760196 0.32236744895 0.32411718519 0.32588732231 0.3275534022 0.32922831168 0.33076473337 0.33202305601 0.31180785507 
0.46021028874 0.31338597302 0.33140272163 0.33016446902 0.32862068166 0.32699568341 0.32520347139 0.32351336248 0.32182533085 
0.32024761628 0.31901642847 0.31810368943 0.3175992698 0.3175324072 0.31784497147 0.31843864261 0.3191553715 0.31987566214 
0.32043126549 0.32072740386 0.32070331225 0.3202758302 0.31951662472 0.31827123838 0.31661189962 0.31459704449 0.31234160443 
0.30979947681 0.30719202682 0.30482976971 0.30266685152 0.30075285187 0.29962165988 0.29903625679 0.29945305651 0.30066026892 
0.30230968943 0.30481977723 0.30901476571 0.31438860431 0.32316334733 0.33483756939 0.35357749549 0.36792268242 0.31940813831 
0.33895558452 0.30608048761 0.3008003604 0.29717371345 0.29496535674 0.29327772261 0.2923883204 0.29217231752 0.29143854056 
0.29109528388 0.29059844501 0.2908458502 0.29093666376 0.29172857295 0.29280362431 0.29351124076 0.29558662421 0.29884724427 
0.30366558895 0.31141714593 0.32190083539 0.33888854563 0.31187298456 0.31830575726 0.46012206386 0.28993952333 0.26617506881 
0.25070396513 0.24015116913 0.23565745384 0.23458230667 0.23688582881 0.24216618194 0.25434438631 0.27245159751 0.29468028999 
0.31704063896 0.28915812875 0.26618977817 0.25140408354 0.24167309515 0.23713435614 0.23543302801 0.2365973433 0.24200807781 
0.25126619175 0.26715218509 0.29067257295 0.31027177266 0.44275510251 0.3340473299 0.31287108887 0.31813667323 0.36861488068 
0.36630030686 0.31878527046 0.35831438814 0.34918202827 0.40201377711 0.33674933934 0.33453445074 0.3380666462 0.33941676151 
0.34064929468 0.34166844617 0.34237757593 0.34274956762 0.34273510441 0.34233800772 0.34155408225 0.34055041492 0.33937646452 
0.33810177416 0.33681206507 0.33564259417 0.3345437806 0.3336096097 0.33285548367 0.3324098103 0.39262648637 0.32580051098 
0.30555703068 0.39586129597 0.33094607171 0.3180803156 0.31485382435 0.31198193542 0.30995042779 0.30843338561 0.30746899306 
0.30718485962 0.30752802378 0.30844804258 0.30973211094 0.31105327156 0.31234165069 0.31343536559 0.31440936261 0.3150919014 
0.31567515324 0.31615929654 0.31652435928 0.31672416365 0.3167947165 0.31675089822 0.31648084293 0.31615195322 0.31599013537 
0.31609075336 0.31651710609 0.31743626814 0.31878114917 0.32037673911 0.32218488242 0.32414380046 0.32606465425 0.32773971125 
0.32936562852 0.33090053515 0.33249627847 0.30906555586 0.32858012559 0.32684238574 0.32520187414 0.32340065787 0.32153684275 
0.31978165553 0.31844732709 0.31736603149 0.31669930005 0.31640201771 0.3165211886 0.31684809707 0.31723297276 0.31747577085 
0.31756341272 0.31761701604 0.31730933363 0.31687997523 0.31622038115 0.31538537891 0.31418787352 0.31275303705 0.31130136999 
0.30956498372 0.30797100504 0.30703096064 0.30610870826 0.30538809114 0.30557090685 0.30692107147 0.30851613194 0.31049508537 
0.31266971615 0.31608716763 0.32039343358 0.32584814987 0.33267591052 0.3407499881 0.3113071219 0.3180384722 0.30471763899 
0.3176682691 0.31855994143 0.30806993293 0.30644020322 0.3041099636 0.30227815723 0.30150771139 0.30177276124 0.3014707998 
0.30084459239 0.30081306342 0.30126948462 0.30170777565 0.3021356773 0.30249839169 0.30390390419 0.3066839429 0.31072708576 
0.31665458167 0.3247439918 0.33613789561 0.30496117632 0.31276616791 0.32174705571 0.42769980326 0.29224366538 0.28037724326 
0.27040885859 0.26263025855 0.25898154196 0.25941713267 0.26374393202 0.27239179743 0.28527235665 0.29855122986 0.2928562962 
0.38060387052 0.28022997696 0.2704525873 0.26443796625 0.26074872875 0.2605463594 0.26395515737 0.27056035649 0.28101020197 
0.29287107707 0.3020512195 0.4154450803 0.33558388204 0.3300797074 0.30229443685 0.33137068843 0.33375689015 0.34351188808 
0.30961443454 0.33645766172 0.33014150317 0.34805804138 0.33632747768 0.30690201727 0.37057857175 0.33657381789 0.34172977775 
0.34288717979 0.34362846692 0.34396779021 0.34368350535 0.34288951772 0.34160305443 0.34009268911 0.33837953699 0.33669716432 
0.33514634969 0.33382201701 0.33265627415 0.33181374911 0.30185616728 0.3038269495 0.32540032371 0.31808877808 0.32018191364 
0.3224299478 0.31556988876 0.31347141753 0.31169416364 0.31064789874 0.31025856139 0.31052550654 0.31109044324 0.31168005338 
0.3121260456 0.31223386356 0.31218846734 0.31220791864 0.31227968555 0.31256713654 0.31294324216 0.31320689265 0.31338912274 
0.31346110071 0.31359462675 0.31344176241 0.31357262228 0.3142897248 0.31552865528 0.31731274516 0.31949492869 0.32172690172 
0.32412374802 0.32646355372 0.32831278562 0.32999753328 0.33146180539 0.3327519016 0.30556759203 0.3638365005 0.31499838817 
0.30385922134 0.39199985959 0.31417254705 0.32722511609 0.32898949437 0.32326335921 0.32094232286 0.3189021674 0.31721026058 
0.31586006302 0.3148787597 0.3144855097 0.31447180596 0.31457183038 0.31464626725 0.31460044497 0.31444642081 0.31421289089 
0.31405823068 0.31382324005 0.31357679884 0.31327896498 0.31254576066 0.31181645798 0.31092610084 0.30995887103 0.30982156166 
0.30955979858 0.30958536925 0.31031927464 0.31225760219 0.31440312113 0.31650104385 0.31844384593 0.32048562365 0.32330836107 
0.32538327074 0.32776984295 0.31600492364 0.32159016946 0.31756998061 0.31000928168 0.31897938938 0.32541634981 0.3545519049 
0.31653849014 0.31305119854 0.3104731004 0.31271315641 0.31337919937 0.31234415469 0.31145788954 0.31221261335 0.31314441288 
0.3131419009 0.31298453008 0.31306262986 0.31432257936 0.31718968972 0.32056891901 0.30810363464 0.34016356678 0.30990204886 
0.30677853763 0.33053301085 0.33841973791 0.38108387096 0.29259979593 0.28558896393 0.28084909637 0.2793813272 0.28037896267 
0.28637649436 0.29457840625 0.30274042691 0.30437463217 0.29060265327 0.2851331347 0.28155758174 0.28050215551 0.28227187595 
0.28559157382 0.29106415848 0.29721930188 0.30207240232 0.38529976546 0.39200425688 0.29749164229 0.29778842007 0.31912501451 
0.36513264981 0.33371615966 0.32414595545 0.32850736071 0.32627158271 0.30783693574 0.33504399147 0.32492605486 0.33742889057 
0.3475374733 0.33593167427 0.3229790142 0.34410804317 0.34575303683 0.34550622228 0.3436209427 0.34199887611 0.33916854033 
0.33692863361 0.33464422862 0.33291696966 0.33144372696 0.30657792299 0.32280305646 0.32254346083 0.31605095792 0.31332439082 
0.31202337093 0.31116219306 0.31088993747 0.31078774304 0.31043796884 0.30964253061 0.3086919419 0.30740362495 0.30674812781 
0.30658710228 0.30675808014 0.30761449613 0.30879397338 0.30952406586 0.30992393051 0.31057251267 0.30990577082 0.31181671046 
0.31289413514 0.3154549356 0.31876708365 0.32191521149 0.32430037903 0.32702340007 0.32945373815 0.33128773791 0.3326190898 
0.32340077228 0.3281256612 0.31544088743 0.32609880086 0.329952863 0.3201358531 0.31738283699 0.31560083256 0.31364606247 
0.3123617843 0.31180204023 0.31182248422 0.31157868101 0.31092016696 0.31041017809 0.31013838719 0.30969904745 0.30954396734 
0.31029519258 0.31093896851 0.31150603576 0.3111147012 0.31107043354 0.31087365066 0.31175719909 0.31265574672 0.3153414224 
0.31854854017 0.32121759467 0.3231216468 0.32405036596 0.3244293421 0.32442861243 0.31024874341 0.30644346169 0.30994823967 
0.32245463136 0.34167153149 0.36667011061 0.32508487957 0.32613157735 0.32250061736 0.3220056848 0.32569649716 0.32463585166 
0.32342487254 0.32261603829 0.32083191456 0.32271403852 0.32361642377 0.36726265194 0.37572116979 0.32220253688 0.30948722106 
0.30860380217 0.34186121118 0.32468222704 0.30021331631 0.30220475448 0.29512116526 0.29930073774 0.29287923504 0.29641308977 
0.30122042797 0.30652062454 0.30883828675 0.31924860712 0.3123649993 0.31504603245 0.35933339817 0.29765498137 0.29670260595 
0.29643765847 0.2979069541 0.30038992955 0.30335952257 0.3054612306 0.34639268485 0.34503094855 0.32604052019 0.34788505102 
0.3191971797 0.30603517277 0.32596075003 0.3366583512 0.32049408805 0.32517058939 0.32180121605 0.33434897583 0.30345992052 
0.3058304816 0.3480250255 0.30445962936 0.33935107655 0.30623629396 0.30667925458 0.33385058401 0.36937064817 0.3641749807 
0.33483874593 0.30990175281 0.34105626053 0.33493367814 0.33175401001 0.34526786193 0.35660490079 0.31282963952 0.31893499493 
0.32482340611 0.32796245953 0.33081568046 0.33348354854 0.32853513316 0.35608467868 0.31873045123 0.32436497173 0.31128911973 
0.32972297726 0.31120781198 0.31549953032 0.3206024381 0.3257016024 0.32779121229 0.32748289933 0.325812357 0.33026832233 
0.34687100608 0.34749143965 0.32770903487 0.30960334256 0.33443124453 0.34892516962 0.33840564127 0.3329459661 0.33161743894 
0.32810033777 0.32930727864 0.33126580571 0.35607431917 0.33964375801 0.34670545655 0.34125709646 0.33033120206 0.32591547851 
0.35778883787 0.33749685959 0.35039793946 0.30923357747 0.31461272496 0.3087393601 0.30891379863 0.30429419259 0.30596996771 
0.30873156246 0.33824869353 0.33838179446 0.30337578465 0.3367903892 0.35077427058 0.33086111888 0.34901745337 0.33484450444 
0.33647920096 0.33228619724 0.34191317691 0.34161622614 0.33547447012 0.28518551214 0.5251324954 0.52689885253 0.45480677724 
0.28404922913 0.24639171374 0.22069285178 0.20704849083 0.19289203575 0.18923599982 0.18594935003 0.18267475566 0.18209024516 
0.18178793148 0.17978402272 0.18115029736 0.18221463672 0.18237052372 0.18252397729 0.18333052703 0.18452630853 0.18606183174 
0.18964244483 0.19330289641 0.19694183003 0.2016621603 0.20781940985 0.21703714763 0.23762679503 0.2719539323 0.41127123376 
0.41560879374 0.25984252484 0.22578126599 0.21207133852 0.22315170308 0.20711634108 0.20422374737 0.19728675116 0.19362948922 
0.19013087163 0.18581231051 0.18525837371 0.18474392028 0.18325116069 0.18244820012 0.1836998088 0.18615631158 0.18803172635 
0.19179970239 0.1954171403 0.20081824267 0.20740555493 0.21544003765 0.22746891081 0.24492794107 0.27700654697 0.39073489717 
0.33324750253 0.33326872909 0.33352226757 0.33417603517 0.33510100844 0.33620049448 0.33749200005 0.33892346856 0.34036839138 
0.34173208626 0.34295819576 0.34405142505 0.34477713928 0.34521044135 0.34520937855 0.34482105618 0.344081203 0.34300571278 
0.34177630423 0.3402584151 0.33874494403 0.33733888201 0.33602371902 0.33490755005 0.3340416203 0.33344866775 0.33324114348 
0.33332981719 0.53162180646 0.37161062981 0.32167117993 0.30131147214 0.28941617369 0.28262694805 0.27906025713 0.27755021896 
0.27742740943 0.27829649867 0.28007850303 0.28262879371 0.28583961008 0.28967346966 0.29424931579 0.29947926222 0.30506697987 
0.31050921304 0.3154124311 0.31978639399 0.32355709464 0.32634016636 0.32829384651 0.32933382654 0.32949989353 0.32878849271 
0.3273021608 0.32531976734 0.32309924614 0.32084858361 0.31885301064 0.31731645739 0.31631318798 0.31597093169 0.31632392921 
0.31731359101 0.31892050118 0.3209696395 0.32323904841 0.32561100623 0.32798287896 0.33008675702 0.33184616273 0.33307266782 
0.33349927292 0.33347597485 0.33345051369 0.333504327 0.33304287711 0.33189817873 0.33021529242 0.32800586304 0.32555395726 
0.32320065229 0.32088522441 0.31873910323 0.31708244675 0.31603803051 0.31566193009 0.31605944834 0.31709353484 0.31868110571 
0.32070662003 0.32309180837 0.32546713896 0.32742420818 0.32874105177 0.32932734683 0.3290564007 0.32785028895 0.32584602174 
0.32285705333 0.31896528616 0.31435267718 0.30922961668 0.30373653978 0.29836255649 0.29338836282 0.28877855611 0.2849079822 
0.28179234332 0.27932268324 0.27761406569 0.27692961464 0.27734523741 0.2790595261 0.28276078507 0.28952196438 0.30138165829 
0.32240962088 0.36274125025 0.57705138082 0.90040306653 0.69456974536 0.76179350679 0.8337419024 0.87835116176 1.1501476661 
1.1749706104 1.1870524075 1.1870806786 1.1743164723 0.9079428417 0.87500566851 0.83674135217 0.95607380502 0.9372078952 
0.86870953588 0.87013658095 0.7688006898 0.82855213818 0.8766464579 0.90808834367 0.9272139991 0.93654973025 0.93651946967 
0.92693331978 0.9062184358 0.87347434724 0.82525910705 0.78112113413 0.77972940502 0.3332302869 0.33322369929 0.33350933292 
0.33407956188 0.33493467323 0.3360100395 0.33729781309 0.33872106898 0.34015009911 0.3416549097 0.34305437314 0.34412075858 
0.34486308378 0.34522929014 0.34520706095 0.34480305907 0.34402588331 0.34300095694 0.34168915557 0.3403008176 0.3388178929 
0.33738141427 0.33609912219 0.33498384584 0.33409492514 0.33350645721 0.33322899662 0.33332384532 0.59083473488 0.36025937573 
0.32411467158 0.30266439927 0.29005846648 0.28306100205 0.27928424053 0.27748365334 0.27710863649 0.27787600749 0.27958207539 
0.28214964117 0.2853658002 0.28923843379 0.29355317784 0.29841899472 0.30351540007 0.30852628109 0.31346339364 0.31818741203 
0.32224004455 0.32547563798 0.32774878828 0.32912288711 0.32955044666 0.32910001199 0.32794682858 0.32609974464 0.32386156406 
0.32165701173 0.31954252798 0.31779825482 0.31663426445 0.3161052384 0.31632343789 0.31724873441 0.3187301297 0.32066274197 
0.32294041727 0.32524251318 0.327574269 0.32980964224 0.33163857365 0.33292847791 0.33355310615 0.33345189605 0.33343672561 
0.33354685548 0.33290403775 0.33158463438 0.32982501639 0.32766083677 0.32525161185 0.32291321207 0.32063731613 0.31864015715 
0.31711675378 0.31608775501 0.3157844513 0.31622887863 0.31737072073 0.31908203902 0.32119846789 0.32358471254 0.32579976916 
0.32767531162 0.32891678958 0.32932582108 0.32870622957 0.32715970823 0.32456635497 0.32120990405 0.31727760858 0.31245160077 
0.30733337385 0.30229403525 0.29699177526 0.29192990115 0.28761160744 0.28402291631 0.28107427201 0.27888950914 0.27753369506 
0.27702477786 0.27757137926 0.27958557053 0.28350832882 0.29074438059 0.30383937195 0.32696090809 0.37741302974 0.54135243943 
0.96057663876 0.87073459673 0.78950762125 0.82985952891 0.87362321797 0.90562375239 0.92550326554 0.93586804895 0.93733293284 
0.92850070104 0.90922111298 0.87849676196 0.83182148402 0.7729752898 0.88893623027 0.98474218751 0.96415821576 0.80197114825 
0.84392200133 0.88724237715 1.1601657901 1.1811505823 1.1876029016 1.1843112596 1.1690086972 0.90259517528 0.87015576292 
1.0364005433 0.96060535632 0.86254329419 0.3333609382 0.33335621769 0.76584633541 0.75503307385 0.79931618312 0.76968772298 
0.37416168088 0.38214660403 0.26337801109 0.2067621364 0.19307455464 0.17946108394 0.16778256354 0.17177464545 0.15919455255 
0.16739487011 0.15570772912 0.14142198454 0.13991257717 0.15238542709 0.13913786916 0.1462503132 0.13600324799 0.14082941056 
0.13228666427 0.13641231605 0.12917920974 0.13409327559 0.12688326887 0.13197678312 0.12453925761 0.12990687328 0.12347825843 
0.12923268011 0.12341881338 0.12922228793 0.12476386683 0.12974358301 0.12680060276 0.13096336586 0.1300763415 0.13306561627 
0.13370122123 0.13584175783 0.13729909148 0.1398168696 0.14238330168 0.14485750093 0.14855463949 0.15064370528 0.15570433339 
0.15812217754 0.16490601474 0.16648709015 0.17682175387 0.17877956074 0.19229094113 0.19666494397 0.21886362509 0.26044318989 
0.33332998981 0.33330573247 0.33333718856 0.33353894344 0.33377264783 0.33350245208 0.33409091003 0.33448347586 0.33397869578 
0.33487405215 0.33536275455 0.33469873967 0.33584403874 0.33641487261 0.33555445811 0.33695248817 0.33762879176 0.33655194324 
0.3382461702 0.33895156017 0.33768343817 0.33954743008 0.34022880143 0.33887042112 0.34082334211 0.34146258758 0.34002951808 
0.34196626108 0.3425060473 0.34110729331 0.34293322093 0.34341927553 0.34203240956 0.34371631939 0.34399272336 0.34276601887 
0.34416696533 0.34428206006 0.34323313702 0.34428619533 0.3442007219 0.34341078929 0.34403220895 0.34376526127 0.34327101155 
0.3434267704 0.34298108246 0.3428025598 0.34258226438 0.34203622488 0.34207360768 0.34149237894 0.34082436076 0.34116064761 
0.34022079159 0.33942307997 0.34002897371 0.33882255846 0.33814970161 0.3388373545 0.33752824348 0.33683938768 0.33761320564 
0.33628975936 0.33570719355 0.33646645968 0.33523449714 0.33474314185 0.33546850792 0.33436309219 0.33400069625 0.33462176228 
0.33375465273 0.33353873066 0.3339787022 0.33338953487 0.33330711475 0.33351730348 0.33327205372 0.33332238844 0.33339045004 
0.33328625883 0.42223329801 0.43037239407 0.37909116044 0.3509932764 0.33415386413 0.37965021878 0.32021660184 0.31211036079 
0.33989764562 0.30407565606 0.29906292985 0.3189997831 0.29459430537 0.29190983981 0.30677160115 0.28890018438 0.28746872231 
0.2992892128 0.285896711 0.28546510535 0.29458790013 0.28473695947 0.28482859851 0.29228433316 0.28431820896 0.28492146788 
0.2909552077 0.28518471833 0.28617716672 0.29065766589 0.28683920098 0.28826996958 0.29147295393 0.2891887438 0.29077607141 
0.29294734608 0.29195982476 0.29413060054 0.29500026365 0.29574304293 0.29802880058 0.2977095378 0.29985345043 0.30263115568 
0.30112017175 0.30459508681 0.30720796507 0.30484194671 0.30902340603 0.31165506181 0.30856350535 0.31347763849 0.31561463863 
0.3121645851 0.31726362892 0.31936900089 0.31557765902 0.32073394846 0.32229872045 0.31853151653 0.32337740834 0.32453991035 
0.32093008222 0.32535695987 0.32611766032 0.3227929605 0.32659087345 0.32687637006 0.32405592274 0.32703391944 0.32691776908 
0.32468038812 0.32674263946 0.32618811045 0.32464006322 0.32583278974 0.32500447509 0.32411151524 0.32449106516 0.32345542895 
0.32324295637 0.32275611561 0.32168411463 0.32203313674 0.32097188318 0.31990811766 0.32063194718 0.31934281433 0.31851234234 
0.31935924028 0.31806877976 0.3174384824 0.31836322148 0.31721114885 0.31688760432 0.31769801813 0.31690986898 0.31692668283 
0.31750395859 0.31719933462 0.31752009182 0.31781284858 0.31800399085 0.31866002006 0.31860064071 0.31934562851 0.32025066286 
0.31979848688 0.32106655722 0.3221463657 0.32132411902 0.32309879301 0.32422162051 0.32310572376 0.32523072633 0.32641595887 
0.32506775402 0.32738411084 0.32849990671 0.32704330828 0.32934204347 0.33027084758 0.32885488824 0.33103400835 0.33180730814 
0.33045805797 0.3323562433 0.33279896573 0.33176734461 0.33314690161 0.33323988145 0.33262910199 0.89949570741 0.33324818035 
0.3327227131 0.33231346026 0.33180484327 0.33108186603 0.33165691772 0.33031944201 0.32938369709 0.33040318019 0.32848071263 
0.32724845655 0.32873480965 0.32622706802 0.32506842951 0.32681270038 0.32406383614 0.32291993698 0.32478621823 0.32197053171 
0.32086519795 0.32283232397 0.31996460583 0.31900091394 0.32097769834 0.31828931243 0.31765300873 0.3193619729 0.31717716599 
0.31682430234 0.31816648915 0.31658224745 0.31658913146 0.31744407453 0.31662139879 0.31697902271 0.31721460598 0.31724515216 
0.31787759557 0.31748935979 0.31833996852 0.31923946046 0.31820621162 0.31990598233 0.32096074522 0.31933004465 0.3216717447 
0.32289202676 0.32071010086 0.32352269404 0.32454533735 0.3220588641 0.32506028759 0.32587566866 0.3232049659 0.3261739476 
0.32659741339 0.32401621826 0.3267111299 0.32678473889 0.32441548526 0.32659188468 0.32619533318 0.32432157578 0.32574338625 
0.32493895761 0.32367652895 0.32412574994 0.32294708275 0.32242758534 0.32167034342 0.31987408801 0.32036371302 0.31837585813 
0.31636189308 0.31761139275 0.31466361699 0.3121654899 0.31445693087 0.31025993236 0.30777947682 0.31090557692 0.30572251755 
0.30287100789 0.3070010047 0.30106673444 0.29871966665 0.30320529485 0.29690992787 0.29444135436 0.29964853449 0.29291432183 
0.29091835326 0.29637312676 0.28969083328 0.28795380558 0.29368586601 0.28697514114 0.28570543281 0.29157638465 0.28506649424 
0.28402848452 0.29006820993 0.28383143249 0.28330746239 0.28932785962 0.28389581475 0.28391415357 0.28976842838 0.28516324449 
0.28577943606 0.29167889928 0.28770667203 0.28914577274 0.29495956695 0.29181559159 0.2946287201 0.29970980154 0.29931183002 
0.30405858173 0.30712506743 0.31231542862 0.32126402352 0.31996265741 0.335729325 0.35535534568 0.34302965044 0.38269419137 
0.48375957986 0.38447098448 0.43796709591 0.34320499815 0.3230157033 0.310728291 0.30217879925 0.40164701624 0.29339929708 
0.28116852808 0.37602632485 0.27141731705 0.27220501012 0.32509973689 0.26575648902 0.25699790978 0.30024807166 0.26524540349 
0.25636816426 0.29020627091 0.25633016758 0.25230006451 0.29833522901 0.25464718458 0.25162196241 0.29570661843 0.25391419818 
0.25093890619 0.29436673203 0.25162169246 0.24945199996 0.29474283499 0.25110732031 0.24975108235 0.29400231383 0.2497328748 
0.24877017571 0.29404882332 0.24903152373 0.24916402997 0.29515227139 0.24907841364 0.25024556411 0.2957818125 0.24905921988 
0.25139753838 0.29667323457 0.24980623766 0.25247074759 0.29535843086 0.2496643814 0.25322671829 0.29469519885 0.25157456448 
0.25561304816 0.29441980015 0.25207114337 0.25728475674 0.2960109567 0.25495027368 0.2613831549 0.29685214483 0.25838200334 
0.26602341527 0.30001440757 0.26384952936 0.27279301986 0.30480341865 0.27365720667 0.28488816285 0.31334366677 0.28826774926 
0.30282112659 0.32919381467 0.31330062772 0.34259273047 0.35554917326 0.58651346797 0.60399814055 0.31160684898 0.38307536927 
0.24439167169 0.27531841998 0.31912007676 0.21502123293 0.22084543141 0.2636809289 0.2040318963 0.20440832591 0.23294342219 
0.19985762078 0.19931264517 0.21928508027 0.19845893662 0.19797422119 0.21321382714 0.19811839919 0.19790399603 0.21071110804 
0.19773373332 0.1980573571 0.20998065218 0.19802619064 0.19883811386 0.21081473185 0.200505334 0.20120190809 0.21415698361 
0.20796293397 0.20740485711 0.2227887442 0.22645529826 0.22045711324 0.23905347021 0.28404278379 0.25438563518 0.27116127306 
0.40608701833 0.32287400014 0.33064893196 0.61134347524 0.61004054279 0.32569954566 0.39259661575 0.24680128818 0.27674119503 
0.32108484642 0.21564647227 0.22089616783 0.26250199179 0.20411603449 0.20446516951 0.23212602532 0.19956609503 0.19878284668 
0.21824800573 0.1974997413 0.19708872314 0.2113441036 0.19676520103 0.19664000588 0.20818354421 0.1964142155 0.19667220232 
0.20719491298 0.19645231577 0.19710701494 0.20765876583 0.19770481853 0.19837972897 0.21012942065 0.20261202301 0.20217566258 
0.21616265264 0.21851517767 0.21286318872 0.2298927495 0.26658485055 0.24371819681 0.2612383091 0.38947559386 0.3128359989 
0.32061644524 0.33331634014 0.37386516901 0.49713034555 0.46465974782 0.47845423589 0.48479007192 0.39557967475 0.34206244269 
0.49768328051 0.50120453888 0.35664009386 0.47567408226 0.47981015577 0.35205748188 0.34711090195 0.43941889415 0.39146460435 
0.51775449906 0.44006442515 0.33368299996 0.33401570274 0.33427811342 0.33466558728 0.33393218203 0.33502107174 0.33550283936 
0.33459008622 0.33595575182 0.33649668599 0.33541255846 0.33703293367 0.33765632803 0.33643363025 0.33821983238 0.33881707219 
0.33757294302 0.33937466446 0.33996957172 0.3387506647 0.34047779731 0.34099267459 0.33987746571 0.34140824719 0.34183581624 
0.34086841004 0.34217405129 0.34248691723 0.34167733937 0.34270398331 0.34288583091 0.34225031791 0.34296472421 0.3429753559 
0.34256828619 0.34290869848 0.34274983732 0.34257629193 0.34251646692 0.34219966262 0.34225907147 0.34187652714 0.34145629464 
0.34166698478 0.34104813693 0.34051818278 0.34088852309 0.33997064604 0.33934447486 0.33988224906 0.3387854027 0.33816154598 
0.3387338276 0.33760629218 0.33698839405 0.33757573117 0.33646483268 0.33591497973 0.33644805708 0.33544985396 0.33496943844 
0.33541154898 0.33460337117 0.33422241415 0.33455778881 0.33393971378 0.33366162679 0.33386196281 0.33346662876 0.33327703628 
0.33337232098 0.2698588495 0.28997915834 0.39154448262 0.37040762861 0.36426234291 0.33313051253 0.35095381536 0.33785119086 
0.32958981469 0.321647098 0.33693926865 0.31632132254 0.31214459697 0.32488947743 0.30829021551 0.30532581976 0.31637222602 
0.30238247894 0.30082446563 0.31022491517 0.29884999085 0.29797875017 0.30553730413 0.29687359071 0.29638298608 0.30280750563 
0.29572480907 0.29593761535 0.30112265192 0.29570761616 0.29630041869 0.30032195232 0.29638568259 0.29725653423 0.30021172111 
0.2977213296 0.29886632919 0.3008113216 0.29958038113 0.30114357622 0.30201401125 0.30220096258 0.30396260107 0.30382037808 
0.30518030309 0.30704720791 0.30608154103 0.30822793045 0.30995637232 0.30845774294 0.31124318369 0.31295934416 0.31087515111 
0.3142280592 0.31575933433 0.31333386532 0.31680565486 0.31806627883 0.31552954749 0.3189180504 0.31989862642 0.31730738543 
0.32060268991 0.32133200687 0.31874065248 0.32185202209 0.32226637364 0.31984255825 0.32261671913 0.322727762 0.32059816319 
0.32290401754 0.32270104896 0.32102320567 0.32263850856 0.32228058831 0.32106370668 0.32206201796 0.32155948929 0.32071991955 
0.32123445831 0.3205724313 0.320144225 0.32018888118 0.31951656331 0.31942789609 0.31911671347 0.31858979061 0.31864003183 
0.3183299066 0.3179482165 0.3180086039 0.31781198071 0.31763785052 0.31765991656 0.31769576331 0.31776691802 0.31766044754 
0.31804114407 0.3183655481 0.31808190078 0.31880876669 0.3193436561 0.31890084593 0.3199706333 0.32069371672 0.32006071623 
0.32141600177 0.32225569009 0.32150108923 0.32307109246 0.32402824794 0.32311082121 0.32489394343 0.32589373944 0.32484494347 
0.32680612316 0.32775780612 0.32665491944 0.32855160561 0.32936879378 0.32836833005 0.33012680751 0.33085803962 0.32990807511 
0.33151225344 0.33204797399 0.33127555271 0.33258639139 0.33292364964 0.3324543865 0.31344318248 0.33837168042 0.3833033579 
0.3598843957 0.3529838081 0.33189966963 0.33137653055 0.33075562041 0.32998679726 0.33106801156 0.32925350925 0.32834103619 
0.32969257437 0.32748689057 0.32645870319 0.32807004684 0.325548431 0.32453374952 0.32625501702 0.3236985793 0.32274107221 
0.32444637938 0.32187764928 0.32096515142 0.32266943 0.32022156664 0.31948687071 0.32099249358 0.31890671864 0.31839280156 
0.31958962403 0.31794153363 0.31768921208 0.31849156909 0.31743100314 0.31745861679 0.3177127645 0.31738844358 0.31765956186 
0.3173943703 0.317754224 0.3182377116 0.31747449805 0.31847628911 0.31915414259 0.31788208306 0.31950289094 0.32022511143 
0.31855918486 0.32057845291 0.3212290618 0.31936473675 0.32145199977 0.32197507868 0.32004997469 0.32209018471 0.32240252683 
0.32048702398 0.3224609339 0.32257128969 0.32073300442 0.32244765418 0.3222573694 0.32073094468 0.32195854133 0.32150593902 
0.32034172049 0.32100821636 0.3201997926 0.31956692632 0.31941976037 0.31816408986 0.31829227996 0.31716136478 0.31568015559 
0.31650798539 0.3146231702 0.31294091985 0.31440522871 0.31170540676 0.30982549612 0.31205800431 0.30853054609 0.30652092757 
0.30945973976 0.30526921156 0.30346228588 0.30681774521 0.30238173688 0.3005984084 0.30438418722 0.29966585444 0.29815856721 
0.30226731357 0.29744673474 0.29625126611 0.30054514415 0.29578408028 0.294856605 0.29929062082 0.29480252436 0.29422531125 
0.29871403675 0.29474088776 0.29461701537 0.29906774003 0.29560440539 0.29623415099 0.30055059866 0.29771442374 0.29903603778 
0.30286075138 0.30108860915 0.30306370602 0.30636385995 0.30589886896 0.3086723129 0.31084144255 0.31274200686 0.31759957147 
0.31734753097 0.32385397498 0.33293105918 0.32697409918 0.3410668461 0.3565665891 0.3585071744 0.34124743417 0.33317198545 
0.35162037146 0.35332369327 0.43192803602 0.51119318036 0.45066098957 0.33864400137 0.32364165743 0.31539380885 0.31308635997 
0.32709321943 0.30047560635 0.29905128289 0.31246167209 0.29536313281 0.29679055536 0.30426459291 0.29102187149 0.29383171448 
0.29820758795 0.28860928917 0.29025020525 0.29537612297 0.28662193469 0.28820947584 0.29351203342 0.28508302497 0.28800847742 
0.29218470825 0.28550388943 0.28709171069 0.29143162107 0.28526158581 0.28663604673 0.2912363084 0.2854767824 0.28668283936 
0.29092080115 0.28640172624 0.28680677872 0.29066861042 0.28687379338 0.28591925122 0.29071157127 0.28698523022 0.28541609959 
0.29089026427 0.28706292123 0.28531461515 0.29122920019 0.28767072622 0.28530836219 0.29171799792 0.28869253492 0.28666725986 
0.29239184331 0.29103072887 0.28854743565 0.29422508153 0.29440971205 0.29195733872 0.29701187299 0.2997916802 0.29830326488 
0.30203002449 0.30869693485 0.30882924016 0.30985949187 0.32308498122 0.32717468987 0.32222055771 0.34905460712 0.50890477011 
0.45195111862 0.30059847318 0.32133617674 0.30659581291 0.30016705891 0.23271095876 0.23721664614 0.22630649044 0.22844281848 
0.24509448692 0.22338256092 0.22421326125 0.2385826101 0.2223619707 0.22254696308 0.23545997221 0.22456679629 0.22350941709 
0.23550326254 0.23051851347 0.22779909055 0.23961470073 0.24301427953 0.23650623366 0.24839073561 0.26310043911 0.25239361567 
0.26241265635 0.29783587281 0.27794441044 0.28505332898 0.33115572013 0.31340748491 0.30960409259 0.35656477925 0.32377718954 
0.33481815745 0.32024033299 0.32789326483 0.34549263175 0.30592626988 0.33201781389 0.23105467812 0.23619584939 0.22339263171 
0.22599804985 0.2419763294 0.21990482127 0.22085248511 0.23446597076 0.21841049119 0.21839748916 0.23054971225 0.21948923055 
0.21860445227 0.22955732244 0.22388453681 0.22157729461 0.23214582984 0.23328513763 0.22863662864 0.23911392739 0.25206360515 
0.24241309728 0.25237984395 0.28623795071 0.26768255722 0.27470348483 0.32283604026 0.301654538 0.30140963608 0.42990124532 
0.50690361932 0.4485111989 0.33334180799 0.24580976153 0.25631352376 0.25670983185 0.27061596793 0.29029687058 0.30541596537 
0.24556003079 0.25612750526 0.27774615927 0.25587020893 0.34376852636 0.27779172295 0.33302885822 0.33298171442 0.33290204186 
0.33291660708 0.40691137018 0.38034845972 0.3545782545 0.33240461117 0.36601537979 0.3313455645 0.36103611656 0.39518340337 
0.40715963501 0.33221127588 0.33329998891 0.31566507504 0.34648945852 0.30840430911 0.3362344727 0.36402185816 0.31593877359 
0.39089562721 0.331052216 0.29960113553 0.31216547259 0.30736617123 0.30487022037 0.33389469044 0.33426858165 0.33466736989 
0.33514903776 0.33396229268 0.33567316361 0.33625214878 0.33493102482 0.33688966132 0.33752578185 0.33616063452 0.33813601764 
0.3387624251 0.33748800777 0.33938544812 0.33996597172 0.33882519703 0.34050442895 0.3409690875 0.34008476478 0.34140644787 
0.34178287751 0.34115242471 0.34209504385 0.34233789377 0.34195443232 0.34252191444 0.3426112263 0.34249139642 0.3426194593 
0.34253522832 0.34269054035 0.34235293747 0.34209203189 0.34249382157 0.34178498835 0.34141370416 0.34194707489 0.34097172464 
0.34050649967 0.34112269371 0.33997464685 0.33935959298 0.34006041957 0.33873431047 0.33810912407 0.33881146611 0.33749844193 
0.33688754657 0.33749983246 0.33629878035 0.33572042239 0.33621766565 0.33519672538 0.33469906927 0.33503132436 0.3342687609 
0.33386082214 0.33401673172 0.33354401042 0.33324576376 0.33324438084 0.34532583939 0.33967450183 0.33269190041 0.32977857778 
0.32472440109 0.33105993997 0.32177239755 0.31860988616 0.32555935382 0.31615963776 0.3135974294 0.32080188295 0.31126471748 
0.30957143467 0.31655000599 0.30785254036 0.30685238767 0.31289205203 0.30576282671 0.30521665868 0.31034258398 0.30442679404 
0.30427023838 0.30865192454 0.30372032663 0.30383060459 0.30743981244 0.30354489078 0.30405350795 0.30668524551 0.30414846552 
0.30488314976 0.30657686482 0.30521290741 0.30627048702 0.30706045873 0.30678977013 0.30798921145 0.30796627855 0.30866151748 
0.30981965739 0.30922853552 0.31060175579 0.31182472965 0.31072277373 0.31261850435 0.3137912968 0.31231217331 0.31449424066 
0.31545266664 0.31378238522 0.31601785053 0.31677840987 0.31500572643 0.31725723885 0.31786700341 0.31600520927 0.31823740858 
0.31866593817 0.31680468336 0.31892009278 0.31918655709 0.31737643287 0.31932884353 0.31943914374 0.31772470771 0.31949269066 
0.31938439359 0.31788153558 0.31942702797 0.31917393042 0.31793733616 0.31913859121 0.31879896899 0.31789916004 0.31862058402 
0.31824512929 0.31763685632 0.3179716532 0.31758921821 0.3171396013 0.3174537031 0.31721827678 0.31671426113 0.31719425002 
0.31710973272 0.31655017591 0.31727968467 0.31740480736 0.31670407607 0.31776729102 0.31812275406 0.31728349774 0.31869547846 
0.31921722295 0.31829509781 0.31989870221 0.32059788113 0.31963720887 0.3213922871 0.32217847762 0.32119542564 0.32303614865 
0.3238955071 0.3229205022 0.32478629552 0.32567495527 0.32471759153 0.32658167838 0.32750436498 0.32654871705 0.3283544624 
0.32913653679 0.32833429452 0.32986837427 0.33062297595 0.32991475748 0.33125599626 0.33190639739 0.33129935777 0.33242023523 
0.33294228426 0.33332023803 0.33245626653 0.25061355561 0.25274278788 0.41963651885 0.38623613503 0.34917209818 0.3424941982 
0.33695826388 0.33518390368 0.33009963183 0.3120683844 0.33034482385 0.3295793038 0.32885719672 0.32795621131 0.32954041821 
0.3270962747 0.32613035394 0.32790093097 0.32525412532 0.32436711684 0.32609779506 0.32349444586 0.32257162666 0.3242769965 
0.32169140873 0.32088543673 0.32244553983 0.32011216152 0.31946081159 0.3207050105 0.31873892583 0.31825951555 0.3191625274 
0.31772522582 0.31745554503 0.31783240158 0.31708374471 0.31704515006 0.31694192004 0.31686064468 0.31702195104 0.31641356007 
0.31697071667 0.31728639093 0.31625974466 0.31740136674 0.31784482659 0.3164336842 0.31806408673 0.31850788804 0.3168993374 
0.3186313802 0.31894190923 0.31738540012 0.31891142231 0.31910401393 0.31759315929 0.31909995899 0.31921445297 0.31765158313 
0.31910714537 0.31901723648 0.31760522782 0.31889414345 0.3186151438 0.31742260176 0.31836127863 0.31786800212 0.3170690233 
0.3174436044 0.31665769414 0.31640220562 0.31610678918 0.31509334997 0.31541725343 0.31443427247 0.31331691204 0.31415627384 
0.31262606796 0.31132513129 0.31273281961 0.31054340075 0.30919075469 0.31113368534 0.30838369287 0.30706423518 0.30945358416 
0.30643076885 0.30526964669 0.30788470253 0.30477974837 0.30377966963 0.30664403338 0.30349291833 0.30270619817 0.3057829545 
0.30269530488 0.30220346037 0.30536611642 0.30249459956 0.30241303404 0.30553576328 0.30333651146 0.30380623007 0.30664300878 
0.3049098574 0.30587264919 0.30871033313 0.30745136138 0.30893726745 0.31114526624 0.31046817021 0.31247837006 0.31423182189 
0.3144321528 0.31701691555 0.31776358239 0.31959048054 0.3233602983 0.32177638954 0.3266826741 0.33250240881 0.32717382211 
0.3721323952 0.41055218928 0.33352966223 0.32283728499 0.41758162052 0.37326488603 0.27936686377 0.29102018905 0.31729122315 
0.31300822387 0.32379875934 0.30951789706 0.30656259884 0.31559248771 0.30395630314 0.30190444277 0.30999584655 0.30067200283 
0.29918432906 0.30602628906 0.29838363939 0.29764353385 0.30370897486 0.29708512855 0.29655245488 0.30230416894 0.29638648843 
0.29625607761 0.30159147996 0.29614816748 0.29595254399 0.30126568495 0.29582650356 0.29568313534 0.30095934198 0.29569890417 
0.29582839513 0.30082328378 0.29580397502 0.2956722929 0.30079936392 0.29571218787 0.29591901654 0.30085464633 0.29593041013 
0.29608379684 0.30096292123 0.29617028154 0.29646509415 0.30116303214 0.29648891532 0.29712703988 0.30137255602 0.29777710688 
0.298993193 0.30219367254 0.30005232683 0.30185588009 0.30404508911 0.3037711782 0.30704902465 0.30714527319 0.31050021704 
0.31555220535 0.31295555415 0.32070083632 0.32841756922 0.33421343683 0.32191120663 0.31538753228 0.31185185092 0.43199731871 
0.43608212364 0.40001523941 0.24760344616 0.24852163037 0.26154371971 0.2564204338 0.26015460113 0.26677378925 0.24841151711 
0.24718608661 0.25898057659 0.25397160718 0.25073771945 0.26131467639 0.26378791869 0.25844001108 0.26778052623 0.2790792562 
0.27013014185 0.27784790844 0.29707990819 0.28578435454 0.29036252495 0.31242090453 0.30374300977 0.30320586798 0.34179998946 
0.32146640759 0.31703628826 0.33355562998 0.31311725721 0.31463945248 0.31370589189 0.30881866719 0.36839566239 0.40879855555 
0.25137750843 0.25649239803 0.24085764359 0.24053735157 0.24444273053 0.24229393785 0.25230081726 0.25313946062 0.24861625841 
0.25726382473 0.26818369142 0.26050249155 0.26780595399 0.28884001235 0.2772786154 0.28233611297 0.30551630336 0.29583932434 
0.29629821501 0.42807018553 0.43515416434 0.40578510994 0.39683585127 0.31186874353 0.32997374888 0.3335885747 0.33161719596 
0.33098069474 0.33093967139 0.26371004904 0.27122229474 0.28364297555 0.27340838384 0.24454988663 0.24713383878 0.26022672217 
0.24105726325 0.2425245209 0.25414694299 0.25156234534 0.30212235144 0.34441867833 0.33888973165 0.33290164039 0.33613382007 
0.33304832464 0.33285627864 0.34314864216 0.32549303387 0.32532268321 0.34193442023 0.30660626397 0.30724873599 0.38146078098 
0.36641346318 0.33258761117 0.33207712817 0.33390819333 0.35880596578 0.2804703486 0.2930409284 0.30080447964 0.36175499472 
0.29687552359 0.29651121951 0.40109247039 0.33270749754 0.30931004214 0.30410976238 0.30379176739 0.31608283704 0.34915959189 
0.33015871435 0.34948814028 0.32713605758 0.34068997029 0.33324976374 0.30751963714 0.3320584585 0.35732789495 0.26302830652 
0.27187177399 0.28549368149 0.2706591505 0.34911761629 0.36854951051 0.30997480065 0.30807518057 0.30223337256 0.33386607787 
0.33445727642 0.33532183853 0.33604366199 0.33425784157 0.33675412744 0.33748185252 0.33596545558 0.33829998442 0.33904252401 
0.33762811771 0.33979132034 0.34042699536 0.3393499158 0.34109096495 0.3415966816 0.34089984677 0.3421032098 0.34247411703 
0.34217751975 0.34283389424 0.34304898219 0.34312054037 0.34319775801 0.34320411126 0.34366547683 0.3430900951 0.34285621251 
0.34366864959 0.34245756839 0.34207887149 0.34311055261 0.34157088221 0.34103245687 0.34210713381 0.34041121444 0.33977613758 
0.34083999271 0.33900878296 0.33826769194 0.33930900206 0.3374852274 0.33677055132 0.33763196764 0.33602166647 0.3353509563 
0.33598189886 0.3346919508 0.33409878237 0.33447628072 0.33358571799 0.33312252048 0.33322997294 0.33275299803 0.33241515102 
0.33230818633 0.33052149351 0.32778041453 0.32505510366 0.3136164616 0.31390827519 0.32524075216 0.26966140527 0.26990433365 
0.30449206483 0.30917655178 0.31047412553 0.32748138348 0.32453988548 0.32598210123 0.32374345818 0.32163791373 0.32486753961 
0.32032757018 0.31841408532 0.32275503691 0.31689643003 0.31541892217 0.32036756123 0.31418403077 0.31328831679 0.31782916647 
0.31232401476 0.31166003417 0.31586780749 0.3106023021 0.31013254236 0.31397543573 0.30925180103 0.30901925526 0.31211779035 
0.30850918885 0.30866407524 0.3108073544 0.30843148734 0.30880761032 0.31011898741 0.30885444195 0.30941833762 0.31000410039 
0.30970675558 0.3104271226 0.31038850213 0.31078731765 0.31158430384 0.31112169773 0.31198526853 0.31277609617 0.31194196503 
0.3131129405 0.31379578224 0.31270848068 0.3140322312 0.31458185481 0.3133088658 0.31477747569 0.31523332764 0.31375657504 
0.31536930394 0.31571679624 0.3141020441 0.315803108 0.31603933357 0.31434101311 0.31610479424 0.3162194512 0.31450948585 
0.3163344501 0.3163560697 0.31469929941 0.31645484639 0.31646847904 0.3149175437 0.31659381312 0.31652631066 0.31512947759 
0.31673588336 0.31653603896 0.31547026006 0.31618588499 0.31590117759 0.31524863169 0.31577851871 0.31562912001 0.31474433776 
0.31566331942 0.31563850406 0.31463306326 0.3158220077 0.31602969253 0.31483122899 0.31649346727 0.31691917766 0.31551962493 
0.31763891482 0.31827650051 0.31680270051 0.31917905779 0.31992690602 0.31849941893 0.32087940493 0.32173314649 0.32043277463 
0.32275560984 0.32365202454 0.32248284837 0.3246976386 0.32562513509 0.32458343182 0.32661196158 0.32755211689 0.32665820638 
0.32844016171 0.32929428164 0.32857374153 0.33009223105 0.33083144201 0.3302651858 0.33153271949 0.3321963951 0.33176162443 
0.34534950416 0.36509711701 0.33118028582 0.26732753555 0.27146894353 0.32979221336 0.33338703043 0.32854228946 0.27113453176 
0.2731750175 0.28017842891 0.32893661491 0.32800368026 0.32707354887 0.32614258483 0.32812173918 0.32510007008 0.32418482666 
0.32611896162 0.32322986513 0.32228774802 0.32408307711 0.32140104611 0.32054776912 0.32217710567 0.31937186752 0.31861625934 
0.31999657812 0.31787128283 0.31730734886 0.31803081214 0.31659893648 0.31623575119 0.31653391606 0.31570142742 0.31557455501 
0.31528589134 0.31527021534 0.31530940357 0.31450766761 0.31521410415 0.31545819098 0.31418234937 0.31550753455 0.31584908887 
0.31427993036 0.31615743969 0.31636474272 0.31472848601 0.31606609413 0.31612382349 0.31489646295 0.31593141152 0.3160253777 
0.31445092344 0.31609480067 0.31601464719 0.31443548951 0.31598394127 0.31589245838 0.31442492992 0.31576660516 0.31551784194 
0.31433657089 0.31545787379 0.31502871539 0.31417170455 0.31483679259 0.31426238305 0.31388058833 0.31397396516 0.31325637878 
0.31339004999 0.31298237319 0.31218994769 0.31274103215 0.31176124917 0.31094141974 0.31194874766 0.31043454715 0.30961999327 
0.31105369401 0.30924827126 0.30852748456 0.31009671991 0.3083518331 0.30781848076 0.30952481211 0.30788317436 0.30753187701 
0.30938977209 0.30789329086 0.30780428168 0.30973711888 0.30835332358 0.30858546014 0.31051550866 0.3096004617 0.3104592655 
0.31202533959 0.31190883415 0.3130299112 0.31443834025 0.31444726004 0.31593002544 0.31713956879 0.31694851686 0.3186391235 
0.31955154946 0.31958745233 0.32134866755 0.32159781017 0.32257440553 0.32485128988 0.32364458912 0.32607007394 0.32895374081 
0.32757453254 0.32578730772 0.29678181773 0.30174628877 0.39944123342 0.38625310408 0.31459574711 0.31239535758 0.31104696811 
0.30964415755 0.31588825457 0.30870923954 0.30788981537 0.31365451313 0.30753519332 0.30705162362 0.31249028147 0.30704740799 
0.30691586646 0.31234397285 0.30668039039 0.30658782769 0.3122863925 0.30621451052 0.30606409914 0.31170928792 0.3060769216 
0.3060948187 0.31142488095 0.30628516024 0.30627134062 0.31166988605 0.30649079333 0.30652112092 0.31205927746 0.30650392407 
0.30654437054 0.31228485063 0.30637496644 0.30645070911 0.31205054586 0.30622571409 0.3063045584 0.31152977089 0.30652544187 
0.30717628498 0.31141997064 0.30783586355 0.30900782102 0.31215101476 0.31031998704 0.31234511289 0.31396242668 0.31401790074 
0.31760098432 0.3168856777 0.3839890054 0.39808160067 0.38299282052 0.33046202842 0.32968716095 0.3298549415 0.3322365693 
0.27279458691 0.2703543562 0.27939086297 0.27610181411 0.27937804159 0.284285148 0.27934224636 0.27537837282 0.28318974333 
0.28857334255 0.28321359161 0.28913230346 0.29857458256 0.29265678425 0.29630182735 0.30737787662 0.30185255237 0.30790148587 
0.31671968738 0.32549253846 0.30377577574 0.30173655837 0.26248536353 0.26140206042 0.2914050578 0.28435167477 0.30107400225 
0.29529928063 0.29700305201 0.30203169972 0.308411151 0.30419186661 0.36955657333 0.34774097163 0.36969529293 0.26816016644 
0.26472793421 0.27266420041 0.38061918263 0.36767234045 0.31599879997 0.31085154774 0.31055763401 0.27915211104 0.27310954795 
0.27909206276 0.28853157946 0.30250366255 0.30384259876 0.30335052082 0.33175346401 0.32391528745 0.32233654148 0.33098282504 
0.33946677314 0.33342418653 0.33291405945 0.32650237126 0.30983921793 0.32331741616 0.33309566171 0.33108972298 0.29964765133 
0.30631505592 0.3070915621 0.30755698957 0.3101096899 0.33274020857 0.26504521854 0.27519818107 0.26295378278 0.2848390553 
0.29220857411 0.29795597934 0.35859672069 0.35520740144 0.34344171772 0.28158837344 0.27570192382 0.28203373929 0.31705226972 
0.31947590127 0.32013892262 0.34408523876 0.37006398974 0.32192316396 0.33127649612 0.30505888983 0.30428055771 0.30315167645 
0.31379872907 0.31401963873 0.31087082528 0.32532608742 0.32704798015 0.3193522156 0.31551061783 0.33302362484 0.36588198011 
0.38060541524 0.32229946503 0.33332948306 0.32302150383 0.27033360056 0.26087918996 0.2615860816 0.39833029792 0.39194643915 
0.37685927434 0.39570276924 0.34270525801 0.34799589368 0.33654595708 0.33165313323 0.33503695868 0.33587943935 0.33680321275 
0.33775347261 0.33592854943 0.33899793521 0.33999473469 0.33834438328 0.34088344431 0.34163866644 0.34066412222 0.3424542442 
0.34306721506 0.34254911234 0.34372062774 0.34415623567 0.34413841069 0.34455251926 0.34472232384 0.34527727472 0.3447880293 
0.344622768 0.34576650713 0.34427277264 0.34374601159 0.3454505438 0.34291508838 0.34229168363 0.34414274057 0.34156456035 
0.34077317043 0.34231719122 0.33981530622 0.33889802562 0.34052816572 0.3379221144 0.33698484676 0.33831057141 0.33588937583 
0.33502156629 0.3360872546 0.33408807239 0.33333056189 0.33393461064 0.33263799488 0.33207695548 0.33222708541 0.31654369084 
0.32399412431 0.29594688207 0.30158802507 0.28785347806 0.30877380612 0.31297785974 0.31455328187 0.32425141665 0.32411889275 
0.32048554388 0.32517319479 0.32424603168 0.32338706594 0.32462917298 0.32340518848 0.32465993762 0.32323512476 0.32186637962 
0.32464737117 0.32057660419 0.319529076 0.32323517274 0.31907246856 0.31824879905 0.32171271182 0.31712067479 0.31613835512 
0.32016715662 0.31470084123 0.3138594318 0.31765392921 0.31267201971 0.31220803324 0.31503077731 0.31145320797 0.31126137578 
0.31312315847 0.31080677709 0.31091544519 0.31192904651 0.31076293918 0.31108234634 0.31137659379 0.31117844103 0.31154946644 
0.31130367889 0.3116935566 0.31207820286 0.31155992648 0.31212808266 0.31244521607 0.31170592314 0.31237735329 0.31257422459 
0.31163793287 0.31259891797 0.31273966491 0.31145020449 0.31268673192 0.31278089815 0.31131618967 0.31265409 0.3126966263 
0.31103963063 0.31265456357 0.31266751477 0.31074122819 0.31283754951 0.31289414932 0.31076435745 0.3131391538 0.31317718824 
0.31111523978 0.31349587419 0.31356728934 0.3116438236 0.31393145497 0.31414715662 0.31231478909 0.31380389163 0.31358265249 
0.31342503035 0.31239893366 0.31346090913 0.31345437255 0.31220799682 0.31372598127 0.31391125506 0.31243823619 0.31443394334 
0.31494454715 0.31323624883 0.31577215715 0.31655871396 0.31461785744 0.31776637664 0.31870902205 0.31677191681 0.32008148177 
0.32107880594 0.31942197139 0.32219059158 0.32328714422 0.32194243911 0.32457743603 0.3256834439 0.32447178259 0.32681552924 
0.32786363532 0.32696070218 0.32877184671 0.32970089314 0.32906616074 0.33047093622 0.33128273119 0.31186613807 0.3074314714 
0.35737251868 0.34931073975 0.28751726696 0.28892715767 0.33893730822 0.35005249997 0.32711092988 0.32602740166 0.32484784212 
0.32381844107 0.32592540423 0.32284281654 0.79985038376 0.83163444589 0.3211861673 0.31986754348 0.3229479602 0.31755344547 
0.31677522089 0.31859631826 0.31595663958 0.85791930053 0.87774369782 0.31482333897 0.31428544634 0.31497933812 0.3133414892 
0.31306718331 0.31289397798 0.31298824435 0.31302403946 0.3117286288 0.31263814078 0.31283063918 0.3114923743 0.31307833957 
0.31334228797 0.31137437386 0.31312490709 0.89458453975 0.90993127084 0.31246684871 0.31243402173 0.31103412546 0.31184431348 
0.31194781415 0.30973529091 0.31294105613 0.31289506171 0.31020881568 0.31261761728 0.31250138192 0.31088026636 0.31259210647 
0.31253950373 0.31075384151 0.31296596233 0.31280859996 0.31127525159 0.3126099954 0.31229852174 0.31159195192 0.31239831045 
0.31201430987 0.31141638798 0.31198761699 0.31151768799 0.31147207991 0.31143914382 0.31094780583 0.31136881765 0.31081079865 
0.31041151072 0.311089239 0.31043145332 0.31020309159 0.31085239421 0.31060151332 0.31060116961 0.31122013612 0.31129357643 
0.31163492795 0.31227633275 0.31261603204 0.3131259778 0.31401845507 0.31379491112 0.31476989577 0.31568954754 0.31665962615 
0.31805286744 0.318155903 0.31954514594 0.32090627317 0.32148664079 0.32150246484 0.32259219858 0.32356319153 0.32289197998 
0.32387636154 0.32440296216 0.32393452898 0.32478466325 0.32459859804 0.33106383779 0.33025406437 0.31929462036 0.31810386522 
0.28090612666 0.27925858892 0.32434571081 0.31665630115 0.31389848919 0.32945571234 0.32847090988 0.32853702635 0.33840167707 
0.3326915943 0.37670343856 0.37735426972 0.31768731719 0.31698408774 0.32115994847 0.31645626106 0.31620892821 0.32048030744 
0.31751967594 0.31774471072 0.32144990326 0.31799384018 0.31787680739 0.32336950072 0.3177426602 0.31748390812 0.32350495902 
0.31647024826 0.31652902331 0.32253637451 0.3181483597 0.31839847438 0.32331071581 0.31856583659 0.31872742974 0.3250538259 
0.31854993691 0.31842152184 0.32507502969 0.31812740673 0.31780732503 0.32454769793 0.31664355975 0.31627144165 0.32280186348 
0.31569017116 0.31580795356 0.32063434758 0.31585538517 0.31638144158 0.31995417139 0.31674377298 0.31787693901 0.3202073188 
0.31880270528 0.29694977739 0.29377065075 0.2906319827 0.29324015164 0.29678727848 0.28985766257 0.28272450864 0.30213675764 
0.2988622814 0.30218919706 0.3093968835 0.30777084586 0.36038625527 0.37139042719 0.36625193475 0.3067633112 0.30384905846 
0.30572353298 0.30839822975 0.35533667253 0.36694415769 0.32470218554 0.30572989161 0.30461626501 0.37130900722 0.35855111059 
0.35055940483 0.36552246084 0.29185745861 0.2892956675 0.29887666643 0.30607191579 0.30718257987 0.28706971799 0.28628478311 
0.2939953638 0.2948220854 0.30457046297 0.3057952777 0.33340236738 0.33435804549 0.3341990528 0.38212506212 0.31091661956 
0.30955378137 0.31007299327 0.32273956434 0.32059124099 0.32261404326 0.32546422831 0.31648094613 0.32177765623 0.37262940398 
0.37539519752 0.31429970013 0.31441165735 0.31154724459 0.32363109389 0.32969522108 0.30253394231 0.3063576201 0.30959159853 
0.30983200708 0.33077003904 0.3078578981 0.33220280537 0.271371795 0.34192742785 0.34184094867 0.92013538839 0.78097996745 
0.33305841315 0.34460774407 0.34667943669 0.35355933669 0.32420331977 0.32455778136 0.3059540384 0.30435378579 0.30276089116 
0.33066897521 0.32144954301 0.28524117597 0.28941206728 0.30721530538 0.30921325407 0.30813539453 0.28619289101 0.27850552255 
0.27834976723 0.311821557 0.31466946284 0.33393920253 0.30784218003 0.36130887354 0.32841293713 0.32325277076 0.28237922742 
0.2880966672 0.28657149527 0.30035892245 0.29551746528 0.29800127943 0.336538549 0.32427964374 0.2821521362 0.28446820442 
0.29139914188 0.33425627751 0.33248450386 0.29183089651 0.30152351653 0.29799229768 0.30404592469 0.30407481388 0.30659464642 
0.3324802991 0.36500150887 0.35401049833 0.37058273918 0.29581621724 0.29152416444 0.30064933778 0.36331027788 0.32393859294 
0.31944877774 0.31962878739 0.3247669583 0.33637158081 0.33778779296 0.34237460637 0.34339428441 0.34475044992 0.34555943253 
0.34476498769 0.34643036653 0.34688771342 0.34718154422 0.34713948373 0.34723034419 0.34836412383 0.34754821067 0.34704555476 
0.34905084821 0.34490026378 0.34384315231 0.34713760086 0.34292312274 0.93351919302 0.78857622839 0.34065213573 0.33944888929 
0.34217981128 0.33824810239 0.93829100758 0.78777572424 0.33651417316 0.33521696973 0.33754281592 0.33373003535 0.33265491565 
0.33393214509 0.33143078469 0.2935379969 0.29920767793 0.30420098365 0.29667487293 0.30996792862 0.31154636213 0.30958302903 
0.31054026547 0.30971800301 0.32253497207 0.32445671632 0.3247845107 0.32259193753 0.32609979678 0.32581940782 0.32586094945 
0.32572985642 0.32445131038 0.32728172053 0.32421183269 0.93262604554 0.77954424594 0.32065185487 0.31918387821 0.31709438137 
0.3158247881 0.32003283931 0.31467787086 0.31390767394 0.31663739519 0.31152433678 0.31146453396 0.31116928369 0.31126117481 
0.31116761046 0.31107194832 0.31056449831 0.31018388617 0.30991699095 0.30934915943 0.30996010818 0.30978346887 0.30795315326 
0.30953823257 0.30933917555 0.30742594282 0.30877451224 0.30851918268 0.3064660805 0.30822359802 0.30805357553 0.30546685231 
0.30812247891 0.30819610535 0.30507773541 0.30849271747 0.30865602392 0.30544534002 0.31028397598 0.3105619501 0.31086151745 
0.31061314816 0.30878250163 0.31096168022 0.31094687077 0.3093889083 0.31098177679 0.31118803945 0.30958003031 0.31201187691 
0.31258212497 0.31045407842 0.31344384672 0.31432987585 0.31220639054 0.31920563486 0.32070198816 0.32403080946 0.32541640922 
0.32761980862 0.32881359357 0.32747232226 0.32963194386 0.33060784627 0.33052140178 0.27866034376 0.28026443077 0.28847720365 
0.28605132801 0.31392929358 0.31699062881 0.32317464401 0.30873862883 0.30957258621 0.30761746709 0.30764429898 0.30981700003 
0.31006230778 0.31105636294 0.31103968734 0.31153522827 0.31196670762 0.31139347099 0.31293262338 0.31363667998 0.31317727662 
0.31563099816 0.31678784204 0.31628780238 0.31807371379 0.31878363563 0.31994605432 0.32076058301 0.91878158471 0.76371750719 
0.32359837104 0.32507603263 0.32435256889 0.32588237727 0.32639674217 0.32796356231 0.3257184018 0.3258626708 0.32794540538 
0.3249832941 0.32466644043 0.3258490474 0.31986751472 0.32478992321 0.32986743871 0.33720227864 0.3313152022 0.3243733743 
0.32573502016 0.32791529765 0.3284937223 0.33087060923 0.32882155811 0.32901385999 0.33343627721 0.33035993936 0.32938216503 
0.33591941959 0.33126383499 0.89312489667 0.87678799494 0.33272983973 0.33283262554 0.33868834172 0.331292006 0.33099059959 
0.33889132719 0.33197713563 0.33124449264 0.33796598177 0.32837013711 0.32696203955 0.33549608876 0.32453187379 0.32376947217 
0.32979453709 0.32317378583 0.32305007045 0.32680639865 0.32228764362 0.3280700723 0.32685777979 0.33464585057 0.34139494149 
0.33116294496 0.33197063174 0.33295919741 0.33188336262 0.36062729517 0.36447257824 0.30002688606 0.30946662717 0.30792661198 
0.32353193616 0.31847851324 0.35346438684 0.35823663339 0.33370529247 0.30630486141 0.30466101112 0.33456344536 0.33554290419 
0.33482794647 0.33330999601 0.33109725026 0.32319277606 0.85756984652 0.83185468007 0.30411971907 0.32596123531 0.32304216136 
0.32476664985 0.32874266673 0.31457143289 0.31254391166 0.30407734986 0.30237832575 0.32299300124 0.34150517622 0.34029745784 
0.34225546452 0.33836612636 0.30756384094 0.3112390578 0.32238268843 0.32399215153 0.32347751353 0.31266552857 0.31224792931 
0.3111899256 0.31131311118 0.30950895463 0.30777841097 0.3092932999 0.32946801004 0.80086941581 0.76237269088 0.33080295425 
0.31692049991 0.31829838602 0.31713778693 0.31557998221 0.35845602304 0.36404971153 0.35919475309 0.34831993531 0.34604868635 
0.3402487019 0.34015665772 0.33561967914 0.30658236299 0.30818017215 0.3295132411 0.30759363212 0.3070805873 0.75102652746 
0.89398038687 0.32444206544 0.66705327307 0.68323005545 0.31275565353 0.3100636173 0.30967328323 0.30915167851 0.30604400027 
0.30849933057 0.30826726948 0.30878808843 0.31064642016 0.31055985583 0.30702297215 0.30958358405 0.30956414062 0.31104083942 
0.3109468677 0.30990242229 0.31108844379 0.31081973544 0.31093422471 0.31060563942 0.31587858389 0.31888316332 0.34462225289 
0.34062729906 0.35312669246 0.32530571762 0.32635513874 0.29225172134 0.29182442288 0.31293817173 0.30908089286 0.31016506605 
0.29428615935 0.33368041693 0.30064493519 0.30240018731 0.30642465793 0.30842905377 0.29385570847 0.29277592177 0.29753901887 
0.29810353394 0.32648117345 0.31116323225 0.31217883011 0.31080499916 0.30477762383 0.30013687963 0.3477442595 0.35545670341 
0.31001355017 0.30890692312 0.31140597489 0.30689788458 0.30562420046 0.31063207577 0.31007964348 0.35121092533 0.35870222738 
0.3542624421 0.29866830642 0.30499307829 0.3029618638 0.33186430576 0.32833906169 0.35582289321 0.30455000771 0.30762988494 
0.34802720145 0.34308881801 0.34451728815 0.30747264591 0.3041900767 0.30558018932 0.30090626948 0.3107766875 0.34839511943 
0.34944891892 0.29689650999 0.3008972676 0.31018145598 0.32870102702 0.32648204029 0.32677642513 0.32934627751 0.32939212103 
0.32876190755 0.33253324777 0.33544907813 0.33604093126 0.31409958805 0.31625942749 0.32279742139 0.30517046376 0.30492027573 
0.30147964321 0.30148759328 0.30179723328 0.30214532775 0.31432065152 0.3327976405 0.30235414289 0.33177372372 0.33503632804 
0.33253407899 0.30817006909 0.33214222993 0.30903942221 0.32891298336 0.3324438129 0.34247106141 0.34705611002 0.32508586999 
0.32762826011 0.30874579483 0.32985106578 0.32912567132 0.34615156468 0.34401491179 0.32982587965 0.29648993349 0.31093288901 
0.31181001704 0.30154674008 0.29715692441 0.3019277831 0.345202337 0.34697424791 0.34903531359 0.34423778573 0.31054434514 
0.34967843813 0.35357585687 0.3017120535 0.30514913132 0.30483415792 0.31157126851 0.3448232811 0.34490615144 0.35066304075 
0.3508406112 0.33948457968 0.33470176035 0.33294137208 0.33135697657 0.3107671326 0.29176553741 0.3224946403 0.32020104232 
0.29656118624 0.29231097285 0.3261290415 0.32668861585 0.3336333945 0.32789248001 0.33627379491 0.33659411926 0.30326227305 
0.30267114675 0.29789985511 0.30036282221 0.35197020845 0.33181607786 0.35609168675 0.35127178691 0.35245173703 0.33563699658 
0.29294118422 0.29498599565 0.34098633365 0.33803596083 0.34471883761 0.33938250397 0.34981450688 0.34360447018 0.33336123872 
0.33126870764 0.33213093996 0.33609151621 0.35233646559 0.34741874794 0.3406690166 0.33697205128 0.35398497823 0.35576802615 
0.33333483013 0.33332136099 0.33327843248 0.3337128206 0.3335133324 0.33344881543 0.33434232591 0.33401571854 0.33388279242 
0.33522248273 0.33474927044 0.33457122459 0.3362844129 0.33572508235 0.33546055991 0.33750571597 0.33682473836 0.3364803622 
0.33878469564 0.33809795126 0.33758857083 0.34004618881 0.33936076337 0.33872110256 0.34144836795 0.34069388796 0.33991284407 
0.34259459263 0.34199211804 0.34108789043 0.34347051328 0.34302533236 0.34205430506 0.34401842241 0.34378407093 0.34278739942 
0.34429932714 0.34420974747 0.34327822398 0.34416884703 0.34428479466 0.34340610141 0.3437030306 0.34399769775 0.34321408932 
0.34293589261 0.34339099326 0.342721428 0.3419299078 0.34250744074 0.34198335024 0.34076321975 0.34142168424 0.34103497866 
0.33943867739 0.34016807599 0.33995312849 0.33814706163 0.33884420325 0.33880214453 0.33691417482 0.33759027349 0.33766174776 
0.33577374189 0.33635153976 0.33654107523 0.33481864989 0.33532686493 0.33553590281 0.33405909571 0.33442490154 0.33468721031 
0.33355332195 0.3337765426 0.33399632799 0.33330319348 0.33337843658 0.33351695634 0.33331683845 0.33326676495 0.33331736824 
0.33340990544 0.4223451893 0.38408809643 0.45597061591 0.33855380479 0.35703948356 0.38380305339 0.31571148418 0.32444077505 
0.34501080711 0.30163314504 0.30695761688 0.32354211377 0.2937742472 0.2965958932 0.31040578356 0.28890776051 0.29055518833 
0.3020770017 0.2861534163 0.28686968883 0.29671353892 0.28492246594 0.28487882689 0.29318804101 0.2850934659 0.28457403794 
0.29165901744 0.28608411944 0.28508204921 0.29117311617 0.28801418223 0.28662983521 0.29163100418 0.29069658384 0.28900413338 
0.29305521648 0.29384034424 0.29186665323 0.29509557602 0.29746733883 0.29521751435 0.29756702587 0.30159552368 0.29917454875 
0.3005932817 0.30589992952 0.30341183608 0.30403031862 0.30998535971 0.30764636254 0.30751504636 0.3141213898 0.31172223703 
0.3109281592 0.31779056369 0.31565011264 0.31413604431 0.32106398588 0.31928098472 0.31710154802 0.32361466338 0.32225372032 
0.31971166973 0.32532787477 0.324448304 0.32169994224 0.32638948894 0.32590443459 0.32308709068 0.32663395139 0.32661904305 
0.32390540233 0.32620235801 0.32657031499 0.32411353727 0.32522534862 0.32590026942 0.32379507635 0.32377504509 0.32479215204 
0.32309049629 0.32213675615 0.32316530434 0.32207818016 0.32049335621 0.32152279094 0.32089396954 0.3189383748 0.31988559134 
0.31970642588 0.31779752139 0.31848720457 0.31866153293 0.3171373328 0.31753971667 0.31796519258 0.31704548561 0.3171179263 
0.31770913068 0.3175559899 0.31729071348 0.31793237822 0.31864751887 0.31802609692 0.31865383222 0.32010718696 0.31932714678 
0.31979996632 0.32203203514 0.32094705625 0.3213175714 0.32404078953 0.32294162391 0.32307077777 0.32614949468 0.3250250709 
0.32495875801 0.3282135974 0.32708980066 0.32687213061 0.33012837279 0.32909973931 0.32869415851 0.33163460489 0.33089037902 
0.33032972032 0.33274015261 0.33221942841 0.33166783705 0.39666224547 0.33307295482 0.33326664276 0.33315576713 0.33219052215 
0.33270325173 0.33259723987 0.33076097554 0.33157055401 0.33154537474 0.32904568653 0.32997617693 0.33012248706 0.3269776769 
0.32817933205 0.32845542007 0.32480684626 0.3259628911 0.32656416278 0.32269261892 0.32382016453 0.32455838357 0.32072129785 
0.32179035408 0.32266874681 0.31901906976 0.31986567089 0.32092584634 0.31772350965 0.31832842065 0.31939159605 0.31690128352 
0.3172445222 0.31824593678 0.31672231056 0.31666174842 0.31751063568 0.31716164611 0.31676323021 0.3173350883 0.3181647215 
0.31743493102 0.31768114205 0.31964041871 0.3187036167 0.31850625862 0.32138072229 0.32027373746 0.31968969109 0.32319667911 
0.32204023701 0.3210035268 0.32481163586 0.32386826372 0.32232399201 0.32607891308 0.325299355 0.32345314622 0.32674677876 
0.32638565366 0.32421310768 0.32662872284 0.32672836493 0.3244632146 0.32577207062 0.32631047025 0.32409401061 0.32408042289 
0.32510368995 0.32311218815 0.32154197697 0.32309027816 0.32146108604 0.31852307059 0.32025830189 0.31921305902 0.31488837008 
0.31701713837 0.31644664925 0.31051889322 0.31309932543 0.31319160055 0.30626029673 0.30866295443 0.30958234272 0.30180514231 
0.30432546852 0.3058295174 0.29735770378 0.29998078641 0.30211406115 0.29327269889 0.29555226882 0.2985393768 0.28997124692 
0.29185972744 0.29541410618 0.28726287741 0.28883050447 0.29294690983 0.2851193858 0.28637248366 0.29099300188 0.28397382616 
0.28479698507 0.28983529279 0.28362754362 0.28403806796 0.28964587459 0.28430077426 0.28423152252 0.29038590438 0.28607383921 
0.28533466453 0.29211906692 0.28963004334 0.28804655976 0.29516664441 0.29543879308 0.29257126392 0.300177246 0.30586723806 
0.30051092172 0.30822513059 0.32410472316 0.31468738854 0.32195271815 0.35726708007 0.33964793817 0.34407608214 0.41623674336 
0.37855266164 0.38586374708 0.41030996962 0.32648537287 0.35942122736 0.30097669273 0.31272045246 0.33637299181 0.27200441164 
0.29047991276 0.32284247534 0.26451659572 0.27700109619 0.31555801004 0.26689605785 0.26793896228 0.31687079413 0.25540009107 
0.26466035557 0.33875688592 0.2508759065 0.25708094287 0.30509372423 0.24997445746 0.25510906502 0.30367021665 0.24992391457 
0.25368781331 0.30232569376 0.24971935882 0.25272227556 0.30065133349 0.24891849768 0.25189556438 0.2996518968 0.2481564298 
0.24940693583 0.29891606816 0.24863002553 0.24950460278 0.29700047877 0.24846928976 0.24861041589 0.29657261917 0.24922752634 
0.24911666663 0.2957169233 0.25004626919 0.24886086732 0.29673656114 0.25200254626 0.2496220111 0.29727806573 0.25388718326 
0.25050540235 0.29879002585 0.25658548037 0.25157505868 0.30028452688 0.25872151238 0.25310044305 0.3018474987 0.2634563691 
0.2564391362 0.30474699027 0.26920122484 0.26026206838 0.31020140695 0.27712662098 0.26662437297 0.31667334369 0.29082686227 
0.2764284178 0.32717090285 0.31222593423 0.29279360291 0.34186038261 0.3473718359 0.31708395922 0.368777905 0.43426467712 
0.60557568304 0.63927971173 0.40371139276 0.31082752829 0.27431024782 0.24239122265 0.3201022306 0.21885230533 0.21448665443 
0.26092891062 0.20386211663 0.20397255872 0.23229076287 0.19872175357 0.19962447237 0.21850455898 0.1976414597 0.19835058502 
0.21245040723 0.19750803052 0.19778037665 0.21012361334 0.19804065861 0.19797373696 0.20956488887 0.19914910825 0.19880493492 
0.21119941458 0.20079765604 0.20041266181 0.21455001954 0.20521849077 0.20627355038 0.22083612565 0.21774379617 0.22367098261 
0.2358353645 0.24810467316 0.27294790773 0.26712442203 0.32001013641 0.39435744904 0.32903336131 0.6010294384 0.62886006878 
0.37695179645 0.30933530387 0.26399440559 0.24078428974 0.31547606057 0.21902296641 0.21446746531 0.25956896461 0.20523078025 
0.20490422816 0.23330784117 0.19996389831 0.20050665195 0.22019695817 0.19829482016 0.19870728764 0.21356127338 0.19782589927 
0.19787995068 0.21058224933 0.19787420974 0.1975624647 0.20969512864 0.19811778106 0.19735932666 0.21017270649 0.20012244634 
0.19934175621 0.21290637337 0.20466374303 0.20498871918 0.21991191705 0.21542986822 0.22005731979 0.23344147639 0.24613050976 
0.2732004666 0.26249591355 0.3218883696 0.38798855218 0.31778973856 0.33334363833 0.42082380393 0.34287400355 0.52014344913 
0.44134283296 0.33328604199 0.33311652344 0.39038715983 0.36731603662 0.4683685211 0.55323553319 0.33828031259 0.50545681203 
0.34790958549 0.44585450556 0.54423750277 0.33311537116 0.34914296583 0.33265619868 0.33375771982 0.33345640525 0.33327935371 
0.33314552654 0.33294404857 0.33310253434 0.33549068933 0.33499482417 0.3364923676 0.33595665188 0.33546770722 0.33755753295 
0.33696267661 0.33646183965 0.33868754432 0.33811073972 0.33751531184 0.33986001844 0.33922065934 0.33863674054 0.34095645656 
0.3404086503 0.33976102097 0.34183542675 0.34141199625 0.34080163658 0.34250073484 0.34218569946 0.34166199451 0.34288069222 
0.34272189222 0.34224951003 0.34294791502 0.34297040434 0.34255741626 0.34268176732 0.34285975386 0.34254386792 0.34211976856 
0.3424452764 0.34220164169 0.34134160749 0.34176913869 0.34158013943 0.3403670955 0.34088902866 0.3407428454 0.33927906368 
0.33986903477 0.33975486058 0.33814651586 0.33873541402 0.33869703716 0.33703973898 0.33760697016 0.33757332367 0.33594195385 
0.33651824053 0.33647282442 0.33506706896 0.33551922415 0.33548912222 0.33424329445 0.33465309085 0.33459945635 0.33363195051 
0.33392775662 0.33384965336 0.33323823718 0.33341957697 0.3332978781 0.32686138565 0.33533812122 0.3322243935 0.33264805592 
0.53154572413 0.42372824444 0.34324292359 0.35641969824 0.34147516609 0.36260573568 0.38680389005 0.36249437414 0.35728596175 
0.31566641218 0.32064683482 0.32884620632 0.30820969347 0.31146133333 0.31990802638 0.30306527871 0.30522094856 0.31321732568 
0.29978583767 0.30112213769 0.30852522651 0.29792265573 0.29834708118 0.30519714971 0.29704811637 0.29711968686 0.30312164401 
0.29698161659 0.29650584069 0.30185075428 0.29771532343 0.29682592164 0.30120300477 0.29906748098 0.29797067255 0.30134726103 
0.30100145872 0.29969612478 0.30224789403 0.30355571313 0.30192763186 0.30379167073 0.30630583978 0.30459176847 0.30573846971 
0.30911039287 0.30746275563 0.30791639151 0.31187960939 0.310259308 0.31017242834 0.31440139391 0.31297270307 0.31232882212 
0.31677070284 0.31540973425 0.31432557814 0.31874903359 0.31766411891 0.31610732836 0.32023441468 0.31947593599 0.31760796964 
0.32125772835 0.32073771452 0.3187297625 0.32178764309 0.32158243339 0.3194606704 0.32191372452 0.3219707929 0.31987878516 
0.32167704317 0.32195222036 0.32002766366 0.32120139359 0.32160840968 0.31994701681 0.32040994666 0.32096728611 0.31961499408 
0.31953215292 0.32008731958 0.31904426809 0.31866791627 0.31919233053 0.31838770075 0.31804552953 0.31843934164 0.31786143166 
0.31774576693 0.31794351189 0.31759249856 0.31786042214 0.31783213639 0.3176458168 0.31841831065 0.31813303321 0.31808239969 
0.3193957788 0.31889621148 0.31891938309 0.32072084685 0.32003068093 0.32012147275 0.3223072533 0.32146870704 0.32157863394 
0.32406583147 0.32316625783 0.32323518408 0.32590388326 0.32494347457 0.32500171651 0.32765301552 0.32673873937 0.32672532383 
0.3293652555 0.32849342101 0.3284006782 0.33088988742 0.33012129803 0.33000971338 0.33211018242 0.33150835181 0.33141387279 
0.32197532424 0.30322548376 0.45881855793 0.52215678257 0.33290445365 0.32058271015 0.33110629711 0.33175684605 0.33189570908 
0.32970303895 0.33050450688 0.33080481647 0.32806402042 0.32895316014 0.32941116683 0.32625247229 0.32727635964 0.327817085 
0.32438964592 0.32537770425 0.32609947035 0.32266551026 0.32356909363 0.32434750409 0.3209957494 0.32183383873 0.32265662661 
0.31953783799 0.3202187328 0.32101274255 0.31846532102 0.31894153016 0.31960837203 0.31778436916 0.31802757102 0.31849063147 
0.31758808592 0.31752443981 0.31778503483 0.31784844034 0.31753638141 0.31750313247 0.31852345592 0.31797332986 0.31763601894 
0.31943481779 0.31877751536 0.31810698352 0.32042756788 0.3197508867 0.31878385173 0.32141016156 0.32074891517 0.3195229765 
0.32213504871 0.32165366609 0.32017819166 0.32254587954 0.32226396484 0.32062320304 0.32247105652 0.3225214968 0.32076845254 
0.3219274285 0.32224806502 0.32055488685 0.32087569839 0.32154547347 0.31996413081 0.31926441935 0.32025262988 0.31897121869 
0.31717232776 0.3184439262 0.31751119945 0.3146781167 0.31618202373 0.3156719837 0.31180457307 0.3135834889 0.31352916195 
0.30871512991 0.310566485 0.3111061308 0.30552761481 0.3074458112 0.30850573136 0.30257146936 0.30438453497 0.30597525435 
0.29976661318 0.30152035161 0.30370190542 0.29745451219 0.29884131251 0.30164777301 0.29581380451 0.29691986163 0.30010021341 
0.2947013748 0.29553810951 0.29922449677 0.29467413476 0.29492864321 0.29910537033 0.29535894972 0.29525472207 0.29992524602 
0.29688247406 0.29623374768 0.30123260409 0.29931027103 0.29823799322 0.30338663677 0.30345913084 0.30138370922 0.30654106148 
0.30930855781 0.30621744121 0.31119681738 0.31903202167 0.31378198751 0.31805141401 0.33389781652 0.32533289077 0.32832564217 
0.35875798108 0.34271258206 0.34302192619 0.38689739047 0.36569947449 0.35973094409 0.35648404862 0.30754479359 0.31436699724 
0.32321608283 0.33352027468 0.32828797451 0.33255408218 0.34855693492 0.30116412369 0.30409861873 0.3121019932 0.29634065159 
0.29546185234 0.30358884786 0.29505001888 0.29347389981 0.29756944255 0.29257480732 0.29119866984 0.29632880883 0.29058417756 
0.28980848976 0.29418074825 0.28928887389 0.28842223477 0.29256353845 0.28893090632 0.28772901939 0.29207855689 0.28794766984 
0.28753248727 0.29145293888 0.28702163675 0.28698638167 0.29125356538 0.28648263119 0.28658362673 0.29078764567 0.28662095096 
0.28655171682 0.29087988526 0.28649260789 0.28755241417 0.29096177776 0.28688224106 0.28854282178 0.2913863359 0.28797409859 
0.28961697498 0.29204910969 0.2883757722 0.29099486102 0.29287760823 0.29023725185 0.29286434089 0.29433388143 0.29374826626 
0.2958308335 0.29694765259 0.29861117271 0.30078277018 0.30099357426 0.30573722151 0.30789954357 0.30736916559 0.31651620148 
0.31731642862 0.3165353177 0.33382621084 0.3316218784 0.33042482126 0.34120699435 0.32121068973 0.32052014831 0.35104094503 
0.44839819625 0.53701283481 0.28661916731 0.26823355061 0.30198492465 0.25533119533 0.24611112247 0.27666988255 0.2378510074 
0.23291338172 0.25743521569 0.22761903388 0.22580902747 0.2446687188 0.22352891795 0.2226798276 0.2375587565 0.22196776393 
0.22245564502 0.2348442424 0.22351689572 0.22494619085 0.23553978639 0.22757078966 0.22983786586 0.23930955282 0.23574567176 
0.24052837417 0.24731362556 0.2503142657 0.26061037996 0.26239880897 0.27379422575 0.29134134428 0.28183244611 0.30869151901 
0.32805018385 0.31333741761 0.30698693976 0.28449572811 0.26748706762 0.25485355122 0.24622365253 0.2764705605 0.2390749206 
0.23379697135 0.2579207547 0.22914377063 0.2266736485 0.24598454155 0.22453347181 0.22346398083 0.23906349064 0.22269543384 
0.22264692139 0.2360053729 0.22324839679 0.22389465913 0.23568633703 0.22657724877 0.22915442599 0.23889423841 0.23385712492 
0.23898410882 0.24601225049 0.24737009099 0.25673570247 0.2583600893 0.27003527525 0.28910176447 0.27804768608 0.30330002315 
0.32570470565 0.30101656741 0.50750256692 0.42660997537 0.4413801713 0.33454480913 0.3341375709 0.33364977165 0.33450755476 
0.32558415971 0.30016365709 0.3112283024 0.32204511122 0.3556307464 0.35220211095 0.33313501023 0.33271699026 0.33298891522 
0.41811887586 0.36679806012 0.38785027414 0.41383364466 0.33250062974 0.30788857575 0.30072738302 0.34222907891 0.33440836348 
0.31728805878 0.33917627631 0.37352952364 0.41060109071 0.35715235291 0.35238361153 0.36241339889 0.33108685248 0.33816208112 
0.45014270637 0.39941221547 0.31097699794 0.42658733074 0.38660868324 0.33743169814 0.33683386827 0.33525278293 0.33474832629 
0.33864446175 0.33805610404 0.33741460791 0.33988073394 0.33927721345 0.33873900174 0.34095151437 0.34044838064 0.34003133541 
0.34181439861 0.34143010789 0.3411676591 0.34238947156 0.34215243549 0.34204048861 0.34264629547 0.34256863286 0.34258003784 
0.34254858163 0.34264920384 0.34275977614 0.34209560352 0.34236120654 0.34255221858 0.34133858535 0.34173291023 0.34195745651 
0.34037209111 0.34087095108 0.34106392281 0.33928092629 0.33982743879 0.33996544179 0.33808148965 0.33867404522 0.33873977536 
0.33688082684 0.33747143249 0.33747043485 0.33576653283 0.3363326909 0.33623994254 0.33476857517 0.33524779921 0.33510212605 
0.33389391547 0.33432916092 0.33408391041 0.33319538804 0.33353373556 0.33323497823 0.33276235119 0.33297641554 0.33263588574 
0.33237600576 0.38133313034 0.42136893316 0.32167945974 0.32521128687 0.30675262488 0.31111000109 0.38452918226 0.42580450948 
0.32819269393 0.33329875644 0.32772418132 0.34377942667 0.33264937334 0.31280488233 0.31463389366 0.30971596949 0.31098151901 
0.31632066369 0.30742186331 0.3081701197 0.31327839087 0.3058292235 0.30633990892 0.31084209888 0.30490558859 0.30504414688 
0.30906610603 0.30466952934 0.30441450315 0.30783531167 0.30512084161 0.30452346739 0.30721937574 0.3061835062 0.30529476667 
0.30726072342 0.30765471875 0.30663717737 0.30792362234 0.30941348486 0.30829594158 0.30905250717 0.31116764154 0.31006878722 
0.31036660685 0.31282704714 0.31181255981 0.31167964075 0.31430363403 0.31338695932 0.312874038 0.31561179288 0.31481776491 
0.31391032658 0.31661222752 0.31598544634 0.31474259727 0.31736255715 0.31694047597 0.3153698259 0.31788881121 0.31763352338 
0.31590556108 0.3182240307 0.31809562165 0.31633514218 0.31833425221 0.3183339236 0.31662390046 0.31828965454 0.31838612665 
0.31676659241 0.31804619987 0.31828811102 0.3167672717 0.31760761924 0.31792412018 0.3166167409 0.31712952944 0.31744159216 
0.31630621264 0.31686864416 0.31704930963 0.31605692733 0.31686760959 0.31690780088 0.31601376147 0.3172156476 0.31706148428 
0.31627257451 0.31798522455 0.3176432236 0.3169569877 0.31916664225 0.31862136939 0.3180979472 0.32062610182 0.31993502715 
0.31957707659 0.32229578283 0.321508071 0.3212854537 0.32413634877 0.32325202425 0.32317117625 0.32597484649 0.32508176507 
0.32510724075 0.32763438881 0.32680123261 0.32691559864 0.32928503642 0.32843977219 0.32856582019 0.33082031152 0.33003833002 
0.33014007934 0.33224922904 0.33161559979 0.33171614923 0.31243846584 0.30935732002 0.33189467304 0.32776204868 0.32860419303 
0.32600279339 0.32692514784 0.32772049912 0.32435837951 0.3252104031 0.32601903822 0.32262214357 0.3234690564 0.32430852005 
0.32090229514 0.32170747332 0.32247245912 0.31942500609 0.32005600138 0.320652459 0.31829763793 0.31877160404 0.31908366586 
0.31751398894 0.31775429401 0.31786577809 0.31715543798 0.31715943536 0.31697909492 0.31716174987 0.31696839916 0.31651055068 
0.3175220261 0.31717012778 0.31643155092 0.31803895868 0.31762572249 0.31666707698 0.31857020244 0.31816700132 0.31703709159 
0.31896389607 0.3186502878 0.31736561006 0.31914038335 0.31896399261 0.31753335 0.31914346908 0.31913965034 0.31760832574 
0.31876817956 0.31897339549 0.31748223851 0.31816364821 0.31854529576 0.31712257745 0.31721203479 0.31783529421 0.31658214702 
0.31595768307 0.31680201011 0.31584059453 0.31434558099 0.31538251879 0.3148226648 0.31250290799 0.31367115617 0.31350260571 
0.31052708483 0.3118224269 0.31204856545 0.30836964661 0.30971260665 0.31046786515 0.30640894647 0.30760593789 0.30868648846 
0.3048627435 0.30598141483 0.30744418 0.30343915796 0.30444104786 0.30648518324 0.30253205996 0.3031302263 0.30563322716 
0.30238602206 0.30267252182 0.30535909842 0.30326190404 0.30305956497 0.30613001339 0.30462992035 0.30405328288 0.30759159868 
0.30649732144 0.30569734009 0.30925963822 0.30889703132 0.30767886193 0.3114115143 0.31272927997 0.31058971464 0.31421994816 
0.31757026834 0.31492788506 0.31772461139 0.32474826777 0.32047210071 0.32266122792 0.33402204126 0.32832632372 0.32863892588 
0.34655367687 0.33742764476 0.33637951959 0.34555868987 0.30624691662 0.30902701932 0.31251274128 0.31833178563 0.31453919996 
0.30881417476 0.30601126975 0.31758611779 0.33670281186 0.31873866965 0.34026296322 0.30241000799 0.30428249263 0.30957590638 
0.30069743999 0.30195302252 0.30718163258 0.29866342036 0.29958010889 0.30520463568 0.29722010741 0.2978193181 0.30314289608 
0.29676185646 0.29693769545 0.30186924867 0.29654923203 0.29690438496 0.3016453533 0.29618778694 0.29649713377 0.30161383271 
0.29567363443 0.29593695313 0.30117866151 0.295851268 0.29570962883 0.30084837432 0.29612762239 0.29608289973 0.30107012451 
0.29671428928 0.2963440784 0.30152765262 0.29740246118 0.2969067116 0.3019520495 0.29787438967 0.29756628129 0.30233293843 
0.29955520638 0.29855584984 0.30320769441 0.30263926776 0.30090219778 0.30522021762 0.30707472887 0.30457498986 0.30860959123 
0.31386685577 0.30986914888 0.31367265018 0.32332878334 0.31793904563 0.32047580064 0.33746409647 0.32877511256 0.33043568393 
0.30786407026 0.29721924816 0.30710638404 0.33104567391 0.31249206318 0.3086223989 0.31665097458 0.319205817 0.32353896352 
0.31968694602 0.33600139304 0.34276361721 0.44576170161 0.44490458877 0.29038984643 0.27969394921 0.27338946682 0.26640887084 
0.28596349488 0.26089069839 0.255800025 0.27468497553 0.25180910385 0.24944558249 0.26610009771 0.24758495625 0.24698866415 
0.26027680653 0.24739818978 0.24838654028 0.2588427112 0.25071682883 0.25311412128 0.26101606075 0.25782090983 0.26340516243 
0.26754484146 0.27061674824 0.27870172664 0.27843697104 0.2866409317 0.29508995308 0.29126203019 0.29067460716 0.28012389682 
0.2988678896 0.40849736511 0.36890774785 0.27363056801 0.26627660897 0.28604914388 0.2613904291 0.25641432648 0.27479264596 
0.25349873362 0.25103801606 0.2670697505 0.249309546 0.24828266116 0.26223536601 0.24835609165 0.24874878196 0.26031845092 
0.2507483913 0.25320495626 0.26190529288 0.25697415384 0.26117459387 0.26689730316 0.26715737793 0.2742093258 0.27544601201 
0.2813385974 0.29152629912 0.28679232512 0.29706668809 0.30630787096 0.29744797233 0.43880581242 0.43216907501 0.4055364554 
0.33628410749 0.33574925009 0.33506783783 0.33618467999 0.32932490925 0.33012392734 0.32933572714 0.30640250963 0.29564477179 
0.2969248267 0.33990341811 0.33073392282 0.33074764662 0.33138613548 0.33414016427 0.33438765716 0.3338986986 0.34979449266 
0.36738254347 0.33071973636 0.33274182089 0.30352279572 0.31075698139 0.40861551298 0.31231776676 0.31111821214 0.31346217459 
0.33190052471 0.3493142527 0.32915276498 0.32512731233 0.33370928027 0.31372062958 0.33363703754 0.35505580579 0.33289724734 
0.35895200913 0.34176858757 0.33540997495 0.32516145297 0.372468521 0.41561093236 0.30136460817 0.31129839528 0.30793333796 
0.30257430158 0.39627230455 0.38700000301 0.37047321855 0.35329232614 0.30275204885 0.3238864252 0.33735140467 0.33664016516 
0.34170004205 0.34113840214 0.34261524366 0.34223275544 0.3423112074 0.34317210745 0.34297528994 0.34328121466 0.34331333388 
0.34332539689 0.34378934382 0.34295636776 0.34317665532 0.34384942258 0.34218016585 0.34260172509 0.34328964478 0.34102555107 
0.34158254639 0.34225887927 0.33968953098 0.34034226468 0.34084298269 0.33820712724 0.3389036709 0.33924238989 0.33671740409 
0.33741185245 0.33754238816 0.33536725986 0.33599490276 0.33593688707 0.3341620929 0.33474540843 0.33449696063 0.33311969674 
0.33361440603 0.33325083377 0.33233695757 0.33271304428 0.33224312656 0.33211007591 0.30193749552 0.29674972507 0.30271405647 
0.3048232909 0.32437724303 0.32530545533 0.31417050372 0.31513461665 0.31629828503 0.31763021807 0.31909711113 0.31889070316 
0.32035088538 0.32120738907 0.31212912546 0.31286507662 0.3167468968 0.31056923934 0.3110540055 0.31443291127 0.30951720967 
0.30967692623 0.31249940178 0.30915494287 0.30899701888 0.31106221969 0.30940496848 0.30895474416 0.31039356785 0.31017313294 
0.30953180834 0.31035428979 0.31111657391 0.31043700766 0.31078921361 0.31205092229 0.31138922574 0.31138709972 0.31282408882 
0.31225397193 0.31188927333 0.31336569161 0.31286634923 0.31216799162 0.313695011 0.31333756215 0.31218357332 0.31400306522 
0.31368781329 0.31215686591 0.31427943099 0.31400510518 0.31218781087 0.3145985606 0.31437957542 0.31236265178 0.31483916161 
0.31476496312 0.31271264409 0.31500375419 0.31499175804 0.31302691966 0.31508769148 0.31510667999 0.31326042933 0.31498432792 
0.31512667856 0.31341487529 0.31488673706 0.31504636128 0.31353170156 0.31472794531 0.3148054684 0.31349082575 0.31486443246 
0.31480142789 0.31349370801 0.31542325085 0.31520143975 0.31390081088 0.31649730399 0.31603108988 0.31488968485 0.31806075702 
0.31737653107 0.31641506476 0.31994226811 0.31912998356 0.31842098394 0.32195970433 0.32102348342 0.32062529078 0.32413106844 
0.32311924954 0.32295464835 0.32625817456 0.32526492027 0.32531223206 0.32801853099 0.32715263999 0.32740599666 0.32966989503 
0.32883646464 0.32917111974 0.33117257039 0.33038395421 0.33073984373 0.33261297672 0.331805685 0.33210621277 0.30912541753 
0.30480394815 0.35722999989 0.37888945591 0.30953244815 0.310659176 0.30415373093 0.30273712794 0.30260522896 0.3044713198 
0.39453000247 0.40760335852 0.33330634602 0.32493951989 0.31308590279 0.32619068683 0.32703197276 0.32633353894 0.3278870187 
0.32878884777 0.32812015199 0.32237563945 0.32333767974 0.32434300103 0.32034714114 0.32126245516 0.3221058907 0.31866062221 
0.31935600567 0.31991906463 0.31728831179 0.31784657818 0.31803644531 0.31629610956 0.31662165235 0.31649777448 0.31567371495 
0.31578286631 0.31533684823 0.31554780343 0.31542572993 0.31466568956 0.31570159491 0.31547261995 0.31446175027 0.31594001213 
0.31568833328 0.31451442967 0.31607745959 0.3159308965 0.31460136029 0.31610527034 0.31600792397 0.31461274921 0.31604946959 
0.31600251546 0.31451705754 0.31577096477 0.31590641493 0.31428703471 0.31546926508 0.31567136904 0.31411020334 0.31500280886 
0.31535382929 0.3139324042 0.3144800595 0.31490465181 0.31366109243 0.31370070945 0.31433067002 0.31342843521 0.31260571072 
0.31337407779 0.3128720898 0.31156927417 0.31230444825 0.31217827144 0.3102550721 0.31109445657 0.31144773575 0.30904719252 
0.3098168408 0.31043405612 0.30844688208 0.30895271467 0.30979689071 0.30788024844 0.30835259847 0.30958548708 0.3075152553 
0.30791931803 0.30951696091 0.30802987115 0.30793659563 0.3097976114 0.30965509015 0.30898425604 0.31120753515 0.31156857082 
0.31075515673 0.31322985917 0.31356668738 0.31263332962 0.31532203028 0.31568143458 0.31461661154 0.31730809534 0.3184284721 
0.3167129075 0.31937452836 0.3220107308 0.31975400893 0.32162234728 0.32569495425 0.32316005926 0.32407263439 0.33032666462 
0.32704577464 0.3262303913 0.33159531041 0.33093311433 0.33159708304 0.32519741735 0.31722003384 0.31649082908 0.31962158495 
0.31200055298 0.31275648078 0.3161663508 0.309323247 0.31380776114 0.31857881512 0.33246755146 0.32799542867 0.32821783558 
0.32478701037 0.36657346696 0.34694805341 0.31211558427 0.3139047942 0.31910905758 0.3168479326 0.30761810227 0.30846789398 
0.31393318177 0.30600511956 0.30632634568 0.31164950117 0.30718562391 0.30702224759 0.31156022115 0.30739561178 0.30749691735 
0.31299034988 0.30652880832 0.30685765979 0.31280247524 0.3060788545 0.30610631137 0.31187325152 0.30666954824 0.3064635831 
0.31180304187 0.30733137091 0.30714261372 0.3126645949 0.30753173585 0.30736406366 0.31312100123 0.30762046502 0.30749460448 
0.31305727033 0.30840447374 0.30773819597 0.3129751146 0.31042997083 0.30910901388 0.31355944879 0.31389018928 0.31199554142 
0.31570363652 0.31849520832 0.3157724743 0.31886874194 0.30869507513 0.30629304002 0.32586171568 0.34043584536 0.33975751826 
0.34094784198 0.31306143617 0.30919339893 0.30896063073 0.31282209785 0.30603285935 0.31169152892 0.31246893908 0.32953126508 
0.33031336619 0.32976875668 0.33892771829 0.33818965498 0.337493843 0.33928917758 0.39737498882 0.38363503948 0.36752455195 
0.2865464871 0.28189244483 0.27813777444 0.27458289821 0.28874071906 0.2718736357 0.2703886686 0.28260112132 0.26947445143 
0.26953351535 0.27986135287 0.27016032886 0.2722440983 0.27939188342 0.27537082124 0.27950633275 0.28295276615 0.28399678686 
0.29011760319 0.29003076012 0.29489253029 0.30037418764 0.2986437134 0.30457286328 0.29868753712 0.30627386248 0.28564034737 
0.28084727656 0.27812269131 0.27509170884 0.28754183908 0.27336475062 0.27141973875 0.28302817361 0.27105629925 0.27077704833 
0.2807211576 0.27192540288 0.27334270651 0.28109370046 0.27540848611 0.27828016158 0.28368258494 0.28150759012 0.28613171737 
0.28813860526 0.28979433468 0.29502099233 0.29407523773 0.29780861809 0.30230268766 0.29970662383 0.39193305104 0.40013558231 
0.3832964133 0.37461299657 0.4100313806 0.39828203252 0.29475715462 0.28939530796 0.29454241684 0.29955230656 0.29537087508 
0.28923566562 0.29384671051 0.30093016765 0.32849324532 0.33364826982 0.33325448186 0.31819709576 0.33048719342 0.32564727898 
0.32473515442 0.30292573462 0.37667513252 0.37867488536 0.33117485054 0.30491760553 0.3923929445 0.33466888992 0.33411593891 
0.3332243023 0.32317109123 0.32144411136 0.32301125272 0.31008873946 0.38169882633 0.31414625702 0.33310097101 0.33153585843 
0.32174888095 0.33058104858 0.32142112978 0.30866948257 0.30911263523 0.33581276413 0.33591553628 0.33529587144 0.32345754296 
0.3256824443 0.32486148654 0.32416789457 0.32839278811 0.34184961102 0.35053231459 0.32113241617 0.34122390249 0.32285120289 
0.30545167208 0.303878395 0.35781038341 0.34318427046 0.3366516805 0.35537178759 0.32780596195 0.33927734038 0.3496582648 
0.32204510073 0.32531109111 0.32443355593 0.34348639122 0.34283455862 0.34471616771 0.3448453467 0.34412775276 0.34458770418 
0.34565797817 0.34254849287 0.34325405749 0.34461294226 0.3409470985 0.34179546278 0.34275513516 0.33870994729 0.33968719443 
0.34062295029 0.33678270538 0.33767100789 0.33805440288 0.33488552527 0.33571970137 0.33574046985 0.33335588144 0.3340634167 
0.33380973912 0.33204447117 0.3326456262 0.3321728177 0.33158990464 0.30426834702 0.30528926893 0.31905951471 0.32011106391 
0.3174270364 0.31624172066 0.31908059102 0.32033449546 0.31387278119 0.31479581623 0.31199368061 0.31257386714 0.31460706582 
0.3111865831 0.31141996342 0.31262167156 0.31084532394 0.31073739211 0.31157774419 0.3110454182 0.31077889918 0.31101381425 
0.31127642707 0.3110116591 0.31089403494 0.31134369949 0.31116574838 0.31062486547 0.31099974572 0.31102616783 0.30998633145 
0.31046494981 0.31056112298 0.30902293618 0.3098718421 0.30994015 0.30785011421 0.30962074712 0.30969649933 0.30695603994 
0.30967135241 0.30961564523 0.3064393472 0.30992328743 0.30982935012 0.30645389532 0.31049696388 0.31043781468 0.30698538199 
0.31113386402 0.31111039858 0.30809747632 0.31153137256 0.31152367446 0.30908229481 0.31175342516 0.31172426588 0.30970638479 
0.31201541114 0.31211473511 0.31030247177 0.31175932435 0.31168998943 0.31014992816 0.31303651969 0.31265879414 0.31090330945 
0.31420052134 0.31353955048 0.31229612515 0.31636887333 0.3154083523 0.31415920682 0.3191164084 0.31794177602 0.31713174642 
0.32181054569 0.32058007286 0.32034211001 0.32417215128 0.32288409533 0.32314701854 0.32671904381 0.32549356825 0.32570851961 
0.32886583783 0.32790896793 0.32829514485 0.33061949368 0.32975401951 0.33039713992 0.3320326804 0.33128392498 0.33197339688 
0.33258292091 0.32295028603 0.30668951279 0.32213583723 0.32333754746 0.32670860103 0.32765627434 0.32033257447 0.31563755879 
0.32458669037 0.3257243883 0.327150068 0.32856098671 0.32945748013 0.32904619023 0.31947016577 0.32052619325 0.32181186054 
0.3172524583 0.31814110639 0.31879866773 0.31568798772 0.31640499619 0.31643012926 0.31424686535 0.31474183831 0.31460258687 
0.31344619048 0.31361824694 0.31300522704 0.31316119769 0.31310528312 0.31205930201 0.31321821102 0.31313931651 0.31179928235 
0.31315252178 0.31308737546 0.31169707699 0.3128148958 0.31275086753 0.31123415742 0.31245623388 0.3124914048 0.31055755487 
0.31222589102 0.31236241166 0.31020975446 0.31193331192 0.31202390254 0.30970944893 0.31171767481 0.31186672372 0.30958727076 
0.31196900168 0.31207282837 0.30979696593 0.31212127272 0.31231054551 0.31053188576 0.31209879543 0.3124596751 0.31122211672 
0.31141854084 0.31178595504 0.3111405127 0.31098107138 0.31132808227 0.31117247657 0.31052635768 0.3106271454 0.3103074374 
0.31040372954 0.31080514368 0.31074258049 0.31072011872 0.31133250468 0.311529852 0.31113966561 0.31223565523 0.31388818883 
0.31287073774 0.31390844333 0.31655004436 0.31548313763 0.316892621 0.31890838564 0.31791150071 0.31986151528 0.32086621851 
0.31991504273 0.32210208352 0.32230501243 0.32128433749 0.32349589778 0.32386649368 0.32246290892 0.32413942598 0.32490060435 
0.3240410527 0.32452222329 0.30884889545 0.31033623912 0.30517469881 0.30643844184 0.30627066741 0.30842669778 0.31389087123 
0.31785372402 0.31862058559 0.32266715156 0.34757549874 0.33593514657 0.37916965867 0.36887100372 0.31923751333 0.31878640749 
0.32361007898 0.31916908221 0.31964552608 0.32554502302 0.31693039271 0.31738690471 0.3242891842 0.31706959191 0.31670030787 
0.32221800116 0.3192911644 0.31887984599 0.32383168631 0.31876638077 0.3188593587 0.32513028843 0.31808211837 0.31821652178 
0.32394433637 0.31773581428 0.31783531852 0.32300334713 0.31757749706 0.31702232536 0.3216760141 0.31992532978 0.31868711417 
0.32163159956 0.32199935603 0.32059811769 0.32313728343 0.36709641766 0.37794385487 0.38442940609 0.38365459217 0.37184781084 
0.31745670827 0.32230823506 0.30648887823 0.30869123186 0.31127041268 0.30685914967 0.34181101687 0.34093675215 0.34298068774 
0.32142324611 0.32242571598 0.32356830079 0.2956846955 0.29300818096 0.33020761841 0.33099200182 0.29740149152 0.29426800813 
0.29039115203 0.28827644797 0.29872503292 0.29043663882 0.28982900055 0.29699196713 0.2864366863 0.28682018862 0.29591367667 
0.28852836886 0.29149739349 0.29452328977 0.29395312609 0.29799993229 0.29849895113 0.30089712553 0.30466571746 0.30395443065 
0.30845472506 0.30654970689 0.31637399708 0.31743683159 0.32090297168 0.31761409656 0.31115357836 0.31540015208 0.31122007678 
0.3214475791 0.31422465638 0.36939967872 0.35845357962 0.29183611882 0.28996109927 0.29861537512 0.28957432424 0.28888949351 
0.29689678049 0.28895011413 0.28959844898 0.29625203938 0.29052016061 0.29190682624 0.29681650903 0.29343133552 0.29593168173 
0.29892249819 0.2976262903 0.30028690733 0.30168221495 0.30161695616 0.30377647969 0.30599720116 0.34513554308 0.34494990725 
0.34605805242 0.34431733096 0.34392018157 0.34575214213 0.31995069567 0.34456571286 0.33360965037 0.3268628832 0.3429423344 
0.35567795725 0.35720181108 0.32351614115 0.32135393307 0.31455451985 0.31893366269 0.32779777576 0.33070856766 0.30977504641 
0.30431151732 0.30573628535 0.30482290183 0.30724134936 0.33438947388 0.32432116337 0.32510193243 0.33758504554 0.33657031627 
0.31591029217 0.31980794486 0.32774555342 0.32272741005 0.32380751004 0.32567564398 0.33317353929 0.3247918214 0.32377501191 
0.31854080896 0.32425279253 0.33550811496 0.33468885089 0.3355151926 0.32362703881 0.30077587959 0.29726229073 0.30161954647 
0.30491861125 0.30378014325 0.30585318104 0.31217838145 0.32496571243 0.34334897573 0.35544778615 0.35714289969 0.30786945729 
0.35034358977 0.37111762171 0.29867193177 0.30297002492 0.30109110933 0.30807585652 0.34063621713 0.33979765782 0.33882628343 
0.30581719091 0.30405571198 0.30201661953 0.30556325967 0.30233911149 0.30481183872 0.30771493989 0.34025617296 0.33054948048 
0.32760929052 0.37536979575 0.36447863646 0.32068361554 0.37747943676 0.36491068328 0.37440528499 0.3669097761 0.35619309808 
0.33790385503 0.33107000254 0.30975821404 0.3088480593 0.34001451382 0.34168716289 0.33601420242 0.33714277912 0.33803342129 
0.33471118059 0.79463419734 0.33233412643 0.33322724379 0.3332653412 0.34420667546 0.34500290366 0.34384202724 0.34470210858 
0.34339826313 0.33798842473 0.33384878498 0.3625105016 0.3656963848 0.31030005022 0.31033091651 0.30967261809 0.30979666291 
0.30819505104 0.30860638969 0.30614714992 0.30666021779 0.30404805214 0.30465772773 0.30242892967 0.30271584859 0.30191920362 
0.30202221065 0.30187995408 0.30180929936 0.30296674785 0.3025996762 0.30648598306 0.30621032077 0.30764993731 0.30752503798 
0.31408520221 0.31276007834 0.31878005551 0.31692384432 0.31589086413 0.32330034183 0.32143179025 0.32202051506 0.3259383173 
0.32471696682 0.32654744586 0.32745589484 0.33007165545 0.3287986629 0.32950331804 0.33235040317 0.3314188912 0.33222204278 
0.32581867107 0.3272336861 0.36254427449 0.35791185518 0.32392432427 0.31028806324 0.31076874364 0.3180262906 0.31941986364 
0.32210213577 0.32382736434 0.32164824133 0.31329908253 0.31309965113 0.3278976178 0.32889393942 0.32919910857 0.32991250411 
0.33085214457 0.31174414795 0.31248345356 0.30752534989 0.30769565172 0.31551935558 0.31405548084 0.31960338217 0.31797539799 
0.31799409113 0.32349487649 0.32209594164 0.32318710707 0.32545033566 0.32453218525 0.32685043779 0.32574127208 0.32530110747 
0.32761604711 0.32500876539 0.32505699836 0.3265211718 0.31044748503 0.30939486477 0.30471046788 0.3136640588 0.31169445483 
0.32457190549 0.31065185297 0.3334880261 0.33878143393 0.32514460076 0.35627351144 0.34757676637 0.34048332946 0.35286560544 
0.34540232529 0.34101085958 0.35169392207 0.32516361264 0.32502439863 0.31093802798 0.33013564277 0.33208727238 0.3081353255 
0.30960219333 0.32991866976 0.3281542474 0.34682062849 0.34643697857 0.34722512082 0.33134373089 0.33205839404 0.32812367127 
0.32890000579 0.33569368825 0.32702964728 0.32758378749 0.33206537911 0.32459112172 0.32555078735 0.32975082228 0.32021358367 
0.30835005091 0.30822611961 0.32710276505 0.3270793351 0.32690037053 0.32789798729 0.33033249595 0.33347155522 0.32220590058 
0.31693991575 0.31058899635 0.31167444522 0.36558273261 0.36162463718 0.31883681414 0.31585586642 0.312844736 0.30980608818 
0.3327238941 0.33204872725 0.33704366739 0.33868505792 0.34769484031 0.34614806539 0.89522363997 0.32053754336 0.34333562889 
0.34159720837 0.34018913904 0.32628245859 0.32901697975 0.3263412968 0.34785663403 0.34789265437 0.34850493665 0.32398889451 
0.32239061384 0.3241619436 0.32967262517 0.33144142725 0.32464446147 0.32492513643 0.36352934521 0.35709251747 0.3385216537 
0.33703259105 0.33932634811 0.31412097803 0.31778465101 0.30952023324 0.32938678987 0.33156818477 0.32654519688 0.31127825399 
0.3144111838 0.30423280033 0.32454469238 0.32691597192 0.32515968509 0.30859442524 0.30821889759 0.31071615331 0.31126921176 
0.332820532 0.32670037465 0.34836776143 0.34975191596 0.31033094275 0.33517107386 0.33394160035 0.31077911643 0.31031119374 
0.30879909094 0.31047266199 0.33076129419 0.31508733287 0.31603448133 0.31396908725 0.31025082596 0.31023494201 0.31017636916 
0.31033002261 0.31339838602 0.31226667529 0.30627136502 0.30640887316 0.30729245621 0.30735630296 0.3045923648 0.30483883091 
0.30845472824 0.30825868543 0.31012079418 0.30981888502 0.3518623859 0.32740133829 0.66344081643 0.79032376308 0.32987779569 
0.31111995091 0.31131830693 0.30523046193 0.33240424464 0.33651835642 0.33420253541 0.69511365126 0.8517149215 0.31571471381 
0.33187013385 0.87262781834 0.89037139478 0.3384237796 0.90441531167 0.91654887017 0.33542773659 0.77838163665 0.93193789514 
0.32902054099 0.30894129146 0.30672005374 0.30116799664 0.29806764153 0.30691976915 0.30881018272 0.29989849715 0.35641205061 
0.30737261638 0.30771386667 0.30892223871 0.36143343916 0.30113927283 0.30360690425 0.30498383574 0.30755916693 0.3339965491 
0.34210298138 0.30730036023 0.31007691858 0.34391024862 0.34995798261 0.35711902942 0.30741812396 0.33317544214 0.33926014058 
0.34939302873 0.35741088867 0.3280707672 0.32566555151 0.3541202072 0.35322951227 0.33842155702 0.33253046408 0.3075168739 
0.35279572236 0.33482748242 0.33184886014 0.32615963803 0.33405050159 0.33278617387 0.33629335239 0.35446197238 0.30452127463 
0.34495112287 0.34797009999 0.33393730899 0.34176325622 0.34285812879 0.30866209751 0.30725960087 0.3089622486 0.30303776692 
0.30172990536 0.78722165822 0.93774742847 0.3384058942 0.34384825525 0.32772343271 0.32985956775 0.32981703954 0.32440306336 
0.31866530692 0.32881925133 0.32512321718 0.33657827788 0.33746035109 0.33075582988 0.32707224106 0.33093449532 0.3323168132 
0.29945028346 0.34744979226 0.34740554269 0.35119580776 0.33939668959 0.34143998251 0.34736353981 0.35315837058 0.32065581992 
0.93769917057 0.78630423404 0.31663317844 0.93019900546 0.77638714459 0.34346712833 0.33833546314 0.33144582284 0.33372631901 
0.33847232821 0.33240133247 0.33149267097 0.35028079087 0.31290868561 0.34686632152 0.33017535928 0.33197741978 0.33370494617 
0.34073801211 0.76793216681 0.89940242985 0.33792081428 0.34335650881 0.34052352056 0.34874198472 0.33156292651 0.34785048569 
0.34601225233 0.34153781909 0.33951917908 0.33553118908 0.31488454749 0.88263553647 0.86190127665 0.33430473683 0.33189873714 
0.34481086446 0.83822717968 0.80775198143 0.65102660692 0.77235531679 0.33540829213 0.7812866937 0.75215635835 0.33343443849 
0.59577795593 0.47786792361 0.33358267986 0.33356895352 0.33336227808 0.33300697016 0.33246948011 0.33176568969 0.3309329124 
0.32999898684 0.32904683961 0.32780558628 0.32657212421 0.32539879502 0.32421944167 0.32305238409 0.32189930551 0.3207590411 
0.31966346158 0.31864989907 0.31779292902 0.31710854608 0.31649840913 0.31608493386 0.31576485936 0.31573749494 0.31583015426 
0.31616178119 0.31659565796 0.31721489964 0.31798187308 0.31889926384 0.31987071429 0.3209452085 0.3221035183 0.32337914191 
0.32458516502 0.32566568034 0.32664363975 0.3275400772 0.32834180876 0.32882229325 0.32920069112 0.3293495215 0.32926796794 
0.32888835412 0.3283399977 0.3275485754 0.32650341819 0.32533036335 0.32375482898 0.32193635341 0.32016023746 0.31812892566 
0.31594815049 0.31340448257 0.31074118995 0.30821315329 0.30574926863 0.30282017765 0.30023606882 0.29783244551 0.29513308662 
0.29257922351 0.29023303799 0.28817037631 0.28622127808 0.28440503262 0.28279813196 0.28146831349 0.28015015783 0.27902576139 
0.27816007917 0.27755923927 0.27709427302 0.276985279 0.27700696714 0.27745487892 0.27812509755 0.27933359614 0.28077573899 
0.28322265763 0.28596689072 0.29006111652 0.2952721313 0.30255869118 0.31139476449 0.32593354123 0.34786403159 0.38468881126 
0.56193950534 0.33346173453 0.33352441257 0.52649143156 0.37764679417 0.33939830241 0.32231167092 0.31063272335 0.30221241699 
0.2951330899 0.28986866521 0.28558159216 0.2830122423 0.28068944264 0.2792501036 0.27808941507 0.27756411223 0.27722928074 
0.27730728594 0.27754082842 0.27810332611 0.27883357254 0.27989782507 0.28099080003 0.28240730888 0.28393616333 0.28566748633 
0.28744388986 0.28932933045 0.29161723645 0.29392582923 0.29629001054 0.29878040506 0.30165381542 0.30423428831 0.30692092196 
0.30934872763 0.31206140704 0.31455019454 0.31673053521 0.31894990397 0.3211076204 0.32294782133 0.32453487016 0.32594429577 
0.32709787781 0.32801019346 0.32876697595 0.32925707102 0.32950267951 0.32952337805 0.32936276244 0.32898129823 0.32837175986 
0.32765359121 0.32677146791 0.32567921697 0.3245810753 0.32349051128 0.32237114956 0.3212826971 0.32016513751 0.31915879779 
0.31830709539 0.31756329363 0.31691966115 0.31647928771 0.31614680132 0.31604439697 0.3160838131 0.31634406277 0.31668638841 
0.31730563873 0.31800394395 0.31879319202 0.31973252959 0.32084103481 0.32196054357 0.32308896298 0.32423994491 0.3253985101 
0.32660869444 0.32777572109 0.32891160675 0.32998705023 0.33091911822 0.33170228507 0.33247643286 0.33301008315 0.33341758154 
0.33357197733 0.33324210649 0.33330947209 0.33320973011 0.33321179121 0.33323521239 0.33330828357 0.33346972759 0.33378312692 
0.33410748108 0.33453256515 0.33502038403 0.33553401122 0.33610085445 0.3367051446 0.33739945506 0.33810519308 0.33881004335 
0.33954394359 0.34025817758 0.34096365126 0.34176068198 0.34297284762 0.34357606355 0.34412184809 0.3445301655 0.34487195883 
0.34505109871 0.34521748065 0.34527219859 0.34521268197 0.34505398937 0.34481386228 0.34447937672 0.34408024173 0.34357031032 
0.34303261771 0.34240592623 0.3417481055 0.34104769954 0.34030894074 0.33947290058 0.33875869301 0.33807612175 0.33736705785 
0.33667541716 0.33606631428 0.33548629806 0.33494022275 0.33446232106 0.33405829271 0.33372452736 0.33343543495 0.33331911813 
0.33319661792 0.34239372061 1.075952124 1.2215877954 1.3100405118 1.4145764324 1.4778443875 1.5315742951 1.5692383642 
1.6031765826 1.6291906936 1.6542272978 1.6665540881 1.6797841546 1.683331908 1.6894975804 1.6826936899 1.6798964585 
1.6648491763 1.6293534596 1.6018981416 1.5644438593 1.5256660901 1.4684350927 1.3919302578 1.3257203775 1.0578244801 
0.93916201155 1.6530225849 0.90074611869 1.0523544086 1.3980376264 1.3043014254 1.5201235976 1.4672484463 1.5943038457 
1.5596734778 1.6467317941 1.6203416069 1.6755985274 1.6613556461 1.688200029 1.6811959995 1.6841024359 1.6855070255 
1.6619749532 1.6719315773 1.6152879572 1.6388073179 1.543843721 1.5799542242 1.4285528707 1.4934294715 1.244133085 
1.3508175182 1.1257339326 0.69417393583 1.6893396491 1.6888529675 1.491171509 1.6065534352 1.6397218373 1.5995079693 
1.6265069532 1.6595119093 1.6493851301 1.4744775978 1.684891732 1.5674599347 1.1596223927 1.295092973 1.665920089 
0.98135914629 0.92826434455 1.6739544813 1.5784422109 1.5327048317 1.6773702064 1.683206713 1.4078758463 1.5271681642 
1.3363581921 1.4012799919 1.1551003704 0.31007727613 0.31469664138 0.31152917894 0.3437371903 0.34343889566 0.34308578508 
0.34280807196 0.31577571914 0.3153255902 0.31483238636 0.33869112303 0.33872942267 0.33927680431 0.33928863267 0.33937447285 
0.30988071865 0.31032723059 0.30852235065 0.30894632151 0.30734666319 0.21489264315 0.20456403533 0.33947139133 0.33991751718 
0.34009109355 0.34111055766 0.34146814598 0.34059580199 0.32229133734 0.32225363734 0.32108991299 0.35187558799 0.3494652838 
0.34935361205 0.34021003749 0.34080266439 0.31441428981 0.31563105661 0.31295051408 0.31431295823 0.35632419376 0.36899263837 
0.36639357056 0.38293956299 0.33980623446 0.33927608538 0.33991498373 0.3130460206 0.33988115515 0.33932599422 0.34039174959 
0.3379597844 0.34689445952 0.34427762449 0.31735367962 0.31897782446 0.31888005464 0.31683121008 0.31254260071 0.31425063252 
0.31007918222 0.33886245708 0.33820871404 0.33816532285 0.32449864943 0.3246631405 0.32525768291 0.32541846566 0.32305046604 
0.30981190014 0.30934681859 0.30891116498 0.30826282914 0.32492896008 0.32398407732 0.32404419804 0.29917311738 0.30203786398 
0.30093107805 0.30303120263 0.2920827492 0.29497735453 0.32817752411 0.32620666689 0.32812667592 0.32607286126 0.32779413753 
0.32699055193 0.32692439471 0.33264748136 0.33164709527 0.33428225559 0.33360972033 0.33528018188 0.33206785345 0.33048138512 
0.33678514296 0.33745705589 0.33670913933 0.33742677818 0.21971357281 0.21955534322 0.23241244501 0.32942562774 0.32512538549 
0.32582146872 0.32842477692 0.32903723619 0.33327871245 0.33328158628 0.33331285219 0.33327035883 0.33061012823 0.32827256352 
0.33416135022 0.33195373178 0.33828757603 0.33464399501 0.3412472916 0.33807246506 0.34200304478 0.34233544378 0.34215345295 
0.34253478597 0.31051374458 0.31047733093 0.30978654795 0.32642090662 0.32567894651 0.32396313172 0.31894055753 0.31734973447 
0.31238943466 0.31172838272 0.31283743767 0.31209670456 0.33462611211 0.33476751369 0.33503956908 0.319285443 0.31971125749 
0.31814063827 0.31025173427 0.31956409119 0.31858509928 0.31839534211 0.30937968962 0.30952830141 0.31033632431 0.32651699164 
0.32421409293 0.32441983898 0.31985476109 0.32010619591 0.31947069634 0.33545378622 0.33593082471 0.33590116583 0.31061085033 
0.312503681 0.312736123 0.31457512027 0.30354012593 0.30120579611 0.30266581016 0.32009839032 0.31935095251 0.32051708168 
0.34245405897 0.34185271046 0.3421955699 0.32181648535 0.32210683076 0.32127169116 0.32057883308 0.32127632375 0.31946431399 
0.32012892444 0.32066162597 0.31979785375 0.31996691576 0.31914935199 0.31432150224 0.31432407754 0.31536244573 0.33814744683 
0.33722087912 0.33678236729 0.23336738698 0.22381463895 0.24590254004 0.33177291272 0.33325321071 0.32932105422 0.33022328137 
0.32874072419 0.33625122826 0.31838456456 0.32578824223 0.29094581357 0.29842562894 0.29021778111 0.30363830563 0.30580275166 
0.30489170834 0.30709010171 0.31099806399 0.31080571356 0.32943648123 0.33018475108 0.32949463962 0.32437110807 0.32629973428 
0.32410348282 0.33092683164 0.33148399999 0.33154970379 0.33399122579 0.33458664974 0.3343734483 0.33496451778 0.31886521568 
0.31608775005 0.32042638916 0.31786357928 0.31758368517 0.31593807835 0.31761867078 0.30133429613 0.30687997963 0.30127815647 
0.33030226863 0.33088522218 0.3276955399 0.32829367605 0.32857505398 0.30867687415 0.30862759849 0.30916361522 0.29398656732 
0.2972994886 0.29303040288 0.34858852659 0.34934562217 0.33568148248 0.35670469934 0.3186430032 0.31839621339 0.31687046394 
0.30086840058 0.29630611663 0.3005600674 0.32018391787 0.32012931274 0.31953857787 0.31226896548 0.30723181591 0.31214903728 
0.29203693933 0.29247882869 0.29674529385 0.31912112768 0.31693975317 0.32162498039 0.31748569744 0.31759295957 0.31744141896 
0.31770043121 0.31479086706 0.31504176875 0.31605885704 0.31789157987 0.31638287781 0.31705852577 0.31586194132 0.31230330266 
0.31824337088 0.31191210604 0.32293691055 0.32432853734 0.31811074634 0.2958663867 0.3136229066 0.31382324812 0.31278416431 
0.31299182554 0.30756924436 0.30711385841 0.30843942481 0.32280454351 0.31800361515 0.31843122604 0.32427714128 0.31842761396 
0.31630913533 0.31993533226 0.32114254296 0.34012548674 0.33979124456 0.33927715773 0.32370297539 0.32368287068 0.32146470763 
0.28361918462 0.34446717659 0.34634809175 0.34328519698 0.30190286676 0.31440345494 0.31230701741 0.3123717825 0.28424789259 
0.29080794303 0.28386070927 0.31299698813 0.3240384069 0.3261331375 0.32360024161 0.31908190801 0.31865317412 0.31841693807 
0.29320212544 0.28515869588 0.29204910667 0.30180403591 0.30678541814 0.30485292448 0.27829769305 0.30146675727 0.2761958085 
0.32189087491 0.32577930878 0.32065056606 0.32534378547 0.30664025257 0.28787991535 0.30944916023 0.31436433483 0.31540024969 
0.29734796919 0.29608625542 0.29390201278 0.33143350744 0.33076315019 0.33167257172 0.31115030179 0.3112042737 0.31086463921 
0.31095258674 0.31082326941 0.31076588892 0.31123502088 0.31126668232 0.32665662169 0.32583039658 0.32581183393 0.30615915898 
0.30528498049 0.30371082407 0.30291365933 0.3010578495 0.29603400686 0.3228529176 0.32919348037 0.32918551092 0.32841740541 
0.32078705494 0.32141229527 0.32060681753 0.32420221918 0.32401004733 0.32462408395 0.32428690812 0.31651803445 0.31529641425 
0.31684603228 0.315092595 0.31855482865 0.32002211016 0.19688678315 0.20955573977 0.20940082691 0.27011270798 0.30949001829 
0.25219928141 0.3198217232 0.32293053594 0.32151508147 0.32598794464 0.32498923436 0.32723193446 0.31145349303 0.31236715075 
0.31142649384 0.35101343221 0.34986172194 0.34852038115 0.21454138361 0.20051821205 0.21676470576 0.32431514248 0.32370726375 
0.32848866987 0.31732061862 0.30248628522 0.28829599478 0.33433406576 0.33343980728 0.3372884611 0.32093005799 0.32354419959 
0.32305090536 0.50135834907 0.63711258464 0.30723675821 0.30773931826 0.3095053005 0.31747806829 0.31387967119 0.31799100708 
0.32282236566 0.3233384825 0.3246743106 0.30864728932 0.2940452932 0.31651908368 0.41993469169 0.39988379716 0.41940942128 
0.60872654453 0.63026201145 0.30894717067 0.30497965639 0.30927994172 0.32750532882 0.32843181219 0.32760510064 0.30986321581 
0.31047108434 0.32232484191 0.32318726919 0.3230743471 0.32396746295 0.21179227728 0.19797576289 0.32420214056 0.32138631235 
0.19884747811 0.32128764731 0.32357863867 0.3180888637 0.31780596536 0.31765218833 0.24771678269 0.25571222037 0.30762075371 
0.32489043471 0.32397653962 0.32486130433 0.31035134886 0.31033856396 0.30960514507 0.30988779145 0.33362530418 0.33329303006 
0.33344131592 0.20480594267 0.30639590145 0.31236789064 0.30651132576 0.29427555288 0.28553161193 0.29523212582 0.2867983975 
0.31696843761 0.31858909521 0.31980925898 0.31490092187 0.31619023275 0.31631883484 0.32140259892 0.32209129496 0.32062497675 
0.30482900019 0.23538118318 0.24788740734 0.23040186334 0.322534299 0.3205444094 0.32259904316 0.31700484973 0.31763485866 
0.31732617484 0.30883698775 0.31046267782 0.31105714441 0.32629444506 0.32762198537 0.32718903061 0.24934318951 0.30858735427 
0.3234485706 0.32367567054 0.32204518776 0.32212151446 0.32358566687 0.32108832147 0.31118055928 0.31097011497 0.32287860408 
0.29507563811 0.29675997272 0.28871491989 0.33624047274 0.33553528311 0.33570387247 0.33444931041 0.33405595347 0.33356284361 
0.31631222488 0.31539213028 0.31631711623 0.32223170342 0.32766841593 0.32809208501 0.33304585736 0.32547665816 0.33942912761 
0.33149994815 0.35554884768 0.31886732876 0.31943483296 0.34289221905 0.34248973983 0.34231915352 0.33079652543 0.34205959105 
0.3414213252 0.33703526711 0.33704655688 0.33651035493 0.34129946561 0.34210987222 0.34179060259 0.34164001573 0.34201495873 
0.3245597913 0.32265693877 0.29259436632 0.28532657081 0.29391382006 0.33872027802 0.33931736795 0.33812877589 0.33876374377 
0.31420953288 0.31376165729 0.31487824285 0.32161405881 0.33548970502 0.33549875321 0.33595174258 0.29485313873 0.30091673126 
0.2976291771 0.33387255597 0.33415974437 0.33454705298 0.31133705377 0.30996210126 0.31148547818 0.31349101733 0.31442115852 
0.31657718929 0.31736379409 0.30817572036 0.31020773934 0.31263386134 0.31417907703 0.31127501687 0.31311836433 0.33527903823 
0.33501321019 0.33498193423 0.31697067262 0.31455165779 0.31580140699 0.31628672952 0.31468625529 0.31516483736 0.25609017183 
0.26575015848 0.23684783545 0.24561590391 0.29188944175 0.29718145248 0.29827242197 0.30296254721 0.30383241509 0.31237969217 
0.31203351526 0.31174055941 0.31172494072 0.31074246744 0.31235584108 0.32389943124 0.31765425637 0.32206888781 0.32038015104 
0.32053831329 0.32201557684 0.31149475234 0.31328401337 0.3187882796 0.32954849453 0.32877824329 0.32829983254 0.32759920559 
0.31968051789 0.32070609139 0.31849631178 0.31896745458 0.3187179921 0.31952204391 0.31772727757 0.31794967966 0.31844775968 
0.32002064228 0.32576027668 0.32666251091 0.34672607128 0.33001155014 0.33019090342 0.32926717566 0.30158162917 0.30629040725 
0.29758953094 0.30304012968 0.32930792684 0.31029571866 0.31631708014 0.32677494892 0.30898067125 0.30677076418 0.29636550463 
0.29561105102 0.30075400032 0.32082124656 0.31985835254 0.32092562062 0.30292228078 0.30254935103 0.30148529672 0.31261113204 
0.30916960865 0.31489043545 0.32181226747 0.32183978859 0.31174771329 0.31309198831 0.31173017932 0.30642757874 0.30061169134 
0.30964319221 0.30417079905 0.31310555926 0.3076100599 0.32439211719 0.32354376283 0.32518961953 0.32432705578 0.30254120697 
0.29920373027 0.30543449739 0.30233949906 0.31837096848 0.31786510227 0.34402904935 0.31946466537 0.30186546561 0.28720261608 
0.3134967785 0.31335818159 0.31532258329 0.32358866788 0.3227312507 0.32272211083 0.31753818205 0.31887633537 0.31751740797 
0.31160036306 0.31167929364 0.31326162431 0.33186753646 0.33224651592 0.33277184466 0.33313733222 0.30674795057 0.30699519865 
0.30876244846 0.30615936964 0.30880230276 0.33506061529 0.33449702181 0.33574502511 0.33522031815 0.32080998382 0.32011283877 
0.30595894832 0.3070041392 0.3088649914 0.31878562073 0.31765769232 0.31853298025 0.31745844479 0.31646116231 0.3225661964 
0.32448593349 0.32076627144 0.32252549641 0.32615640139 0.32512358169 0.32518687358 0.31900169007 0.30179114288 0.29909597253 
0.30087301889 0.3194804797 0.32491067548 0.32499175687 0.32218899101 0.32403007158 0.32392016103 0.32538061315 0.3183415378 
0.31789480157 0.31789409683 0.31729367169 0.31256036234 0.33122599534 0.31747534316 0.31784893098 0.31917669879 0.29103483499 
0.29041849417 0.29681234228 0.31206934187 0.28892152262 0.28713242511 0.30622740841 0.29103615892 0.28750066661 0.21460005945 
0.19920680155 0.21920223818 0.31645422755 0.31592009362 0.31569314416 0.31157896202 0.32830769718 0.32729949135 0.32790108157 
0.32726326726 0.32822203497 0.33686776872 0.33620625036 0.3172437156 0.31609909164 0.31515897277 0.3193570392 0.31900054203 
0.31829031841 0.32324942338 0.3174257214 0.33646384232 0.33591602295 0.32180827733 0.32258824308 0.32169772538 0.30946470368 
0.32103033779 0.31279766833 0.30846245749 0.31260565197 0.30809970695 0.30574594607 0.3078296651 0.3061124829 0.32231401884 
0.30661617482 0.3103270777 0.30976273538 0.3109399345 0.31099177225 0.31080033052 0.30152990197 0.30696620697 0.30687393626 
0.31240305022 0.30338188954 0.30218797591 0.30025824896 0.30143315446 0.34200534883 0.341590648 0.34205339651 0.34099190156 
0.34036084833 0.34060547802 0.32346385904 0.32409769682 0.32040025174 0.31379902573 0.31535543721 0.31519937593 0.31695571991 
0.31952881884 0.31697205887 0.27248259258 0.26117346884 0.2638195268 0.34321874267 0.36128695617 0.33734078366 0.3430147755 
0.3329492929 0.33569110513 0.33960340593 0.31422699573 0.24783182559 0.23033913964 0.236017442 0.31825428654 0.32100676363 
0.33425278479 0.32779475851 0.33318077602 0.24919411963 0.23941063779 0.23677614229 0.31663147841 0.32122746696 0.3178948629 
0.32260416096 0.34546333389 0.34525181068 0.34436075749 0.32742894576 0.32475149436 0.33016759722 0.27639200359 0.26834465081 
0.33226971414 0.33234398418 0.33174007826 0.31669715659 0.31735102235 0.31703930479 0.32254794246 0.31917658657 0.3176461056 
0.23908230553 0.23698399475 0.22488994127 0.3268443456 0.32708183765 0.32585977619 0.32605212268 0.31574371338 0.31495710728 
0.26758051934 0.27211125346 0.2582158933 0.34280309108 0.19656654695 0.33169670537 0.34167873389 0.34140639913 0.28656024421 
0.29705328839 0.28174653122 0.29609643706 0.24135293936 0.22003887079 0.26241750766 0.31288151541 0.3117645392 0.31290434608 
0.31187982628 0.32299559879 0.32396975524 0.32149390121 0.27813621134 0.28319349769 0.20511381653 0.22795339795 0.22144372164 
0.32660043853 0.32543751894 0.33537829384 0.33599952971 0.29659931511 0.30191086668 0.33879567021 0.33811372389 0.33897969649 
0.33823590078 0.31981422543 0.3172356699 0.23138524804 0.21484035391 0.21957096549 0.19666429295 0.20968004093 0.33946610066 
0.31899949033 0.31875596814 0.31848629236 0.31709731073 0.31651377051 0.32498197922 0.32446566206 0.32538784409 0.32442122528 
0.32653144988 0.32770325402 0.2896591 0.29520274204 0.28635059583 0.32478283697 0.32963200212 0.33030992397 0.30933705612 
0.29884445991 0.30472400103 0.32761671869 0.33677312932 0.33672635301 0.33747433016 0.34139867043 0.34161867441 0.34098949299 
0.34041633896 0.34091668365 0.34404265081 0.31821582876 0.32524431567 0.32476380066 0.32733597259 0.33132374231 0.3048107964 
0.3043127657 0.32545543567 0.32581226019 0.32810477411 0.32399938445 0.31273165083 0.31190638161 0.31224040304 0.31142066828 
0.31273786286 0.31327799613 0.3132395009 0.29946742547 0.29474597751 0.30013391012 0.32367775131 0.29432409717 0.28797437131 
0.34182840358 0.36241408766 0.38710307652 0.31311397382 0.31425942161 0.31289394351 0.3128117589 0.3140315153 0.31415003397 
0.31969086166 0.32088761349 0.51145747795 0.43415833338 0.30203209331 0.2997543494 0.30407580851 0.32217444428 0.32246068937 
0.31295975906 0.32756460813 0.31143891447 0.31212150785 0.31174507894 0.31789053633 0.31730514841 0.31725458033 0.33703984323 
0.33754027549 0.33761889252 0.32973469987 0.32912344798 0.31130608392 0.29760501093 0.20878090696 0.20834712815 0.31430236948 
0.31599056609 0.31601633312 0.3048745871 0.34114990885 0.34066274844 0.34108041451 0.32950545754 0.3302503444 0.32903830117 
0.32137305811 0.32300120807 0.32601727241 0.30885687157 0.30992726659 0.30895512876 0.3100301627 0.33100461101 0.33058342318 
0.32980716234 0.31131754072 0.44669091797 0.50002809706 0.45385108241 0.51800322541 0.31025674261 0.3108601904 0.35803631359 
0.35836871082 0.36787934801 0.43011093691 0.43694103751 0.41462936594 0.35495971235 0.3482618604 0.3642333236 0.36813005327 
0.32818444837 0.33733378002 0.34281335302 0.30989377959 0.31103402347 0.31029411919 0.31080459035 0.30821312795 0.30741412035 
0.31000354798 0.31410701629 0.31239393302 0.3140282752 0.31230056516 0.31043384904 0.30879653626 0.30465967649 0.33378277984 
0.33369633232 0.33403118152 0.33394860631 0.34946937097 0.30520463819 0.30653044622 0.31121802115 0.31165768514 0.31163041 
0.34323898412 0.34277835868 0.24932465243 0.3105750979 0.31011110084 0.32874212222 0.3360273016 0.33040714655 0.33725123806 
0.31066821108 0.33588035896 0.33578548393 0.33666034617 0.29166901393 0.34058306989 0.33993736907 0.34044528488 0.33726802437 
0.31807170387 0.31695716033 0.31462629627 0.30295040362 0.30443251017 0.30197105 0.32142556981 0.3457448997 0.31613932106 
0.33503859115 0.30593834719 0.30609748832 0.30141830653 0.30158920545 0.35506546068 0.3540893279 0.36193178692 0.3609235542 
0.33356665965 0.32859290139 0.32759628285 0.337224293 0.33741028636 0.33423511642 0.34044014862 0.34077042149 0.34175179749 
0.28313995131 0.2892581476 0.27230533091 0.27938602658 0.33929606193 0.33928670759 0.22442420406 0.36719897654 0.37770937694 
0.3696691628 0.31760078268 0.33691655228 0.33650109876 0.27921600321 0.28511035922 0.27048360448 0.27773351419 0.28204500029 
0.28718503904 0.30331994128 0.29826025673 0.28733452351 0.29188997316 0.32241256123 0.31716885731 0.31752675111 0.31239309166 
0.3420590163 0.34233769496 0.29136873131 0.30928800892 0.31795815711 0.353762997 0.34972679578 0.37558585562 0.37621113998 
0.27725878744 0.27206958982 0.34419341466 0.34341323669 0.34430901897 0.34260063965 0.34247519741 0.34289949366 0.33631446896 
0.31727141101 0.32516537889 0.31885409307 0.3245579616 0.34027713025 0.3199734486 0.31852188122 0.31741088028 0.32481916592 
0.32400264417 0.33546471901 0.34193272328 0.33896770571 0.30081440331 0.30392356711 0.30417132896 0.34862222631 0.35411602062 
0.35279112843 0.33339031734 0.33252795046 0.33185054636 0.29602975331 0.29140677981 0.30100111817 0.29591928135 0.33465120473 
0.33426822769 0.31077459402 0.31196642879 0.3122579972 0.3286866679 0.32965063683 0.33444503668 0.33353404188 0.33358888884 
0.34100320669 0.34038315846 0.32767116438 0.33598403642 0.33653034304 0.32616856914 0.32803210211 0.32728199026 0.34164458706 
0.31486739585 0.31489404673 0.31396952403 0.31396353337 0.31523867365 0.31253734365 0.33943806689 0.34002871282 0.30783326943 
0.30985272999 0.34175503517 0.31616423257 0.3159829098 0.27831075857 0.27511228502 0.27052828417 0.26649709872 0.31114801122 
0.31091715879 0.31091999151 0.31064673265 0.31921455321 0.31891513483 0.31866421892 0.3184331119 0.22243177144 0.23473779068 
0.21041933371 0.2225153607 0.27950009997 0.27922579187 0.28640085654 0.30198700492 0.29712659816 0.29743309002 0.29265979033 
0.324592714 0.34254893127 0.32940602962 0.31055077099 0.30874009709 0.30731586766 0.3056632783 0.30252575821 0.29891513413 
0.33580228432 0.33550122588 0.33527066819 0.34462431611 0.35366867248 0.34651348854 0.27757085496 0.33221799362 0.2966374784 
0.30491578906 0.33552044488 0.3359821242 0.30931777383 0.30948206544 0.31202793146 0.31230235376 0.31126189776 0.32818088442 
0.32714372732 0.32855778612 0.32709212463 0.32615712083 0.32638429174 0.32623474959 0.31461198424 0.31602894122 0.29868508065 
0.30440054746 0.3170563788 0.31557009026 0.31716557187 0.29363565653 0.29710334703 0.34297071423 0.34342707151 0.34245734518 
0.31442949815 0.31298646462 0.31312922056 0.3425784166 0.34207107408 0.33373043798 0.31424735065 0.31429005863 0.3126616812 
0.31278045703 0.3222085054 0.29508897452 0.33947055746 0.33940472631 0.32851638125 0.3280784898 0.33329419424 0.33146282715 
0.33072225162 0.32203380798 0.32416053651 0.3253800612 0.32734582456 0.36099637606 0.36605797279 0.37070514491 0.32990342225 
0.33934581438 0.3397404378 0.34019529879 0.34166188656 0.34127346486 0.34183643141 0.27244133542 0.27069622082 0.26320670347 
0.26071375478 0.30383819301 0.30403483898 0.30440904861 0.30469727552 0.30783085997 0.3025094101 0.30088745605 0.29603202358 
0.30159089562 0.31739059048 0.31721341564 0.31222914868 0.31335111653 0.25399563855 0.33335193413 0.31337970692 0.31310771604 
0.30653032896 0.3112731086 0.34307685946 0.3427892212 0.34373265064 0.3430920051 0.34289855069 0.343576144 0.34361110027 
0.34227519731 0.31072487723 0.31124439664 0.32419840801 0.32417156212 0.32523011959 0.19804433317 0.20976731838 0.19804730651 
0.31729502133 0.31580680475 0.31577640404 0.35734317004 0.35240861247 0.30788256515 0.30904533362 0.52798275369 0.4475860124 
0.4093540163 0.31189207501 0.31138822841 0.31161050949 0.32442092784 0.33914531999 0.33221523713 0.33707535675 0.3027486405 
0.30498367411 0.21333589672 0.19789872783 0.19982554972 0.33259213072 0.33224036063 0.33215979174 0.34479376638 0.34604250879 
0.34461757997 0.30976792586 0.31143429929 0.31138345032 0.33985409724 0.32869204611 0.32878313305 0.28461584391 0.2913618136 
0.30827920944 0.31004227929 0.32587685119 0.32849427642 0.32652570128 0.33281871985 0.33310549954 0.31759237515 0.33544152055 
0.33578859767 0.30898706123 0.30471750233 0.30770463894 0.30330997686 0.31677960838 0.31552593423 0.31569345709 0.34883660068 
0.34413543608 0.47858967141 0.3911215747 0.42169558954 0.30784381131 0.30906856159 0.31313232335 0.29417322089 0.29945366023 
0.31650794784 0.28533028372 0.28796631494 0.335171488 0.30651083561 0.30431550969 0.30180330372 0.29804340714 0.30209452432 
0.30232979358 0.34041112628 0.36621519732 0.3366016768 0.33918552812 0.39705120819 0.38118290285 0.39941833797 0.34345451362 
0.28928243545 0.32009920625 0.31871169357 0.42222381138 0.3911587169 0.40493710421 0.31581465125 0.31744115408 0.31995414635 
0.33649635744 0.32556916853 0.34227545796 0.2964330531 0.29219925526 0.32835305311 0.31604837091 0.32584705182 0.29110191373 
0.29078061195 0.30531659389 0.30100442948 0.291836149 0.29122432376 0.29693748064 0.33206879115 0.31672009357 0.2890427689 
0.27882912431 0.31746083093 0.31706809824 0.30677171489 0.30505830655 0.30619756544 0.30985077425 0.28498656541 0.22205947891 
0.22417554532 0.21035724052 0.32223871584 0.29510406006 0.29365100458 0.28750783115 0.2420519946 0.26883103912 0.26045786925 
0.27095198885 0.34303379003 0.34339265442 0.34232217675 0.3098017366 0.30943296442 0.30800330676 0.28111662622 0.3413587401 
0.34111810127 0.31111770174 0.31058244073 0.2846215723 0.2686657683 0.32010986323 0.32086203113 0.31018811112 0.28738252915 
0.28866387969 0.29274782355 0.30377066254 0.3010225772 0.3173793301 0.31714394303 0.31774520054 0.31757070328 0.30822040818 
0.30792434693 0.30644001206 0.33401187476 0.33295242108 0.32908882357 0.24857094075 0.24831911874 0.31027342329 0.33757694973 
0.33771293184 0.33670078132 0.28588315341 0.29510105127 0.32060188121 0.31324116647 0.31395282992 0.33164225957 0.32376921134 
0.3229742747 0.34501268859 0.34293586833 0.34826176893 0.34563078841 0.35441163212 0.35808716724 0.36402251214 0.31695764436 
0.31330869801 0.31806666812 0.3177943328 0.32485957224 0.31506162067 0.31640192591 0.31664359286 0.45858163976 0.41274187883 
0.29280043109 0.29809124368 0.29590476438 0.3163391338 0.31648183844 0.31560232272 0.31566543865 0.29613338301 0.31596228136 
0.31539607538 0.3141463637 0.32395628848 0.30879999952 0.30752200005 0.30705893783 0.31778404453 0.30531569345 0.30899347059 
0.31010215444 0.34728015233 0.31196859142 0.32770281369 0.32798093772 0.32369316771 0.32507424848 0.32472051304 0.32613468951 
0.32492213421 0.32639098897 0.40671617372 0.45855521786 0.31474516991 0.31663994054 0.34197226543 0.32443054598 0.32318945921 
0.32266999572 0.32606901044 0.31819276334 0.31767941172 0.31871098371 0.34000335584 0.31118031602 0.31236923402 0.32500645023 
0.32403154065 0.32518036656 0.32600798401 0.31381751343 0.31270834189 0.31393423125 0.31273648165 0.34672431498 0.35303956691 
0.24699069771 0.31030310496 0.33363363592 0.33266421568 0.30084448356 0.29379532848 0.29831627298 0.31728250212 0.31748881006 
0.31727695217 0.32345012303 0.3294705332 0.32909371962 0.30977797096 0.30950864796 0.27263165578 0.33579221389 0.33418840317 
0.31492037734 0.33845024988 0.33886324283 0.33760847502 0.33698788621 0.31662500219 0.32580100205 0.32529753246 0.31205765652 
0.31199795815 0.31246902114 0.2052750219 0.2232298458 0.20216001427 0.32358247325 0.32641701089 0.31111733011 0.28460091439 
0.29255143177 0.28599683127 0.33653390951 0.33153488873 0.30394806686 0.25615521455 0.2678639492 0.27743206467 0.31661672909 
0.33542314784 0.34847398247 0.32319182617 0.25362338527 0.2444444464 0.26446023777 0.309854617 0.3094697914 0.30930925733 
0.31221360622 0.31519092342 0.31216026144 0.31589812969 0.31701511912 0.31029818544 0.30803085641 0.39050615939 0.30155958308 
0.3068878365 0.30167402651 0.29175977205 0.28834168826 0.31427256817 0.51087094435 0.6241602948 0.40576079842 0.36863398949 
0.38297281834 0.28707433687 0.33254260671 0.33573841446 0.34264621063 0.34085165025 0.32196830151 0.32505818497 0.32117975302 
0.30495350144 0.30678293423 0.30843267126 0.32178495882 0.32346488638 0.31978723821 0.3212704568 0.21387473482 0.19812700327 
0.19983481517 0.30478676402 0.30254759825 0.26948742566 0.25871465711 0.26960308043 0.31929897145 0.28269966614 0.28606161664 
0.29131388966 0.32278618547 0.31563482313 0.3144865191 0.29918641901 0.3348664768 0.36055885618 0.34984480115 0.3184158324 
0.31714564514 0.31346944912 0.3338101492 0.33235946869 0.3329340134 0.3022769659 0.36781383831 0.32387806839 0.32288438117 
0.38890732827 0.3792197541 0.39394637086 0.30218197594 0.29986012131 0.30402950265 0.3181888633 0.31940928132 0.31750709457 
0.3114160116 0.31130563973 0.30268064818 0.3053414787 0.30540359847 0.3243596684 0.31461845559 0.35106073883 0.32666708715 
0.29253102677 0.27559489403 0.299391425 0.37883247623 0.31484218699 0.45292058989 0.29676654223 0.29880323392 0.33630886779 
0.33710870723 0.33746569277 0.33816893745 0.34388250124 0.34438506485 0.34323092702 0.30958665006 0.44578792684 0.37965025894 
0.34085914339 0.34406867697 0.32649201836 0.31944427799 0.31882795727 0.31363197637 0.31244724837 0.32453745882 0.3219904458 
0.30523354735 0.2854487958 0.2898362855 0.29043708671 0.31111025701 0.31074778495 0.30904373681 0.33333749941 0.3229775754 
0.32331642665 0.33442399559 0.33385623416 0.33241950898 0.31138652644 0.31106674214 0.35071410532 0.32418545931 0.305998494 
0.30698061034 0.3126808042 0.31036953151 0.33158587015 0.32475934855 0.32910909925 0.30674719744 0.31714695632 0.31166227478 
0.31691845306 0.39653594827 0.37504836989 0.37392245015 0.30952227631 0.30841693092 0.31001611313 0.28472497394 0.29856858374 
0.30132379718 0.30232289948 0.30432111852 0.32789259804 0.30626213381 0.31862244131 0.31932673178 0.312874844 0.33214661898 
0.32886346929 0.33109200412 0.31728290851 0.31565581297 0.31273869628 0.33866426752 0.33950651168 0.35410365197 0.35778100808 
0.31739648076 0.31739530101 0.31968202444 0.3198514017 0.34652639393 0.34539063971 0.30458354351 0.30592579002 0.31817934114 
0.34025912163 0.3330007752 0.33241779025 0.33207104804 0.33150211451 0.31727351751 0.31715242177 0.331244701 0.33096983855 
0.33075781853 0.33141974013 0.33747125686 0.33697131813 0.3375416773 0.35429354425 0.32650414897 0.29464357056 0.28957244132 
0.32265459618 0.32238012562 0.32382376466 0.32363585013 0.31182381225 0.3292396265 0.24770233473 0.31420276904 0.3126762508 
0.3124854955 0.31849260702 0.32519415266 0.36113624375 0.34391214886 0.30907932467 0.3083766104 0.34338613377 0.3349510335 
0.33681084679 0.3110445688 0.31791743644 0.3190624631 0.32880727023 0.326459863 0.34252077847 0.34233223186 0.34420805544 
0.39772710175 0.35090523308 0.42926994715 0.33007167793 0.32961443954 0.32933425672 0.31436676377 0.26947839228 0.27239364039 
0.28024669784 0.32407613029 0.32187677629 0.30588412027 0.33748124211 0.33812236583 0.1985642383 0.2110816592 0.29993610807 
0.29566301297 0.30112162526 0.29782636232 0.29717105735 0.29670090004 0.30906954872 0.3068089655 0.30727873796 0.30630298828 
0.30879683443 0.3059302892 0.30367970976 0.30386318955 0.30872635209 0.28439923116 0.29004141405 0.29164995171 0.33147915967 
0.26523739801 0.26553809527 0.25594586024 0.25575885736 0.31013054353 0.31044924966 0.36956866067 0.35440128503 0.34378070493 
0.34461600192 0.33481833901 0.33440235415 0.33463533069 0.3137688631 0.29929958756 0.30624465142 0.34797344621 0.34976282846 
0.34298465896 0.34295189248 0.34340494969 0.33645312094 0.31804680125 0.3081078903 0.32153242154 0.32247054136 0.33227504795 
0.31270845885 0.33050505378 0.31301572169 0.33816594549 0.31065474715 0.31026923511 0.30678675454 0.31156217045 0.31072188367 
0.3111099009 0.31058406613 0.31125993429 0.31069661681 0.33882255973 0.31223573013 0.51357846141 0.32005605771 0.24975233059 
0.37943507731 0.3829272011 0.35320825868 0.33967737772 0.29519187521 0.29931528689 0.29346355458 0.3493087438 0.29976894763 
0.30504755657 0.29744811793 0.30244024794 0.31818760351 0.31910155575 0.31826013452 0.31804461181 0.34260669974 0.34271840308 
0.34253606606 0.32209110021 0.32340266739 0.32658349366 0.31734857615 0.31880589093 0.32207190961 0.32615355886 0.32390624892 
0.32423204904 0.30968574322 0.30553390451 0.3043255522 0.24662199533 0.29557398259 0.29752252911 0.29206110105 0.2878372072 
0.28686722483 0.32620423573 0.32573800054 0.31616859499 0.35137486206 0.35800584742 0.36115377771 0.31734634027 0.33700088613 
0.3404234496 0.32901533927 0.30842270707 0.30771528157 0.2884474506 0.31157147297 0.30971572634 0.30790702765 0.30589451143 
0.36257684672 0.37921770302 0.3637454112 0.3581410184 0.36387311371 0.33388010705 0.33935914423 0.33485697614 0.32140074801 
0.32154033228 0.35318212113 0.32077880193 0.34132559932 0.31535631514 0.31457326255 0.3269930292 0.34289099256 0.31987454895 
0.32041964977 0.19907516334 0.31941102851 0.31888569523 0.34470985043 0.31170323486 0.31160646135 0.31311247622 0.31121542187 
0.31021016256 0.30903050796 0.31853019142 0.32986951804 0.33062771329 0.33026958391 0.20473345368 0.31489626947 0.2493271212 
0.30918451643 0.3386801846 0.34041806701 0.31777188554 0.31749226927 0.31798484038 0.31181207923 0.31315313078 0.31206282355 
0.33500955872 0.33403300359 0.33462084274 0.29909975952 0.32598546721 0.32427356162 0.32684793657 0.31750595375 0.31935936128 
0.32182376095 0.32325216055 0.2994900254 0.29699560657 0.30323487974 0.33407697323 0.32224470127 0.3238725683 0.23543930643 
0.3360225701 0.33515045787 0.33539123562 0.29818450585 0.29895729952 0.30344804787 0.28633413683 0.2967467295 0.27238721554 
0.31033933499 0.30862418697 0.31258222394 0.31224951112 0.318312302 0.34505388017 0.33950375139 0.32220741587 0.32485288 
0.33930446107 0.34065557392 0.32063163201 0.30605920061 0.30626861234 0.3007693881 0.3173086413 0.31875333429 0.31709680521 
0.2937030374 0.29526277385 0.39572844885 0.40921835382 0.41777028707 0.43887509458 0.29108229892 0.28751509505 0.28712403369 
0.30571297416 0.29376071036 0.30251288253 0.33502685314 0.3084016868 0.39574612589 0.38728813836 0.31517296318 0.33745981383 
0.33811146447 0.33749849039 0.33690337102 0.33757430036 0.31354274992 0.31050630471 0.21155917874 0.21212189783 0.22727996183 
0.3314191754 0.32342973831 0.32359835389 0.30098562832 0.29591139631 0.29917562391 0.31151166017 0.31435882954 0.31566554906 
0.32972386873 0.32858943716 0.31950979848 0.31573829758 0.21267778808 0.22683674686 0.20058377254 0.1972209089 0.30200172459 
0.29673671722 0.31984537006 0.33069173251 0.3299130934 0.31756875582 0.31917041789 0.29294622296 0.29279025576 0.2975976241 
0.3042481472 0.30808405049 0.3090452762 0.3085550917 0.30328415274 0.31116708927 0.33266441269 0.33298410996 0.33258193074 
0.33292215714 0.30847364316 0.30637490147 0.31816196215 0.31741039035 0.31693330317 0.31160725791 0.31152210121 0.31168329774 
0.25359989397 0.25826439687 0.24274916583 0.34198634033 0.32502028414 0.33647722978 0.3146151436 0.4076563043 0.35455774207 
0.43812838924 0.37399646711 0.33681468528 0.33623873538 0.33560391384 0.33631366153 0.26798467074 0.33599574313 0.3337698554 
0.33813584734 0.33808273923 0.33246494127 0.30780169159 0.30631589861 0.3065875786 0.32112834163 0.31654092744 0.30436898166 
0.31165265264 0.31175907932 0.34449907608 0.34514626386 0.34494250468 0.34563560335 0.30412894665 0.31859677223 0.31557515035 
0.31649370857 0.32382169468 0.32280864721 0.24779823485 0.25893199279 0.2453856006 0.31748409682 0.30780257103 0.30824488532 
0.30948997038 0.3103952714 0.30263777282 0.30910453537 0.30879647682 0.31388730927 0.30042704636 0.33321881292 0.33287846145 
0.33264932148 0.32590134612 0.32479539108 0.32381752743 0.3117741426 0.34420179886 0.32359564796 0.32537611491 0.32903884003 
0.33422897974 0.30356613456 0.31158194615 0.32155384299 0.32365835766 0.32129035654 0.31451785718 0.30815724288 0.24838111757 
0.30874180006 0.30743849347 0.30549380774 0.30682644768 0.3112146362 0.31134685089 0.31132917207 0.3099804963 0.31048501783 
0.30908740314 0.30950104118 0.33231800865 0.33234434729 0.32955944952 0.32368135292 0.29375769705 0.26335499582 0.25447707667 
0.32385784955 0.32198497742 0.39392662712 0.3282044513 0.32787052774 0.32790798458 0.34114611935 0.31175624639 0.31260292021 
0.31132350082 0.29011871569 0.3091551191 0.32298137378 0.31079192924 0.30704617809 0.32217571509 0.32154460241 0.32374175176 
0.33303779698 0.31305856385 0.31128050401 0.31590340529 0.33585495561 0.33479694009 0.3350218535 0.33589371738 0.34596030251 
0.35426373039 0.34085462521 0.30836255419 0.30634755018 0.30786485151 0.31615470854 0.31489122331 0.31368429193 0.32046064149 
0.3204093409 0.33785872176 0.31330181167 0.31229224363 0.31615332279 0.3178677052 0.31280265868 0.31155244093 0.32307156579 
0.32217659771 0.32307754704 0.32882090714 0.22301346606 0.23542068689 0.22061625682 0.23339435459 0.29592702902 0.29155306193 
0.32224531831 0.28924878066 0.29989245408 0.32207898358 0.29724902103 0.22023428867 0.3072515467 0.31049887406 0.30926561784 
0.30970294599 0.30427392006 0.29197366542 0.33276213692 0.31479882184 0.32193937797 0.32152665584 0.32013532816 0.31779059891 
0.31887260912 0.25571924662 0.25097852488 0.31022931881 0.30867191142 0.25057305004 0.30917985642 0.31035697789 0.29019038175 
0.3078395135 0.30973513612 0.30682721735 0.31869380566 0.31754951192 0.31830448248 0.31940839422 0.31236599431 0.31212181155 
0.31924320785 0.42171955401 0.30597666363 0.31252832454 0.32132092206 0.33023122359 0.33325800478 0.3334166508 0.35779295623 
0.36707655744 0.30270092078 0.31868505681 0.3179970307 0.33302494766 0.33246737426 0.33335337984 0.26087624918 0.27315234994 
0.29187271135 0.27960964435 0.33354035532 0.31952875892 0.31992334245 0.31633162093 0.31147638468 0.30977815577 0.3164445065 
0.29478583359 0.33884621281 0.33879026508 0.33333494509 0.34182100026 0.31639298627 0.29957457487 0.3010932739 0.32419883094 
0.31968767435 0.34037521677 0.33971746136 0.29799811859 0.32370121434 0.31692086391 0.3458311709 0.35469078176 0.3613575471 
0.35315251617 0.35779196223 0.30715078355 0.30841168865 0.30759588398 0.28679890934 0.27656872852 0.30460550354 0.34254722423 
0.31076329245 0.33322358781 0.33313609565 0.31028783741 0.31021641822 0.29021254382 0.31267300835 0.31239419396 0.31606002795 
0.31760088787 0.30605925552 0.31007287656 0.31221639907 0.31181354713 0.31110534476 0.31092930672 0.314557333 0.31576999113 
0.31468000666 0.32699387976 0.31408060937 0.31289020153 0.31413182707 0.31895116874 0.31925366766 0.31401225766 0.31407864982 
0.32045333612 0.31890163588 0.30622846104 0.32133601082 0.32613236278 0.30921913468 0.31283755051 0.30772930493 0.32282655072 
0.31990895753 0.31673400103 0.31556320074 0.3030143235 0.32329884714 0.31735163637 0.32381007739 0.30478228712 0.32083751758 
0.31974678213 0.31846900741 0.31708237464 0.31528773695 0.31550386683 0.31700217622 0.31178686204 0.292269188 0.32200430698 
0.32496022073 0.32391204546 0.31206807167 0.31020120733 0.31100729707 0.3250648252 0.31606001878 0.31585479319 0.31432067568 
0.31069960721 0.28935799709 0.30390274631 0.32068520982 0.32077799937 0.32245251237 0.31606160558 0.24266518739 0.30592630427 
0.27764084003 0.28896597238 0.28455450285 0.25771543621 0.34080146797 0.3414740211 0.33746683179 0.31772962991 0.31756130279 
0.30604302661 0.31288952501 0.31704268273 0.30945657714 0.31589301871 0.31612721774 0.31505706354 0.25357788886 0.31745126728 
0.32109235204 0.29615942847 0.2922093884 0.29329477527 0.33319786983 0.34212358693 0.34107580102 0.35205277022 0.32789908522 
0.32917796769 0.29119102073 0.29624103623 0.30122726526 0.30140837478 0.2968009589 0.29244718417 0.29654074272 0.30110820842 
0.31347178442 0.29140328684 0.33393577869 0.33383611284 0.33420252341 0.33412302065 0.30678713987 0.30516222169 0.29881526034 
0.29496174215 0.34304428453 0.33926455771 0.26981994074 0.26201270885 0.27810079377 0.31297276477 0.3340297706 0.33424354683 
0.34087872081 0.31040272094 0.31295316702 0.3073959928 0.24895731149 0.31443862446 0.24706525651 0.24800168851 0.23530603659 
0.3330532421 0.28854578945 0.26321608021 0.27411286368 0.24670667533 0.24491466303 0.25821653086 0.26678419424 0.25662466731 
0.27833689355 0.34224638223 0.34167667494 0.34252848669 0.37359661137 0.37325214262 0.38408242298 0.33169370341 0.33096447819 
0.33102092641 0.33124535303 0.33166482775 0.33474145284 0.33403492827 0.3335867586 0.33428341457 0.19830737904 0.20958330836 
0.19759429776 0.33239069968 0.33164182725 0.31469852293 0.31776317682 0.30619851452 0.32904939295 0.31531327374 0.3157604029 
0.31272605151 0.35094702182 0.34900710288 0.34376171847 0.34268220969 0.34315770717 0.32307793042 0.33574208174 0.31314863329 
0.31024142537 0.31182094292 0.31460833285 0.315054167 0.3198265806 0.30713403375 0.30700063852 0.3003235511 0.3032680139 
0.30235514525 0.30943271825 0.30789282804 0.31047046496 0.2967485115 0.29741000206 0.31977707489 0.29127634808 0.2967347594 
0.33365505728 0.33345942343 0.31054915504 0.26255942224 0.29167280565 0.30195564797 0.3064250784 0.31224934786 0.3119990923 
0.33842560314 0.33682391599 0.30077906525 0.29095464667 0.20381218486 0.31511169525 0.31567882728 0.31885235534 0.31707072199 
0.38957408082 0.45182950216 0.28914722273 0.19864085067 0.28473957282 0.34710414967 0.34731073029 0.34570152552 0.3062969822 
0.3070954708 0.30504790544 0.30516570412 0.30937560801 0.31958215498 0.31833455489 0.31672196817 0.33320868097 0.33355787269 
0.30896516158 0.32620736377 0.31656488702 0.31737019821 0.30530972281 0.31453413306 0.31360661523 0.3134911394 0.31745575546 
0.30932611309 0.30962555253 0.29718059028 0.29311141172 0.29283030485 0.28755253379 0.31192382472 0.32023149454 0.31967070351 
0.31639438967 0.30697454952 0.32035424455 0.34157971209 0.34158271133 0.3197915217 0.3164674347 0.31015219886 0.30977753833 
0.31142308671 0.31764434087 0.31782330776 0.31147329598 0.30945993494 0.33765372561 0.32338356478 0.22291832585 0.22378067445 
0.21078712095 0.32136464913 0.31850817639 0.31827564376 0.32063457135 0.35827397289 0.31907576501 0.33199812425 0.32740701064 
0.32795806013 0.33186950826 0.30703985204 0.31206870551 0.28940643336 0.28763251432 0.31441183124 0.31545385475 0.31498115442 
0.29165865629 0.28722091157 0.30186431699 0.29705443423 0.36132309713 0.35036087756 0.34555587976 0.24918015177 0.23621568895 
0.35973429232 0.36235890291 0.35156290464 0.35392866361 0.33098593103 0.33112976343 0.31540199805 0.31434202799 0.29922344352 
0.29558170506 0.30827510497 0.30530442284 0.27192958181 0.28468834805 0.26444627643 0.31862109811 0.31655792795 0.31552512025 
0.35321410705 0.31747462027 0.31854452772 0.34161987409 0.34431230061 0.37253011452 0.37436825171 0.36094978172 0.34253071361 
0.31537604056 0.32973229174 0.3322410385 0.33478824951 0.33596084631 0.33337520171 0.30034501826 0.29955287143 0.31264107231 
0.31259795181 0.31107739318 0.31335888007 0.31469064727 0.3140664057 0.31323679477 0.33354346506 0.3137104912 0.3053189207 
0.30795320041 0.30809548608 0.31140618714 0.31011551484 0.31062028249 0.30876839292 0.30791198899 0.31317651132 0.37807621688 
0.33061505591 0.32516901567 0.2992116931 0.30639564744 0.34045157913 0.29215341992 0.27963325502 0.27919839265 0.31750431639 
0.31423329313 0.31553284645 0.32398979001 0.30879451974 0.31333924058 0.36358444715 0.31023710549 0.30856343866 0.31441699076 
0.3029480541 0.63326322343 0.65613367892 0.30729743416 0.30535689356 0.35879718952 0.31896110699 0.28379770776 0.51119824454 
0.45349285369 0.45318238601 0.34714200719 0.34746181075 0.34573730716 0.34081139039 0.34172887141 0.30333083374 0.33382416579 
0.33423338326 0.34050532297 0.32661651643 0.33686478366 0.33630990637 0.33164845125 0.32367415756 0.31963839669 0.31991846131 
0.32027618993 0.31878534301 0.43699455196 0.31620058526 0.32060342938 0.42029921921 0.31058357669 0.31038249904 0.31132764544 
0.33221554477 0.33301525459 0.33247831099 0.30376884114 0.30525924953 0.33272504422 0.31064401189 0.31085458339 0.3101565464 
0.31070054297 0.33333123655 0.33350533135 0.33365336064 0.34226322292 0.32088120925 0.32037123984 0.31236401935 0.3065004748 
0.30819825262 0.34388617468 0.3447555978 0.32215049123 0.32680302345 0.33166250458 0.30698219194 0.24850336472 0.34256316012 
0.30692527592 0.34251386122 0.32424554545 0.3377313112 0.33140376222 0.32521018928 0.32669774437 0.34154319025 0.34271004228 
0.34328404889 0.34599132717 0.37748435246 0.37289746482 0.31507380581 0.31496236845 0.33093922752 0.32948282833 0.33130166173 
0.27982283826 0.31825587668 0.24401037266 0.33460748731 0.3150367261 0.31776904732 0.30032365585 0.29681716492 0.30172281672 
0.30762706226 0.30778811022 0.31772365669 0.32031065569 0.31198708617 0.39959450189 0.38332925447 0.3166257083 0.32247405211 
0.31628660296 0.31534131273 0.37956537663 0.30849451444 0.31148632412 0.30758940056 0.31011148913 0.30695645906 0.34311240978 
0.34272678109 0.28843573239 0.31255207566 0.31374687063 0.32937504371 0.30775400589 0.31812053894 0.32308969586 0.32383815178 
0.32283523802 0.30913023696 0.30655836815 0.30942393853 0.30986666054 0.3441903385 0.26602488062 0.31984050555 0.32133195129 
0.32186100039 0.32163680348 0.34603228895 0.34857354856 0.33204482029 0.33084027656 0.35130124384 0.31842981178 0.31679934408 
0.31808548307 0.32781724063 0.31138769011 0.31909017201 0.27904541794 0.27741802047 0.32713525117 0.2906064885 0.29499984651 
0.29185341352 0.29628509195 0.33109044256 0.33034888839 0.32487292518 0.32405153659 0.32428285158 0.32238891151 0.32526310822 
0.29598620538 0.34422251854 0.3118299079 0.28464897297 0.33021177309 0.33083083909 0.30743476687 0.40274711859 0.40753629036 
0.31850496036 0.30484238757 0.30488455966 0.33464753829 0.33361421428 0.33134006946 0.26035689844 0.3242757059 0.32598458061 
0.32513983274 0.30721853789 0.3032040659 0.38984706148 0.38504751091 0.33347035119 0.3126616574 0.31771348875 0.30852642304 
0.30671666158 0.33317894267 0.31498888511 0.33310213803 0.33295404166 0.33204296129 0.33145383898 0.31711714475 0.31763096499 
0.31706807972 0.31883350217 0.32797357787 0.31708631178 0.32183351356 0.32059169043 0.32016957827 0.31840436246 0.3252101921 
0.3086956985 0.32596483431 0.32379037007 0.31432244413 0.30950309808 0.31454651032 0.31267625923 0.31269052191 0.30266197484 
0.30051259283 0.25139058297 0.29817758254 0.28760032959 0.26936911739 0.27468966934 0.29436985217 0.2679951564 0.24980616561 
0.34263889115 0.34262322642 0.31719915146 0.30476078324 0.31299787237 0.25926970483 0.31752647111 0.31398222439 0.31395946822 
0.3105371883 0.31160319235 0.30403396193 0.30314705017 0.33310846241 0.31578190404 0.33035090087 0.33271669712 0.3077310208 
0.30609328814 0.30765209628 0.30634525262 0.30186920038 0.32096712641 0.32020330866 0.32100174228 0.1981820513 0.20853251336 
0.24903498985 0.28830132695 0.28760056299 0.30995187515 0.3147857475 0.25311019942 0.24370407652 0.34741428389 0.38930627999 
0.30244764533 0.33326280182 0.32494386646 0.32072356816 0.19924258584 0.3757269134 0.36546731869 0.31820477907 0.31945183511 
0.31684974582 0.31813845759 0.31741534636 0.31588691081 0.34006623587 0.31124635968 0.30601898355 0.23844173774 0.4257604488 
0.30824068597 0.32010616671 0.27309197344 0.26420730935 0.27795494946 0.31143388743 0.31189540363 0.31026124507 0.3299853712 
0.32669149449 0.30444917504 0.31299777815 0.31283151971 0.31885096775 0.31775741059 0.24347597804 0.23263381133 0.19798286464 
0.25251354952 0.33355080075 0.27020658358 0.2593757867 0.33880621608 0.3220074799 0.37047669975 0.31040081686 0.24636742941 
0.29904680059 0.30505437138 0.3217566935 0.33378399478 0.33267718878 0.33876862323 0.33894058498 0.33825514605 0.31867200522 
0.31983753176 0.31734327663 0.32082994468 0.31856695094 0.31516756722 0.31820542508 0.31809959489 0.30686333076 0.30576653459 
0.31364431874 0.31384382739 0.32668222447 0.22351837752 0.2755319701 0.28317456824 0.27668548426 0.33700512786 0.3169477233 
0.28144343569 0.33196158743 0.33135611848 0.24386732427 0.31397572846 0.31112572559 0.40891094647 0.31951948742 0.23797884118 
0.22614547032 0.24071494058 0.29646078541 0.29178970097 0.29582756805 0.30078084567 0.31891422381 0.29196360281 0.28767355864 
0.23311766492 0.24387370282 0.32441910899 0.32221507496 0.31451180799 0.32281860755 0.3459634501 0.32566608198 0.40296659248 
0.31624505511 0.32066896814 0.32240063628 0.32673033834 0.26767187972 0.25713586938 0.33864346146 0.32768433525 0.30834216579 
0.28053917689 0.37965183082 0.30860226415 0.24729332481 0.30958136043 0.24766861094 0.30584673097 0.30577229664 0.32763290956 
0.32010573833 0.33202284411 0.33242371669 0.33202979675 0.31890838552 0.32045232128 0.34046006929 0.34374669189 0.30664065066 
0.32927893132 0.30534743878 0.31256909298 0.3432495724 0.34275824214 0.29700541124 0.31662417586 0.26231824293 0.31685800405 
0.33757166861 0.33363483871 0.29927023507 0.2519709954 0.32118860049 0.3305369852 0.29969623371 0.33148035006 0.36052439621 
0.3590418663 0.31808110725 0.31544573699 0.31750117726 0.29541781013 0.30830186672 0.29778147574 0.31401508615 0.29153683663 
0.28403962463 0.28640724624 0.30287908032 0.31393448036 0.24354368828 0.34251115698 0.33592130474 0.33241300132 0.31206123732 
0.31288668587 0.31283521965 0.31361637569 0.26851355182 0.32523667753 0.28984445686 0.30026160479 0.30314860089 0.22569917386 
0.32856653904 0.31048941821 0.33757998677 0.33822984533 0.33815176981 0.32406488353 0.3432217314 0.3220051858 0.3193025741 
0.33522015157 0.34833224276 0.3192590041 0.32151596931 0.33449738515 0.34220729696 0.31432698761 0.32137478958 0.32349530918 
0.31402943637 0.26227885644 0.31657650434 0.31757743615 0.32100130994 0.32236821523 0.3149504192 0.31504242932 0.31959394773 
0.31005087444 0.30716334245 0.31087808039 0.28407379533 0.28369879061 0.28938827386 0.31590856018 0.32621269021 0.2378009839 
0.25750531879 0.32967777806 0.34709411757 0.32607250293 0.31067407173 0.31168662191 0.31370577188 0.4035141546 0.32666566735 
0.32443366612 0.32431448855 0.3268513702 0.31605891312 0.21317464489 0.31765017222 0.31756676266 0.31156049315 0.34402344919 
0.34044740538 0.34310848326 0.32023979623 0.3208829883 0.33487340226 0.28461440096 0.25052195259 0.26606017711 0.20104198946 
0.2378860953 0.2520453019 0.29272566223 0.30810519559 0.31676593257 0.30680409805 0.34776704683 0.32070796068 0.31917581461 
0.32240480834 0.31331991166 0.34246880328 0.34234561382 0.34096882043 0.34169631492 0.34083295668 0.33402969535 0.34096776462 
0.31581628305 0.29222237599 0.33280798994 0.33287587479 0.33252536837 0.28675649542 0.33189833196 0.28591428202 0.3074586531 
0.31539688599 0.31641494635 0.3288012442 0.31704800986 0.31585023035 0.31745614019 0.31697224802 0.31714516684 0.3312237492 
0.30156527526 0.29781346718 0.2988798631 0.32110262487 0.28761935062 0.29585054424 0.29508518908 0.28952425632 0.25463863408 
0.24308259036 0.23253109818 0.34579765117 0.31095534505 0.31608186216 0.30305508747 0.3137658882 0.28705972648 0.24278306565 
0.34043384607 0.30182525539 0.34113180418 0.28861531598 0.31727445886 0.31926703131 0.38779740248 0.2497136123 0.28814389268 
0.29213705627 0.32570483626 0.29708048251 0.28444630571 0.27254007481 0.30196822372 0.30977169538 0.34259131045 0.32264112372 
0.31242984334 0.33168950098 0.31326221838 0.3181754072 0.32125148234 0.33414567581 0.33472996702 0.32602207801 0.31638648581 
0.34322306104 0.31810751898 0.29049819356 0.32243116302 0.32071430341 0.33259572848 0.33247982064 0.33313498931 0.29847038406 
0.33231625688 0.31625690662 0.33437902114 0.33426715468 0.33200141465 0.33485692756 0.29749234189 0.30205059379 0.29372752833 
0.32222997916 0.30293618043 0.30417856362 0.32846218382 0.26214684068 0.3016703219 0.30298582932 0.31356446122 0.3306309994 
0.32094978663 0.32008237843 0.28211995586 0.29477958933 0.23220332221 0.39152676058 0.35761878394 0.38174516222 0.22083061458 
0.33311292753 0.33503736396 0.33345723756 0.34329266018 0.34273996734 0.34250464814 0.31623991186 0.31662501172 0.31734318886 
0.30774121001 0.31078116927 0.31623431284 0.3167242874 0.31530923521 0.32995208674 0.32929659441 0.34382142878 0.30957079821 
0.3184383649 0.30293707483 0.29903422547 0.30363929059 0.30469280441 0.33133883921 0.33197909957 0.32468625271 0.32474738644 
0.31903427064 0.25213528778 0.24991664126 0.21783908838 0.26579420141 0.27544689444 0.31271709318 0.30669915548 0.22070371552 
0.32238700335 0.34198407495 0.32664292848 0.24732782896 0.2483819543 0.29448331223 0.29585015925 0.29788586171 0.32698403103 
0.31330820879 0.3594693419 0.34023301454 0.29639917007 0.32674546834 0.32030678044 0.30796384619 0.31156418411 0.34915901453 
0.25624515945 0.35474582504 0.31775990819 0.31258923789 0.52990797037 0.32555615347 0.31634199428 0.32020169923 0.33283851349 
0.31016584405 0.32936737178 0.35364121315 0.33986120191 0.30818782369 0.33243691088 0.29898451971 0.32735226032 0.28340841119 
0.32140645993 0.31353447286 0.31723544494 0.32837473916 0.31864918548 0.33661932882 0.32671593052 0.32490416161 0.33069527177 
0.29676620962 0.32430140145 0.31939662638 0.21476800212 0.30658182539 0.30497625202 0.31444644198 0.33321028298 0.28671869274 
0.31308280686 0.31010170789 0.45352686519 0.30386030354 0.2841925321 0.30506503927 0.31714632869 0.3326033262 0.33196774329 
0.33576241322 0.31210376512 0.31406809678 0.30473866205 0.30610882543 0.30198703662 0.29756497853 0.3087885319 0.3073997804 
0.30136454683 0.31889907898 0.31707987716 0.38772447901 0.3070505291 0.33496803255 0.33511230816 0.33696113252 0.33221980695 
0.33315755861 0.30169790513 0.32544166378 0.30554166485 0.30488251508 0.30097901324 0.32071710075 0.30636930709 0.30906741157 
0.32064624633 0.31651130448 0.31700306949 0.32543319794 0.33020094787 0.32420996833 0.31836001082 0.29113450316 0.28323089937 
0.31888906468 0.26768583561 0.31057358768 0.31079312997 0.2254413677 0.32662486011 0.33295046869 0.3400100155 0.33758607132 
0.33843021156 0.32272086637 0.31054931315 0.3233466927 0.31185613612 0.31192716447 0.31732910612 0.28722895132 0.29068881482 
0.20864161441 0.31552875536 0.3195416529 0.31252656481 0.3078127362 0.29772963213 0.30270599502 0.31728658442 0.26722601891 
0.35190993838 0.31708719509 0.37393123252 0.3440429176 0.34296726674 0.30951540617 0.29043844239 0.22010549442 0.34372639636 
0.33219634701 0.31377232483 0.33390246413 0.32256612101 0.31150297619 0.23463604227 0.32018374844 0.31460959699 0.29640723711 
0.31209351976 0.31258272004 0.31383990474 0.31401531639 0.31837284346 0.31476488344 0.30944597514 0.31012038012 0.31676192092 
0.34054442252 0.34299257531 0.28053370585 0.3100818737 0.34628523441 0.30169543136 0.32133519452 0.31842417416 0.33864628995 
0.33611830265 0.31911406443 0.32223607525 0.32445472662 0.33564088569 0.33180724412 0.35181009312 0.33862343655 0.30573854632 
0.38426980227 0.3112851018 0.2930559262 0.3060145251 0.30988474819 0.30079792375 0.3186804422 0.3233457119 0.32607871711 
0.32275492614 0.32228467201 0.33221812353 0.34845497946 0.3542276785 0.32890789507 0.29763673345 0.33193281231 0.30103199602 
0.33762040661 0.34580863052 0.34223917204 0.29612803108 0.30991538528 0.31421103824 0.32650485875 0.3058838165 0.32028106039 
0.31945765978 0.33334404633 0.33315925234 0.32557171444 0.32979638658 0.2995616264 0.31164783372 0.32156984015 0.33053706173 
0.33113768892 0.33158944142 0.35872575534 0.30913597194 0.34670778249 0.35225838709 0.24246129383 0.26221398971 0.30769372687 
0.30278600855 0.3805294275 0.47857561603 0.32068459853 0.35484208587 0.31352746449 0.30093716771 0.31391074975 0.33340227475 
0.33349684273 0.33012483832 0.29792427705 0.33333353918 0.32194930315 0.31002661647 0.30609385114 0.30081101058 0.31059691645 
0.29723490876 0.33331080687 0.3301883566 0.33333419741 0.33331996538 0.33312327842 0.36362524514 0.26014712812 0.24430873647 
0.25545953824 0.26337847507 0.31791620018 0.29011484341 0.33983730173 0.34248653288 0.3421534131 0.33885426007 0.33040186898 
0.3221087794 0.34515796747 0.29700014263 0.30886925503 0.29126373027 0.32352277964 0.33765061527 0.28687067312 0.25403103787 
0.28748071279 0.30737503182 0.228033392 0.23225121126 0.35711012815 0.31698851375 0.33082906164 0.3180680532 0.31418566136 
0.31233302315 0.30788971919 0.3177630746 0.25691851799 0.33870531247 0.34013240744 0.33395466869 0.31848298575 0.31250418465 
0.31771412774 0.37745383942 0.31724679709 0.3255069015 0.29149397307 0.31094499959 0.28885130179 0.32061795089 0.31109781484 
0.29451448205 0.21831855122 0.32122858098 0.28660222502 0.33787835176 0.34799120222 0.34753008764 0.31802789738 0.34085529895 
0.31280279044 0.34304120753 0.31236982593 0.30194480748 0.30361159737 0.31108526582 0.25622072481 0.3007678047 0.32500054145 
0.33818238576 0.31214064088 0.31444646026 0.27556369206 0.3155594279 0.29580010714 0.31602966296 0.37753087577 0.32827103513 
0.29113932111 0.32981559998 0.30981372741 0.31821880729 0.31149002071 0.30715010519 0.31406092126 0.3361011707 0.32542860418 
0.32722640369 0.29965219224 0.34087457781 0.30233388356 0.31567345469 0.31281901941 0.32206952655 0.33315233458 0.30647989598 
0.3422648001 0.27572363823 0.31930438889 0.28783997937 0.32678144746 0.33104365359 0.2954517903 0.32694957985 0.32538132318 
0.31319360125 0.3173466258 0.32457238718 0.33473736966 0.31905815081 0.31358693546 0.31855810831 0.29846799055 0.36477707205 
0.30699475431 0.29657950371 0.33075414201 0.29658521659 0.30149301371 0.2859136208 0.32203336633 0.29065084745 0.33389870902 
0.33427815265 0.25497138651 0.25751520896 0.2848564499 
