# vtk DataFile Version 4.2
vtk output
ASCII
DATASET UNSTRUCTURED_GRID
POINTS 8918 float
-19.9817 -33.5857 2 -19.9817 -33.5857 0 -79.9817 -33.5857 2 
-79.9817 -33.5857 0 -19.9817 66.4143 2 -19.9817 66.4143 0 
-79.9817 66.4143 2 -79.9817 66.4143 0 -65.0198 31.4171 2 
-65.0198 31.4171 0 -50.0198 5.43637 2 -50.0198 5.43637 0 
-48.2878 6.43637 2 -48.2878 6.43637 0 -63.2878 32.4171 2 
-63.2878 32.4171 0 -22.0817 -33.5857 0 -24.3017 -33.5857 0 
-26.7617 -33.5857 0 -29.2817 -33.5857 0 -32.0417 -33.5857 0 
-34.6817 -33.5857 0 -37.4417 -33.5857 0 -40.2017 -33.5857 0 
-43.0217 -33.5857 0 -45.6617 -33.5857 0 -48.3617 -33.5857 0 
-50.8817 -33.5857 0 -54.0017 -33.5857 0 -56.6417 -33.5857 0 
-59.2817 -33.5857 0 -61.9217 -33.5857 0 -64.5617 -33.5857 0 
-67.2017 -33.5857 0 -69.8417 -33.5857 0 -72.6017 -33.5857 0 
-75.4817 -33.5857 0 -77.9417 -33.5857 0 -22.0817 -33.5857 2 
-24.4217 -33.5857 2 -26.5217 -33.5857 2 -28.7417 -33.5857 2 
-31.0217 -33.5857 2 -33.1217 -33.5857 2 -35.5217 -33.5857 2 
-37.5617 -33.5857 2 -39.8417 -33.5857 2 -42.3017 -33.5857 2 
-44.4017 -33.5857 2 -46.6817 -33.5857 2 -48.8417 -33.5857 2 
-50.9417 -33.5857 2 -53.0417 -33.5857 2 -55.2617 -33.5857 2 
-57.5417 -33.5857 2 -59.6417 -33.5857 2 -61.9817 -33.5857 2 
-64.0817 -33.5857 2 -66.3017 -33.5857 2 -68.5217 -33.5857 2 
-70.6817 -33.5857 2 -73.0817 -33.5857 2 -75.3017 -33.5857 2 
-77.5817 -33.5857 2 -77.5817 66.4143 2 -75.4817 66.4143 2 
-73.3217 66.4143 2 -71.1017 66.4143 2 -69.0617 66.4143 2 
-67.0217 66.4143 2 -64.8617 66.4143 2 -62.7017 66.4143 2 
-60.6017 66.4143 2 -58.5617 66.4143 2 -56.5217 66.4143 2 
-54.1817 66.4143 2 -52.2017 66.4143 2 -49.9817 66.4143 2 
-47.8217 66.4143 2 -45.7217 66.4143 2 -43.4417 66.4143 2 
-41.4617 66.4143 2 -39.2417 66.4143 2 -36.8417 66.4143 2 
-34.8017 66.4143 2 -32.5817 66.4143 2 -30.4817 66.4143 2 
-28.3217 66.4143 2 -26.2817 66.4143 2 -24.1817 66.4143 2 
-21.9617 66.4143 2 -79.9817 -31.2857 2 -79.9817 -28.9857 2 
-79.9817 -26.7857 2 -79.9817 -24.6857 2 -79.9817 -22.3857 2 
-79.9817 -20.1857 2 -79.9817 -17.8857 2 -79.9817 -15.7857 2 
-79.9817 -13.7857 2 -79.9817 -11.3857 2 -79.9817 -9.28569 2 
-79.9817 -7.18569 2 -79.9817 -5.08569 2 -79.9817 -2.88569 2 
-79.9817 -0.885687 2 -79.9817 1.21431 2 -79.9817 3.31431 2 
-79.9817 5.41431 2 -79.9817 7.51431 2 -79.9817 9.61431 2 
-79.9817 11.9143 2 -79.9817 14.0143 2 -79.9817 16.2143 2 
-79.9817 18.4143 2 -79.9817 20.6143 2 -79.9817 22.7143 2 
-79.9817 25.0143 2 -79.9817 27.1143 2 -79.9817 29.2143 2 
-79.9817 31.4143 2 -79.9817 33.6143 2 -79.9817 35.9143 2 
-79.9817 38.1143 2 -79.9817 40.5143 2 -79.9817 42.6143 2 
-79.9817 44.9143 2 -79.9817 47.0143 2 -79.9817 49.2143 2 
-79.9817 51.2143 2 -79.9817 53.5143 2 -79.9817 55.6143 2 
-79.9817 57.8143 2 -79.9817 60.0143 2 -79.9817 62.2143 2 
-79.9817 64.2143 2 -19.9817 64.1143 2 -19.9817 61.0143 2 
-19.9817 57.7143 2 -19.9817 53.8143 2 -19.9817 49.2143 2 
-19.9817 44.1143 2 -19.9817 38.9143 2 -19.9817 32.4143 2 
-19.9817 26.4143 2 -19.9817 19.8143 2 -19.9817 13.8143 2 
-19.9817 7.91431 2 -19.9817 2.21431 2 -19.9817 -4.28569 2 
-19.9817 -9.48569 2 -19.9817 -14.3857 2 -19.9817 -18.6857 2 
-19.9817 -22.6857 2 -19.9817 -25.7857 2 -19.9817 -28.5857 2 
-19.9817 -31.2857 2 -62.2078 30.5465 2 -60.9628 28.3901 2 
-59.8528 26.4675 2 -58.6978 24.467 2 -57.4828 22.3626 2 
-56.3878 20.466 2 -55.2328 18.4655 2 -54.0928 16.4909 2 
-52.9678 14.5424 2 -51.7678 12.4639 2 -50.5828 10.4114 2 
-49.4128 8.38493 2 -63.9848 29.6245 2 -62.9648 27.8578 2 
-61.8548 25.9352 2 -60.7598 24.0386 2 -59.6348 22.09 2 
-58.6148 20.3233 2 -57.5198 18.4268 2 -56.4098 16.5042 2 
-55.3898 14.7375 2 -54.3548 12.9448 2 -53.2898 11.1002 2 
-52.2998 9.38545 2 -51.2198 7.51483 2 -77.8217 66.4143 0 
-75.3017 66.4143 0 -72.6017 66.4143 0 -69.7817 66.4143 0 
-67.1417 66.4143 0 -64.3817 66.4143 0 -61.6217 66.4143 0 
-59.0417 66.4143 0 -56.6417 66.4143 0 -53.9417 66.4143 0 
-51.3017 66.4143 0 -48.4217 66.4143 0 -45.7217 66.4143 0 
-42.8417 66.4143 0 -40.3217 66.4143 0 -37.5617 66.4143 0 
-34.9217 66.4143 0 -32.1617 66.4143 0 -29.4617 66.4143 0 
-26.8217 66.4143 0 -24.3017 66.4143 0 -22.0217 66.4143 0 
-79.9817 -31.2857 0 -79.9817 -28.6857 0 -79.9817 -25.9857 0 
-79.9817 -23.3857 0 -79.9817 -20.5857 0 -79.9817 -17.7857 0 
-79.9817 -15.2857 0 -79.9817 -12.5857 0 -79.9817 -9.78569 0 
-79.9817 -7.28569 0 -79.9817 -4.68569 0 -79.9817 -1.98569 0 
-79.9817 0.714313 0 -79.9817 3.41431 0 -79.9817 6.01431 0 
-79.9817 8.71431 0 -79.9817 11.3143 0 -79.9817 14.1143 0 
-79.9817 16.8143 0 -79.9817 19.5143 0 -79.9817 22.1143 0 
-79.9817 24.9143 0 -79.9817 27.6143 0 -79.9817 30.2143 0 
-79.9817 33.0143 0 -79.9817 35.6143 0 -79.9817 38.5143 0 
-79.9817 41.0143 0 -79.9817 43.6143 0 -79.9817 46.2143 0 
-79.9817 48.7143 0 -79.9817 51.3143 0 -79.9817 54.0143 0 
-79.9817 56.7143 0 -79.9817 59.4143 0 -79.9817 61.9143 0 
-79.9817 64.3143 0 -19.9817 64.2143 0 -19.9817 61.9143 0 
-19.9817 58.9143 0 -19.9817 55.4143 0 -19.9817 51.6143 0 
-19.9817 47.3143 0 -19.9817 42.6143 0 -19.9817 36.7143 0 
-19.9817 29.7143 0 -19.9817 22.7143 0 -19.9817 16.5143 0 
-19.9817 10.9143 0 -19.9817 5.51431 0 -19.9817 0.0143129 0 
-19.9817 -5.58569 0 -19.9817 -10.8857 0 -19.9817 -15.5857 0 
-19.9817 -19.3857 0 -19.9817 -22.7857 0 -19.9817 -25.8857 0 
-19.9817 -28.6857 0 -19.9817 -31.2857 0 -62.2528 30.6245 0 
-61.1278 28.6759 0 -59.9578 26.6494 0 -58.8628 24.7528 0 
-57.8728 23.0381 0 -56.8528 21.2714 0 -55.8478 19.5307 0 
-54.7228 17.5821 0 -53.6278 15.6855 0 -52.5778 13.8669 0 
-51.4528 11.9183 0 -50.4478 10.1776 0 -49.3678 8.30699 0 
-63.9548 29.5725 0 -62.9198 27.7798 0 -61.7948 25.8313 0 
-60.7598 24.0386 0 -59.7398 22.2719 0 -58.6598 20.4013 0 
-57.6548 18.6606 0 -56.6498 16.9199 0 -55.5698 15.0493 0 
-54.3998 13.0228 0 -53.3198 11.1521 0 -52.3148 9.41143 0 
-51.1598 7.41091 0 -76.9715 64.603 2 -74.6761 64.5972 2 
-72.3296 64.5945 2 -70.2461 64.4742 2 -68.1025 64.4743 2 
-66.0235 64.4936 2 -63.8157 64.4571 2 -61.7174 64.4027 2 
-59.543 64.3514 2 -57.4606 64.3687 2 -55.3332 64.3632 2 
-53.2129 64.3491 2 -51.0937 64.3456 2 -48.8634 64.3636 2 
-46.7389 64.3935 2 -44.5249 64.4074 2 -42.4744 64.425 2 
-40.2692 64.4692 2 -38.0455 64.4851 2 -35.9104 64.4776 2 
-33.6876 64.4576 2 -31.5294 64.4533 2 -29.4156 64.4742 2 
-27.3464 64.4756 2 -25.3597 64.3887 2 -23.3803 64.3235 2 
-21.4461 64.755 2 -78.0584 -30.5157 2 -78.1357 -28.0985 2 
-78.0983 -25.8874 2 -78.0444 -23.6285 2 -77.9831 -21.4732 2 
-77.9534 -19.2273 2 -77.889 -16.9259 2 -77.8392 -14.7457 2 
-77.9467 -12.6796 2 -77.9492 -10.4642 2 -77.9143 -8.25489 2 
-77.9338 -6.14412 2 -77.9371 -4.05883 2 -77.9195 -1.93354 2 
-77.9181 0.0931238 2 -77.902 2.26384 2 -77.9293 4.30272 2 
-77.9825 6.44625 2 -77.9354 8.63267 2 -78.0026 10.862 2 
-77.9607 12.9365 2 -77.9914 15.1438 2 -78.0441 17.36 2 
-78.034 19.5132 2 -78.0128 21.6671 2 -78.0137 23.9084 2 
-78.0183 26.0511 2 -78.0441 28.1727 2 -78.056 30.3478 2 
-78.0737 32.5843 2 -77.942 34.7148 2 -77.8627 36.9771 2 
-77.9482 39.151 2 -77.9523 41.4781 2 -77.9436 43.6347 2 
-77.9429 45.8718 2 -77.9552 48.0166 2 -77.9422 50.2295 2 
-78.0177 52.4792 2 -78.0369 54.5999 2 -78.0854 56.7028 2 
-78.1431 58.936 2 -78.1713 61.0327 2 -78.2481 62.9884 2 
-22.4474 59.274 2 -22.7652 55.6527 2 -23.0825 51.354 2 
-23.3462 46.7435 2 -24.1078 41.5142 2 -25.1844 29.36 2 
-25.1094 22.955 2 -24.8866 16.9428 2 -24.7355 11.0119 2 
-24.6246 5.30272 2 -24.599 -0.145589 2 -24.5189 -5.90667 2 
-24.5403 -10.992 2 -24.4506 -15.5928 2 -24.313 -19.9203 2 
-22.7612 -27.5367 2 -21.9553 -30.2901 2 -23.5838 -31.7314 2 
-25.534 -31.7729 2 -27.5961 -31.7484 2 -29.8061 -31.6577 2 
-31.9702 -31.5529 2 -34.1726 -31.5269 2 -36.4848 -31.5302 2 
-38.7449 -31.5515 2 -41.0635 -31.5684 2 -43.2385 -31.5564 2 
-45.4765 -31.5719 2 -47.7237 -31.6063 2 -49.8341 -31.5902 2 
-52.0321 -31.5521 2 -54.1403 -31.5464 2 -56.3856 -31.5364 2 
-58.6221 -31.542 2 -60.8791 -31.5537 2 -63.0301 -31.5645 2 
-65.3042 -31.5675 2 -67.474 -31.6153 2 -69.6324 -31.6399 2 
-71.959 -31.6195 2 -74.256 -31.6431 2 -76.2406 -31.7624 2 
-60.9543 32.4961 2 -59.7984 30.414 2 -58.671 28.4943 2 
-57.4997 26.5395 2 -56.3614 24.5174 2 -55.1849 22.461 2 
-54.088 20.4345 2 -52.8602 18.5384 2 -51.6952 16.512 2 
-50.4888 14.3992 2 -49.2725 12.2959 2 -48.1389 10.1869 2 
-47.0097 7.97499 2 -48.2413 4.18388 2 -66.4563 29.9578 2 
-65.2339 27.9366 2 -64.1007 26.0372 2 -62.9595 24.0327 2 
-61.8542 22.1021 2 -60.8513 20.2979 2 -59.7346 18.3771 2 
-58.6329 16.5157 2 -57.598 14.6982 2 -56.5325 12.8194 2 
-55.5489 11.0159 2 -54.5189 9.15072 2 -53.3821 7.18051 2 
-52.2092 5.08134 2 -65.4939 33.7772 2 -22.0151 62.34 2 
-25.0101 35.579 2 -24.3791 -24.1704 2 -61.8529 34.2974 2 
-46.3223 5.56273 2 -50.6321 3.08881 2 -67.3089 32.2429 2 
-63.6925 35.3786 2 -73.6277 62.8237 2 -71.3377 62.6262 2 
-69.2907 62.5235 2 -67.2058 62.4557 2 -65.0023 62.3671 2 
-62.8228 62.3541 2 -60.6362 62.3277 2 -58.4792 62.219 2 
-56.3807 62.2601 2 -54.2324 62.2792 2 -52.1551 62.2695 2 
-49.9917 62.2397 2 -47.7798 62.2945 2 -45.589 62.2645 2 
-43.4863 62.3681 2 -41.4179 62.4087 2 -39.0808 62.3794 2 
-36.9595 62.3013 2 -34.8267 62.3348 2 -32.5386 62.3377 2 
-30.4454 62.4159 2 -28.3913 62.3998 2 -26.4764 62.4822 2 
-25.0592 57.5971 2 -76.4183 -27.0802 2 -76.0747 -24.9692 2 
-75.9092 -22.7261 2 -75.7728 -20.5607 2 -75.7106 -18.1806 2 
-75.6945 -15.8671 2 -75.7293 -13.7009 2 -75.7517 -11.6136 2 
-75.7751 -9.41802 2 -75.8199 -7.19221 2 -75.7531 -5.17235 2 
-75.7599 -3.10366 2 -75.8007 -1.02323 2 -75.8551 1.17837 2 
-75.836 3.23948 2 -75.8336 5.34434 2 -75.8233 7.57977 2 
-75.773 9.79173 2 -75.8187 11.9555 2 -75.8891 14.0319 2 
-75.9565 16.2655 2 -76.0111 18.3965 2 -75.988 20.635 2 
-75.954 22.8629 2 -75.9233 25.0922 2 -75.9157 27.2111 2 
-76.1267 29.2512 2 -76.2476 31.4049 2 -75.9086 33.6305 2 
-75.6829 35.7104 2 -75.8081 37.9967 2 -75.8675 40.257 2 
-75.8468 42.4371 2 -75.8202 44.687 2 -75.8012 46.8659 2 
-75.7669 49.092 2 -75.779 51.391 2 -75.8794 53.5988 2 
-76.0565 55.647 2 -76.1761 57.8977 2 -76.3335 60.0662 2 
-76.1436 62.5214 2 -75.8015 -29.3581 2 -25.6978 53.5603 2 
-26.4775 49.1568 2 -26.9154 44.8805 2 -69.0644 30.4422 2 
-46.1467 2.79073 2 -29.7049 19.5413 2 -29.4115 13.7368 2 
-29.0326 8.25715 2 -29.016 2.85345 2 -29.0303 -2.43499 2 
-29.167 -7.8471 2 -29.2415 -12.6933 2 -29.0114 -17.0103 2 
-30.2477 32.1798 2 -59.7633 34.7102 2 -48.5326 1.2721 2 
-26.4798 -29.9567 2 -28.4726 -29.5645 2 -30.6558 -29.4657 2 
-32.9682 -29.3408 2 -35.2008 -29.2126 2 -37.5157 -29.2811 2 
-39.9068 -29.3111 2 -42.1153 -29.3572 2 -44.2864 -29.3552 2 
-46.5802 -29.3669 2 -48.7691 -29.4095 2 -50.8935 -29.4022 2 
-53.0748 -29.4283 2 -55.2435 -29.3386 2 -57.5127 -29.3218 2 
-59.7784 -29.336 2 -61.9787 -29.3631 2 -64.2414 -29.3547 2 
-66.4972 -29.452 2 -68.6631 -29.5115 2 -70.8389 -29.6416 2 
-73.2884 -29.5532 2 -57.4444 30.53 2 -58.5888 32.6226 2 
-55.0332 26.7006 2 -53.8302 24.614 2 -52.7766 22.5342 2 
-51.6181 20.594 2 -50.2896 18.6435 2 -49.0593 16.5751 2 
-47.8435 14.3167 2 -46.6763 12.1427 2 -45.5317 9.84248 2 
-44.67 7.30834 2 -24.4202 61.4947 2 -53.2502 2.42775 2 
-66.4457 26.1046 2 -65.2521 24.0487 2 -64.1921 22.0656 2 
-63.161 20.1865 2 -62.0698 18.3065 2 -60.9225 16.4528 2 
-59.8847 14.6079 2 -58.8442 12.7683 2 -57.808 10.9003 2 
-56.8076 8.99538 2 -55.8009 6.95704 2 -54.6548 4.70674 2 
-29.7687 40.2271 2 -28.771 -21.0785 2 -30.1926 26.0275 2 
-24.2755 -29.5765 2 -56.2281 28.597 2 -67.8661 28.1977 2 
-67.9149 34.8221 2 -69.9447 32.9688 2 -26.3038 -27.294 2 
-44.0015 4.62467 2 -61.3995 36.7158 2 -29.1892 -24.6264 2 
-65.9237 36.7897 2 -51.4428 0.186839 2 -70.477 60.5071 2 
-68.4597 60.3703 2 -66.2569 60.2608 2 -64.0238 60.1186 2 
-61.7659 59.9883 2 -59.5102 59.9609 2 -57.4655 59.9555 2 
-55.3272 59.9988 2 -53.17 59.9955 2 -50.9903 59.887 2 
-48.8564 59.8477 2 -46.5925 59.8792 2 -44.5566 59.9811 2 
-42.4254 60.1996 2 -40.1974 60.1265 2 -37.9813 59.9098 2 
-35.8956 59.9388 2 -33.5594 59.9534 2 -31.364 60.0747 2 
-29.347 60.4405 2 -72.5962 60.7411 2 -42.9004 9.38352 2 
-74.6714 61.021 2 -73.8505 -24.1467 2 -73.6129 -21.8539 2 
-73.3907 -19.552 2 -73.3729 -17.1096 2 -73.4058 -14.7671 2 
-73.4489 -12.6501 2 -73.5754 -10.5104 2 -73.5589 -8.36348 2 
-73.4803 -6.24216 2 -73.502 -4.20343 2 -73.5943 -2.10687 2 
-73.5903 -0.00728749 2 -73.6026 2.20076 2 -73.6127 4.24696 2 
-73.6059 6.43381 2 -73.5457 8.7452 2 -73.569 10.9137 2 
-73.6203 13.0339 2 -73.7225 15.1385 2 -73.8834 17.3849 2 
-73.8702 19.6183 2 -73.842 21.762 2 -73.7931 24.0851 2 
-73.7035 26.3244 2 -73.7324 28.5757 2 -74.3364 30.3864 2 
-74.1397 32.3125 2 -72.9702 34.1402 2 -73.3686 36.6769 2 
-73.7194 39.0884 2 -73.8001 41.2979 2 -73.6434 43.4115 2 
-73.4982 45.6697 2 -73.362 47.9431 2 -73.3507 50.2716 2 
-73.5624 52.6182 2 -73.7872 54.7102 2 -73.9681 56.9576 2 
-74.2978 59.0865 2 -69.0109 26.1645 2 -70.9092 28.1268 2 
-27.9547 55.8194 2 -29.0659 51.7512 2 -30.3875 46.624 2 
-74.2084 -26.912 2 -58.6101 37.4924 2 -33.3359 10.8427 2 
-34.9382 35.57 2 -33.6191 -4.83885 2 -33.7241 -10.0367 2 
-33.4786 -14.7082 2 -43.6123 1.55489 2 -56.1109 2.09549 2 
-54.9102 30.6795 2 -46.2893 -0.304711 2 -33.1625 5.58385 2 
-29.1613 -27.5348 2 -31.4719 -27.139 2 -33.8882 -26.9722 2 
-36.1703 -26.7992 2 -38.6334 -26.8525 2 -41.0088 -27.0023 2 
-43.2062 -27.037 2 -45.4478 -26.9755 2 -47.627 -27.0053 2 
-49.7702 -27.1827 2 -51.9184 -27.2139 2 -54.1353 -27.0217 2 
-56.3347 -26.9074 2 -58.6525 -26.888 2 -60.9806 -26.9371 2 
-63.2751 -26.9271 2 -65.5177 -27.0191 2 -67.8388 -27.2107 2 
-69.9295 -27.4817 2 -72.0381 -27.8485 2 -50.3907 22.7059 2 
-52.4176 26.8327 2 -48.7565 21.1132 2 -47.5449 18.8713 2 
-46.5014 16.5522 2 -45.1861 14.186 2 -43.9004 12.0229 2 
-42.0309 6.64595 2 -54.5809 -0.451939 2 -63.5844 38.6969 2 
-66.7386 21.997 2 -65.7038 20.0095 2 -64.5652 18.1237 2 
-63.4425 16.3039 2 -62.3515 14.4254 2 -61.2491 12.6654 2 
-60.2067 10.8264 2 -59.2017 8.90392 2 -58.3386 6.79401 2 
-57.3569 4.45912 2 -32.8784 -18.8587 2 -53.5501 28.8588 2 
-34.0045 16.0948 2 -33.299 0.614271 2 -51.2292 24.7222 2 
-70.5552 35.6301 2 -49.1941 -1.90322 2 -67.6231 24.0664 2 
-27.1906 59.6972 2 -57.2961 35.0719 2 -34.4797 21.9242 2 
-35.6295 28.8664 2 -60.5565 39.9037 2 -41.1381 3.6879 2 
-68.3577 37.5824 2 -56.2021 32.7542 2 -52.6022 -2.9661 2 
-35.2444 43.5504 2 -71.8739 30.967 2 -67.6554 57.8456 2 
-65.4181 57.736 2 -63.0111 57.4686 2 -60.7742 57.0711 2 
-58.5327 57.0608 2 -56.4601 57.2974 2 -54.2448 57.3864 2 
-52.096 57.3545 2 -49.8714 57.3215 2 -47.6202 57.2091 2 
-45.393 57.3296 2 -43.3107 57.5192 2 -41.3076 58.023 2 
-39.1497 57.3396 2 -36.8979 57.1973 2 -34.6981 57.7426 2 
-32.368 57.2439 2 -29.7276 57.8706 2 -38.6 -7.02315 2 
-33.0902 50.1918 2 -68.728 19.9143 2 -71.4512 -23.2459 2 
-71.1498 -20.9144 2 -70.9535 -18.5172 2 -70.9006 -15.9945 2 
-70.9166 -13.5599 2 -71.0261 -11.3986 2 -71.5101 -9.42769 2 
-71.004 -7.45037 2 -71.0195 -5.34219 2 -71.0818 -3.22573 2 
-71.2235 -1.13737 2 -71.2886 1.04961 2 -71.2293 3.08659 2 
-71.2072 5.34214 2 -71.1944 7.65642 2 -71.1785 9.93992 2 
-71.1459 12.0928 2 -71.2711 14.1717 2 -71.5869 16.3247 2 
-71.6311 18.642 2 -71.5814 20.822 2 -71.7025 22.9221 2 
-71.5792 25.3685 2 -71.8454 40.1662 2 -71.3692 42.131 2 
-71.1092 44.3118 2 -70.9293 46.6775 2 -70.703 49.0784 2 
-70.857 51.5259 2 -71.302 53.8464 2 -71.6654 56.2486 2 
-53.8025 32.7817 2 -71.8073 -25.6838 2 -57.3341 40.5648 2 
-39.8377 8.99851 2 -45.6805 21.7379 2 -39.7452 32.9032 2 
-60.2237 4.37374 2 -38.2583 -12.5513 2 -43.6041 -1.87742 2 
-36.5351 7.79757 2 -31.0948 54.5585 2 -57.995 -0.662812 2 
-50.0572 -5.4954 2 -32.3539 -24.9665 2 -34.6918 -24.3155 2 
-37.2841 -24.1027 2 -39.7643 -24.4804 2 -42.0856 -24.7721 2 
-44.3276 -24.5825 2 -46.5799 -24.3347 2 -48.7937 -24.547 2 
-50.7719 -25.1854 2 -52.7905 -24.5232 2 -55.0877 -24.3235 2 
-57.4337 -24.3125 2 -59.8746 -24.3178 2 -62.3379 -24.2694 2 
-64.6598 -24.3891 2 -67.0769 -24.6867 2 -69.4 -25.1048 2 
-44.6679 18.9077 2 -43.931 16.4256 2 -41.6088 14.6198 2 
-37.6793 12.7239 2 -56.4141 -3.60693 2 -46.6287 -3.93566 2 
-66.2005 40.2978 2 -62.9585 42.218 2 -41.1322 11.6753 2 
-59.3893 1.94455 2 -67.1374 17.9309 2 -66.1847 15.9733 2 
-64.998 14.2395 2 -63.8013 12.465 2 -62.7392 10.7633 2 
-61.6958 8.88723 2 -60.9407 6.72371 2 -69.8578 58.2046 2 
-72.1031 58.5511 2 -71.1306 38.1296 2 -54.561 -6.75794 2 
-55.715 37.7556 2 -40.5834 0.413779 2 -52.0944 31.1966 2 
-69.8494 24.1116 2 -49.8425 26.8118 2 -40.9359 28.3291 2 
-47.7037 24.6083 2 -54.4675 35.1158 2 -38.3434 18.3253 2 
-37.6936 -17.6067 2 -39.2846 6.01351 2 -47.0421 -8.14596 2 
-59.2255 43.4573 2 -38.9585 23.8681 2 -39.2155 38.4436 2 
-50.6691 29.1406 2 -37.2861 3.2368 2 -32.3458 -22.2208 2 
-37.1336 -1.66289 2 -69.339 22.1052 2 -66.8061 55.1085 2 
-64.5472 55.153 2 -62.3624 54.1351 2 -59.8811 53.8251 2 
-57.5463 54.0746 2 -55.4331 54.9339 2 -53.3528 54.494 2 
-51.0646 54.5854 2 -48.6202 54.5501 2 -46.3127 54.493 2 
-44.0171 54.8283 2 -41.2566 55.1581 2 -38.0881 54.2832 2 
-34.8018 54.3199 2 -60.0982 -6.74146 2 -62.6037 2.03744 2 
-68.5353 -20.0349 2 -68.2215 -17.3478 2 -68.2726 -14.6802 2 
-68.34 -12.1316 2 -68.5929 -9.38445 2 -68.1117 -6.54174 2 
-68.7058 -4.33632 2 -68.3228 -2.17875 2 -69.0252 -0.10017 2 
-68.6306 1.93383 2 -68.5812 4.16692 2 -68.7027 6.48017 2 
-68.7297 8.89881 2 -68.7585 11.127 2 -68.3676 13.5799 2 
-69.42 40.161 2 -68.4587 42.6345 2 -68.6122 45.1821 2 
-67.8014 47.5144 2 -67.8428 50.3251 2 -68.4563 52.9854 2 
-44.3501 31.1544 2 -41.9148 17.9817 2 -42.4291 -15.199 2 
-43.3772 -5.81666 2 -42.9327 -10.3342 2 -37.5412 49.6215 2 
-55.4585 44.0391 2 -42.0174 21.0913 2 -35.5832 -21.2571 2 
-38.7081 -21.3367 2 -41.0529 -22.4667 2 -43.0854 -22.4841 2 
-45.1934 -21.4778 2 -48.0577 -21.3394 2 -50.7212 -22.3645 2 
-53.2312 -21.4491 2 -56.0003 -21.5542 2 -58.6343 -21.7187 2 
-61.3095 -21.4942 2 -63.7581 -21.4715 2 -66.3709 -21.9396 2 
-68.9786 -22.5925 2 -43.309 24.5174 2 -60.3669 -3.3479 2 
-65.5122 44.5666 2 -61.8271 -0.639899 2 -61.5377 46.5486 2 
-65.8429 10.2772 2 -64.0105 8.92555 2 -69.2031 55.6338 2 
-51.4506 -9.87251 2 -69.5949 17.6316 2 -57.3527 -10.9062 2 
-53.7775 40.7008 2 -40.7199 -3.24008 2 -68.9939 15.6742 2 
-44.7851 27.5902 2 -51.4988 34.2418 2 -42.0967 -19.4419 2 
-44.1457 36.3878 2 -41.5198 43.7317 2 -63.1215 4.60903 2 
-57.4502 47.107 2 -47.6265 28.7988 2 -48.4688 32.2844 2 
-66.4323 12.3479 2 -63.6204 6.89852 2 -53.132 -14.0541 2 
-62.0986 50.6996 2 -55.5616 51.3624 2 -52.4912 51.2953 2 
-49.9467 52.04 2 -47.53 51.3221 2 -44.925 51.5158 2 
-42.6408 52.5202 2 -65.2718 -16.0472 2 -65.8161 -13.3803 2 
-65.325 -10.8102 2 -61.804 -9.87427 2 -64.8216 -7.56706 2 
-64.9915 -4.04086 2 -65.7045 2.82546 2 -64.7705 48.5339 2 
-65.2221 52.1818 2 -46.0112 -17.9096 2 -47.7266 -13.1995 2 
-52.3987 37.421 2 -50.3869 -18.2626 2 -54.4591 -18.0009 2 
-57.2566 -19.0148 2 -59.798 -18.9412 2 -62.5723 -17.8047 2 
-65.62 -19.0885 2 -66.2826 7.71807 2 -53.6574 47.5942 2 
-40.2299 52.038 2 -65.7798 -0.198568 2 -66.0163 5.32358 2 
-50.7675 44.3824 2 -58.7805 50.4915 2 -49.9629 48.7052 2 
-46.163 47.2347 2 -50.3722 40.1865 2 -42.2835 49.0353 2 
-48.657 36.8036 2 -62.3126 -13.6207 2 -58.1898 -15.5112 2 
-46.537 41.5792 2 -77.1867 63.6969 0 -74.0194 64.3265 0 
-71.3081 64.3788 0 -68.7358 64.0978 0 -65.9416 63.9747 0 
-63.1897 63.9364 0 -60.3602 63.942 0 -57.8073 63.882 0 
-55.1579 63.8885 0 -52.5007 63.8629 0 -49.8402 63.845 0 
-47.0629 63.8417 0 -44.2125 63.8237 0 -41.5982 63.8396 0 
-38.8716 63.9004 0 -36.2538 63.8166 0 -33.472 63.8986 0 
-30.7518 63.8932 0 -28.1508 63.7964 0 -25.626 63.8077 0 
-23.0562 64.2268 0 -77.1927 -30.645 0 -77.6169 -27.3748 0 
-77.753 -24.6109 0 -77.8706 -21.9301 0 -77.7434 -19.201 0 
-77.6711 -16.5859 0 -77.6602 -13.8919 0 -77.5818 -11.22 0 
-77.5401 -8.57591 0 -77.6322 -6.01105 0 -77.6025 -3.35478 0 
-77.5716 -0.669873 0 -77.5832 2.09439 0 -77.6028 4.67561 0 
-77.5504 7.4394 0 -77.515 10.105 0 -77.6082 12.7355 0 
-77.5946 15.4871 0 -77.5906 18.2241 0 -77.595 20.8369 0 
-77.5576 23.5695 0 -77.6872 26.1784 0 -77.7627 28.864 0 
-77.7264 31.6165 0 -77.7368 34.2969 0 -77.7234 37.005 0 
-77.7042 39.5903 0 -77.7036 42.1958 0 -77.6459 44.851 0 
-77.6952 47.3892 0 -77.7133 50.0106 0 -77.6406 52.7183 0 
-77.6959 55.2946 0 -77.6077 58.0265 0 -77.5274 60.6862 0 
-21.8624 62.5341 0 -21.8073 60.2563 0 -22.6396 57.5449 0 
-22.9235 53.8197 0 -22.7391 49.8096 0 -24.9589 39.2439 0 
-25.172 32.6713 0 -25.181 26.1587 0 -25.2372 19.87 0 
-25.3341 13.7305 0 -25.2464 8.3103 0 -24.9931 3.02483 0 
-24.7941 -2.12291 0 -24.5374 -7.63485 0 -24.2359 -12.7643 0 
-23.8983 -17.2244 0 -23.7433 -21.4866 0 -22.5661 -28.0275 0 
-21.6897 -30.4293 0 -23.7732 -30.8752 0 -25.8177 -31.4873 0 
-28.0482 -31.0096 0 -30.6999 -30.971 0 -33.4079 -31.1751 0 
-36.041 -31.3256 0 -38.8177 -31.2314 0 -41.6588 -31.1961 0 
-44.2949 -31.1885 0 -47.0986 -31.2092 0 -49.7467 -31.1808 0 
-52.5344 -31.2051 0 -55.2746 -31.1574 0 -58.0004 -31.1144 0 
-60.5728 -31.2099 0 -63.2168 -31.2946 0 -65.8999 -31.31 0 
-68.5528 -31.4467 0 -71.2703 -31.4786 0 -74.1597 -31.2461 0 
-61.2252 32.686 0 -60.0342 30.7114 0 -58.9298 28.759 0 
-57.748 26.8605 0 -56.6594 24.9921 0 -55.6169 23.1888 0 
-54.6559 21.3564 0 -53.5687 19.5123 0 -52.4661 17.6023 0 
-51.3041 15.7148 0 -50.176 13.7997 0 -49.1247 11.9159 0 
-48.0447 10.1012 0 -46.8988 8.04856 0 -48.0211 4.11604 0 
-66.2696 29.7081 0 -65.2655 27.7825 0 -64.1768 25.9124 0 
-63.0834 24.0622 0 -62.0886 22.2759 0 -60.9994 20.3877 0 
-59.9391 18.5142 0 -58.8297 16.7668 0 -57.7771 14.8649 0 
-56.6468 12.919 0 -55.5524 11.0485 0 -54.442 9.04804 0 
-53.3097 7.07253 0 -52.0191 5.06103 0 -65.2787 33.9484 0 
-24.7432 45.6608 0 -23.3489 -25.0427 0 -50.2721 3.01876 0 
-62.6117 34.4569 0 -45.9777 5.73094 0 -67.1453 31.9916 0 
-72.6068 62.537 0 -74.9389 61.737 0 -67.7112 61.5481 0 
-64.8323 61.4217 0 -61.89 61.3107 0 -59.0317 61.2667 0 
-56.4236 61.2227 0 -53.776 61.1742 0 -51.2107 61.2402 0 
-48.3534 61.1653 0 -45.5955 61.1261 0 -42.861 61.1293 0 
-40.2649 61.1588 0 -37.4118 61.2162 0 -34.8271 61.2237 0 
-32.1101 61.3321 0 -29.4163 61.2 0 -26.8796 60.8204 0 
-24.2348 60.9833 0 -30.1644 22.9145 0 -75.601 -23.1026 0 
-75.4926 -25.7161 0 -75.098 -28.4766 0 -75.5538 -20.5219 0 
-75.4323 -17.9376 0 -75.2513 -15.2659 0 -75.1485 -12.6114 0 
-75.214 -9.97471 0 -75.2241 -7.3392 0 -75.2105 -4.67371 0 
-75.1685 -1.98565 0 -75.1327 0.714235 0 -75.1908 3.29748 0 
-75.1836 6.11011 0 -75.1681 8.78447 0 -75.1404 11.424 0 
-75.1363 14.1347 0 -75.1054 16.9925 0 -75.0791 19.5879 0 
-75.104 22.2707 0 -75.2155 24.87 0 -75.357 27.4987 0 
-75.4023 30.1825 0 -75.4307 32.9596 0 -75.2942 35.5642 0 
-75.3467 38.1577 0 -75.3963 40.7957 0 -75.2869 43.4361 0 
-75.2613 46.0138 0 -75.2585 48.6747 0 -75.2725 51.4261 0 
-75.3039 53.9785 0 -75.2731 56.5801 0 -75.1779 59.1855 0 
-25.8291 -28.4022 0 -25.707 56.658 0 -29.5892 41.9326 0 
-26.0414 51.2956 0 -67.8599 34.1287 0 -30.053 29.0951 0 
-27.5037 -24.3434 0 -30.025 35.3518 0 -30.5627 16.6126 0 
-30.4043 10.8157 0 -29.9425 5.57269 0 -29.5022 0.638567 0 
-29.399 -4.49325 0 -29.0852 -9.83712 0 -28.6615 -14.8701 0 
-27.9989 -19.5435 0 -52.869 2.46129 0 -47.8803 0.938269 0 
-29.2541 -28.1731 0 -32.0872 -28.6868 0 -34.72 -28.9681 0 
-37.4346 -28.8444 0 -40.2481 -28.6773 0 -42.8762 -28.5993 0 
-45.7067 -28.6026 0 -48.4814 -28.6748 0 -51.1927 -28.7668 0 
-53.9232 -28.7194 0 -56.6903 -28.6986 0 -59.2606 -28.6916 0 
-61.9499 -28.7603 0 -64.6933 -28.811 0 -67.2763 -28.9584 0 
-69.8151 -29.2607 0 -72.6208 -29.1265 0 -60.0434 34.9126 0 
-44.2267 7.75065 0 -45.3714 3.0706 0 -57.6536 30.8853 0 
-56.4527 29.0236 0 -55.3916 27.1389 0 -54.3127 25.1778 0 
-53.3048 23.4108 0 -52.2557 21.4999 0 -51.1327 19.588 0 
-49.9442 17.6515 0 -48.8347 15.7804 0 -47.7544 13.8501 0 
-46.614 11.9002 0 -45.3146 9.99944 0 -68.7066 30.0222 0 
-64.0867 36.597 0 -67.7981 27.7116 0 -64.5539 22.1806 0 
-63.5442 20.3344 0 -62.4618 18.3385 0 -61.3814 16.4958 0 
-60.268 14.6493 0 -59.0379 12.7695 0 -57.9186 10.824 0 
-56.7811 8.81713 0 -55.6509 6.76763 0 -54.4219 4.67579 0 
-70.3291 61.96 0 -58.8138 33.0011 0 -66.6698 25.9041 0 
-65.5275 24.017 0 -67.0919 36.6954 0 -29.2507 48.1758 0 
-69.9907 32.5462 0 -51.0041 0.410172 0 -61.5434 36.5311 0 
-43.3254 5.22398 0 -33.9738 44.8057 0 -60.513 58.5305 0 
-66.5332 58.8678 0 -57.7898 58.5182 0 -55.1065 58.4944 0 
-52.521 58.49 0 -49.6989 58.3919 0 -46.945 58.2888 0 
-44.1168 58.2458 0 -41.5023 58.2709 0 -38.7662 58.3377 0 
-35.9684 58.3796 0 -33.285 58.4493 0 -30.8893 58.8547 0 
-28.4893 57.7389 0 -35.9042 13.6501 0 -34.5592 25.7724 0 
-72.6233 60.3257 0 -69.7027 25.539 0 -73.6164 -21.7213 0 
-73.2395 -26.5295 0 -72.7798 -13.9899 0 -72.7603 -11.4136 0 
-72.7811 -8.69573 0 -72.807 -6.01865 0 -72.8267 -3.33232 0 
-72.8041 -0.603622 0 -72.8249 1.97297 0 -72.8111 4.6413 0 
-72.7308 7.48525 0 -72.6083 10.1781 0 -72.5318 12.8304 0 
-72.5642 15.5805 0 -72.5302 18.4678 0 -72.5296 21.0346 0 
-72.5966 23.7651 0 -72.7055 26.292 0 -73.1241 28.8175 0 
-73.007 31.541 0 -72.8421 34.1797 0 -72.8802 36.8207 0 
-72.9263 39.2766 0 -72.8093 41.9827 0 -72.6197 44.5729 0 
-72.6238 47.2963 0 -72.5701 50.0533 0 -72.7432 52.7285 0 
-73.0191 55.2245 0 -72.8529 -16.7679 0 -28.8099 53.4944 0 
-70.1548 35.4167 0 -35.082 19.5221 0 -33.8621 -7.00079 0 
-33.8751 -1.98374 0 -33.7751 2.89797 0 -33.2434 -12.3898 0 
-44.5052 0.00449711 0 -63.5442 58.5934 0 -33.5871 -26.7486 0 
-38.7061 -26.1052 0 -41.4263 -25.8329 0 -44.1116 -25.8236 0 
-47.0229 -25.9087 0 -49.8057 -25.9989 0 -52.5947 -26.0749 0 
-55.3062 -26.052 0 -58.0785 -25.9923 0 -60.6552 -25.9409 0 
-63.4808 -25.917 0 -66.2581 -26.1696 0 -68.7262 -26.636 0 
-31.21 -25.6163 0 -41.3494 7.41529 0 -49.3048 -1.61962 0 
-54.0369 29.3348 0 -52.8846 27.4671 0 -51.7959 25.5892 0 
-50.6925 23.6828 0 -49.5609 21.7155 0 -48.4012 19.7838 0 
-47.2659 17.8326 0 -46.2615 15.9103 0 -45.1475 13.9561 0 
-43.8352 12.0408 0 -42.4099 9.94739 0 -65.1429 18.2134 0 
-66.2003 20.2414 0 -63.009 14.3901 0 -61.6557 12.5555 0 
-60.4444 10.6306 0 -59.2416 8.63762 0 -58.0849 6.56631 0 
-56.9176 4.38639 0 -53.9202 -0.25489 0 -34.863 7.6174 0 
-73.2557 -23.971 0 -55.5895 2.08245 0 -73.0138 -19.4887 0 
-36.0195 -26.4894 0 -42.4592 2.49815 0 -55.1535 31.2288 0 
-64.1938 16.1453 0 -69.7401 59.1509 0 -32.4377 51.1645 0 
-34.824 31.7183 0 -67.8381 24.0457 0 -72.9131 57.8066 0 
-64.9133 39.3111 0 -46.714 -2.4386 0 -59.2734 37.644 0 
-35.0065 38.0909 0 -32.5332 -17.2982 0 -31.5713 -21.8411 0 
-40.5848 4.84222 0 -56.8913 35.5233 0 -61.9622 38.9143 0 
-70.9887 -27.2708 0 -51.9196 -2.60452 0 -70.9672 30.1755 0 
-56.478 33.019 0 -70.4439 27.8594 0 -67.1942 22.1215 0 
-55.0996 -3.53291 0 -56.3198 38.8171 0 -59.1793 55.7374 0 
-51.0645 55.488 0 -48.3412 55.3789 0 -45.4233 55.2473 0 
-42.7223 55.1115 0 -40.0761 55.3588 0 -37.0941 55.4686 0 
-34.1848 55.3261 0 -31.2371 55.7452 0 -38.9723 28.2905 0 
-38.5459 6.83098 0 -70.2681 -7.38599 0 -70.1426 -10.1083 0 
-70.1459 -12.8666 0 -70.3091 -4.68141 0 -70.2747 -1.90858 0 
-70.2433 0.634514 0 -70.3041 3.24781 0 -70.3115 6.09165 0 
-70.0626 8.91349 0 -69.7192 11.6302 0 -69.7674 14.3511 0 
-69.9995 17.128 0 -69.6173 19.9649 0 -70.3213 37.9807 0 
-70.7249 40.4299 0 -69.6179 42.7902 0 -69.8952 45.8593 0 
-69.7606 48.7641 0 -69.9137 51.4989 0 -70.2815 54.0662 0 
-67.9539 39.8641 0 -70.312 -15.5017 0 -42.4164 -22.8203 0 
-56.4949 55.6307 0 -40.2373 17.1112 0 -38.6779 -4.11764 0 
-51.6692 29.6042 0 -39.7779 2.254 0 -37.9228 -9.9435 0 
-37.3174 0.377792 0 -52.2824 31.8884 0 -45.4553 -22.9835 0 
-41.0494 -0.495668 0 -39.5956 -22.7956 0 -48.2371 -23.0435 0 
-51.133 -23.2522 0 -53.913 -23.3094 0 -56.7291 -23.204 0 
-59.389 -23.045 0 -62.2187 -22.9829 0 -65.2324 -23.1667 0 
-68.2301 -23.6951 0 -38.7204 9.86871 0 -49.3535 -4.62999 0 
-34.1588 -24.0208 0 -50.2228 28.0146 0 -48.9371 26.1028 0 
-47.9405 24.0511 0 -46.9401 21.8603 0 -45.5383 20.0116 0 
-44.1052 18.1276 0 -43.7617 16.0229 0 -42.5266 14.3126 0 
-40.3222 12.858 0 -63.2771 10.3308 0 -64.333 12.3395 0 
-60.5823 6.49098 0 -59.4946 4.30367 0 -38.5998 22.6841 0 
-61.9277 8.4255 0 -67.7215 18.3141 0 -53.8478 55.6874 0 
-69.9796 22.6609 0 -62.2048 55.6659 0 -70.8405 -24.7433 0 
-39.8277 34.2441 0 -70.8919 -21.7268 0 -37.6049 48.3528 0 
-37.3079 4.22378 0 -58.579 1.83204 0 -65.9829 42.0778 0 
-70.768 56.4857 0 -70.4322 -18.5147 0 -53.4819 36.7473 0 
-59.2006 40.9413 0 -40.1388 41.349 0 -36.1275 -20.3967 0 
-65.1306 55.7005 0 -54.04 33.9739 0 -67.2833 16.054 0 
-36.9492 -23.9171 0 -62.6084 41.8803 0 -68.2349 56.2648 0 
-52.6257 -6.02095 0 -57.217 -0.833482 0 -37.0824 -15.3148 0 
-66.5238 13.5885 0 -49.7826 51.4888 0 -41.132 51.5936 0 
-38.4113 52.587 0 -67.7061 -3.25746 0 -67.587 -8.73035 0 
-43.8903 30.2361 0 -50.5277 34.7276 0 -56.6519 -7.32468 0 
-67.7444 -5.99559 0 -67.3829 -11.604 0 -67.495 -0.598949 0 
-67.4995 1.95725 0 -67.756 4.5643 0 -67.6595 7.4875 0 
-66.7895 10.3906 0 -67.2426 44.517 0 -66.8346 47.2213 0 
-66.7876 50.3388 0 -67.2765 53.2229 0 -53.2405 39.9923 0 
-58.0252 52.6816 0 -46.6251 -19.6445 0 -58.7428 -4.14896 0 
-43.7471 -19.9373 0 -42.4207 -7.9561 0 -43.1981 -3.57365 0 
-48.6786 31.4982 0 -49.4061 -19.9074 0 -40.6367 -18.7893 0 
-67.4482 -14.3536 0 -52.3867 -20.1995 0 -55.1711 -20.3343 0 
-58.0191 -20.2026 0 -60.7488 -19.7982 0 -63.9503 -19.733 0 
-67.4284 -20.0508 0 -49.7511 -8.44214 0 -46.3151 -6.34239 0 
-44.1055 51.7022 0 -46.8341 52.3624 0 -45.7525 26.5616 0 
-45.4166 24.1129 0 -44.2401 22.1648 0 -42.1346 20.6863 0 
-41.4816 -13.1061 0 -61.9296 4.50275 0 -63.2344 6.25914 0 
-35.6362 52.5009 0 -45.4604 35.9081 0 -53.923 -10.0422 0 
-60.7726 53.1191 0 -49.6294 38.7581 0 -55.8409 42.4579 0 
-68.1289 -17.0661 0 -60.9865 -0.972044 0 -42.5143 47.3681 0 
-63.8216 52.2404 0 -52.5139 52.9004 0 -61.6359 2.08221 0 
-47.4294 28.6537 0 -64.7954 8.25885 0 -42.2486 25.0964 0 
-64.0594 44.8951 0 -55.2012 52.5906 0 -59.0407 -12.0985 0 
-64.4954 0.66606 0 -64.6662 -2.00742 0 -59.5448 45.3564 0 
-53.5773 -16.8547 0 -56.775 49.1107 0 -63.7767 -12.984 0 
-56.3146 -17.5674 0 -58.9161 -16.525 0 -61.9727 -16.1794 0 
-65.3333 -16.7037 0 -46.5332 48.5694 0 -61.0996 -8.4896 0 
-65.6283 5.95488 0 -51.1317 -13.1272 0 -64.7769 -9.99974 0 
-47.904 -16.0915 0 -50.8108 -17.118 0 -64.6265 3.54627 0 
-65.422 -4.56947 0 -50.1972 46.8631 0 -46.2095 -11.3471 0 
-44.2738 -16.4033 0 -63.4064 48.3491 0 -51.3568 42.9221 0 
-53.0873 49.602 0 -62.228 -4.49064 0 -64.6755 -7.12203 0 
-55.4915 -13.9286 0 -46.1863 42.8968 0 -60.3814 49.8217 0 
-54.4142 45.956 0 -19.9817 -33.5857 1 -79.9817 -33.5857 1 
-21.0317 -33.5857 0 -23.1917 -33.5857 0 -25.5317 -33.5857 0 
-28.0217 -33.5857 0 -30.6617 -33.5857 0 -33.3617 -33.5857 0 
-36.0617 -33.5857 0 -38.8217 -33.5857 0 -41.6117 -33.5857 0 
-44.3417 -33.5857 0 -47.0117 -33.5857 0 -49.6217 -33.5857 0 
-52.4417 -33.5857 0 -55.3217 -33.5857 0 -57.9617 -33.5857 0 
-60.6017 -33.5857 0 -63.2417 -33.5857 0 -65.8817 -33.5857 0 
-68.5217 -33.5857 0 -71.2217 -33.5857 0 -74.0417 -33.5857 0 
-76.7117 -33.5857 0 -78.9617 -33.5857 0 -21.0317 -33.5857 2 
-23.2517 -33.5857 2 -25.4717 -33.5857 2 -27.6317 -33.5857 2 
-29.8817 -33.5857 2 -32.0717 -33.5857 2 -34.3217 -33.5857 2 
-36.5417 -33.5857 2 -38.7017 -33.5857 2 -41.0717 -33.5857 2 
-43.3517 -33.5857 2 -45.5417 -33.5857 2 -47.7617 -33.5857 2 
-49.8917 -33.5857 2 -51.9917 -33.5857 2 -54.1517 -33.5857 2 
-56.4017 -33.5857 2 -58.5917 -33.5857 2 -60.8117 -33.5857 2 
-63.0317 -33.5857 2 -65.1917 -33.5857 2 -67.4117 -33.5857 2 
-69.6017 -33.5857 2 -71.8817 -33.5857 2 -74.1917 -33.5857 2 
-76.4417 -33.5857 2 -78.7817 -33.5857 2 -78.7817 66.4143 2 
-76.5317 66.4143 2 -74.4017 66.4143 2 -72.2117 66.4143 2 
-70.0817 66.4143 2 -68.0417 66.4143 2 -65.9417 66.4143 2 
-63.7817 66.4143 2 -61.6517 66.4143 2 -59.5817 66.4143 2 
-57.5417 66.4143 2 -55.3517 66.4143 2 -53.1917 66.4143 2 
-51.0917 66.4143 2 -48.9017 66.4143 2 -46.7717 66.4143 2 
-44.5817 66.4143 2 -42.4517 66.4143 2 -40.3517 66.4143 2 
-38.0417 66.4143 2 -35.8217 66.4143 2 -33.6917 66.4143 2 
-31.5317 66.4143 2 -29.4017 66.4143 2 -27.3017 66.4143 2 
-25.2317 66.4143 2 -23.0717 66.4143 2 -20.9717 66.4143 2 
-79.9817 -32.4357 2 -79.9817 -30.1357 2 -79.9817 -27.8857 2 
-79.9817 -25.7357 2 -79.9817 -23.5357 2 -79.9817 -21.2857 2 
-79.9817 -19.0357 2 -79.9817 -16.8357 2 -79.9817 -14.7857 2 
-79.9817 -12.5857 2 -79.9817 -10.3357 2 -79.9817 -8.23569 2 
-79.9817 -6.13569 2 -79.9817 -3.98569 2 -79.9817 -1.88569 2 
-79.9817 0.164313 2 -79.9817 2.26431 2 -79.9817 4.36431 2 
-79.9817 6.46431 2 -79.9817 8.56431 2 -79.9817 10.7643 2 
-79.9817 12.9643 2 -79.9817 15.1143 2 -79.9817 17.3143 2 
-79.9817 19.5143 2 -79.9817 21.6643 2 -79.9817 23.8643 2 
-79.9817 26.0643 2 -79.9817 28.1643 2 -79.9817 30.3143 2 
-79.9817 32.5143 2 -79.9817 34.7643 2 -79.9817 37.0143 2 
-79.9817 39.3143 2 -79.9817 41.5643 2 -79.9817 43.7643 2 
-79.9817 45.9643 2 -79.9817 48.1143 2 -79.9817 50.2143 2 
-79.9817 52.3643 2 -79.9817 54.5643 2 -79.9817 56.7143 2 
-79.9817 58.9143 2 -79.9817 61.1143 2 -79.9817 63.2143 2 
-79.9817 65.3143 2 -19.9817 65.2643 2 -19.9817 62.5643 2 
-19.9817 59.3643 2 -19.9817 55.7643 2 -19.9817 51.5143 2 
-19.9817 46.6643 2 -19.9817 41.5143 2 -19.9817 35.6643 2 
-19.9817 29.4143 2 -19.9817 23.1143 2 -19.9817 16.8143 2 
-19.9817 10.8643 2 -19.9817 5.06431 2 -19.9817 -1.03569 2 
-19.9817 -6.88569 2 -19.9817 -11.9357 2 -19.9817 -16.5357 2 
-19.9817 -20.6857 2 -19.9817 -24.2357 2 -19.9817 -27.1857 2 
-19.9817 -29.9357 2 -19.9817 -32.4357 2 -62.7478 31.4818 2 
-61.5853 29.4683 2 -60.4078 27.4288 2 -59.2753 25.4673 2 
-58.0903 23.4148 2 -56.9353 21.4143 2 -55.8103 19.4657 2 
-54.6628 17.4782 2 -53.5303 15.5166 2 -52.3678 13.5031 2 
-51.1753 11.4377 2 -49.9978 9.39818 2 -48.8503 7.41065 2 
-49.1538 5.93637 2 -64.5023 30.5208 2 -63.4748 28.7411 2 
-62.4098 26.8965 2 -61.3073 24.9869 2 -60.1973 23.0643 2 
-59.1248 21.2067 2 -58.0673 19.3751 2 -56.9648 17.4655 2 
-55.8998 15.6208 2 -54.8723 13.8411 2 -53.8223 12.0225 2 
-52.7948 10.2428 2 -51.7598 8.45014 2 -50.6198 6.4756 2 
-64.1538 31.9171 2 -78.9017 66.4143 0 -76.5617 66.4143 0 
-73.9517 66.4143 0 -71.1917 66.4143 0 -68.4617 66.4143 0 
-65.7617 66.4143 0 -63.0017 66.4143 0 -60.3317 66.4143 0 
-57.8417 66.4143 0 -55.2917 66.4143 0 -52.6217 66.4143 0 
-49.8617 66.4143 0 -47.0717 66.4143 0 -44.2817 66.4143 0 
-41.5817 66.4143 0 -38.9417 66.4143 0 -36.2417 66.4143 0 
-33.5417 66.4143 0 -30.8117 66.4143 0 -28.1417 66.4143 0 
-25.5617 66.4143 0 -23.1617 66.4143 0 -21.0017 66.4143 0 
-79.9817 -32.4357 0 -79.9817 -29.9857 0 -79.9817 -27.3357 0 
-79.9817 -24.6857 0 -79.9817 -21.9857 0 -79.9817 -19.1857 0 
-79.9817 -16.5357 0 -79.9817 -13.9357 0 -79.9817 -11.1857 0 
-79.9817 -8.53569 0 -79.9817 -5.98569 0 -79.9817 -3.33569 0 
-79.9817 -0.635687 0 -79.9817 2.06431 0 -79.9817 4.71431 0 
-79.9817 7.36431 0 -79.9817 10.0143 0 -79.9817 12.7143 0 
-79.9817 15.4643 0 -79.9817 18.1643 0 -79.9817 20.8143 0 
-79.9817 23.5143 0 -79.9817 26.2643 0 -79.9817 28.9143 0 
-79.9817 31.6143 0 -79.9817 34.3143 0 -79.9817 37.0643 0 
-79.9817 39.7643 0 -79.9817 42.3143 0 -79.9817 44.9143 0 
-79.9817 47.4643 0 -79.9817 50.0143 0 -79.9817 52.6643 0 
-79.9817 55.3643 0 -79.9817 58.0643 0 -79.9817 60.6643 0 
-79.9817 63.1143 0 -79.9817 65.3643 0 -19.9817 65.3143 0 
-19.9817 63.0643 0 -19.9817 60.4143 0 -19.9817 57.1643 0 
-19.9817 53.5143 0 -19.9817 49.4643 0 -19.9817 44.9643 0 
-19.9817 39.6643 0 -19.9817 33.2143 0 -19.9817 26.2143 0 
-19.9817 19.6143 0 -19.9817 13.7143 0 -19.9817 8.21431 0 
-19.9817 2.76431 0 -19.9817 -2.78569 0 -19.9817 -8.23569 0 
-19.9817 -13.2357 0 -19.9817 -17.4857 0 -19.9817 -21.0857 0 
-19.9817 -24.3357 0 -19.9817 -27.2857 0 -19.9817 -29.9857 0 
-19.9817 -32.4357 0 -62.7703 31.5208 0 -61.6903 29.6502 0 
-60.5428 27.6627 0 -59.4103 25.7011 0 -58.3678 23.8954 0 
-57.3628 22.1547 0 -56.3503 20.401 0 -55.2853 18.5564 0 
-54.1753 16.6338 0 -53.1028 14.7762 0 -52.0153 12.8926 0 
-50.9503 11.048 0 -49.9078 9.2423 0 -48.8278 7.37168 0 
-49.1538 5.93637 0 -64.4873 30.4948 0 -63.4373 28.6762 0 
-62.3573 26.8055 0 -61.2773 24.9349 0 -60.2498 23.1553 0 
-59.1998 21.3366 0 -58.1573 19.5309 0 -57.1523 17.7902 0 
-56.1098 15.9846 0 -54.9848 14.036 0 -53.8598 12.0874 0 
-52.8173 10.2818 0 -51.7373 8.41117 0 -50.5898 6.42364 0 
-64.1538 31.9171 0 -19.9817 66.4143 1 -79.9817 66.4143 1 
-63.2878 32.4171 1 -65.0198 31.4171 1 -50.0198 5.43637 1 
-48.2878 6.43637 1 -21.0317 -33.5857 1 -78.9617 -33.5857 1 
-22.0817 -33.5857 1 -23.1917 -33.5857 1 -24.3617 -33.5857 1 
-25.4117 -33.5857 1 -26.6417 -33.5857 1 -27.7517 -33.5857 1 
-29.0117 -33.5857 1 -30.1517 -33.5857 1 -31.5317 -33.5857 1 
-32.5817 -33.5857 1 -33.9017 -33.5857 1 -35.1017 -33.5857 1 
-36.4817 -33.5857 1 -38.6417 -33.5857 1 -40.0217 -33.5857 1 
-41.2517 -33.5857 1 -42.6617 -33.5857 1 -43.7117 -33.5857 1 
-45.0317 -33.5857 1 -46.1717 -33.5857 1 -47.5217 -33.5857 1 
-48.6017 -33.5857 1 -49.8617 -33.5857 1 -51.9617 -33.5857 1 
-53.5217 -33.5857 1 -54.6317 -33.5857 1 -55.9517 -33.5857 1 
-57.0917 -33.5857 1 -58.4117 -33.5857 1 -59.4617 -33.5857 1 
-60.7817 -33.5857 1 -63.0017 -33.5857 1 -64.3217 -33.5857 1 
-65.4317 -33.5857 1 -66.7517 -33.5857 1 -67.8617 -33.5857 1 
-69.1817 -33.5857 1 -70.2617 -33.5857 1 -71.6417 -33.5857 1 
-72.8417 -33.5857 1 -74.2817 -33.5857 1 -76.5317 -33.5857 1 
-77.7617 -33.5857 1 -37.5017 -33.5857 1 -50.9117 -33.5857 1 
-61.9517 -33.5857 1 -75.3917 -33.5857 1 -78.7817 65.3143 2 
-77.2766 65.5086 2 -76.2266 65.5086 2 -75.0789 65.5057 2 
-73.9989 65.5057 2 -75.8238 64.6001 2 -72.8257 65.5044 2 
-71.7157 65.5044 2 -73.5028 64.5958 2 -70.6739 65.4443 2 
-69.6539 65.4443 2 -71.2878 64.5344 2 -68.5821 65.4443 2 
-67.5621 65.4443 2 -69.1743 64.4742 2 -66.5226 65.454 2 
-65.4426 65.454 2 -67.063 64.4839 2 -64.3387 65.4357 2 
-63.2587 65.4357 2 -64.9196 64.4754 2 -62.2096 65.4085 2 
-61.1596 65.4085 2 -62.7666 64.4299 2 -60.0724 65.3829 2 
-59.0524 65.3829 2 -60.6302 64.377 2 -58.0112 65.3915 2 
-56.9912 65.3915 2 -58.5018 64.3601 2 -55.9275 65.3887 2 
-54.7575 65.3887 2 -56.3969 64.366 2 -53.6973 65.3817 2 
-52.7073 65.3817 2 -54.273 64.3561 2 -51.6477 65.3799 2 
-50.5377 65.3799 2 -52.1533 64.3473 2 -49.4226 65.3889 2 
-48.3426 65.3889 2 -49.9786 64.3546 2 -47.2803 65.4039 2 
-46.2303 65.4039 2 -47.8011 64.3785 2 -45.1233 65.4109 2 
-43.9833 65.4109 2 -45.6319 64.4005 2 -42.9581 65.4197 2 
-41.9681 65.4197 2 -43.4997 64.4162 2 -40.8654 65.4418 2 
-39.7554 65.4418 2 -41.3718 64.4471 2 -38.6436 65.4497 2 
-37.4436 65.4497 2 -39.1573 64.4772 2 -36.3761 65.446 2 
-35.3561 65.446 2 -36.9779 64.4814 2 -34.2447 65.436 2 
-33.1347 65.436 2 -34.799 64.4676 2 -32.0556 65.4338 2 
-31.0056 65.4338 2 -32.6085 64.4555 2 -29.9487 65.4443 2 
-28.8687 65.4443 2 -30.4725 64.4638 2 -27.8341 65.445 2 
-26.8141 65.445 2 -28.381 64.4749 2 -25.8207 65.4015 2 
-24.7707 65.4015 2 -26.3531 64.4322 2 -23.781 65.3689 2 
-22.671 65.3689 2 -24.37 64.3561 2 -21.7039 65.5846 2 
-20.7139 65.5846 2 -20.7139 64.4346 2 -22.4132 64.5392 2 
-78.7817 -32.4357 2 -79.0201 -30.9007 2 -79.0201 -29.7507 2 
-79.0587 -28.5421 2 -79.0587 -27.4421 2 -78.097 -29.3071 2 
-79.04 -26.3365 2 -79.04 -25.2865 2 -78.117 -26.9929 2 
-79.0131 -24.1571 2 -79.0131 -23.0071 2 -78.0713 -24.7579 2 
-78.9824 -21.9294 2 -78.9824 -20.8294 2 -78.0137 -22.5508 2 
-78.9676 -19.7065 2 -78.9676 -18.5565 2 -77.9682 -20.3503 2 
-78.9354 -17.4058 2 -78.9354 -16.3558 2 -77.9212 -18.0766 2 
-78.9104 -15.2657 2 -78.9104 -14.2657 2 -77.8641 -15.8358 2 
-78.9642 -13.2326 2 -78.9642 -12.0326 2 -77.893 -13.7126 2 
-78.9655 -10.9249 2 -78.9655 -9.87492 2 -77.948 -11.5719 2 
-78.948 -8.77029 2 -78.948 -7.72029 2 -77.9318 -9.35953 2 
-78.9578 -6.6649 2 -78.9578 -5.6149 2 -77.9241 -7.19951 2 
-78.9594 -4.57226 2 -78.9594 -3.47226 2 -77.9354 -5.10147 2 
-78.9506 -2.40961 2 -78.9506 -1.40961 2 -77.9283 -2.99619 2 
-78.9499 -0.396282 2 -78.9499 0.653718 2 -77.9188 -0.920209 2 
-78.9418 1.73908 2 -78.9418 2.78908 2 -77.91 1.17848 2 
-78.9555 3.80852 2 -78.9555 4.85852 2 -77.9156 3.28328 2 
-78.9821 5.93028 2 -78.9821 6.98028 2 -77.9559 5.37449 2 
-78.9586 8.07349 2 -78.9586 9.12349 2 -77.959 7.53946 2 
-78.9922 10.2381 2 -78.9922 11.3881 2 -77.969 9.74733 2 
-78.9712 12.4254 2 -78.9712 13.4754 2 -77.9817 11.8992 2 
-78.9866 14.5791 2 -78.9866 15.6791 2 -77.9761 14.0401 2 
-79.0129 16.7872 2 -79.0129 17.8872 2 -78.0178 16.2519 2 
-79.0079 18.9638 2 -79.0079 20.0638 2 -78.0391 18.4366 2 
-78.9973 21.1407 2 -78.9973 22.1907 2 -78.0234 20.5901 2 
-78.9977 23.3114 2 -78.9977 24.4614 2 -78.0133 22.7877 2 
-79 25.5327 2 -79 26.5827 2 -78.016 24.9798 2 
-79.0129 27.6435 2 -79.0129 28.6935 2 -78.0312 27.1119 2 
-79.0189 29.7811 2 -79.0189 30.8811 2 -78.0501 29.2602 2 
-79.0277 31.9993 2 -79.0277 33.0993 2 -78.0649 31.4661 2 
-78.9619 34.1645 2 -78.9619 35.3145 2 -78.0079 33.6496 2 
-78.9222 36.4457 2 -78.9222 37.5457 2 -77.9024 35.846 2 
-78.9649 38.6326 2 -78.9649 39.8326 2 -77.9054 38.0641 2 
-78.967 40.9962 2 -78.967 42.0462 2 -77.9502 40.3146 2 
-78.9627 43.1245 2 -78.9627 44.2745 2 -77.9479 42.5564 2 
-78.9623 45.3931 2 -78.9623 46.4431 2 -77.9433 44.7532 2 
-78.9685 47.5154 2 -78.9685 48.6155 2 -77.9491 46.9442 2 
-78.962 49.7219 2 -78.962 50.7219 2 -77.9487 49.1231 2 
-78.9997 51.8467 2 -78.9997 52.9967 2 -77.9799 51.3544 2 
-79.0093 54.0571 2 -79.0093 55.1071 2 -78.0273 53.5395 2 
-79.0335 56.1586 2 -79.0335 57.2586 2 -78.0611 55.6513 2 
-79.0624 58.3752 2 -79.0624 59.4752 2 -78.1142 57.8194 2 
-79.0765 60.5235 2 -79.0765 61.6235 2 -78.1572 59.9843 2 
-79.1149 62.6013 2 -79.1149 63.6013 2 -78.2097 62.0105 2 
-21.2146 60.1441 2 -21.2146 58.4941 2 -21.3735 56.6835 2 
-21.3735 54.7335 2 -22.6063 57.4633 2 -21.5321 52.5841 2 
-21.5321 50.2841 2 -22.9239 53.5033 2 -21.664 47.9789 2 
-21.664 45.4289 2 -23.2144 49.0487 2 -22.0448 42.8142 2 
-22.0448 40.2142 2 -23.727 44.1288 2 -22.5831 30.8872 2 
-22.5831 27.8872 2 -22.5456 24.6847 2 -22.5456 21.3847 2 
-25.1469 26.1575 2 -22.4342 18.3785 2 -22.4342 15.3786 2 
-24.998 19.9489 2 -22.3586 12.4131 2 -22.3586 9.46308 2 
-24.811 13.9773 2 -22.3032 6.60852 2 -22.3032 3.75852 2 
-24.68 8.15729 2 -22.2903 1.03436 2 -22.2903 -2.21564 2 
-24.6118 2.57857 2 -22.2503 -5.09618 2 -22.2503 -7.69618 2 
-24.5589 -3.02613 2 -22.261 -10.2389 2 -22.261 -12.6889 2 
-24.5296 -8.44934 2 -22.2161 -14.9892 2 -22.2161 -17.1392 2 
-24.4954 -13.2924 2 -22.1474 -19.303 2 -22.1474 -21.303 2 
-24.3818 -17.7566 2 -21.3714 -26.6612 2 -21.3714 -28.0612 2 
-20.9685 -29.4379 2 -20.9685 -30.7879 2 -22.3582 -28.9134 2 
-21.0317 -32.4357 2 -22.8328 -32.6586 2 -24.0028 -32.6586 2 
-24.9779 -32.6793 2 -26.0279 -32.6793 2 -24.5589 -31.7521 2 
-27.0589 -32.667 2 -28.1689 -32.667 2 -26.5651 -31.7606 2 
-29.2739 -32.6217 2 -30.4139 -32.6217 2 -28.7011 -31.703 2 
-31.496 -32.5693 2 -32.546 -32.5693 2 -30.8882 -31.6053 2 
-33.6472 -32.5563 2 -34.8472 -32.5563 2 -33.0714 -31.5399 2 
-36.0033 -32.558 2 -37.0233 -32.558 2 -35.3287 -31.5286 2 
-38.1533 -32.5686 2 -39.2933 -32.5686 2 -37.6148 -31.5409 2 
-40.4526 -32.577 2 -41.6826 -32.577 2 -39.9042 -31.56 2 
-42.7701 -32.571 2 -43.8201 -32.571 2 -42.151 -31.5624 2 
-44.9391 -32.5788 2 -46.0791 -32.5788 2 -44.3575 -31.5641 2 
-47.2027 -32.596 2 -48.2827 -32.596 2 -46.6001 -31.5891 2 
-49.3379 -32.5879 2 -50.3879 -32.5879 2 -48.7789 -31.5982 2 
-51.4869 -32.5689 2 -52.5369 -32.5689 2 -50.9331 -31.5711 2 
-53.591 -32.566 2 -54.701 -32.566 2 -53.0862 -31.5493 2 
-55.8237 -32.561 2 -56.9637 -32.561 2 -55.263 -31.5414 2 
-58.0819 -32.5639 2 -59.1319 -32.5639 2 -57.5039 -31.5392 2 
-60.2604 -32.5697 2 -61.4304 -32.5697 2 -59.7506 -31.5479 2 
-62.5059 -32.5751 2 -63.5559 -32.5751 2 -61.9546 -31.5591 2 
-64.693 -32.5766 2 -65.803 -32.5766 2 -64.1672 -31.566 2 
-66.8879 -32.6005 2 -67.9979 -32.6005 2 -66.3891 -31.5914 2 
-69.0771 -32.6128 2 -70.1571 -32.6128 2 -68.5532 -31.6276 2 
-71.3204 -32.6026 2 -72.5204 -32.6026 2 -70.7957 -31.6297 2 
-73.6689 -32.6144 2 -74.7789 -32.6144 2 -73.1075 -31.6313 2 
-75.7712 -32.674 2 -76.9112 -32.674 2 -75.2483 -31.7028 2 
-61.581 31.5213 2 -62.121 32.4566 2 -60.3806 29.4021 2 
-61.0031 30.4803 2 -60.3764 31.4551 2 -59.2619 27.4809 2 
-59.8169 28.4422 2 -59.2347 29.4542 2 -58.0987 25.5032 2 
-58.6762 26.5035 2 -58.0854 27.5169 2 -56.9221 23.44 2 
-57.5296 24.4922 2 -56.9305 25.5285 2 -55.7864 21.4635 2 
-56.3339 22.4118 2 -55.7731 23.4892 2 -54.6604 19.45 2 
-55.2379 20.4502 2 -54.6365 21.4478 2 -53.4765 17.5147 2 
-54.0465 18.5019 2 -53.4741 19.4864 2 -52.3315 15.5272 2 
-52.894 16.5015 2 -52.2777 17.5252 2 -51.1283 13.4316 2 
-51.7283 14.4708 2 -51.092 15.4556 2 -49.9277 11.3536 2 
-50.5202 12.3799 2 -49.8807 13.3475 2 -48.7758 9.28589 2 
-49.3608 10.2991 2 -48.7057 11.2414 2 -47.6488 7.20568 2 
-48.2113 8.17996 2 -47.5743 9.08092 2 -49.1306 4.81013 2 
-48.2645 5.31013 2 -65.7381 30.6875 2 -65.2206 29.7911 2 
-64.6094 28.7805 2 -64.0994 27.8972 2 -65.8451 28.9472 2 
-63.5327 26.9475 2 -62.9777 25.9862 2 -64.6673 26.9869 2 
-62.4072 24.984 2 -61.8597 24.0357 2 -63.5301 25.0349 2 
-61.307 23.0703 2 -60.7445 22.0961 2 -62.4069 23.0674 2 
-60.243 21.194 2 -59.7331 20.3106 2 -61.3527 21.2 2 
-59.1747 19.3502 2 -58.6272 18.4019 2 -60.2929 19.3375 2 
-58.0764 17.4712 2 -57.5214 16.5099 2 -59.1838 17.4464 2 
-57.0039 15.6012 2 -56.4939 14.7179 2 -58.1155 15.6069 2 
-55.9612 13.7784 2 -55.4437 12.8821 2 -57.0653 13.7588 2 
-54.9518 11.9804 2 -54.4193 11.0581 2 -56.0407 11.9176 2 
-53.9044 10.1255 2 -53.4094 9.26808 2 -55.0339 10.0833 2 
-52.841 8.28298 2 -52.301 7.34767 2 -53.9505 8.16562 2 
-51.7145 6.29808 2 -51.1145 5.25885 2 -52.7957 6.13092 2 
-64.3909 33.0971 2 -65.2569 32.5971 2 -78.4766 64.4086 2 
-77.8201 -32.0507 2 -20.9984 63.2271 2 -20.9984 61.6772 2 
-22.0185 -31.9379 2 -22.4959 37.2467 2 -22.4959 33.9967 2 
-24.3461 -22.0454 2 -22.1804 -23.428 2 -22.1804 -24.978 2 
-25.0973 32.4695 2 -61.4036 33.3968 2 -62.5703 33.3573 2 
-47.2818 4.87331 2 -47.305 5.99955 2 -46.666 6.76886 2 
-50.326 4.26259 2 -49.4367 3.63634 2 -66.4014 33.01 2 
-66.1644 31.83 2 -51.4207 4.08507 2 -63.4902 33.8979 2 
-64.5932 34.5779 2 -62.7727 34.838 2 -66.8826 31.1004 2 
-22.2313 60.807 2 -77.1495 -31.1391 2 -74.1519 63.7104 2 
-72.9786 63.7091 2 -71.8337 63.6104 2 -70.7919 63.5502 2 
-72.4827 62.725 2 -69.7684 63.4989 2 -68.6966 63.4989 2 
-70.3142 62.5749 2 -67.6542 63.465 2 -66.6147 63.4747 2 
-68.2483 62.4896 2 -65.5129 63.4304 2 -64.409 63.4121 2 
-66.104 62.4114 2 -63.3193 63.4056 2 -62.2701 63.3784 2 
-63.9126 62.3606 2 -61.1768 63.3652 2 -60.0896 63.3396 2 
-61.7295 62.3409 2 -59.0111 63.2852 2 -57.9699 63.2938 2 
-59.5577 62.2733 2 -56.9207 63.3144 2 -55.857 63.3117 2 
-57.4299 62.2395 2 -54.7828 63.3212 2 -53.7226 63.3141 2 
-55.3065 62.2697 2 -52.684 63.3093 2 -51.6244 63.3075 2 
-53.1937 62.2743 2 -50.5427 63.2926 2 -49.4276 63.3017 2 
-51.0734 62.2546 2 -48.3216 63.3291 2 -47.2593 63.344 2 
-48.8858 62.2671 2 -46.1639 63.329 2 -45.057 63.336 2 
-46.6844 62.2795 2 -44.0056 63.3878 2 -42.9804 63.3966 2 
-44.5377 62.3163 2 -41.9461 63.4169 2 -40.8435 63.439 2 
-42.4521 62.3884 2 -39.675 63.4243 2 -38.5631 63.4323 2 
-40.2493 62.3941 2 -37.5025 63.3932 2 -36.435 63.3895 2 
-38.0202 62.3404 2 -35.3686 63.4062 2 -34.2572 63.3962 2 
-35.8931 62.3181 2 -33.1131 63.3977 2 -32.034 63.3955 2 
-33.6826 62.3363 2 -30.9874 63.4346 2 -29.9305 63.445 2 
-31.492 62.3768 2 -28.9035 63.437 2 -27.8689 63.4377 2 
-29.4183 62.4078 2 -26.9114 63.4789 2 -25.9181 63.4354 2 
-27.4339 62.441 2 -23.7533 58.4356 2 -23.9122 56.6249 2 
-77.6098 63.7957 2 -77.277 -27.5894 2 -77.2583 -26.4838 2 
-77.0865 -25.4283 2 -77.0595 -24.2989 2 -76.2465 -26.0247 2 
-76.9768 -23.1773 2 -76.9461 -22.0996 2 -75.9919 -23.8477 2 
-76.8779 -21.0169 2 -76.8631 -19.894 2 -75.841 -21.6434 2 
-76.832 -18.7039 2 -76.7998 -17.5533 2 -75.7417 -19.3706 2 
-76.7918 -16.3965 2 -76.7668 -15.3064 2 -75.7025 -17.0238 2 
-76.7842 -14.2233 2 -76.838 -13.1902 2 -75.7119 -14.784 2 
-76.8492 -12.1466 2 -76.8505 -11.0389 2 -75.7405 -12.6572 2 
-76.8622 -9.94109 2 -76.8447 -8.83646 2 -75.7634 -10.5158 2 
-76.8671 -7.72355 2 -76.8769 -6.66817 2 -75.7975 -8.30512 2 
-76.8434 -5.65823 2 -76.8451 -4.61559 2 -75.7865 -6.18228 2 
-76.8485 -3.58125 2 -76.8397 -2.5186 2 -75.7565 -4.13801 2 
-76.8601 -1.47839 2 -76.8594 -0.465055 2 -75.7803 -2.06345 2 
-76.8866 0.635749 2 -76.8785 1.72111 2 -75.8279 0.0775702 2 
-76.869 2.75166 2 -76.8826 3.7711 2 -75.8455 2.20892 2 
-76.8814 4.82353 2 -76.908 5.89529 2 -75.8348 4.29191 2 
-76.9029 7.01301 2 -76.8794 8.10622 2 -75.8285 6.46205 2 
-76.8542 9.2122 2 -76.8878 10.3269 2 -75.7982 8.68575 2 
-76.9107 11.4088 2 -76.8897 12.446 2 -75.7958 10.8736 2 
-76.9249 13.4842 2 -76.9403 14.5878 2 -75.8539 12.9937 2 
-76.974 15.7047 2 -77.0003 16.8128 2 -75.9228 15.1487 2 
-77.0276 17.8782 2 -77.0225 18.9548 2 -75.9838 17.331 2 
-77.011 20.0741 2 -77.0004 21.1511 2 -75.9995 19.5158 2 
-76.9834 22.265 2 -76.9838 23.3857 2 -75.971 21.749 2 
-76.9685 24.5003 2 -76.9708 25.5717 2 -75.9386 23.9776 2 
-76.967 26.6311 2 -76.9799 27.6919 2 -75.9195 26.1517 2 
-77.0854 28.7119 2 -77.0914 29.7995 2 -76.0212 28.2311 2 
-77.1518 30.8764 2 -77.1606 31.9946 2 -76.1871 30.328 2 
-76.9912 33.1074 2 -76.9253 34.1726 2 -76.0781 32.5177 2 
-76.8125 35.2126 2 -76.7728 36.3438 2 -75.7958 34.6705 2 
-76.8354 37.4869 2 -76.8781 38.5739 2 -75.7455 36.8536 2 
-76.9078 39.704 2 -76.9099 40.8676 2 -75.8378 39.1269 2 
-76.8996 41.9576 2 -76.8952 43.0359 2 -75.8572 41.3471 2 
-76.8819 44.1609 2 -76.8816 45.2794 2 -75.8335 43.5621 2 
-76.872 46.3689 2 -76.8782 47.4413 2 -75.8107 45.7765 2 
-76.8611 48.5543 2 -76.8546 49.6608 2 -75.7841 47.979 2 
-76.8606 50.8103 2 -76.8983 51.9351 2 -75.773 50.2415 2 
-76.9485 53.039 2 -76.9582 54.0993 2 -75.8292 52.4949 2 
-77.0467 55.1234 2 -77.0709 56.1749 2 -75.968 54.6229 2 
-77.1307 57.3003 2 -77.1596 58.4169 2 -76.1163 56.7724 2 
-77.2383 59.5011 2 -77.2524 60.5494 2 -76.2548 58.982 2 
-77.1574 61.777 2 -77.1958 62.7549 2 -76.2385 61.2938 2 
-76.0211 -30.5603 2 -76.93 -29.9369 2 -76.9686 -28.7283 2 
-24.559 38.5466 2 -24.2315 54.6065 2 -24.3902 52.4571 2 
-24.78 50.2554 2 -24.9119 47.9502 2 -26.0877 51.3585 2 
-25.1308 45.812 2 -25.5116 43.1973 2 -26.6965 47.0187 2 
-68.1866 31.3426 2 -67.7603 30.2 2 -23.5701 -25.8535 2 
-47.194 3.48731 2 -46.2345 4.17673 2 -27.4072 21.2482 2 
-27.2958 18.2421 2 -27.1491 15.3398 2 -27.0735 12.3743 2 
-29.5582 16.6391 2 -26.884 9.6345 2 -26.8286 6.77994 2 
-29.222 10.997 2 -26.8203 4.07809 2 -26.8075 1.35393 2 
-26.8147 -1.29029 2 -26.7746 -4.17083 2 -29.0231 0.209232 2 
-26.843 -6.87688 2 -26.8537 -9.41956 2 -29.0987 -5.14104 2 
-26.8909 -11.8427 2 -26.846 -14.143 2 -29.2043 -10.2702 2 
-26.731 -16.3015 2 -26.6622 -18.4653 2 -29.1264 -14.8518 2 
-27.6289 33.8794 2 -27.7161 30.7699 2 -60.3588 33.6032 2 
-60.8081 34.5038 2 -49.5824 2.18045 2 -48.387 2.72799 2 
-47.3396 2.03141 2 -26.0069 -30.8648 2 -27.0379 -30.8525 2 
-28.0343 -30.6565 2 -29.1394 -30.6111 2 -27.4762 -29.7606 2 
-30.231 -30.5617 2 -31.313 -30.5093 2 -29.5642 -29.5151 2 
-32.4692 -30.4469 2 -33.5704 -30.4338 2 -31.812 -29.4033 2 
-34.6867 -30.3698 2 -35.8428 -30.3714 2 -34.0845 -29.2767 2 
-37.0002 -30.4057 2 -38.1303 -30.4163 2 -36.3582 -29.2469 2 
-39.3258 -30.4313 2 -40.4852 -30.4397 2 -38.7112 -29.2961 2 
-41.5894 -30.4628 2 -42.6769 -30.4568 2 -41.0111 -29.3341 2 
-43.7624 -30.4558 2 -44.8814 -30.4636 2 -43.2009 -29.3562 2 
-46.0283 -30.4694 2 -47.152 -30.4866 2 -45.4333 -29.3611 2 
-48.2464 -30.5079 2 -49.3016 -30.4999 2 -47.6746 -29.3882 2 
-50.3638 -30.4962 2 -51.4628 -30.4772 2 -49.8313 -29.4059 2 
-52.5535 -30.4902 2 -53.6075 -30.4873 2 -51.9841 -29.4153 2 
-54.6919 -30.4425 2 -55.8145 -30.4375 2 -54.1591 -29.3834 2 
-56.9491 -30.4291 2 -58.0674 -30.4319 2 -56.3781 -29.3302 2 
-59.2002 -30.439 2 -60.3287 -30.4448 2 -58.6455 -29.3289 2 
-61.4289 -30.4584 2 -62.5044 -30.4638 2 -60.8786 -29.3495 2 
-63.6357 -30.4596 2 -64.7728 -30.4611 2 -63.11 -29.3589 2 
-65.9007 -30.5098 2 -66.9856 -30.5337 2 -65.3693 -29.4034 2 
-68.0686 -30.5634 2 -69.1478 -30.5757 2 -67.5801 -29.4818 2 
-70.2357 -30.6408 2 -71.399 -30.6306 2 -69.751 -29.5766 2 
-72.6237 -30.5863 2 -73.7722 -30.5981 2 -72.0637 -29.5974 2 
-75.0288 -30.5006 2 -58.0577 29.5121 2 -58.6214 30.472 2 
-59.1936 31.5183 2 -59.7715 32.5594 2 -59.1761 33.6664 2 
-58.0166 31.5763 2 -55.6973 25.609 2 -56.2664 26.62 2 
-54.5076 23.5375 2 -55.0958 24.5657 2 -54.4317 25.6573 2 
-53.4323 21.4844 2 -53.9808 22.4976 2 -53.3034 23.5741 2 
-52.2392 19.5662 2 -52.8531 20.5142 2 -52.1974 21.5641 2 
-50.9924 17.5777 2 -51.5749 18.5909 2 -50.9539 19.6187 2 
-49.7741 15.4872 2 -50.3773 16.5436 2 -49.6745 17.6093 2 
-48.558 13.3063 2 -49.1662 14.3579 2 -48.4514 15.4459 2 
-47.4076 11.1648 2 -47.9744 12.2193 2 -47.2599 13.2297 2 
-46.2707 8.90873 2 -46.8353 10.0147 2 -46.104 10.9926 2 
-45.4961 6.43554 2 -45.8399 7.64166 2 -23.2176 61.9174 2 
-23.4338 60.3844 2 -52.7297 3.75454 2 -51.9412 2.75828 2 
-65.8398 27.0206 2 -65.2732 26.0709 2 -64.6764 25.0429 2 
-64.1058 24.0407 2 -65.8489 25.0766 2 -63.5758 23.0491 2 
-63.0231 22.0838 2 -64.7221 23.0571 2 -62.5076 21.1443 2 
-62.0061 20.2422 2 -63.6765 21.126 2 -61.4605 19.3022 2 
-60.9022 18.3418 2 -62.6154 19.2465 2 -60.3286 17.4149 2 
-59.7777 16.4842 2 -61.4961 17.3796 2 -59.2588 15.5618 2 
-58.7414 14.6531 2 -60.4036 15.5304 2 -58.2211 13.7333 2 
-57.6884 12.7939 2 -59.3644 13.6881 2 -57.1703 11.8598 2 
-56.6784 10.9581 2 -58.3261 11.8343 2 -56.1782 10.0057 2 
-55.6632 9.07305 2 -57.3078 9.94785 2 -55.1599 8.05388 2 
-54.5915 7.06877 2 -56.3043 7.97621 2 -54.0185 5.94362 2 
-53.432 4.89404 2 -55.2279 5.83189 2 -26.9383 40.8707 2 
-27.3894 37.9031 2 -28.342 42.5538 2 -26.542 -20.4994 2 
-26.5751 -22.6244 2 -28.8912 -19.0444 2 -27.6885 27.6937 2 
-27.651 24.4912 2 -29.9488 22.7844 2 -30.2202 29.1036 2 
-23.5183 -28.5566 2 -23.1154 -29.9333 2 -56.8639 27.5682 2 
-57.4496 28.5457 2 -55.6307 27.6488 2 -67.1612 29.0777 2 
-66.55 28.0671 2 -67.1559 27.1511 2 -66.7044 34.2996 2 
-67.6119 33.5325 2 -76.5575 63.5622 2 -75.4098 63.5593 2 
-74.8856 62.6726 2 -21.7306 63.5475 2 -25.3785 55.5787 2 
-24.7397 59.5459 2 -24.89 62.9417 2 -23.9003 62.9091 2 
-22.6977 63.3317 2 -76.1099 -28.2192 2 -68.4652 29.32 2 
-68.6268 32.6059 2 -69.5046 31.7055 2 -25.3415 -25.7322 2 
-24.5325 -27.4153 2 -74.5449 -29.4556 2 -29.0243 5.5553 2 
-30.0082 36.2035 2 -45.0741 3.7077 2 -45.1619 5.0937 2 
-60.5814 35.713 2 -61.6262 35.5066 2 -23.9297 -30.654 2 
-24.9048 -30.6747 2 -25.3776 -29.7666 2 -56.8363 29.5635 2 
-28.9801 -22.8524 2 -26.7842 -24.3984 2 -27.7465 -25.9602 2 
-45.1008 8.57541 2 -44.3357 5.96651 2 -64.8081 36.0842 2 
-65.7088 35.2834 2 -66.9193 35.8059 2 -52.3465 1.30729 2 
-51.0374 1.63782 2 -62.546 36.0472 2 -53.9525 3.56724 2 
-49.9877 0.729469 2 -68.9298 33.8954 2 -70.9074 61.5667 2 
-69.8839 61.5153 2 -68.8752 61.4469 2 -67.8327 61.413 2 
-69.4684 60.4387 2 -66.7314 61.3582 2 -65.6296 61.3139 2 
-67.3583 60.3155 2 -64.5131 61.2429 2 -63.4233 61.2364 2 
-65.1404 60.1897 2 -62.2944 61.1712 2 -61.201 61.158 2 
-62.8949 60.0535 2 -60.0732 61.1443 2 -58.9947 61.0899 2 
-60.6381 59.9746 2 -57.9723 61.0872 2 -56.9231 61.1078 2 
-58.4879 59.9582 2 -55.8539 61.1295 2 -54.7798 61.139 2 
-56.3963 59.9772 2 -53.7012 61.1373 2 -52.6626 61.1325 2 
-54.2486 59.9971 2 -51.5727 61.0783 2 -50.491 61.0634 2 
-52.0801 59.9412 2 -49.4241 61.0437 2 -48.3181 61.0711 2 
-49.9233 59.8674 2 -47.1861 61.0868 2 -46.0908 61.0718 2 
-47.7244 59.8634 2 -45.0728 61.1228 2 -44.0215 61.1746 2 
-45.5746 59.9301 2 -42.9559 61.2838 2 -41.9216 61.3041 2 
-43.491 60.0903 2 -40.8076 61.2676 2 -39.6391 61.253 2 
-41.3114 60.163 2 -38.531 61.1446 2 -37.4704 61.1056 2 
-39.0893 60.0182 2 -36.4276 61.1201 2 -35.3612 61.1368 2 
-36.9384 59.9243 2 -34.1931 61.1441 2 -33.049 61.1456 2 
-34.7275 59.9461 2 -31.9513 61.2062 2 -30.9047 61.2453 2 
-32.4617 60.014 2 -29.8962 61.4282 2 -28.8692 61.4201 2 
-30.3555 60.2576 2 -73.1119 61.7824 2 -71.9669 61.6836 2 
-71.5366 60.6241 2 -43.7852 8.34593 2 -44.216 9.613 2 
-75.4075 61.7712 2 -74.1496 61.9224 2 -73.6338 60.8811 2 
-75.5025 60.5436 2 -74.9626 -24.5579 2 -74.8798 -23.4364 2 
-74.761 -22.29 2 -74.6928 -21.2073 2 -73.7317 -23.0003 2 
-74.5817 -20.0564 2 -74.5506 -18.8663 2 -73.5018 -20.703 2 
-74.5417 -17.6451 2 -74.5337 -16.4884 2 -73.3818 -18.3308 2 
-74.5502 -15.3171 2 -74.5676 -14.234 2 -73.3893 -15.9384 2 
-74.5891 -13.1755 2 -74.6003 -12.1318 2 -73.4273 -13.7086 2 
-74.6636 -11.062 2 -74.6752 -9.96423 2 -73.5121 -11.5803 2 
-74.667 -8.89075 2 -74.6894 -7.77784 2 -73.5671 -9.43696 2 
-74.6501 -6.71719 2 -74.6167 -5.70726 2 -73.5196 -7.30282 2 
-74.6275 -4.68789 2 -74.631 -3.65354 2 -73.4911 -5.2228 2 
-74.6771 -2.60526 2 -74.6975 -1.56505 2 -73.5481 -3.15515 2 
-74.6955 -0.51526 2 -74.7227 0.585543 2 -73.5923 -1.05708 2 
-74.7288 1.68956 2 -74.7193 2.72012 2 -73.5965 1.09673 2 
-74.7244 3.74322 2 -74.7232 4.79565 2 -73.6077 3.22386 2 
-74.7197 5.88907 2 -74.7146 7.00679 2 -73.6093 5.34038 2 
-74.6845 8.16249 2 -74.6593 9.26847 2 -73.5758 7.58951 2 
-74.671 10.3527 2 -74.6938 11.4346 2 -73.5573 9.82944 2 
-74.7195 12.4947 2 -74.7547 13.5329 2 -73.5946 11.9738 2 
-74.8058 14.5852 2 -74.8395 15.702 2 -73.6714 14.0862 2 
-74.9199 16.8252 2 -74.9472 17.8907 2 -73.803 16.2617 2 
-74.9407 19.0074 2 -74.9291 20.1267 2 -73.8768 18.5016 2 
-74.915 21.1985 2 -74.898 22.3124 2 -73.8561 20.6902 2 
-74.8735 23.474 2 -74.8582 24.5887 2 -73.8176 22.9235 2 
-74.8134 25.7083 2 -74.8096 26.7677 2 -73.7483 25.2048 2 
-74.8241 27.8934 2 -74.9296 28.9135 2 -73.718 27.4501 2 
-75.2316 29.8188 2 -75.292 30.8957 2 -74.0344 29.4811 2 
-75.1936 31.8587 2 -75.0242 32.9715 2 -74.2381 31.3494 2 
-74.4394 33.8853 2 -74.3266 34.9253 2 -73.555 33.2263 2 
-74.5257 36.1936 2 -74.5883 37.3368 2 -73.1694 35.4085 2 
-74.7638 38.5426 2 -74.7934 39.6727 2 -73.544 37.8826 2 
-74.8338 40.7775 2 -74.8235 41.8675 2 -73.7598 40.1932 2 
-74.7451 42.9243 2 -74.7318 44.0493 2 -73.7218 42.3547 2 
-74.6592 45.1784 2 -74.6497 46.2678 2 -73.5708 44.5406 2 
-74.5816 47.4045 2 -74.5645 48.5175 2 -73.4301 46.8064 2 
-74.5588 49.6818 2 -74.5648 50.8313 2 -73.3563 49.1073 2 
-74.6707 52.0046 2 -74.7209 53.1085 2 -73.4566 51.4449 2 
-74.8333 54.1545 2 -74.9219 55.1786 2 -73.6749 53.6642 2 
-75.0123 56.3023 2 -75.0721 57.4277 2 -73.8777 55.8339 2 
-75.2369 58.4921 2 -75.3157 59.5764 2 -74.4846 60.0538 2 
-74.1329 58.0221 2 -68.4385 27.1811 2 -67.7283 26.1345 2 
-69.9868 29.2845 2 -69.3876 28.1623 2 -69.9601 27.1456 2 
-26.507 56.7083 2 -26.8263 54.6898 2 -27.3819 52.6557 2 
-27.7717 50.454 2 -22.7695 -31.0108 2 -28.4325 47.8904 2 
-28.6515 45.7522 2 -25.2897 -28.4352 2 -73.7484 -28.2326 2 
-75.0049 -28.1351 2 -75.3134 -26.9961 2 -59.1867 36.1013 2 
-60.0048 37.1041 2 -31.3737 12.2897 2 -31.1842 9.54993 2 
-32.3534 37.8985 2 -32.5929 33.8749 2 -31.3247 -3.63692 2 
-31.3931 -6.34297 2 -31.4456 -8.94188 2 -31.4828 -11.365 2 
-33.6716 -7.43776 2 -31.3601 -13.7008 2 -31.245 -15.8592 2 
-33.6014 -12.3724 2 -44.8795 2.17281 2 -43.8069 3.08978 2 
-55.3829 3.40112 2 -54.6805 2.26162 2 -55.5692 29.6383 2 
-56.1773 30.6048 2 -47.411 0.483694 2 -46.218 1.24301 2 
-44.9508 0.625088 2 -26.3918 -28.6253 2 -31.0976 6.9205 2 
-31.0893 4.21865 2 -33.2492 8.21328 2 -28.8169 -28.5497 2 
-29.9086 -28.5003 2 -31.0638 -28.3024 2 -32.2201 -28.2399 2 
-30.3166 -27.3369 2 -33.4282 -28.1565 2 -34.5445 -28.0924 2 
-32.68 -27.0556 2 -35.6855 -28.0059 2 -36.843 -28.0402 2 
-35.0292 -26.8857 2 -38.0745 -28.0668 2 -39.2701 -28.0818 2 
-37.4018 -26.8259 2 -40.4578 -28.1567 2 -41.5621 -28.1798 2 
-39.8211 -26.9274 2 -42.6608 -28.1971 2 -43.7463 -28.1961 2 
-42.1075 -27.0197 2 -44.8671 -28.1653 2 -46.014 -28.1712 2 
-44.327 -27.0062 2 -47.1036 -28.1861 2 -48.198 -28.2074 2 
-46.5374 -26.9904 2 -49.2696 -28.2961 2 -50.3318 -28.2925 2 
-48.6986 -27.094 2 -51.4059 -28.308 2 -52.4966 -28.3211 2 
-50.8443 -27.1983 2 -53.605 -28.225 2 -54.6894 -28.1802 2 
-53.0269 -27.1178 2 -55.7891 -28.123 2 -56.9237 -28.1146 2 
-55.235 -26.9645 2 -58.0826 -28.1049 2 -59.2155 -28.112 2 
-57.4936 -26.8977 2 -60.3795 -28.1365 2 -61.4796 -28.1501 2 
-59.8165 -26.9125 2 -62.6269 -28.1451 2 -63.7582 -28.1409 2 
-62.1278 -26.9321 2 -64.8795 -28.1869 2 -66.0074 -28.2356 2 
-64.3964 -26.9731 2 -67.168 -28.3314 2 -68.2509 -28.3611 2 
-66.6782 -27.1149 2 -69.2963 -28.4966 2 -70.3842 -28.5617 2 
-68.8841 -27.3462 2 -71.4385 -28.7451 2 -72.6632 -28.7008 2 
-73.1233 -27.3803 2 -70.9838 -27.6651 2 -51.0044 21.65 2 
-51.5837 22.6201 2 -53.1239 25.7234 2 -53.7254 26.7666 2 
-49.5231 19.8783 2 -50.1873 20.8536 2 -49.5736 21.9095 2 
-48.3021 17.7232 2 -48.9173 18.7574 2 -48.1507 19.9922 2 
-47.1725 15.4344 2 -47.7804 16.5637 2 -47.0232 17.7118 2 
-45.9312 13.1644 2 -46.5148 14.2514 2 -45.8438 15.3691 2 
-44.716 10.9327 2 -45.2883 12.0828 2 -44.5433 13.1044 2 
-43.0162 5.63531 2 -43.3505 6.97715 2 -53.9156 0.987905 2 
-53.0118 -0.13255 2 -55.3459 0.821776 2 -62.4919 37.7064 2 
-63.6385 37.0378 2 -65.9953 23.0228 2 -65.4654 22.0313 2 
-64.948 21.0375 2 -64.4324 20.098 2 -66.2212 21.0032 2 
-63.8631 19.1551 2 -63.3175 18.2151 2 -65.1345 19.0666 2 
-62.7561 17.3052 2 -62.1825 16.3783 2 -64.0039 17.2138 2 
-61.637 15.4391 2 -61.1181 14.5167 2 -62.897 15.3646 2 
-60.5669 13.6367 2 -60.0466 12.7169 2 -61.8003 13.5454 2 
-59.5254 11.7974 2 -59.0073 10.8634 2 -60.7279 11.7459 2 
-58.5048 9.90212 2 -58.0047 8.94965 2 -59.7042 9.86515 2 
-57.5731 7.8947 2 -57.0697 6.87552 2 -58.7701 7.84896 2 
-56.5789 5.70808 2 -56.0059 4.58293 2 -56.7339 3.2773 2 
-30.0781 43.4256 2 -30.9449 -17.9345 2 -30.8247 -19.9686 2 
-30.5584 -21.6497 2 -32.6121 -20.5398 2 -33.1785 -16.7835 2 
-54.2917 27.7797 2 -54.8891 28.7279 2 -54.2302 29.7692 2 
-52.9839 27.8458 2 -75.1415 -25.9406 2 -31.8547 17.8181 2 
-31.708 14.9158 2 -31.1575 1.73386 2 -31.1647 -0.91036 2 
-33.4591 -2.11229 2 -33.2308 3.09906 2 -52.0029 23.6282 2 
-52.5297 24.6681 2 -51.8234 25.7775 2 -50.8099 23.7141 2 
-69.235 35.2261 2 -70.25 34.2995 2 -27.3882 -28.4292 2 
-50.3184 -0.858189 2 -48.8634 -0.315559 2 -67.0344 25.0855 2 
-66.4376 24.0575 2 -67.1808 23.0317 2 -68.317 25.1154 2 
-27.7909 61.0485 2 -26.8335 61.0897 2 -25.4483 61.9885 2 
-28.5103 53.7853 2 -42.4657 8.01474 2 -25.8054 60.596 2 
-29.7267 49.1876 2 -58.5297 34.8911 2 -57.9531 36.2821 2 
-57.9424 33.8473 2 -26.1249 58.6472 2 -33.6702 13.4688 2 
-71.7627 34.8851 2 -71.4575 33.5545 2 -32.3362 23.9758 2 
-32.0923 20.7328 2 -34.2421 19.0095 2 -35.2838 32.2182 2 
-32.9386 30.5231 2 -59.5833 38.698 2 -60.978 38.3098 2 
-42.3752 2.62139 2 -42.5698 4.15629 2 -41.5845 5.16693 2 
-47.7417 -1.10396 2 -64.754 37.7433 2 -68.1363 36.2022 2 
-69.4565 36.6062 2 -67.1407 37.186 2 -56.8232 31.6421 2 
-57.3954 32.6884 2 -56.7491 33.9131 2 -27.5726 57.7583 2 
-74.0294 -25.5293 2 -43.4004 10.7032 2 -53.5916 -1.70902 2 
-52.0225 -1.38963 2 -62.0704 39.3003 2 -57.8477 5.62656 2 
-32.816 45.0872 2 -32.5066 41.8888 2 -35.0913 39.5602 2 
-32.911 27.4469 2 -28.2688 60.0688 2 -70.9093 31.9679 2 
-70.4691 30.7046 2 -27.7326 -27.4144 2 -50.8982 -2.43466 2 
-71.3915 29.5469 2 -55.5562 31.7169 2 -68.0575 59.1079 2 
-66.9562 59.0532 2 -65.8375 58.9984 2 -64.7209 58.9273 2 
-66.5367 57.7908 2 -63.5175 58.7936 2 -62.3885 58.7285 2 
-64.2146 57.6023 2 -61.2701 58.5297 2 -60.1422 58.516 2 
-61.8926 57.2698 2 -59.0215 58.5108 2 -57.9991 58.5081 2 
-59.6535 57.0659 2 -56.9628 58.6264 2 -55.8936 58.6481 2 
-57.4964 57.1791 2 -54.786 58.6926 2 -53.7074 58.691 2 
-55.3524 57.3419 2 -52.633 58.675 2 -51.5432 58.6208 2 
-53.1704 57.3705 2 -50.4309 58.6043 2 -49.3639 58.5846 2 
-50.9837 57.338 2 -48.2383 58.5284 2 -47.1064 58.5441 2 
-48.7458 57.2653 2 -45.9927 58.6044 2 -44.9748 58.6553 2 
-46.5066 57.2693 2 -43.9337 58.7501 2 -42.8681 58.8594 2 
-44.3519 57.4244 2 -41.8665 59.1113 2 -40.7525 59.0748 2 
-42.3091 57.7711 2 -39.6735 58.733 2 -38.5655 58.6247 2 
-40.2286 57.6813 2 -37.4396 58.5536 2 -36.3967 58.5681 2 
-38.0238 57.2684 2 -35.2968 58.8407 2 -34.1287 58.848 2 
-35.798 57.4699 2 -32.9637 58.5987 2 -31.866 58.6593 2 
-33.533 57.4933 2 -30.5458 58.9726 2 -29.5373 59.1555 2 
-31.0478 57.5572 2 -36.1095 -5.931 2 -36.1621 -8.52991 2 
-31.0781 50.9715 2 -31.7389 48.4079 2 -67.7333 20.9556 2 
-67.2159 19.9619 2 -73.447 59.9138 2 -72.6508 -23.6963 2 
-72.532 -22.5499 2 -72.3814 -21.3841 2 -72.2702 -20.2332 2 
-71.3005 -22.0801 2 -72.1721 -19.0346 2 -72.1632 -17.8134 2 
-71.0517 -19.7158 2 -72.1367 -16.552 2 -72.1532 -15.3808 2 
-70.9271 -17.2558 2 -72.1612 -14.1635 2 -72.1827 -13.105 2 
-70.9086 -14.7772 2 -72.2375 -12.0243 2 -72.3007 -10.9545 2 
-70.9714 -12.4792 2 -72.5427 -9.96907 2 -72.5345 -8.89558 2 
-71.2681 -10.4131 2 -72.2814 -7.90692 2 -72.2421 -6.84626 2 
-71.257 -8.43903 2 -72.2499 -5.79218 2 -72.2608 -4.77281 2 
-71.0118 -6.39628 2 -72.2919 -3.71458 2 -72.338 -2.6663 2 
-71.0507 -4.28396 2 -72.4089 -1.62212 2 -72.4069 -0.572328 2 
-71.1526 -2.18155 2 -72.4395 0.52116 2 -72.4456 1.62518 2 
-71.256 -0.0438814 2 -72.4159 2.64367 2 -72.421 3.66677 2 
-71.2589 2.0681 2 -72.41 4.79455 2 -72.4065 5.88798 2 
-71.2182 4.21437 2 -72.4001 7.04512 2 -72.37 8.20081 2 
-71.2008 6.49928 2 -72.3621 9.34256 2 -72.3738 10.4268 2 
-71.1865 8.79817 2 -72.3574 11.5032 2 -72.3831 12.5634 2 
-71.1622 11.0164 2 -72.4457 13.6028 2 -72.4968 14.6551 2 
-71.2085 13.1323 2 -72.6547 15.7316 2 -72.7351 16.8548 2 
-71.429 15.2482 2 -72.7572 18.0135 2 -72.7507 19.1302 2 
-71.609 17.4833 2 -72.7258 20.2202 2 -72.7117 21.292 2 
-71.6063 19.732 2 -72.7722 22.3421 2 -72.7478 23.5036 2 
-71.642 21.8721 2 -72.6861 24.7268 2 -72.6413 25.8465 2 
-71.6408 24.1453 2 -72.3064 27.2256 2 -72.3208 28.3513 2 
-72.8031 29.7714 2 -73.1052 30.6767 2 -73.0068 31.6397 2 
-71.9619 36.1535 2 -72.7824 39.6273 2 -72.8227 40.732 2 
-72.5847 41.7144 2 -72.5063 42.7712 2 -71.6073 41.1486 2 
-72.3763 43.8617 2 -72.3037 44.9908 2 -71.2392 43.2214 2 
-72.2138 46.1736 2 -72.1457 47.3103 2 -71.0193 45.4946 2 
-72.0325 48.5107 2 -72.0268 49.675 2 -70.8162 47.8779 2 
-72.1038 50.8987 2 -72.2097 52.072 2 -70.78 50.3021 2 
-72.4322 53.2323 2 -72.5446 54.2783 2 -71.0795 52.6862 2 
-72.7263 55.4794 2 -72.8167 56.6031 2 -71.4837 55.0475 2 
-54.3564 31.7306 2 -55.0023 32.768 2 -71.2442 26.7477 2 
-70.295 25.7665 2 -73.0078 -26.2979 2 -72.8289 -24.9152 2 
-71.6292 -24.4648 2 -71.9227 -26.7662 2 -57.9721 39.0286 2 
-58.9453 40.2342 2 -40.9343 7.82223 2 -41.3691 9.19102 2 
-46.6127 20.3046 2 -47.2185 21.4255 2 -37.3417 34.2366 2 
-37.6873 30.8848 2 -59.2811 5.58387 2 -58.7903 4.41643 2 
-35.9912 -11.294 2 -35.8685 -13.6297 2 -38.4291 -9.7872 2 
-44.9467 -1.09107 2 -43.6082 -0.161266 2 -34.9355 9.32014 2 
-34.8488 6.69071 2 -29.5247 55.189 2 -30.0803 53.1549 2 
-57.0529 0.716339 2 -56.288 -0.557376 2 -51.3297 -4.23075 2 
-49.6256 -3.69931 2 -31.9129 -26.0528 2 -33.121 -25.9694 2 
-34.29 -25.6438 2 -35.4311 -25.5574 2 -33.5228 -24.641 2 
-36.7272 -25.451 2 -37.9587 -25.4776 2 -35.988 -24.2091 2 
-39.1988 -25.6664 2 -40.3865 -25.7414 2 -38.5242 -24.2916 2 
-41.5472 -25.8872 2 -42.6459 -25.9046 2 -40.925 -24.6263 2 
-43.7669 -25.8098 2 -44.8877 -25.779 2 -43.2066 -24.6773 2 
-46.0139 -25.6551 2 -47.1035 -25.67 2 -45.4538 -24.4586 2 
-48.2103 -25.7761 2 -49.2819 -25.8648 2 -47.6868 -24.4409 2 
-50.2711 -26.1841 2 -51.3452 -26.1996 2 -49.7828 -24.8662 2 
-52.3545 -25.8685 2 -53.4629 -25.7725 2 -51.7812 -24.8543 2 
-54.6115 -25.6726 2 -55.7112 -25.6154 2 -53.9391 -24.4234 2 
-56.8842 -25.6099 2 -58.0431 -25.6002 2 -56.2607 -24.318 2 
-59.2636 -25.6029 2 -60.4276 -25.6275 2 -58.6542 -24.3152 2 
-61.6592 -25.6033 2 -62.8065 -25.5982 2 -61.1063 -24.2936 2 
-63.9674 -25.6581 2 -65.0887 -25.7041 2 -63.4988 -24.3292 2 
-66.2973 -25.8529 2 -67.4578 -25.9487 2 -65.8683 -24.5379 2 
-68.6194 -26.1577 2 -69.6647 -26.2932 2 -68.2384 -24.8957 2 
-45.5847 17.7299 2 -46.1064 18.8895 2 -45.1742 20.3228 2 
-48.2301 22.8607 2 -49.0472 23.6571 2 -46.6921 23.1731 2 
-44.5585 15.3058 2 -45.2162 16.4889 2 -44.2994 17.6666 2 
-42.7546 13.3214 2 -43.3974 14.4029 2 -42.7699 15.5227 2 
-35.8419 14.4094 2 -35.5076 11.7833 2 -37.1072 10.2607 2 
-55.4975 -2.02943 2 -54.5082 -3.28651 2 -57.2046 -2.13487 2 
-47.9114 -2.91944 2 -46.459 -2.12018 2 -64.8924 39.4973 2 
-66.0621 38.5437 2 -61.7575 41.0609 2 -63.2714 40.4575 2 
-64.5795 41.2579 2 -42.0163 10.5294 2 -42.5163 11.8491 2 
-41.3705 13.1476 2 -58.3731 3.20183 2 -57.7501 2.02002 2 
-59.8065 3.15915 2 -66.4206 18.9702 2 -65.8513 18.0273 2 
-67.9327 18.9226 2 -65.375 17.0485 2 -64.8136 16.1386 2 
-66.6611 16.9521 2 -64.2203 15.2717 2 -63.6747 14.3324 2 
-65.5914 15.1064 2 -63.0764 13.4452 2 -62.5252 12.5652 2 
-64.3997 13.3523 2 -61.9941 11.7144 2 -61.4729 10.7949 2 
-63.2703 11.6142 2 -60.9512 9.85681 2 -60.4488 8.89557 2 
-62.2175 9.82528 2 -60.0712 7.81382 2 -59.6396 6.75886 2 
-60.5822 5.54873 2 -61.3183 7.80547 2 -72.4221 32.5536 2 
-29.1753 -26.0806 2 -70.1674 59.3559 2 -69.1588 59.2874 2 
-68.7566 58.0251 2 -35.0546 25.3953 2 -72.3496 59.6461 2 
-71.2901 59.5291 2 -70.9805 58.3778 2 -73.2004 58.8188 2 
-70.8429 36.8799 2 -72.2496 37.4033 2 -72.425 38.609 2 
-69.7441 37.856 2 -30.3306 -25.8827 2 -34.1673 46.8711 2 
-58.6922 0.640871 2 -28.8411 56.845 2 -30.4112 56.2146 2 
-55.4876 -5.18243 2 -53.5816 -4.86202 2 -57.1626 37.624 2 
-56.5245 39.1602 2 -56.5055 36.4138 2 -42.0979 0.984333 2 
-40.8608 2.05084 2 -42.0938 -0.73182 2 -71.488 39.1479 2 
-53.5023 30.9381 2 -52.9484 31.9892 2 -52.8223 30.0277 2 
-73.0356 57.7544 2 -70.7143 24.74 2 -69.4302 25.138 2 
-68.7362 24.089 2 -70.776 23.5168 2 -28.4591 58.7839 2 
-40.485 10.3369 2 -50.5358 25.767 2 -51.13 26.8223 2 
-40.3405 30.6161 2 -38.2827 28.5977 2 -49.4664 24.6653 2 
-48.7731 25.7101 2 -49.9303 9.28127 1 -50.5153 10.2945 1 
-54.135 33.9487 2 -55.3348 33.935 2 -55.8818 35.0939 2 
-36.4115 20.1247 2 -36.174 17.21 2 -37.976 -15.079 2 
-35.5861 -16.1574 2 -71.8842 57.3999 2 -40.2114 4.85071 2 
-40.6578 6.32973 2 -45.1164 -2.90654 2 -67.2791 38.9401 2 
-32.0925 52.3752 2 -48.343 -4.71553 2 -48.5496 -6.82068 2 
-46.8354 -6.04081 2 -58.2798 42.011 2 -59.891 41.6805 2 
-70.8684 -26.5827 2 -37.294 26.3673 2 -36.7191 22.8962 2 
-38.6509 21.0967 2 -39.9472 26.0986 2 -37.0768 37.0068 2 
-39.4803 35.6734 2 -37.2299 40.997 2 -51.5433 27.9867 2 
-52.1096 28.9997 2 -51.3817 30.1686 2 -50.2558 27.9762 2 
-38.0113 15.5246 2 -61.092 42.8377 2 -30.7715 -24.7964 2 
-35.2243 4.41033 2 -35.2926 1.92553 2 -30.7675 -23.4236 2 
-32.3498 -23.5937 2 -33.5188 -23.2682 2 -35.286 -18.2327 2 
-35.2163 -0.524309 2 -35.3764 -3.25087 2 -37.8668 -4.34302 2 
-37.2099 0.786955 2 -68.481 23.0858 2 -68.0388 22.0511 2 
-69.0335 21.0097 2 -69.5942 23.1084 2 -52.3091 -6.12667 2 
-39.5612 7.50601 2 -70.6036 -25.3943 2 -67.2308 56.477 2 
-66.1121 56.4223 2 -64.9826 56.4445 2 -63.7791 56.3108 2 
-65.6766 55.1307 2 -62.6867 55.8018 2 -61.5683 55.6031 2 
-63.4548 54.644 2 -60.3276 55.4481 2 -59.2069 55.443 2 
-61.1217 53.9801 2 -58.0395 55.5677 2 -57.0032 55.686 2 
-58.7137 53.9499 2 -55.9466 56.1156 2 -54.839 56.1602 2 
-56.4897 54.5042 2 -53.7988 55.9402 2 -52.7244 55.9243 2 
-54.393 54.7139 2 -51.5803 55.9699 2 -50.468 55.9534 2 
-52.2087 54.5397 2 -49.2458 55.9358 2 -48.1202 55.8796 2 
-49.8424 54.5677 2 -46.9664 55.851 2 -45.8528 55.9113 2 
-47.4664 54.5216 2 -44.7051 56.0789 2 -43.6639 56.1738 2 
-45.1649 54.6607 2 -42.2836 56.3386 2 -41.2821 56.5905 2 
-42.6369 54.9932 2 -40.2031 56.2488 2 -51.0178 11.1649 1 
-51.6103 12.1911 1 -38.6189 55.8114 2 -37.493 55.7403 2 
-39.6724 54.7206 2 -35.8498 55.7586 2 -34.7499 56.0312 2 
-36.445 54.3016 2 -58.2561 -5.17419 2 -57.3296 -6.7497 2 
-37.9099 6.90554 2 -38.1864 8.39804 2 -61.4137 3.20559 2 
-60.9965 1.991 2 -69.8425 -20.4747 2 -69.7444 -19.2761 2 
-69.5875 -17.9325 2 -69.561 -16.6711 2 -68.3784 -18.6914 2 
-69.5866 -15.3373 2 -69.5946 -14.12 2 -68.247 -16.014 2 
-69.6283 -12.8457 2 -69.683 -11.7651 2 -68.3063 -13.4059 2 
-69.8095 -10.3915 2 -70.0515 -9.40607 2 -68.4664 -10.758 2 
-69.7984 -8.41741 2 -52.1728 13.1654 1 -52.7728 14.2046 1 
-69.5579 -6.99605 2 -69.5656 -5.94197 2 -68.3523 -7.9631 2 
-69.8627 -4.83925 2 -69.8938 -3.78102 2 -68.4088 -5.43903 2 
-69.7023 -2.70224 2 -69.7731 -1.65806 2 -68.5143 -3.25753 2 
-70.1243 -0.61877 2 -70.1569 0.474718 2 -68.674 -1.13946 2 
-69.9596 1.49172 2 -69.93 2.51021 2 -68.8279 0.916829 2 
-69.9052 3.62676 2 -69.8942 4.75453 2 -68.6059 3.05038 2 
-69.9549 5.91116 2 -69.9485 7.0683 2 -68.6419 5.32355 2 
-69.9621 8.27762 2 -69.9541 9.41937 2 -68.7162 7.68949 2 
-69.9685 10.5335 2 -69.9522 11.6099 2 -68.7441 10.0129 2 
-69.7567 12.8364 2 -69.8193 13.8758 2 -68.5631 12.3535 2 
-70.1796 19.2781 2 -70.1547 20.3681 2 -70.4602 21.4636 2 
-70.5208 22.5137 2 -70.6327 40.1636 2 -70.3946 41.146 2 
-69.914 42.3827 2 -69.784 43.4731 2 -68.9394 41.3978 2 
-69.8607 44.7469 2 -69.7707 45.9298 2 -68.5354 43.9083 2 
-69.3653 47.0959 2 -69.2522 48.2964 2 -68.2068 46.3482 2 
-69.2729 49.7017 2 -69.3499 50.9255 2 -67.8221 48.9197 2 
-69.6566 52.2556 2 -69.8791 53.4159 2 -68.1495 51.6552 2 
-70.4256 -24.1753 2 -42.0476 32.0288 2 -42.643 29.7417 2 
-70.7616 57.2266 2 -42.9229 17.2036 2 -43.2914 18.4447 2 
-40.3437 -13.8751 2 -40.0613 -16.4028 2 -39.2121 3.46235 2 
-38.2854 4.62516 2 -45.003 -4.87616 2 -43.4907 -3.84704 2 
-40.7663 -8.6787 2 -40.5955 -11.4428 2 -42.6809 -12.7666 2 
-36.9106 5.51718 2 -35.3157 49.9066 2 -36.3928 46.5859 2 
-67.8102 40.2294 2 -68.8889 38.8717 2 -56.3963 42.3019 2 
-57.342 43.7482 2 -43.3426 19.9995 2 -43.8489 21.4146 2 
-41.9661 19.5365 2 -35.1375 -22.7863 2 -36.4337 -22.6799 2 
-33.9645 -21.739 2 -37.9961 -22.7197 2 -39.2362 -22.9086 2 
-37.1456 -21.2969 2 -40.4086 -23.4735 2 -41.5693 -23.6194 2 
-39.8805 -21.9017 2 -42.5855 -23.6281 2 -43.7065 -23.5333 2 
-42.0691 -22.4754 2 -44.7605 -23.0301 2 -45.8867 -22.9062 2 
-44.1394 -21.9809 2 -47.3188 -22.837 2 -48.4257 -22.9432 2 
-46.6256 -21.4086 2 -49.7574 -23.4557 2 -50.7466 -23.775 2 
-49.3895 -21.8519 2 -51.7558 -23.4438 2 -53.2978 15.1139 1 
-53.8603 16.0882 1 -53.0108 -22.9861 2 -54.1594 -22.8863 2 
-51.9762 -21.9068 2 -55.544 -22.9389 2 -56.717 -22.9334 2 
-54.6157 -21.5017 2 -58.034 -23.0156 2 -59.2545 -23.0183 2 
-57.3173 -21.6365 2 -60.5921 -22.906 2 -61.8237 -22.8818 2 
-59.9719 -21.6065 2 -63.048 -22.8705 2 -64.2089 -22.9303 2 
-62.5338 -21.4829 2 -65.5153 -23.1643 2 -66.7239 -23.3131 2 
-65.0645 -21.7056 2 -68.0277 -23.6396 2 -69.1893 -23.8486 2 
-70.2149 -22.9192 2 -67.6747 -22.266 2 -44.4948 23.1277 2 
-45.5063 24.5628 2 -42.6632 22.8044 2 -59.181 -2.00535 2 
-58.3905 -3.47741 2 -60.2325 -5.04468 2 -32.9483 54.4392 2 
-33.946 52.2558 2 -64.2354 43.3923 2 -65.8563 42.4322 2 
-67.3296 41.4661 2 -66.9855 43.6005 2 -60.6082 0.652327 2 
-59.9111 -0.651355 2 -61.097 -1.9939 2 -62.2154 0.698771 2 
-60.3816 45.003 2 -62.2481 44.3833 2 -67.2761 14.7766 2 
-66.6828 13.9097 2 -64.8221 11.3711 2 -64.2911 10.5203 2 
-63.3749 9.84444 2 -62.8532 8.90639 2 -64.9267 9.60138 2 
-70.0642 -21.7534 2 -69.5305 56.9192 2 -68.4293 56.7397 2 
-68.0046 55.3711 2 -70.4343 55.9412 2 -53.0058 -8.31522 2 
-50.7539 -7.68396 2 -31.7314 55.9012 2 -70.613 18.1368 2 
-69.1615 18.773 2 -68.3661 17.7813 2 -70.5909 16.9782 2 
-38.9348 1.82529 2 -58.7254 -8.82383 2 -55.9568 -8.83206 2 
-54.4016 -10.3893 2 -36.1715 51.9707 2 -38.7585 10.8612 2 
-39.4058 12.1996 2 -63.525 45.5576 2 -54.7462 39.2282 2 
-55.5558 40.6328 2 -54.618 42.37 2 -42.162 -2.55875 2 
-40.6517 -1.41315 2 -42.0486 -4.52837 2 -70.1325 14.923 2 
-70.2904 15.9995 2 -38.8585 -0.624555 2 -49.2463 -9.00923 2 
-39.644 13.6719 2 -39.9761 16.4725 2 -68.8297 54.3096 2 
-70.2526 54.7401 2 -70.2753 39.1453 2 -44.5676 29.3723 2 
-42.8605 27.9597 2 -52.6506 33.5118 2 -52.9832 34.6788 2 
-42.2629 -17.3204 2 -39.8952 -18.5243 2 -41.6806 37.4157 2 
-41.9454 34.6455 2 -44.2479 33.7711 2 -38.3821 43.6411 2 
-40.3677 41.0876 2 -39.5305 46.6766 2 -62.0311 5.66637 2 
-61.6726 4.49138 2 -62.8626 3.32323 2 -69.2944 16.6529 2 
-44.0471 26.0538 2 -42.1224 26.4232 2 -36.6384 -19.4319 2 
-38.2008 -19.4717 2 -56.4543 45.5731 2 -58.3378 45.2822 2 
-41.1338 24.1928 2 -40.9886 -6.41991 2 -43.155 -8.07545 2 
-48.7345 27.8053 2 -49.1478 28.9697 2 -45.2096 -6.98131 2 
-55.0913 36.4357 2 -59.4939 46.8278 2 -40.4879 22.4797 2 
-51.7966 32.7192 2 -50.2816 31.7405 2 -49.9838 33.2631 2 
-46.2444 26.0993 2 -68.0657 16.8025 2 -67.5893 15.8237 2 
-68.7569 -21.3137 2 -65.7152 13.2937 2 -65.1168 12.4065 2 
-63.8155 7.91203 2 -62.6581 7.89287 2 -62.2806 6.81112 2 
-66.1376 11.3126 2 -55.2423 -12.4801 2 -52.2913 -11.9633 2 
-62.2305 52.4173 2 -60.9898 52.2624 2 -56.554 52.7185 2 
-55.4974 53.1481 2 -54.4572 52.9282 2 -54.4078 17.0365 1 
-54.9778 18.0238 1 -52.922 52.8946 2 -51.7779 52.9403 2 
-54.0264 51.3288 2 -50.5056 53.3127 2 -49.2834 53.295 2 
-51.219 51.6676 2 -48.0751 52.9361 2 -46.9213 52.9076 2 
-48.7384 51.681 2 -45.6188 53.0044 2 -44.4711 53.1721 2 
-46.2275 51.4189 2 -43.329 53.6743 2 -41.9487 53.8391 2 
-43.7829 52.018 2 -33.5849 55.7819 2 -68.6807 14.6271 2 
-66.7466 -16.6975 2 -66.7722 -15.3637 2 -67.0443 -14.0302 2 
-67.0781 -12.7559 2 -65.544 -14.7137 2 -66.8325 -11.4709 2 
-66.9589 -10.0973 2 -65.5705 -12.0953 2 -55.5403 18.9981 1 
-56.1178 19.9983 1 -65.0733 -9.18864 2 -63.5645 -10.3422 2 
-63.3128 -8.72066 2 -66.7073 -8.47576 2 -66.4667 -7.0544 2 
-66.5516 -5.2913 2 -66.8486 -4.18859 2 -64.9065 -5.80396 2 
-66.6571 -3.1098 2 -56.6203 20.8687 1 -57.1678 21.817 1 
-67.0513 -1.18866 2 -67.4025 -0.149369 2 -65.3856 -2.11971 2 
-67.1676 2.37964 2 -67.1428 3.49619 2 -67.5954 11.7375 2 
-67.3999 12.9639 2 -38.9268 -2.45149 2 -60.9511 -8.30787 2 
-59.5784 -10.3902 2 -66.286 48.0242 2 -66.3067 49.4295 2 
-66.5324 51.2534 2 -66.8392 52.5836 2 -64.9963 50.3579 2 
-44.2201 -16.5543 2 -44.054 -18.6758 2 -49.5886 -11.536 2 
-47.3843 -10.6727 2 -45.9883 29.9766 2 -46.2058 28.1945 2 
-51.9487 35.8314 2 -53.4331 36.2684 2 -54.0568 37.5883 2 
-40.4024 -20.3893 2 -47.6651 26.7035 2 -67.6312 54.0469 2 
-45.3296 -11.7669 2 -45.0778 -14.1992 2 -67.3007 10.7021 2 
-66.0141 53.6451 2 -67.2863 9.58801 2 -63.1541 47.5413 2 
-65.1414 46.5503 2 -62.6792 -3.69438 2 -62.5448 -5.39116 2 
-57.6778 22.7003 1 -58.2853 23.7526 1 -50.5541 -20.3135 2 
-51.8091 -19.8558 2 -58.7803 24.6099 1 -59.3578 25.6102 1 
-53.8452 -19.725 2 -55.2297 -19.7776 2 -52.423 -18.1317 2 
-56.6284 -20.2845 2 -57.9455 -20.3668 2 -55.8579 -18.5079 2 
-59.2161 -20.33 2 -60.5537 -20.2177 2 -58.5273 -18.978 2 
-61.9409 -19.6494 2 -63.1652 -19.6381 2 -61.1851 -18.3729 2 
-67.4531 -20.9873 2 -65.9955 -20.5141 2 -67.0776 -19.5617 2 
-41.7618 16.3008 2 -39.6599 -5.13162 2 -44.9874 -9.2401 2 
-46.4094 31.7194 2 -48.0477 30.5416 2 -67.5062 8.30844 2 
-66.0628 8.99764 2 -65.1466 8.32181 2 -67.4927 7.09912 2 
-40.1291 18.1535 2 -60.1591 48.52 2 -58.1153 48.7992 2 
-66.9207 -18.2182 2 -54.5579 45.8167 2 -55.5538 47.3506 2 
-59.9053 26.5585 1 -60.4603 27.5198 1 -53.0881 39.0609 2 
-65.4459 -17.5678 2 -67.2052 0.86763 2 -67.2987 4.74525 2 
-67.3595 5.90188 2 -40.1804 19.7083 2 -66.6568 46.0405 2 
-42.8328 40.0597 2 -64.8846 53.6674 2 -67.0622 44.8743 2 
-46.8689 -15.5546 2 -41.4354 52.2791 2 -40.7433 53.598 2 
-50.4293 -13.6268 2 -46.3073 34.3361 2 -63.371 5.75377 2 
-61.0453 28.533 1 -61.6678 29.6112 1 -61.8182 48.6241 2 
-63.4346 49.6168 2 -65.8604 4.07452 2 -62.2303 30.5855 1 
-62.7703 31.5208 1 -54.6095 49.4783 2 -56.5059 49.2347 2 
-41.5748 -20.9543 2 -42.591 -20.963 2 -43.6451 -20.4598 2 
-45.6023 -19.6937 2 -47.0345 -19.6245 2 -49.2223 -19.801 2 
-49.3903 8.34596 1 -48.1991 -18.0861 2 -64.689 -20.28 2 
-49.5689 30.7125 2 -34.2308 -20.0579 2 -64.1917 0.919436 2 
-63.8035 -0.419233 2 -64.9515 7.30829 2 -64.0961 -18.4466 2 
-65.7421 1.31345 2 -53.113 44.2108 2 -52.2124 45.9883 2 
-52.2725 42.5416 2 -63.7922 53.1584 2 -59.3308 52.1583 2 
-58.1634 52.283 2 -49.9548 50.3726 2 -48.7464 50.0136 2 
-46.8465 49.2784 2 -45.544 49.3753 2 -48.063 47.9699 2 
-51.3854 38.8037 2 -52.0749 40.4437 2 -50.5698 42.2844 2 
-39.159 53.1606 2 -66.1495 6.52083 2 -63.9221 -16.9259 2 
-57.1711 50.9269 2 -60.4396 50.5955 2 -37.8147 51.9524 2 
-39.9124 49.3284 2 -41.9017 46.3835 2 -63.4093 -2.34038 2 
-50.0779 35.5227 2 -50.5278 37.1123 2 -49.5146 38.4951 2 
-62.0583 -11.7475 2 -59.8327 -12.2634 2 -64.1541 2.43145 2 
-51.7595 -16.1583 2 -53.7956 -16.0275 2 -63.6603 51.4407 2 
-64.8183 6.11105 2 -64.5689 4.9663 2 -64.413 3.71724 2 
-57.7712 -13.2087 2 -55.6609 -14.7826 2 -60.2512 -14.5659 2 
-56.3245 -16.756 2 -41.2567 50.5367 2 -38.8856 50.8297 2 
-49.0568 -15.731 2 -63.7922 -14.8339 2 -64.0644 -13.5005 2 
-53.0743 49.4447 2 -51.8102 48.1497 2 -51.227 50.0002 2 
-63.8188 -12.2155 2 -50.3652 46.5438 2 -46.4013 36.5957 2 
-48.5629 34.544 2 -62.4425 -15.7127 2 -45.3414 38.9835 2 
-47.597 39.1914 2 -60.381 -16.6579 2 -44.2233 48.135 2 
-43.8414 45.4832 2 -62.4599 -7.15426 2 -57.7232 -17.263 2 
-58.9939 -17.2262 2 -44.0284 42.6555 2 -46.35 44.407 2 
-43.6042 50.2756 2 -42.4622 50.7778 2 -48.4652 45.8086 2 
-48.6522 42.9808 2 -48.4546 40.8829 2 -78.9017 65.3643 0 
-76.2442 65.0556 0 -77.5042 65.0556 0 -73.3106 65.3704 0 
-74.6606 65.3704 0 -75.603 64.0117 0 -70.5449 65.3966 0 
-71.9549 65.3966 0 -72.6637 64.3526 0 -67.9388 65.2561 0 
-69.2588 65.2561 0 -70.022 64.2383 0 -65.1617 65.1945 0 
-66.5416 65.1945 0 -67.3387 64.0362 0 -62.4057 65.1753 0 
-63.7857 65.1753 0 -64.5657 63.9555 0 -59.701 65.1782 0 
-60.991 65.1782 0 -61.775 63.9392 0 -57.2245 65.1482 0 
-58.4245 65.1482 0 -59.0838 63.912 0 -54.5498 65.1514 0 
-55.8998 65.1514 0 -56.4826 63.8853 0 -51.9012 65.1386 0 
-53.2212 65.1386 0 -53.8293 63.8757 0 -49.131 65.1297 0 
-50.571 65.1297 0 -51.1705 63.854 0 -46.3923 65.128 0 
-47.7423 65.128 0 -48.4516 63.8434 0 -43.5271 65.119 0 
-44.9671 65.119 0 -45.6377 63.8327 0 -40.96 65.127 0 
-42.22 65.127 0 -42.9054 63.8316 0 -38.2167 65.1574 0 
-39.5967 65.1574 0 -40.2349 63.87 0 -35.5877 65.1155 0 
-36.9077 65.1155 0 -37.5627 63.8585 0 -32.8168 65.1565 0 
-34.1968 65.1565 0 -34.8629 63.8576 0 -30.1068 65.1538 0 
-31.4568 65.1538 0 -32.1119 63.8959 0 -27.4862 65.1054 0 
-28.8062 65.1054 0 -29.4513 63.8448 0 -24.9639 65.111 0 
-26.2239 65.111 0 -26.8884 63.8021 0 -22.539 65.3206 0 
-23.679 65.3206 0 -24.3411 64.0173 0 -21.0017 65.3143 0 
-78.9617 -32.4357 0 -78.5872 -29.6654 0 -78.5872 -30.9654 0 
-78.7993 -26.6802 0 -78.7993 -28.0302 0 -77.4048 -29.0099 0 
-78.8673 -23.9983 0 -78.8673 -25.2983 0 -77.6849 -25.9928 0 
-78.9262 -21.2579 0 -78.9262 -22.6579 0 -77.8118 -23.2705 0 
-78.8626 -18.4934 0 -78.8626 -19.8934 0 -77.807 -20.5656 0 
-78.8264 -15.9358 0 -78.8264 -17.1858 0 -77.7073 -17.8935 0 
-78.8209 -13.2388 0 -78.8209 -14.5888 0 -77.6656 -15.2389 0 
-78.7817 -10.5028 0 -78.7817 -11.9028 0 -77.621 -12.5559 0 
-78.7609 -7.9308 0 -78.7609 -9.1808 0 -77.5609 -9.89793 0 
-78.807 -5.34837 0 -78.807 -6.64837 0 -77.5861 -7.29348 0 
-78.7921 -2.67024 0 -78.7921 -4.02024 0 -77.6173 -4.68292 0 
-78.7766 0.0222198 0 -78.7766 -1.32778 0 -77.587 -2.01233 0 
-78.7824 2.75435 0 -78.7824 1.40435 0 -77.5774 0.712256 0 
-78.7923 5.34496 0 -78.7923 4.04496 0 -77.593 3.385 0 
-78.7661 8.07686 0 -78.7661 6.72686 0 -77.5766 6.0575 0 
-78.7484 10.7096 0 -78.7484 9.40965 0 -77.5327 8.77219 0 
-78.795 13.4249 0 -78.795 12.0249 0 -77.5616 11.4203 0 
-78.7881 16.1507 0 -78.7881 14.8007 0 -77.6014 14.1113 0 
-78.7862 18.8692 0 -78.7862 17.5192 0 -77.5926 16.8556 0 
-78.7884 21.4756 0 -78.7884 20.1756 0 -77.5928 19.5305 0 
-78.7697 24.2419 0 -78.7697 22.8419 0 -77.5763 22.2032 0 
-78.8345 26.8964 0 -78.8345 25.5464 0 -77.6224 24.874 0 
-78.8722 29.5392 0 -78.8722 28.2392 0 -77.7249 27.5212 0 
-78.8541 32.3154 0 -78.8541 30.9154 0 -77.7445 30.2403 0 
-78.8593 34.9556 0 -78.8593 33.6556 0 -77.7316 32.9567 0 
-78.8525 37.7596 0 -78.8525 36.3096 0 -77.7301 35.6509 0 
-78.843 40.3023 0 -78.843 39.0523 0 -77.7138 38.2976 0 
-78.8427 42.9051 0 -78.8427 41.6051 0 -77.7039 40.8931 0 
-78.8138 45.5326 0 -78.8138 44.2326 0 -77.6747 43.5234 0 
-78.8385 48.0517 0 -78.8385 46.8017 0 -77.6705 46.1201 0 
-78.8475 50.6624 0 -78.8475 49.3624 0 -77.7042 48.6999 0 
-78.8112 53.3663 0 -78.8112 52.0163 0 -77.6769 51.3644 0 
-78.8388 56.0044 0 -78.8388 54.6544 0 -77.6683 54.0065 0 
-78.7947 58.7204 0 -78.7947 57.3704 0 -77.6518 56.6605 0 
-78.7545 61.3003 0 -78.7545 60.0503 0 -77.5675 59.3563 0 
-77.5672 -32.1154 0 -20.922 62.2242 0 -20.922 63.3742 0 
-20.8945 59.5853 0 -20.8945 61.0853 0 -21.8348 61.3952 0 
-21.3107 56.4796 0 -21.3107 58.2296 0 -22.2235 58.9006 0 
-21.4526 52.717 0 -21.4526 54.617 0 -22.7816 55.6823 0 
-21.3604 48.5619 0 -21.3604 50.7119 0 -22.8313 51.8146 0 
-22.4703 37.9791 0 -22.4703 40.9291 0 -22.5769 31.1928 0 
-22.5769 34.6928 0 -25.0655 35.9576 0 -22.5814 24.4365 0 
-22.5814 27.9365 0 -25.1765 29.415 0 -22.6095 18.1922 0 
-22.6095 21.2922 0 -25.2091 23.0144 0 -22.6579 12.3224 0 
-22.6579 15.1224 0 -25.2857 16.8003 0 -22.6141 6.91231 0 
-22.6141 9.61231 0 -25.2903 11.0204 0 -22.4874 1.51957 0 
-22.4874 4.26957 0 -25.1198 5.66757 0 -22.3879 -3.8543 0 
-22.3879 -1.0543 0 -24.8936 0.450961 0 -22.2595 -9.26027 0 
-22.2595 -6.61027 0 -24.6657 -4.87888 0 -22.1088 -14.175 0 
-22.1088 -11.825 0 -24.3866 -10.1996 0 -21.94 -18.3051 0 
-21.94 -16.4051 0 -24.0671 -14.9944 0 -21.8625 -22.1361 0 
-21.8625 -20.4361 0 -23.8208 -19.3555 0 -21.2739 -28.3566 0 
-21.2739 -26.9566 0 -20.8357 -30.8575 0 -20.8357 -29.5575 0 
-22.1279 -29.2284 0 -21.0317 -32.4357 0 -24.0375 -32.2305 0 
-22.9275 -32.2305 0 -26.2897 -32.5365 0 -25.0597 -32.5365 0 
-24.7955 -31.1813 0 -28.6649 -32.2976 0 -27.4049 -32.2976 0 
-26.9329 -31.2485 0 -31.3708 -32.2783 0 -29.9908 -32.2783 0 
-29.374 -30.9903 0 -34.0448 -32.3804 0 -32.7248 -32.3804 0 
-32.0539 -31.0731 0 -36.7414 -32.4556 0 -35.3614 -32.4556 0 
-34.7245 -31.2504 0 -39.5097 -32.4086 0 -38.1297 -32.4086 0 
-37.4294 -31.2785 0 -42.3403 -32.3909 0 -40.9303 -32.3909 0 
-40.2383 -31.2138 0 -44.9783 -32.3871 0 -43.6583 -32.3871 0 
-42.9769 -31.1923 0 -47.7301 -32.3974 0 -46.3801 -32.3974 0 
-45.6967 -31.1988 0 -50.3142 -32.3833 0 -49.0542 -32.3833 0 
-48.4226 -31.195 0 -53.2681 -32.3954 0 -51.7081 -32.3954 0 
-51.1405 -31.193 0 -55.9582 -32.3716 0 -54.6382 -32.3716 0 
-53.9045 -31.1813 0 -58.6411 -32.3501 0 -57.3211 -32.3501 0 
-56.6375 -31.1359 0 -61.2473 -32.3978 0 -59.9273 -32.3978 0 
-59.2866 -31.1622 0 -63.8893 -32.4402 0 -62.5693 -32.4402 0 
-61.8948 -31.2523 0 -66.5508 -32.4478 0 -65.2308 -32.4478 0 
-64.5583 -31.3023 0 -69.1973 -32.5162 0 -67.8773 -32.5162 0 
-67.2263 -31.3784 0 -71.936 -32.5322 0 -70.556 -32.5322 0 
-69.9116 -31.4627 0 -74.8207 -32.4159 0 -73.3807 -32.4159 0 
-72.715 -31.3624 0 -62.2565 32.5516 0 -61.739 31.6552 0 
-61.1435 30.6679 0 -60.581 29.6937 0 -60.6297 31.6987 0 
-60.0288 28.7175 0 -59.4438 27.7042 0 -59.482 29.7352 0 
-58.8529 26.755 0 -58.3054 25.8067 0 -58.3389 27.8098 0 
-57.7611 24.8725 0 -57.2661 24.0151 0 -57.2037 25.9263 0 
-56.7448 23.1134 0 -56.2348 22.2301 0 -56.1381 24.0905 0 
-55.7544 21.3139 0 -55.2519 20.4436 0 -55.1364 22.2726 0 
-54.7083 19.5215 0 -54.1458 18.5472 0 -54.1123 20.4344 0 
-53.5945 17.5922 0 -53.047 16.6439 0 -53.0174 18.5573 0 
-52.466 15.7002 0 -51.9409 14.7908 0 -51.8851 16.6586 0 
-51.3769 13.8333 0 -50.8144 12.859 0 -50.74 14.7573 0 
-50.2887 11.9171 0 -49.7862 11.0467 0 -49.6503 12.8578 0 
-49.2463 10.1394 0 -48.7063 9.20409 0 -48.5847 11.0085 0 
-48.1333 8.17777 0 -47.5933 7.24247 0 -47.4718 9.07488 0 
-48.1545 5.2762 0 -49.0205 4.7762 0 -65.1122 29.6403 0 
-65.6447 30.5626 0 -64.0927 27.7812 0 -64.6102 28.6775 0 
-65.7675 28.7453 0 -62.9858 25.8718 0 -63.5483 26.8461 0 
-64.7211 26.8475 0 -61.9216 24.0504 0 -62.4391 24.9468 0 
-63.6301 24.9873 0 -60.9142 22.2739 0 -61.4242 23.1573 0 
-62.586 23.1691 0 -59.8296 20.3945 0 -60.3696 21.3298 0 
-61.544 21.3318 0 -58.797 18.5874 0 -59.2995 19.4578 0 
-60.4692 19.451 0 -57.7398 16.8433 0 -58.2423 17.7137 0 
-59.3844 17.6405 0 -56.6735 14.9571 0 -57.2135 15.8924 0 
-58.3034 15.8158 0 -55.5233 12.9709 0 -56.1083 13.9841 0 
-57.2119 13.8919 0 -54.4361 11.1003 0 -54.9761 12.0356 0 
-56.0996 11.9837 0 -53.3784 9.22973 0 -53.8809 10.1001 0 
-54.9972 10.0482 0 -52.2348 7.24172 0 -52.8123 8.24198 0 
-53.8759 8.06028 0 -51.0195 5.2487 0 -51.5895 6.23597 0 
-52.6644 6.06678 0 -65.1492 32.6828 0 -64.2832 33.1828 0 
-78.5842 64.0056 0 -21.519 64.2206 0 -78.5842 62.8056 0 
-24.8511 42.4524 0 -22.3625 44.1376 0 -22.3625 46.4876 0 
-21.6653 -23.9142 0 -23.5461 -23.2646 0 -21.8857 -32.0075 0 
-21.6653 -25.4642 0 -49.1466 3.5674 0 -50.146 4.22757 0 
-62.9498 33.437 0 -61.9184 33.5714 0 -76.3372 -32.1154 0 
-46.4383 6.88975 0 -47.1328 6.08366 0 -46.9994 4.92349 0 
-66.7074 30.8499 0 -66.0826 31.7044 0 -63.9452 34.2026 0 
-51.1456 4.0399 0 -66.212 32.97 0 -22.9575 -26.5351 0 
-77.357 62.1916 0 -75.6762 -30.9456 0 -71.9574 63.4579 0 
-73.3131 63.4317 0 -74.4792 63.0318 0 -76.0628 62.717 0 
-76.2331 61.2116 0 -73.7729 62.137 0 -66.8264 62.7614 0 
-68.2235 62.823 0 -64.011 62.679 0 -65.3869 62.6982 0 
-66.2717 61.4849 0 -61.1251 62.6264 0 -62.5399 62.6235 0 
-63.3612 61.3662 0 -58.4195 62.5744 0 -59.696 62.6043 0 
-60.4609 61.2887 0 -55.7908 62.5556 0 -57.1154 62.5523 0 
-57.7277 61.2447 0 -53.1384 62.5186 0 -54.467 62.5314 0 
-55.0998 61.1984 0 -50.5255 62.5426 0 -51.8557 62.5516 0 
-52.4934 61.2072 0 -47.7082 62.5035 0 -49.0968 62.5052 0 
-49.7821 61.2028 0 -44.904 62.4749 0 -46.3292 62.4839 0 
-46.9744 61.1457 0 -42.2296 62.4845 0 -43.5367 62.4765 0 
-44.2282 61.1277 0 -39.5682 62.5296 0 -40.9315 62.4992 0 
-41.5629 61.1441 0 -36.8328 62.5164 0 -38.1417 62.5583 0 
-38.8383 61.1875 0 -34.1496 62.5611 0 -35.5404 62.5201 0 
-36.1194 61.2199 0 -31.431 62.6126 0 -32.7911 62.6153 0 
-33.4686 61.2779 0 -28.7835 62.4982 0 -30.0841 62.5466 0 
-30.7632 61.266 0 -26.2528 62.3141 0 -27.5152 62.3084 0 
-28.1479 61.0102 0 -23.6455 62.6051 0 -24.9304 62.3955 0 
-25.5572 60.9019 0 -27.7008 21.3923 0 -27.6727 24.5366 0 
-76.7358 -22.5164 0 -76.677 -23.8568 0 -76.6228 -25.1635 0 
-76.5548 -26.5454 0 -75.5468 -24.4094 0 -76.3574 -27.9257 0 
-76.1453 -29.5608 0 -74.6288 -29.8614 0 -75.2953 -27.0964 0 
-76.6486 -19.8615 0 -76.7122 -21.226 0 -75.5774 -21.8123 0 
-76.5517 -17.2617 0 -76.5879 -18.5693 0 -75.4931 -19.2298 0 
-76.4557 -14.5789 0 -76.4612 -15.9259 0 -75.3418 -16.6017 0 
-76.3651 -11.9157 0 -76.4043 -13.2516 0 -75.1999 -13.9386 0 
-76.3771 -9.27531 0 -76.3979 -10.5973 0 -75.1813 -11.293 0 
-76.4281 -6.67513 0 -76.3821 -7.95755 0 -75.2191 -8.65695 0 
-76.4065 -4.01425 0 -76.4213 -5.34238 0 -75.2173 -6.00645 0 
-76.37 -1.32776 0 -76.3855 -2.67022 0 -75.1895 -3.32968 0 
-76.3579 1.40431 0 -76.3521 0.0221807 0 -75.1506 -0.635706 0 
-76.3968 3.98654 0 -76.387 2.69593 0 -75.1618 2.00586 0 
-76.367 6.77476 0 -76.3932 5.39286 0 -75.1872 4.70379 0 
-76.3416 9.44473 0 -76.3592 8.11194 0 -75.1758 7.44729 0 
-76.3743 12.0798 0 -76.3277 10.7645 0 -75.1542 10.1042 0 
-76.3654 14.8109 0 -76.3723 13.4351 0 -75.1383 12.7793 0 
-76.348 17.6083 0 -76.35 16.2398 0 -75.1208 15.5636 0 
-76.3371 20.2124 0 -76.3349 18.906 0 -75.0922 18.2902 0 
-76.3308 22.9201 0 -76.3495 21.5538 0 -75.0916 20.9293 0 
-76.4514 25.5242 0 -76.3866 24.2197 0 -75.1598 23.5703 0 
-76.5598 28.1814 0 -76.5221 26.8386 0 -75.2863 26.1843 0 
-76.5644 30.8995 0 -76.5825 29.5233 0 -75.3796 28.8406 0 
-76.5837 33.6283 0 -76.5785 32.2881 0 -75.4165 31.5711 0 
-76.5088 36.2846 0 -76.5155 34.9305 0 -75.3624 34.2619 0 
-76.5255 38.874 0 -76.535 37.5813 0 -75.3205 36.8609 0 
-76.5499 41.4958 0 -76.5503 40.193 0 -75.3715 39.4767 0 
-76.4664 44.1435 0 -76.4953 42.816 0 -75.3416 42.1159 0 
-76.4782 46.7015 0 -76.4536 45.4324 0 -75.2741 44.7249 0 
-76.4859 49.3426 0 -76.4768 48.032 0 -75.2599 47.3443 0 
-76.4565 52.0722 0 -76.4929 50.7183 0 -75.2655 50.0504 0 
-76.4999 54.6365 0 -76.4723 53.3484 0 -75.2882 52.7023 0 
-76.4404 57.3033 0 -76.4845 55.9373 0 -75.2885 55.2793 0 
-76.3526 59.9359 0 -76.3928 58.606 0 -75.2255 57.8828 0 
-75.0584 60.4613 0 -24.1976 -28.2149 0 -24.589 -26.7225 0 
-24.3153 55.2389 0 -24.1733 57.1015 0 -27.2741 40.5883 0 
-27.1662 43.7967 0 -24.3902 50.5526 0 -24.4824 52.5577 0 
-25.8742 53.9768 0 -67.5026 33.0602 0 -66.5693 34.0385 0 
-27.617 27.6269 0 -27.6125 30.8832 0 -25.4263 -24.693 0 
-25.6235 -22.915 0 -27.5985 34.0116 0 -27.492 37.2979 0 
-29.8071 38.6422 0 -30.039 32.2235 0 -27.9484 15.1715 0 
-27.9 18.2413 0 -30.3636 19.7636 0 -27.8253 9.56301 0 
-27.8692 12.2731 0 -30.4835 13.7142 0 -27.4678 4.29876 0 
-27.5944 6.9415 0 -27.1481 -0.74217 0 -27.2477 1.8317 0 
-29.7223 3.10563 0 -26.9682 -6.06405 0 -27.0965 -3.30808 0 
-29.4506 -1.92734 0 -26.6606 -11.3007 0 -26.8113 -8.73598 0 
-29.2421 -7.16519 0 -26.2799 -16.0473 0 -26.4487 -13.8172 0 
-28.8734 -12.3536 0 -25.8711 -20.515 0 -25.9486 -18.384 0 
-28.3302 -17.2068 0 -27.7513 -21.9435 0 -51.5705 2.74003 0 
-52.4441 3.76116 0 -47.9507 2.52715 0 -49.0762 1.97852 0 
-23.1697 -29.4514 0 -22.7314 -30.6523 0 -29.977 -29.5721 0 
-28.6511 -29.5914 0 -32.7475 -29.931 0 -31.3935 -29.8289 0 
-30.6706 -28.43 0 -35.3805 -30.1469 0 -34.064 -30.0716 0 
-33.4036 -28.8275 0 -38.1262 -30.0379 0 -36.7378 -30.085 0 
-36.0773 -28.9063 0 -40.9534 -29.9367 0 -39.5329 -29.9544 0 
-38.8414 -28.7609 0 -43.5856 -29.8939 0 -42.2675 -29.8977 0 
-41.5622 -28.6383 0 -46.4026 -29.9059 0 -45.0008 -29.8955 0 
-44.2915 -28.6009 0 -49.1141 -29.9278 0 -47.79 -29.942 0 
-47.0941 -28.6387 0 -51.8635 -29.9859 0 -50.4697 -29.9738 0 
-49.8371 -28.7208 0 -54.5989 -29.9384 0 -53.2288 -29.9622 0 
-52.5579 -28.7431 0 -57.3454 -29.9065 0 -55.9825 -29.928 0 
-55.3068 -28.709 0 -59.9167 -29.9507 0 -58.6305 -29.903 0 
-57.9755 -28.6951 0 -62.5834 -30.0275 0 -61.2614 -29.9851 0 
-60.6053 -28.7259 0 -65.2966 -30.0605 0 -63.955 -30.0528 0 
-63.3216 -28.7856 0 -67.9146 -30.2026 0 -66.5881 -30.1342 0 
-65.9848 -28.8847 0 -70.5427 -30.3697 0 -69.184 -30.3537 0 
-68.5457 -29.1096 0 -73.3903 -30.1863 0 -71.9456 -30.3026 0 
-71.218 -29.1936 0 -73.8594 -28.8016 0 -61.3276 34.6847 0 
-60.6343 33.7993 0 -45.5627 7.89961 0 -45.1022 6.7408 0 
-45.6746 4.40077 0 -46.6963 3.59332 0 -58.8439 30.7984 0 
-58.2917 29.8221 0 -57.6912 28.8913 0 -57.1003 27.942 0 
-57.0531 29.9544 0 -56.5698 26.9997 0 -56.0255 26.0655 0 
-55.9221 28.0812 0 -55.4861 25.085 0 -54.9648 24.1833 0 
-54.8522 26.1583 0 -54.4608 23.2998 0 -53.9804 22.3836 0 
-53.8088 24.2943 0 -53.4558 21.4282 0 -52.9122 20.5061 0 
-52.7803 22.4553 0 -52.3507 19.5502 0 -51.7994 18.5952 0 
-51.6942 20.544 0 -51.2052 17.6269 0 -50.6241 16.6831 0 
-50.5384 18.6198 0 -50.0694 15.7476 0 -49.5053 14.7901 0 
-49.3894 16.716 0 -48.9652 13.8249 0 -48.4395 12.883 0 
-48.2945 14.8153 0 -47.8693 11.908 0 -47.3293 11.0007 0 
-47.1842 12.8751 0 -46.6797 10.0503 0 -46.1067 9.024 0 
-45.9643 10.9498 0 -67.4881 29.8652 0 -67.926 31.0069 0 
-64.6827 35.2727 0 -63.3492 35.5269 0 -66.5318 27.747 0 
-67.0339 28.7099 0 -68.2524 28.8669 0 -63.3213 22.2283 0 
-63.8187 23.1214 0 -62.2718 20.3611 0 -62.8164 21.3052 0 
-64.0491 21.2575 0 -61.2005 18.4264 0 -61.7306 19.3631 0 
-63.003 19.3365 0 -60.1056 16.6313 0 -60.6603 17.505 0 
-61.9216 17.4171 0 -59.0226 14.7571 0 -59.5489 15.708 0 
-60.8247 15.5725 0 -57.8423 12.8443 0 -58.4075 13.8172 0 
-59.653 13.7094 0 -56.7355 10.9362 0 -57.2827 11.8715 0 
-58.4782 11.7967 0 -55.6116 8.93258 0 -56.1668 9.93279 0 
-57.3499 9.82055 0 -54.4803 6.92008 0 -55.0464 7.90783 0 
-56.216 7.79238 0 -53.2205 4.86841 0 -53.8658 5.87416 0 
-55.0364 5.72171 0 -69.5325 63.0289 0 -70.8186 63.1694 0 
-71.4679 62.2485 0 -69.0201 61.754 0 -60.0195 32.8435 0 
-59.424 31.8563 0 -58.2337 31.9432 0 -59.4286 33.9568 0 
-65.4233 25.9083 0 -65.9676 26.8433 0 -67.2339 26.8078 0 
-64.3055 24.0396 0 -64.8521 24.9647 0 -66.0986 24.9606 0 
-65.0407 23.0988 0 -26.6664 -26.3728 0 -30.1087 26.0048 0 
-30.1734 8.1942 0 -27.5416 -28.2877 0 -26.9386 -29.7059 0 
-67.4759 35.4121 0 -66.1853 35.3219 0 -65.5893 36.6462 0 
-24.9709 58.8207 0 -23.4372 59.2641 0 -29.42 45.0542 0 
-26.997 46.9183 0 -22.4593 63.3804 0 -23.0211 60.6198 0 
-23.0486 61.7587 0 -68.568 32.2689 0 -68.9253 33.3374 0 
-23.7412 47.7352 0 -53.6454 3.56854 0 -50.6381 1.71447 0 
-51.9365 1.43573 0 -46.6259 2.00444 0 -49.4422 0.674221 0 
-25.8234 -29.9448 0 -24.8012 -29.6387 0 -62.0776 35.494 0 
-60.7934 35.7218 0 -62.8151 36.564 0 -44.7707 8.87505 0 
-43.7761 6.48732 0 -44.6516 5.47746 0 -69.3487 31.2842 0 
-44.3484 4.14729 0 -25.3923 48.4782 0 -27.6461 49.7357 0 
-31.7815 43.3691 0 -31.6123 46.4907 0 -59.7724 59.8986 0 
-61.2015 59.9206 0 -65.6828 60.1447 0 -67.1222 60.208 0 
-57.1067 59.8704 0 -58.4108 59.8924 0 -59.1514 58.5243 0 
-54.4413 59.8343 0 -55.7651 59.8585 0 -56.4482 58.5063 0 
-51.8658 59.8651 0 -53.1485 59.8321 0 -53.8137 58.4922 0 
-49.0262 59.7786 0 -50.4548 59.8161 0 -51.1099 58.4409 0 
-46.2702 59.7075 0 -47.6492 59.7271 0 -48.322 58.3404 0 
-43.4889 59.6876 0 -44.8561 59.686 0 -45.5309 58.2673 0 
-40.8836 59.7149 0 -42.1816 59.7001 0 -42.8095 58.2584 0 
-38.089 59.777 0 -39.5155 59.7483 0 -40.1342 58.3043 0 
-35.3977 59.8017 0 -36.6901 59.7979 0 -37.3673 58.3587 0 
-32.6976 59.8907 0 -34.0561 59.8365 0 -34.6267 58.4145 0 
-30.1528 60.0274 0 -31.4997 60.0934 0 -32.0871 58.652 0 
-27.6844 59.2796 0 -28.9528 59.4694 0 -29.6893 58.2968 0 
-33.1542 12.2329 0 -33.2335 15.1314 0 -32.3618 24.3435 0 
-32.3061 27.4338 0 -72.615 61.4314 0 -73.7811 61.0314 0 
-73.9006 59.7556 0 -68.1862 25.7215 0 -68.7504 26.6253 0 
-74.5851 -21.1216 0 -74.6087 -22.412 0 -74.366 -26.1228 0 
-74.1687 -27.5031 0 -72.9302 -27.828 0 -28.3789 -26.2582 0 
-73.9641 -13.3006 0 -74.0155 -14.6279 0 -73.9872 -10.6942 0 
-73.9544 -12.0125 0 -72.7701 -12.7017 0 -74.0026 -8.01747 0 
-73.9976 -9.33522 0 -72.7707 -10.0547 0 -74.0088 -5.34618 0 
-74.0155 -6.67893 0 -72.7941 -7.35719 0 -73.9976 -2.65898 0 
-74.0186 -4.00301 0 -72.8169 -4.67548 0 -73.9684 0.0553061 0 
-73.9863 -1.29463 0 -72.8154 -1.96797 0 -74.0079 2.63522 0 
-73.9788 1.3436 0 -72.8145 0.684676 0 -73.9974 5.37571 0 
-74.001 3.96939 0 -72.818 3.30714 0 -73.9494 8.13486 0 
-73.9572 6.79768 0 -72.771 6.06328 0 -73.8743 10.801 0 
-73.8882 9.48128 0 -72.6695 8.83166 0 -73.8341 13.4826 0 
-73.8361 12.1272 0 -72.5701 11.5043 0 -73.8348 16.2865 0 
-73.8503 14.8576 0 -72.548 14.2055 0 -73.8047 19.0278 0 
-73.8178 17.7301 0 -72.5472 17.0241 0 -73.8168 21.6526 0 
-73.8044 20.3113 0 -72.5299 19.7512 0 -73.9061 24.3175 0 
-73.8503 23.0179 0 -72.5631 22.3998 0 -74.0313 26.8953 0 
-73.9605 25.581 0 -72.6511 25.0285 0 -74.2632 29.5 0 
-74.2406 28.1581 0 -72.9148 27.5548 0 -74.2188 32.2503 0 
-74.2047 30.8618 0 -73.0656 30.1793 0 -74.0682 34.8719 0 
-74.1364 33.5697 0 -72.9246 32.8604 0 -74.1135 37.4892 0 
-74.0872 36.1924 0 -72.8612 35.5002 0 -74.1613 40.0361 0 
-74.1365 38.7171 0 -72.9033 38.0486 0 -74.0481 42.7094 0 
-74.1028 41.3892 0 -72.8678 40.6296 0 -73.9405 45.2933 0 
-73.9533 44.0045 0 -72.7145 43.2778 0 -73.9411 47.9855 0 
-73.9425 46.6551 0 -72.6217 45.9346 0 -73.9213 50.7397 0 
-73.9143 49.364 0 -72.5969 48.6748 0 -74.0236 53.3535 0 
-74.0078 52.0773 0 -72.6566 51.3909 0 -74.1461 55.9023 0 
-74.1615 54.6015 0 -72.8811 53.9765 0 -74.0521 -16.0169 0 
-74.1426 -17.3528 0 -72.8164 -15.3789 0 -27.4256 52.395 0 
-27.2585 55.0762 0 -29.0303 50.8351 0 -70.0728 33.9814 0 
-69.0074 34.7727 0 -32.8224 18.0673 0 -32.6232 21.2183 0 
-35.4931 16.5861 0 -31.4736 -8.41896 0 -31.6305 -5.74702 0 
-31.637 -3.2385 0 -31.6886 -0.672587 0 -33.8686 -4.49227 0 
-31.6387 1.76827 0 -31.8588 4.23533 0 -33.8251 0.457114 0 
-30.9524 -13.63 0 -31.1643 -11.1135 0 -33.5527 -9.69531 0 
-44.9383 1.53755 0 -46.1928 0.471383 0 -62.7171 59.9521 0 
-64.1882 60.0076 0 -65.0387 58.7306 0 -62.0286 58.5619 0 
-34.1535 -27.8584 0 -32.8371 -27.7177 0 -39.4771 -27.3913 0 
-38.0704 -27.4748 0 -42.1513 -27.2161 0 -40.8372 -27.2551 0 
-40.0662 -25.9691 0 -44.9091 -27.2131 0 -43.4939 -27.2114 0 
-42.7689 -25.8282 0 -47.7522 -27.2917 0 -46.3648 -27.2557 0 
-45.5672 -25.8662 0 -50.4992 -27.3828 0 -49.1436 -27.3368 0 
-48.4143 -25.9538 0 -53.259 -27.3971 0 -51.8937 -27.4209 0 
-51.2002 -26.0369 0 -55.9982 -27.3753 0 -54.6147 -27.3857 0 
-53.9504 -26.0635 0 -58.6695 -27.3419 0 -57.3844 -27.3455 0 
-56.6923 -26.0222 0 -61.3026 -27.3506 0 -59.9579 -27.3163 0 
-59.3668 -25.9666 0 -64.087 -27.364 0 -62.7154 -27.3386 0 
-62.068 -25.929 0 -66.7672 -27.564 0 -65.4757 -27.4903 0 
-64.8694 -26.0433 0 -69.2707 -27.9484 0 -68.0013 -27.7972 0 
-67.4921 -26.4028 0 -30.232 -26.8947 0 -29.3569 -24.9798 0 
-42.7881 7.58297 0 -42.3374 6.31963 0 -48.5926 -0.340677 0 
-50.1544 -0.604725 0 -55.2448 29.1792 0 -54.7142 28.2369 0 
-54.1381 27.303 0 -53.5987 26.3225 0 -53.4607 28.401 0 
-53.0543 25.3835 0 -52.5503 24.5 0 -52.3403 26.5281 0 
-51.9986 23.5468 0 -51.4741 22.5913 0 -51.2442 24.636 0 
-50.9083 21.6077 0 -50.3468 20.6517 0 -50.1267 22.6991 0 
-49.7669 19.6859 0 -49.1727 18.7177 0 -48.981 20.7497 0 
-48.605 17.742 0 -48.0503 16.8065 0 -47.8335 18.8082 0 
-47.5481 15.8453 0 -47.0079 14.8802 0 -46.7637 16.8714 0 
-46.4509 13.9031 0 -45.8807 12.9281 0 -45.7045 14.9332 0 
-45.2246 11.9705 0 -44.5749 11.0201 0 -44.4913 12.9985 0 
-43.8623 9.97342 0 -43.3183 8.84902 0 -43.1225 10.9941 0 
-63.8024 18.276 0 -64.3435 19.2739 0 -64.8722 20.2879 0 
-65.3771 21.211 0 -65.6716 19.2274 0 -61.6385 14.5197 0 
-62.1952 15.4429 0 -60.3468 12.6625 0 -60.9619 13.6024 0 
-62.3324 13.4728 0 -59.1815 10.7273 0 -59.7412 11.7 0 
-61.0501 11.593 0 -58.0113 8.72738 0 -58.5801 9.73079 0 
-59.843 9.63409 0 -56.8679 6.66697 0 -57.433 7.69172 0 
-58.6632 7.60197 0 -55.6697 4.53109 0 -56.2842 5.57701 0 
-57.5013 5.47635 0 -52.4621 0.0776411 0 -53.3946 1.1032 0 
-32.4027 6.59505 0 -32.6336 9.21656 0 -35.3836 10.6338 0 
-34.3191 5.25768 0 -74.4284 -23.5368 0 -74.3742 -24.8436 0 
-73.2476 -25.2503 0 -73.4361 -22.8462 0 -54.2292 2.27187 0 
-55.0057 3.37912 0 -56.2535 3.23442 0 -54.7548 0.913782 0 
-74.2231 -18.7131 0 -74.2838 -20.0053 0 -73.3151 -20.605 0 
-72.9334 -18.1283 0 -36.7271 -27.6669 0 -35.3698 -27.7288 0 
-34.8033 -26.619 0 -37.3628 -26.2973 0 -42.8923 3.86107 0 
-43.9153 2.78437 0 -43.4822 1.25132 0 -56.4035 31.0571 0 
-55.8031 30.1262 0 -54.5952 30.2818 0 -62.7876 16.3206 0 
-63.3278 17.2419 0 -64.6684 17.1794 0 -63.6014 15.2677 0 
-68.1367 59.0093 0 -68.7256 60.3495 0 -70.0346 60.5554 0 
-68.6233 36.0561 0 -33.2058 47.9851 0 -30.8442 49.6701 0 
-30.6238 52.3294 0 -34.6916 28.7454 0 -32.4385 30.4067 0 
-67.2539 24.9749 0 -68.7704 24.7923 0 -66.6828 24.0314 0 
-74.0455 58.4961 0 -74.0931 57.1934 0 -72.9661 56.5156 0 
-72.7682 59.0662 0 -66.0026 38.0032 0 -64.5 37.954 0 
-26.2933 58.7392 0 -27.0982 57.1985 0 -32.4245 33.5351 0 
-34.8206 22.6472 0 -45.6096 -1.21705 0 -47.2972 -0.750164 0 
-48.0094 -2.02911 0 -60.4084 37.0875 0 -59.6584 36.2783 0 
-32.5157 36.7214 0 -32.2979 40.0118 0 -34.4901 41.4483 0 
-30.5974 -16.0842 0 -32.8883 -14.844 0 -30.2661 -18.4209 0 
-29.5375 -23.0922 0 -29.7851 -20.6923 0 -32.0523 -19.5697 0 
-41.9551 5.0331 0 -41.522 3.67018 0 -58.0824 36.5837 0 
-58.4674 35.2179 0 -31.6486 -27.1515 0 -41.8797 8.68134 0 
-32.3985 -26.1824 0 -63.0245 37.7556 0 -61.7528 37.7227 0 
-63.4378 39.1127 0 -31.3907 -23.7287 0 -71.8048 -28.1986 0 
-70.4019 -28.2658 0 -69.8574 -26.9534 0 -72.1141 -26.9002 0 
-40.9671 6.12875 0 -50.6122 -2.11207 0 -51.4618 -1.09717 0 
-69.8369 30.0988 0 -70.479 31.3608 0 -57.6459 33.0101 0 
-57.0658 31.9521 0 -55.8157 32.1239 0 -57.8526 34.2622 0 
-71.4762 61.1428 0 -28.6496 55.6166 0 -69.121 27.7855 0 
-69.5753 28.9408 0 -66.6973 21.1815 0 -65.8741 22.1511 0 
-66.3609 23.0693 0 -52.9199 -1.4297 0 -53.5096 -3.06871 0 
-54.5099 -1.8939 0 -71.4164 33.3629 0 -71.4985 34.7982 0 
-70.7055 29.0175 0 -70.0733 26.6992 0 -57.7966 38.2305 0 
-56.6055 37.1702 0 -58.4846 57.1278 0 -59.8462 57.1339 0 
-50.3817 56.9399 0 -51.7928 56.989 0 -47.6431 56.8339 0 
-49.02 56.8854 0 -49.7029 55.4335 0 -44.7701 56.7466 0 
-46.1842 56.7681 0 -46.8823 55.3131 0 -42.1123 56.6912 0 
-43.4195 56.6787 0 -44.0728 55.1794 0 -39.4211 56.8483 0 
-40.7892 56.8149 0 -41.3992 55.2351 0 -36.5312 56.9241 0 
-37.9301 56.9031 0 -38.5851 55.4137 0 -33.7349 56.8877 0 
-35.0766 56.8529 0 -35.6394 55.3973 0 -31.0632 57.3 0 
-32.2611 57.0973 0 -32.711 55.5357 0 -36.7658 27.0315 0 
-36.8981 30.0044 0 -39.9477 7.12313 0 -39.5653 5.8366 0 
-71.5375 -6.70232 0 -71.5246 -8.04086 0 -71.4618 -9.40201 0 
-71.4514 -10.761 0 -70.2053 -8.74714 0 -71.4531 -12.1401 0 
-71.4628 -13.4282 0 -70.1442 -11.4874 0 -71.5679 -4.00686 0 
-71.558 -5.35003 0 -70.2886 -6.0337 0 -71.5394 -1.2561 0 
-71.5507 -2.62045 0 -70.2919 -3.29499 0 -71.5341 1.30374 0 
-71.5237 0.0154458 0 -70.259 -0.637034 0 -71.5576 3.94456 0 
-71.5645 2.61039 0 -70.2737 1.94116 0 -71.5212 6.78845 0 
-71.5613 5.36648 0 -70.3078 4.66973 0 -71.3355 9.54579 0 
-71.3967 8.19937 0 -70.1871 7.50257 0 -71.1255 12.2303 0 
-71.1637 10.9041 0 -69.8909 10.2718 0 -71.1658 14.9658 0 
-71.1496 13.5908 0 -69.7433 12.9906 0 -71.2648 17.7979 0 
-71.2819 16.3543 0 -69.8834 15.7396 0 -71.0735 20.4998 0 
-71.0738 19.2163 0 -69.8084 18.5465 0 -71.2041 25.9155 0 
-71.1497 24.652 0 -71.5175 36.1187 0 -71.6238 38.6286 0 
-71.6008 37.4007 0 -70.2381 36.6987 0 -71.7671 41.2063 0 
-71.8256 39.8533 0 -70.5231 39.2053 0 -71.1188 43.6816 0 
-71.2136 42.3865 0 -70.1714 41.6101 0 -71.2595 46.5778 0 
-71.2575 45.2161 0 -69.7566 44.3248 0 -71.1653 49.4087 0 
-71.1922 48.0302 0 -69.8279 47.3117 0 -71.3285 52.1137 0 
-71.2419 50.7761 0 -69.8371 50.1315 0 -71.6503 54.6454 0 
-71.5123 53.3974 0 -70.0976 52.7826 0 -67.5229 38.2798 0 
-66.4336 39.5876 0 -71.5459 -14.7458 0 -71.5825 -16.1348 0 
-70.229 -14.1842 0 -34.9152 34.9046 0 -43.264 -24.3219 0 
-41.9214 -24.3266 0 -55.8007 57.0626 0 -57.1423 57.0744 0 
-57.8371 55.6841 0 -38.0707 15.3806 0 -37.6596 18.3166 0 
-36.27 -5.55922 0 -36.2765 -3.05069 0 -60.6178 38.2792 0 
-52.8531 29.4695 0 -52.2769 28.5357 0 -40.1813 3.54811 0 
-41.1185 2.37608 0 -35.5831 -11.1667 0 -35.8924 -8.47215 0 
-38.3004 -7.03057 0 -35.5962 -0.802974 0 -35.5462 1.63788 0 
-53.7179 31.5586 0 -53.1596 30.6116 0 -51.9758 30.7463 0 
-46.2391 -24.4461 0 -44.7834 -24.4036 0 -43.9359 -22.9019 0 
-71.1817 59.7383 0 -41.7543 1.00124 0 -42.7773 -0.245586 0 
-40.511 -24.3142 0 -39.1508 -24.4504 0 -41.006 -22.8079 0 
-49.0214 -24.5212 0 -47.63 -24.4761 0 -46.8462 -23.0135 0 
-51.8639 -24.6636 0 -50.4694 -24.6256 0 -49.6851 -23.1478 0 
-54.6096 -24.6807 0 -53.2538 -24.6922 0 -52.523 -23.2808 0 
-57.4038 -24.5982 0 -56.0176 -24.628 0 -55.321 -23.2567 0 
-60.0221 -24.493 0 -58.7337 -24.5186 0 -58.0591 -23.1245 0 
-62.8498 -24.4499 0 -61.437 -24.4619 0 -60.8039 -23.0139 0 
-65.7452 -24.6682 0 -64.3566 -24.5419 0 -63.7256 -23.0748 0 
-68.4781 -25.1656 0 -67.2441 -24.9324 0 -66.7312 -23.4309 0 
-71.5747 27.0757 0 -40.5652 9.90805 0 -40.0349 8.642 0 
-49.3291 -3.12481 0 -50.6365 -3.61726 0 -33.8729 -25.3847 0 
-32.6844 -24.8186 0 -35.0892 -25.2551 0 -51.5537 27.7409 0 
-51.0093 26.8019 0 -50.946 28.8094 0 -50.3665 25.846 0 
-49.8148 24.8928 0 -49.5799 27.0587 0 -49.3165 23.8669 0 
-48.7507 22.8833 0 -48.4388 25.0769 0 -48.2505 21.7879 0 
-47.6706 20.8221 0 -47.4403 22.9557 0 -46.9698 19.8977 0 
-46.4021 18.9221 0 -46.2392 20.9359 0 -45.6855 17.9801 0 
-45.1833 17.019 0 -44.8218 19.0696 0 -45.0116 15.9666 0 
-44.4546 14.9895 0 -43.9335 17.0753 0 -43.8371 14.1343 0 
-43.1809 13.1767 0 -43.1442 15.1677 0 -42.0787 12.4494 0 
-41.3661 11.4027 0 -39.5213 11.3634 0 -41.4244 13.5853 0 
-61.8608 10.4807 0 -62.4664 11.4432 0 -62.9943 12.4475 0 
-63.671 13.3648 0 -63.805 11.3351 0 -59.3336 6.52865 0 
-59.9119 7.5643 0 -58.2061 4.34503 0 -58.7898 5.43499 0 
-60.0385 5.39733 0 -71.4989 32.0436 0 -68.7066 37.338 0 
-36.8409 21.1031 0 -36.5795 24.2282 0 -60.5846 8.53156 0 
-61.1861 9.52803 0 -61.255 7.45824 0 -66.4322 18.2637 0 
-66.9609 19.2777 0 -53.1844 57.0887 0 -54.4772 57.0909 0 
-55.1713 55.659 0 -52.4562 55.5877 0 -56.6846 34.2712 0 
-69.8412 24.0999 0 -71.2881 23.213 0 -71.2546 21.8477 0 
-68.9089 23.3533 0 -60.6921 55.7017 0 -61.3589 57.0982 0 
-62.8745 57.1297 0 -67.5162 23.0836 0 -72.0481 -24.3572 0 
-72.04 -25.6364 0 -70.9146 -26.007 0 -39.4 31.2673 0 
-37.3258 32.9812 0 -72.2542 -21.7241 0 -72.0738 -22.8489 0 
-70.8662 -23.2351 0 -38.6332 8.34985 0 -35.7893 46.5793 0 
-35.0213 49.7587 0 -37.9269 5.52738 0 -38.9464 4.533 0 
-32.8651 -22.931 0 -57.0843 1.95725 0 -57.7483 3.10922 0 
-59.0368 3.06785 0 -37.4171 36.1675 0 -69.7985 21.3129 0 
-71.784 28.3385 0 -71.9871 30.8582 0 -72.0457 29.4965 0 
-66.9684 40.971 0 -65.4481 40.6945 0 -71.8936 55.8551 0 
-70.5247 55.2759 0 -71.8406 57.1462 0 -70.3721 -17.0082 0 
-71.6426 -17.6413 0 -71.723 -19.0017 0 -39.4186 19.8976 0 
-38.786 25.4873 0 -54.9008 37.7822 0 -55.1866 36.1353 0 
-38.1132 13.2541 0 -37.3123 11.7594 0 -31.8374 53.4549 0 
-30.0235 54.6198 0 -37.9976 -1.86992 0 -43.8517 -1.78458 0 
-42.1238 -2.03466 0 -60.5814 39.9278 0 -59.237 39.2927 0 
-57.7602 39.8792 0 -40.4136 0.879168 0 -37.5726 39.72 0 
-37.0563 43.0774 0 -38.8718 44.8509 0 -69.7834 -25.6897 0 
-33.8494 -21.1189 0 -34.3303 -18.8475 0 -64.3374 57.147 0 
-65.8319 57.2842 0 -63.6677 55.6832 0 -53.761 35.3606 0 
-55.4656 34.7486 0 -55.259 33.4965 0 -65.7386 16.0996 0 
-66.2131 17.1337 0 -67.5024 17.184 0 -38.2724 -23.3564 0 
-37.8277 -25.0112 0 -36.4844 -25.2033 0 -38.5429 3.23889 0 
-37.3127 2.30079 0 -35.5415 3.56088 0 -63.7608 40.5957 0 
-62.2853 40.3973 0 -64.2956 41.9791 0 -71.9529 -20.6078 0 
-69.5353 -24.2192 0 -36.0855 5.92059 0 -35.1431 -22.2088 0 
-36.7917 8.74306 0 -66.6827 55.9827 0 -67.384 57.5663 0 
-68.9875 57.7078 0 -48.0337 -3.53429 0 -62.6024 9.37817 0 
-50.9896 -5.32547 0 -52.2726 -4.31274 0 -55.5686 -0.544186 0 
-56.4032 0.624486 0 -57.898 0.499278 0 -54.5967 32.6014 0 
-34.8078 -16.3065 0 -35.1629 -13.8523 0 -36.6049 -17.8557 0 
-37.5026 -12.6291 0 -53.1612 32.9312 0 -53.8626 -4.77693 0 
-65.4284 12.964 0 -64.7664 13.9893 0 -65.3588 14.8669 0 
-29.8632 56.7421 0 -56.1583 -2.18319 0 -49.0619 53.4339 0 
-50.4236 53.4884 0 -40.604 53.4762 0 -41.9271 53.3525 0 
-37.7527 54.0278 0 -39.2437 53.9729 0 -39.7716 52.0903 0 
-68.9904 -2.58302 0 -69.0076 -3.96943 0 -68.9276 -8.05817 0 
-68.8648 -9.41932 0 -41.4313 29.2633 0 -41.859 32.2401 0 
-69.561 -22.711 0 -52.2839 34.3508 0 -51.405 33.308 0 
-54.6388 -6.67282 0 -55.8757 -5.4288 0 -71.3266 58.4788 0 
-69.0267 -5.3385 0 -69.0062 -6.69079 0 -67.6657 -7.36297 0 
-67.7253 -4.62653 0 -68.7627 -10.8561 0 -68.7644 -12.2353 0 
-67.485 -10.1672 0 -68.8692 0.0177824 0 -68.8849 -1.25377 0 
-67.6006 -1.9282 0 -68.9018 2.60253 0 -68.8714 1.29588 0 
-67.4973 0.679149 0 -69.0338 5.32798 0 -69.03 3.90605 0 
-67.6278 3.26077 0 -68.8611 8.20049 0 -68.9855 6.78958 0 
-67.7078 6.0259 0 -68.2543 11.0104 0 -68.4261 9.65205 0 
-67.2245 8.93905 0 -68.1456 13.9698 0 -68.1215 12.6093 0 
-68.6694 19.1395 0 -68.8605 17.7211 0 -36.6205 50.4269 0 
-38.0081 50.4699 0 -37.0237 52.544 0 -69.3394 40.147 0 
-69.1376 38.9224 0 -70.6621 -20.1208 0 -68.5689 45.1882 0 
-68.4303 43.6536 0 -68.2976 47.9927 0 -68.3649 46.5403 0 
-67.0386 45.8691 0 -68.3507 50.9189 0 -68.2741 49.5515 0 
-66.8111 48.78 0 -68.779 53.6446 0 -68.5951 52.3609 0 
-67.032 51.7809 0 -54.7802 39.4047 0 -53.3612 38.3698 0 
-57.2601 54.1562 0 -58.6023 54.2095 0 -47.4311 -21.344 0 
-46.0402 -21.314 0 -56.9212 -3.84093 0 -57.9799 -2.49122 0 
-57.6973 -5.73682 0 -68.5869 22.3912 0 -44.6012 -21.4604 0 
-43.0817 -21.3788 0 -45.1861 -19.7909 0 -40.1718 -8.9498 0 
-40.5493 -6.03687 0 -44.9561 -3.00612 0 -50.4805 31.6933 0 
-50.1739 30.5512 0 -49.6031 33.1129 0 -50.2696 -21.5798 0 
-48.8216 -21.4754 0 -48.0156 -19.776 0 -52.0048 35.7374 0 
-41.5265 -20.8048 0 -40.1161 -20.7924 0 -42.1919 -19.3633 0 
-67.9088 20.1032 0 -38.5476 1.3159 0 -68.797 -13.6101 0 
-68.8801 -14.9276 0 -67.4155 -12.9788 0 -53.1498 -21.7545 0 
-51.7599 -21.7259 0 -50.8964 -20.0535 0 -55.9501 -21.7692 0 
-54.542 -21.8218 0 -53.7789 -20.2669 0 -58.704 -21.6238 0 
-57.3741 -21.7033 0 -56.5951 -20.2685 0 -61.4838 -21.3905 0 
-60.0689 -21.4216 0 -59.3839 -20.0004 0 -64.5913 -21.4499 0 
-63.0845 -21.358 0 -62.3495 -19.7656 0 -67.8292 -21.873 0 
-66.3304 -21.6087 0 -65.6893 -19.8919 0 -49.5523 -6.53607 0 
-51.1884 -7.23155 0 -46.5145 -4.39049 0 -47.8343 -5.48619 0 
-48.0331 -7.39226 0 -44.7566 -4.95802 0 -38.3821 -19.593 0 
-38.8595 -17.052 0 -43.4139 53.4068 0 -44.7644 53.4747 0 
-42.6187 51.6479 0 -46.1287 53.8048 0 -47.5876 53.8707 0 
-45.4698 52.0323 0 -68.4058 21.0432 0 -47.3448 26.3322 0 
-46.8465 25.3064 0 -46.6785 24.082 0 -46.1783 22.9866 0 
-45.5845 25.3372 0 -45.5901 22.0125 0 -44.8892 21.0882 0 
-44.8283 23.1388 0 -43.8365 20.349 0 -43.1199 19.407 0 
-43.1874 21.4256 0 -65.0333 10.3607 0 -65.5612 11.365 0 
-39.1834 -0.058938 0 -39.282 -14.2105 0 -39.7022 -11.5248 0 
-41.9512 -10.5311 0 -60.7121 4.40321 0 -61.256 5.49687 0 
-41.186 18.8988 0 -40.3672 21.6852 0 -61.9084 6.37506 0 
-62.5811 7.34232 0 -62.582 5.38095 0 -39.9832 37.7966 0 
-35.554 -23.969 0 -69.1602 -20.8888 0 -39.8636 -2.30665 0 
-36.7044 7.22419 0 -48.3083 51.9256 0 -34.9105 53.9135 0 
-36.3651 53.9847 0 -44.6754 33.0721 0 -42.644 35.0761 0 
-42.7996 38.6286 0 -39.3684 49.9732 0 -53.2744 -8.03157 0 
-55.2875 -8.68343 0 -37.8615 -21.5961 0 -70.2541 57.8183 0 
-68.6414 16.591 0 -68.5253 15.2025 0 -68.7859 41.3272 0 
-67.8004 42.434 0 -59.976 54.4283 0 -61.4887 54.3925 0 
-59.3989 52.9004 0 -68.9303 -19.2827 0 -51.435 39.3752 0 
-51.5557 37.7527 0 -50.0786 36.7429 0 -69.2582 55.1655 0 
-67.7557 54.7439 0 -56.0803 40.6375 0 -54.5407 41.2251 0 
-57.5207 41.6996 0 -69.5014 56.3753 0 -69.2205 -16.2839 0 
-69.2806 -17.7904 0 -67.7886 -15.7098 0 -66.2036 54.4617 0 
-59.8647 -2.5605 0 -59.1018 -0.902763 0 -60.9045 41.4108 0 
-40.0596 47.8605 0 -41.8232 49.4809 0 -43.3099 49.5352 0 
-63.0132 53.9531 0 -64.4761 53.9705 0 -62.2971 52.6798 0 
-41.0591 -15.9477 0 -59.7828 0.429997 0 -66.9036 14.8212 0 
-42.1713 17.6194 0 -51.837 -9.24216 0 -51.1482 52.1946 0 
-51.7892 54.1942 0 -53.1808 54.2939 0 -40.938 -3.84564 0 
-65.549 52.7317 0 -60.1075 1.95713 0 -60.5653 3.19294 0 
-61.7828 3.29248 0 -61.3112 0.555084 0 -49.4507 29.7564 0 
-48.1833 27.3782 0 -46.591 27.6076 0 -48.8261 28.3341 0 
-64.0363 9.29484 0 -65.7925 9.32472 0 -66.2275 7.87317 0 
-63.3616 8.34218 0 -41.9995 16.567 0 -41.382 15.7119 0 
-48.054 30.0759 0 -42.8094 -5.76488 0 -64.0149 7.259 0 
-40.4242 23.8902 0 -40.6104 26.6935 0 -36.5383 -22.1569 0 
-66.6128 43.2974 0 -65.651 44.706 0 -65.0212 43.4865 0 
-63.3339 43.3877 0 -43.0694 27.6662 0 -40.2797 14.9846 0 
-54.5245 54.139 0 -55.848 54.1107 0 -53.8575 52.7455 0 
-56.6132 52.6361 0 -56.4819 -11.0703 0 -57.8463 -9.71157 0 
-65.9975 1.31165 0 -65.9952 0.0335552 0 -33.3113 53.2453 0 
-66.0806 -1.30318 0 -66.1861 -2.63244 0 -64.5808 -0.67068 0 
-66.6567 11.9895 0 -65.3046 51.2896 0 -65.447 46.0582 0 
-67.7787 -18.5584 0 -61.0766 43.6183 0 -59.3727 43.1488 0 
-54.3742 -18.5945 0 -52.982 -18.5271 0 -55.9881 50.8507 0 
-57.4001 50.8962 0 -65.5798 -12.294 0 -65.6124 -13.6688 0 
-57.1668 -18.885 0 -55.7428 -18.9508 0 -54.9459 -17.2111 0 
-59.8325 -18.1616 0 -58.4676 -18.3638 0 -57.6154 -17.0462 0 
-62.9615 -17.9562 0 -61.3607 -17.9888 0 -60.4444 -16.3522 0 
-66.3808 -18.3772 0 -64.6418 -18.2184 0 -63.653 -16.4416 0 
-66.7311 -16.8849 0 -45.3194 50.1358 0 -46.6837 50.4659 0 
-48.1579 50.0291 0 -44.5238 47.9688 0 -44.3679 -7.14925 0 
-58.8757 -7.90714 0 -59.9212 -6.31928 0 -60.0701 -10.294 0 
-65.2119 7.10687 0 -66.6439 6.72119 0 -66.6922 5.25959 0 
-64.4314 6.10701 0 -50.4414 -10.7846 0 -52.5274 -11.5847 0 
-46.2844 30.8671 0 -45.6599 29.4449 0 -66.182 -9.36505 0 
-66.0799 -10.8019 0 -64.2768 -11.4919 0 -42.1916 22.8914 0 
-48.655 -17.9994 0 -47.2645 -17.868 0 -51.5988 -18.6588 0 
-50.1085 -18.5127 0 -49.3574 -16.6048 0 -52.194 -16.9864 0 
-63.278 4.02451 0 -63.9304 4.9027 0 -65.1274 4.75057 0 
-47.0695 33.7032 0 -66.063 2.75176 0 -64.5609 2.10616 0 
-34.0369 51.8327 0 -66.5641 -3.91347 0 -66.5832 -5.28253 0 
-65.0441 -3.28845 0 -48.3652 47.7163 0 -49.9899 49.176 0 
-43.8455 -12.2266 0 -44.3151 -9.65158 0 -66.1912 4.05528 0 
-47.9803 -9.8946 0 -48.6706 -12.2371 0 -42.4552 -17.5963 0 
-42.8777 -14.7547 0 -65.097 49.344 0 -65.1205 47.7852 0 
-63.7329 46.6221 0 -63.614 50.2948 0 -57.6928 43.9071 0 
-52.2987 41.4572 0 -50.4931 40.8401 0 -54.1442 51.0963 0 
-54.9312 49.3564 0 -52.8006 51.2512 0 -53.5989 42.69 0 
-66.3907 -15.5286 0 -60.4854 -4.3198 0 -61.6073 -2.73134 0 
-66.2099 -6.55881 0 -66.1313 -7.92619 0 -64.7262 -8.56089 0 
-65.0488 -5.84575 0 -53.3116 -13.5279 0 -54.7073 -11.9854 0 
-45.4494 -18.0239 0 -44.0105 -18.1703 0 -41.3266 44.3586 0 
-63.1312 2.81424 0 -44.8214 28.3988 0 -61.6638 -6.49012 0 
-64.555 -14.8439 0 -44.0005 25.829 0 -46.2623 -8.84472 0 
-44.3503 45.1325 0 -46.3597 45.7331 0 -48.1917 44.88 0 
-43.1625 42.1229 0 -57.2661 -13.0135 0 -62.741 -0.152992 0 
-63.0657 1.37414 0 -43.8326 24.6046 0 -43.2443 23.6306 0 
-46.0889 -16.2474 0 -45.2416 -13.8752 0 -45.8233 39.4025 0 
-62.8264 -1.48973 0 -47.0567 -13.7193 0 -63.4471 -3.24903 0 
-48.7716 42.9095 0 -50.777 44.8926 0 -62.1015 51.031 0 
-61.8939 49.0854 0 -47.9079 40.8275 0 -47.5449 37.3331 0 
-59.2033 51.2516 0 -60.577 51.4704 0 -62.8747 -14.5817 0 
-51.6422 48.2326 0 -51.4349 50.5454 0 -58.5782 49.4662 0 
-63.825 -4.53006 0 -55.9031 -15.748 0 -54.5344 -15.3917 0 
-52.3545 -14.991 0 -58.1599 47.2336 0 -59.9631 47.589 0 
-61.4087 -12.5412 0 -60.5067 -14.1389 0 -52.8855 44.439 0 
-52.3057 46.4096 0 -53.7508 47.779 0 -55.1275 44.207 0 
-61.4756 46.8527 0 -55.5946 47.5334 0 -56.9795 45.6562 0 
-57.2038 -15.2268 0 -58.9784 -14.3117 0 -61.8021 45.1257 0 
-62.4381 -10.7368 0 -50.9712 -15.1226 0 -47.9941 35.3179 0 
-62.8875 -7.80582 0 -63.4518 -5.80634 0 -49.5178 -14.6093 0 
-62.9382 -9.24467 0 -19.9817 65.3143 1 -19.9817 -32.4357 1 
-19.9817 -31.2857 1 -19.9817 64.1643 1 -19.9817 63.0143 1 
-19.9817 61.4643 1 -19.9817 59.9643 1 -19.9817 58.3143 1 
-19.9817 56.5643 1 -19.9817 54.6143 1 -19.9817 52.7143 1 
-19.9817 50.4143 1 -19.9817 48.2643 1 -19.9817 -17.1357 1 
-19.9817 -19.0357 1 -19.9817 -21.0357 1 -19.9817 -22.7357 1 
-19.9817 -24.2857 1 -19.9817 -25.8357 1 -19.9817 -27.2357 1 
-19.9817 -28.6357 1 -19.9817 -29.9857 1 -19.9817 -14.9857 1 
-19.9817 -12.6357 1 -19.9817 45.7143 1 -19.9817 43.3643 1 
-19.9817 9.41431 1 -19.9817 6.71431 1 -19.9817 3.86431 1 
-19.9817 1.11431 1 -19.9817 -10.1857 1 -19.9817 40.7643 1 
-19.9817 12.3643 1 -19.9817 37.8143 1 -19.9817 34.5643 1 
-19.9817 31.0643 1 -19.9817 28.0643 1 -19.9817 24.5643 1 
-19.9817 21.2643 1 -19.9817 18.1643 1 -19.9817 15.1643 1 
-19.9817 -2.13569 1 -19.9817 -4.93569 1 -19.9817 -7.53569 1 
-79.9817 -32.4357 1 -79.9817 65.3643 1 -79.9817 64.2643 1 
-79.9817 -31.2857 1 -79.9817 -30.1357 1 -79.9817 -28.8357 1 
-79.9817 -27.7357 1 -79.9817 -26.3857 1 -79.9817 -25.3357 1 
-79.9817 -24.0357 1 -79.9817 -22.8857 1 -79.9817 -21.4857 1 
-79.9817 -20.3857 1 -79.9817 -18.9857 1 -79.9817 -16.7857 1 
-79.9817 -15.5357 1 -79.9817 -11.9857 1 -79.9817 -10.5857 1 
-79.9817 -9.53569 1 -79.9817 -8.28569 1 -79.9817 -6.18569 1 
-79.9817 -4.88569 1 -79.9817 -3.78569 1 -79.9817 -2.43569 1 
-79.9817 0.964313 1 -79.9817 2.31431 1 -79.9817 4.41431 1 
-79.9817 5.71431 1 -79.9817 6.76431 1 -79.9817 8.11431 1 
-79.9817 9.16431 1 -79.9817 10.4643 1 -79.9817 11.6143 1 
-79.9817 13.0143 1 -79.9817 15.1643 1 -79.9817 16.5143 1 
-79.9817 17.6143 1 -79.9817 18.9643 1 -79.9817 20.0643 1 
-79.9817 21.3643 1 -79.9817 22.4143 1 -79.9817 23.8143 1 
-79.9817 26.0143 1 -79.9817 27.3643 1 -79.9817 28.4143 1 
-79.9817 29.7143 1 -79.9817 30.8143 1 -79.9817 32.2143 1 
-79.9817 33.3143 1 -79.9817 34.6143 1 -79.9817 36.8643 1 
-79.9817 38.3143 1 -79.9817 39.5143 1 -79.9817 40.7643 1 
-79.9817 41.8143 1 -79.9817 43.1143 1 -79.9817 44.2643 1 
-79.9817 45.5643 1 -79.9817 46.6143 1 -79.9817 47.8643 1 
-79.9817 48.9643 1 -79.9817 50.2643 1 -79.9817 52.4143 1 
-79.9817 53.7643 1 -79.9817 54.8143 1 -79.9817 56.1643 1 
-79.9817 57.2643 1 -79.9817 58.6143 1 -79.9817 59.7143 1 
-79.9817 60.9643 1 -79.9817 62.0643 1 -79.9817 63.2643 1 
-79.9817 -14.5357 1 -79.9817 -13.1857 1 -79.9817 -1.43569 1 
-79.9817 -0.0856871 1 -79.9817 -17.8357 1 -79.9817 -7.23569 1 
-79.9817 3.36431 1 -79.9817 14.0643 1 -79.9817 24.9643 1 
-79.9817 35.7643 1 -79.9817 51.2643 1 -78.9017 66.4143 1 
-20.9717 66.4143 1 -21.9917 66.4143 1 -77.7017 66.4143 1 
-76.4417 66.4143 1 -74.3117 66.4143 1 -72.9617 66.4143 1 
-71.8517 66.4143 1 -70.4417 66.4143 1 -69.4217 66.4143 1 
-68.1017 66.4143 1 -66.0017 66.4143 1 -64.6217 66.4143 1 
-63.5417 66.4143 1 -62.1617 66.4143 1 -61.1117 66.4143 1 
-59.8217 66.4143 1 -58.8017 66.4143 1 -57.6017 66.4143 1 
-55.4117 66.4143 1 -54.0617 66.4143 1 -53.0717 66.4143 1 
-51.7517 66.4143 1 -50.6417 66.4143 1 -49.2017 66.4143 1 
-48.1217 66.4143 1 -46.7717 66.4143 1 -44.5817 66.4143 1 
-43.1417 66.4143 1 -42.1517 66.4143 1 -40.8917 66.4143 1 
-39.7817 66.4143 1 -38.4017 66.4143 1 -37.2017 66.4143 1 
-35.8817 66.4143 1 -33.7517 66.4143 1 -32.3717 66.4143 1 
-31.3217 66.4143 1 -29.9717 66.4143 1 -28.8917 66.4143 1 
-27.5717 66.4143 1 -26.5517 66.4143 1 -25.2917 66.4143 1 
-24.2417 66.4143 1 -23.1017 66.4143 1 -75.3917 66.4143 1 
-67.0817 66.4143 1 -56.5817 66.4143 1 -45.7217 66.4143 1 
-34.8617 66.4143 1 -63.6363 31.0208 2 -63.0963 30.0855 2 
-62.5863 29.2021 2 -61.9638 28.1239 2 -61.4088 27.1627 2 
-60.8538 26.2014 2 -60.3063 25.2531 2 -59.7288 24.2528 2 
-59.1663 23.2785 2 -58.5588 22.2263 2 -58.0488 21.343 2 
-57.5013 20.3947 2 -56.9538 19.4464 2 -56.3763 18.4461 2 
-55.8213 17.4848 2 -55.2513 16.4976 2 -54.7413 15.6142 2 
-54.1788 14.6399 2 -53.6613 13.7436 2 -53.0613 12.7044 2 
-52.5288 11.782 2 -51.9363 10.7558 2 -50.9013 8.96313 2 
-50.3163 7.94988 2 -49.7163 6.91065 2 -51.4413 9.89844 2 
-63.6363 31.0208 0 -63.1038 30.0985 0 -62.0238 28.2279 0 
-62.5863 29.2021 0 -60.8763 26.2403 0 -61.4613 27.2536 0 
-59.8113 24.3957 0 -60.3588 25.344 0 -58.8063 22.655 0 
-59.3013 23.5124 0 -57.7563 20.8363 0 -58.2663 21.7197 0 
-56.7513 19.0956 0 -57.2538 19.966 0 -55.6863 17.251 0 
-56.2488 18.2253 0 -54.5988 15.3674 0 -55.1463 16.3157 0 
-53.4888 13.4448 0 -54.0138 14.3541 0 -52.3863 11.5352 0 
-52.9488 12.5095 0 -51.3813 9.79452 0 -51.8838 10.6649 0 
-50.2638 7.85895 0 -50.8038 8.79426 0 -49.6938 6.87168 0 
-64.1538 31.9171 1 -64.5023 30.5208 1 -50.5898 6.42364 1 
-63.9698 29.5985 1 -62.9423 27.8188 1 -63.4598 28.7151 1 
-61.8248 25.8832 1 -62.3873 26.8575 1 -60.7598 24.0386 1 
-61.2773 24.9349 1 -60.2498 23.1553 1 -59.1473 21.2457 1 
-59.6873 22.181 1 -58.1348 19.492 1 -58.6373 20.3623 1 
-57.0848 17.6733 1 -57.5873 18.5437 1 -55.9898 15.7767 1 
-56.5298 16.712 1 -54.8948 13.8801 1 -55.4798 14.8934 1 
-53.8373 12.0485 1 -54.3773 12.9838 1 -52.8023 10.2558 1 
-53.3048 11.1262 1 -51.1898 7.46287 1 -51.7673 8.46313 1 
-52.3073 9.39844 1 -49.1538 5.93637 1 -48.8278 7.37168 1 
-52.5438 11.808 1 -50.2938 7.91091 1 -50.8338 8.84622 1 
-63.6213 30.9948 1 -63.0813 30.0595 1 -51.9513 10.7818 1 
-51.4488 9.91143 1 -54.8313 15.7701 1 -55.5663 17.0431 1 
-58.7538 22.5641 1 -57.5238 20.4336 1 -57.0213 19.5633 1 
-58.0713 21.3819 1 -59.2188 23.3695 1 -49.6938 6.87168 1 
-53.9913 14.3152 1 -53.4663 13.4058 1 -56.6838 18.9787 1 
-61.3788 27.1107 1 -60.3063 25.2531 1 -59.8113 24.3957 1 
-60.8238 26.1494 1 -62.5638 29.1632 1 -61.9413 28.085 1 
-55.9413 17.6927 1 -54.5088 15.2115 1 -44.5409 61.7471 1 
-43.8494 63.0959 1 -45.5922 61.6953 1 -44.9008 63.0441 1 
-45.4757 64.1086 1 -46.9009 64.1176 1 -46.2303 65.4039 1 
-61.4242 23.1573 1 -74.2833 62.2804 1 -73.8235 63.5751 1 
-75.5412 62.1292 1 -75.0815 63.4239 1 -66.5753 24.0417 1 
-67.7306 24.056 1 -67.1464 24.9852 1 -61.9216 24.0504 1 
-50.4814 -27.9747 1 -49.7879 -26.5908 1 -49.1258 -27.9287 1 
-50.3201 -30.2915 1 -50.8894 -31.3665 1 -49.7904 -31.3855 1 
-52.0381 -7.94673 1 -52.6868 -9.95735 1 -50.6008 -9.15732 1 
-76.7558 23.2162 1 -77.7857 23.739 1 -77.7852 22.6183 1 
-61.0897 32.5911 1 -60.4942 31.6038 1 -59.8841 32.7486 1 
-70.2876 63.2171 1 -69.491 64.286 1 -70.7771 64.4265 1 
-34.4272 -32.5563 1 -35.1068 -31.4262 1 -35.7814 -32.4556 1 
-68.4192 64.286 1 -67.6221 65.4443 1 -67.022 64.2245 1 
-50.3579 -32.5879 1 -49.0979 -32.5879 1 -22.7024 56.5988 1 
-24.2361 56.1554 1 -22.8443 54.7362 1 -60.8642 -29.0481 1 
-59.5195 -29.0138 1 -60.1756 -30.273 1 -53.7915 18.0603 1 
-51.4569 -32.5689 1 -28.2362 65.1054 1 -72.3632 59.4384 1 
-72.5081 58.1789 1 -73.4605 59.7061 1 -73.6055 58.4466 1 
-75.2002 -31.5043 1 -74.2079 -31.4446 1 -75.8612 -32.674 1 
-74.8689 -32.6144 1 -49.2997 -25.2729 1 -50.2888 -25.5922 1 
-49.9634 -23.8996 1 -50.9525 -24.2188 1 -75.5917 53.7886 1 
-74.5456 54.3443 1 -74.4332 53.2984 1 -67.2945 48.9266 1 
-67.318 47.3678 1 -65.7791 49.4364 1 -65.8026 47.8776 1 
-21.8625 -22.0861 1 -24.0612 -22.8285 1 -21.6653 -23.8642 1 
-23.864 -24.6065 1 -70.586 -12.1326 1 -71.8932 -11.4061 1 
-70.5313 -13.2132 1 -71.8385 -12.4868 1 -61.152 16.4743 1 
-61.7256 17.4011 1 -62.412 16.3998 1 -59.6539 -26.4144 1 
-60.8179 -26.439 1 -60.2649 -25.1294 1 -49.2579 -30.2952 1 
-47.9338 -30.3093 1 -48.6252 -29.0421 1 -62.9522 17.3212 1 
-63.8182 16.2246 1 -62.2658 18.3225 1 -43.3379 41.4641 1 
-42.1423 38.8684 1 -45.9987 38.7437 1 -44.8031 36.148 1 
-33.9915 58.096 1 -32.8265 57.8466 1 -33.4222 59.2014 1 
-55.9322 46.5315 1 -58.4975 46.2317 1 -54.9363 44.9976 1 
-57.5016 44.6978 1 -64.8541 18.1685 1 -65.6638 17.0933 1 
-64.3795 17.1345 1 -65.1893 16.0593 1 -35.4161 65.446 1 
-34.6912 64.1881 1 -34.3047 65.436 1 -33.5798 64.1781 1 
-67.9451 57.0552 1 -68.719 55.9493 1 -67.5205 55.6866 1 
-64.0035 14.3148 1 -62.6802 14.4077 1 -63.2258 15.347 1 
-34.9538 -26.7308 1 -35.3557 -25.4025 1 -36.0949 -26.6443 1 
-63.5135 18.2311 1 -66.8379 6.40554 1 -66.9711 7.60278 1 
-68.1811 6.98384 1 -61.1395 59.2594 1 -61.7621 57.9995 1 
-60.6436 57.8008 1 -67.7248 37.1389 1 -66.5078 36.7426 1 
-67.5034 35.7587 1 -50.3446 59.1394 1 -50.8975 57.8732 1 
-51.7556 59.1885 1 -52.3085 57.9223 1 -63.092 53.1877 1 
-61.5675 53.6271 1 -62.2836 54.9005 1 -75.4667 -0.154499 1 
-75.4846 -1.50444 1 -74.3615 0.353474 1 -74.3794 -0.996467 1 
-77.8262 39.3706 1 -77.8358 38.078 1 -76.7562 38.7935 1 
-76.7657 37.5009 1 -77.8283 40.5342 1 -76.6743 41.1369 1 
-77.8279 41.837 1 -78.7884 20.7256 1 -37.8036 65.4497 1 
-62.2565 32.5516 1 -61.539 33.4917 1 -62.9498 33.437 1 
-62.2323 34.3771 1 -61.6809 37.8151 1 -60.3365 37.1799 1 
-61.2594 39.409 1 -59.915 38.7739 1 -53.3665 63.071 1 
-54.0042 61.7267 1 -54.6951 63.0839 1 -36.7361 65.446 1 
-69.0348 35.1194 1 -67.8874 34.4754 1 -50.146 4.22757 1 
-49.2567 3.60132 1 -50.4521 3.05378 1 -69.2563 36.4995 1 
-73.1992 -1.35524 1 -73.2105 -2.71959 1 -74.3814 -2.04626 1 
-73.1999 20.3265 1 -74.4747 19.6031 1 -73.1858 21.3983 1 
-74.4606 20.6749 1 -49.1726 61.7025 1 -50.6012 61.74 1 
-49.916 63.0424 1 -20.8357 -30.8575 1 -21.8857 -32.0075 1 
-21.8225 -30.3597 1 -57.5598 7.80557 1 -58.7901 7.71582 1 
-58.2118 6.68016 1 -49.2776 59.1198 1 -50.0336 60.544 1 
-51.1005 60.5636 1 -78.9655 -10.1249 1 -52.2566 -26.6444 1 
-53.365 -26.5483 1 -52.6926 -25.2991 1 -77.8193 16.4235 1 
-77.793 15.3154 1 -78.7881 15.8507 1 -59.8231 9.76724 1 
-58.5601 9.86394 1 -60.3255 10.7285 1 -59.0626 10.8252 1 
-29.9549 -28.8194 1 -29.2077 -27.854 1 -30.363 -27.6561 1 
-30.1857 -26.5756 1 -31.341 -26.3777 1 -37.1238 15.9877 1 
-34.9544 14.8725 1 -36.7127 18.9237 1 -34.5433 17.8084 1 
-71.9032 -17.6426 1 -70.6929 -18.516 1 -71.9837 -19.003 1 
-30.1996 -25.1213 1 -77.761 -2.64416 1 -77.7456 -1.30171 1 
-76.544 -1.95959 1 -60.4982 63.1348 1 -59.834 61.7972 1 
-59.4197 63.0805 1 -58.7555 61.7428 1 -61.0429 54.7455 1 
-60.3268 53.4721 1 -26.1487 -30.722 1 -25.6759 -31.6301 1 
-25.0466 -30.5319 1 -38.1667 -30.2563 1 -38.7813 -31.3915 1 
-37.6513 -31.3808 1 -38.7792 23.2761 1 -36.5397 22.3041 1 
-36.7589 24.8203 1 -34.5195 23.8483 1 -77.7506 1.09375 1 
-78.7824 1.65435 1 -77.7426 2.17911 1 -76.7859 39.9237 1 
-75.6319 40.5264 1 -45.3239 6.51964 1 -46.4937 6.85296 1 
-46.15 5.64684 1 -31.6452 63.1155 1 -32.3243 61.8349 1 
-33.0053 63.1182 1 -60.481 65.1782 1 -70.0725 40.2955 1 
-68.687 40.0126 1 -69.519 41.4756 1 -57.1171 23.7778 1 
-73.2493 25.1885 1 -73.2045 26.3082 1 -72.1423 25.8302 1 
-51.6845 6.24612 1 -52.7595 6.07693 1 -52.1142 5.07118 1 
-55.2169 59.2466 1 -54.1383 59.2449 1 -54.6757 57.9404 1 
-76.8014 26.6947 1 -77.8528 26.1148 1 -76.8053 25.6353 1 
-70.6143 -14.5308 1 -69.2092 -13.7734 1 -69.2923 -15.091 1 
-75.4996 -8.37861 1 -75.4946 -9.69637 1 -74.3915 -7.85134 1 
-74.3865 -9.16909 1 -78.9997 51.8967 1 -78.962 50.7719 1 
-29.2591 1.74601 1 -29.2663 -0.898211 1 -31.4006 0.626419 1 
-68.6582 17.9729 1 -67.4295 18.1225 1 -68.2248 19.1142 1 
-74.7378 59.136 1 -74.573 58.0716 1 -73.4406 57.3821 1 
-59.8369 18.4457 1 -58.6947 18.5188 1 -59.2822 17.5719 1 
-78.7947 57.9204 1 -21.3735 55.5335 1 -25.3831 57.1276 1 
-25.7024 55.1092 1 -21.3107 57.6296 1 -67.8664 53.1042 1 
-69.3689 53.5258 1 -69.185 52.2422 1 -24.3107 53.69 1 
-25.8696 52.4279 1 -23.003 52.5868 1 -24.5619 51.3248 1 
-70.8334 62.2931 1 -69.8099 62.2417 1 -61.9714 22.189 1 
-62.5241 23.1543 1 -71.3229 63.5025 1 -77.7643 -11.9498 1 
-77.8035 -13.2857 1 -76.5476 -12.6455 1 -66.8029 -15.6919 1 
-66.7774 -17.0258 1 -68.2008 -15.8731 1 -68.1752 -17.207 1 
-22.2903 -0.0656379 1 -71.8389 12.4616 1 -71.8771 11.1354 1 
-73.0504 11.8721 1 -73.0886 10.5459 1 -28.8633 -28.8688 1 
-27.779 -27.7335 1 -50.3865 31.3474 1 -51.8818 30.4004 1 
-52.1884 31.5425 1 -24.5281 -6.77076 1 -22.2503 -5.74618 1 
-22.2595 -8.56027 1 -67.3752 -30.2869 1 -66.687 -31.4627 1 
-68.0134 -31.531 1 -49.6738 30.3194 1 -51.1691 29.3724 1 
-48.5154 -23.7952 1 -47.4085 -23.6891 1 -48.1474 -22.1914 1 
-22.1474 -19.653 1 -24.1057 -18.5724 1 -24.0282 -20.7034 1 
-64.403 8.5922 1 -63.6438 9.62819 1 -65.3192 9.26803 1 
-64.56 10.304 1 -21.4526 53.817 1 -48.1525 30.1485 1 
-48.9247 28.4067 1 -47.528 28.7262 1 -29.1583 49.9635 1 
-27.5537 51.5234 1 -27.8641 48.6663 1 -26.2595 50.2262 1 
-25.6104 47.4088 1 -75.5257 51.4085 1 -74.4175 52.0221 1 
-74.3116 50.8488 1 -22.261 -10.9389 1 -59.9463 28.5746 1 
-45.7508 59.1349 1 -45.076 60.5536 1 -44.3367 59.1134 1 
-30.7518 51.4579 1 -28.9379 52.6228 1 -73.1272 13.9845 1 
-74.4294 14.6366 1 -73.1434 15.3595 1 -30.4387 -19.2011 1 
-28.385 -20.311 1 -28.5051 -18.2769 1 -56.5104 24.7548 1 
-57.0795 25.7658 1 -57.6786 24.7296 1 -69.5074 -4.50886 1 
-68.206 -3.79689 1 -69.4903 -3.12245 1 -34.1494 63.1167 1 
-72.3295 -28.4875 1 -73.4146 -28.0193 1 -72.9546 -29.3398 1 
-58.1812 25.6461 1 -24.6083 49.4832 1 -78.843 40.0523 1 
-41.9867 35.316 1 -42.0889 32.6993 1 -44.9052 33.5313 1 
-60.7586 13.6574 1 -61.4524 12.6104 1 -60.1435 12.7175 1 
-58.2095 27.6774 1 -56.9881 27.7288 1 -57.6239 26.7 1 
-39.8574 -26.5538 1 -40.6284 -27.8398 1 -41.2176 -26.4176 1 
-28.2604 -30.2871 1 -27.1509 -28.9834 1 -67.4457 13.5842 1 
-69.0434 12.6051 1 -69.0675 13.9655 1 -55.8463 25.8463 1 
-27.1789 -32.667 1 -26.7069 -31.6179 1 -26.1479 -32.6793 1 
-72.4682 63.5658 1 -73.1745 64.4605 1 -73.1172 62.6804 1 
-74.3477 64.4618 1 -76.727 -18.6908 1 -77.8162 -18.0635 1 
-76.6908 -17.3832 1 -77.7801 -16.7559 1 -54.5833 -29.029 1 
-53.499 -29.0738 1 -54.0292 -27.8705 1 -43.0986 -25.2979 1 
-43.6589 -26.4303 1 -41.756 -25.3025 1 -42.3163 -26.4349 1 
-41.9425 -27.8008 1 -48.6426 65.3889 1 -47.5803 65.4039 1 
-22.4874 2.61957 1 -42.0363 64.1323 1 -43.3435 64.1244 1 
-42.5423 63.1039 1 -53.4076 43.4806 1 -55.6497 43.2485 1 
-66.397 -27.9887 1 -67.5575 -28.0845 1 -66.8867 -29.2052 1 
-40.8614 4.26506 1 -41.7987 3.09302 1 -42.2318 4.45594 1 
-47.9632 64.1026 1 -48.81 63.0698 1 -48.0666 61.7299 1 
-78.9499 0.403718 1 -73.2085 5.53756 1 -72.0092 4.99172 1 
-73.2119 4.44413 1 -62.9691 8.67553 1 -62.7741 7.66201 1 
-64.2079 7.57868 1 -63.6493 -32.4402 1 -49.911 65.1297 1 
-49.3518 64.1043 1 -30.1712 -21.4598 1 -32.2249 -20.3499 1 
-31.9586 -22.031 1 -62.655 59.2909 1 -63.2776 58.031 1 
-60.1073 -32.3978 1 -61.4004 -32.5697 1 -60.726 -31.3818 1 
-54.0358 46.7751 1 -76.8217 -21.2454 1 -77.9268 -21.7016 1 
-76.8899 -22.3281 1 -39.3206 52.3125 1 -40.153 53.6984 1 
-40.681 51.8158 1 -70.6409 25.4537 1 -69.3568 25.8517 1 
-69.776 24.8253 1 -37.9156 63.1009 1 -38.4585 64.1928 1 
-38.9762 63.1399 1 -59.5229 57.7956 1 -58.1613 57.7895 1 
-58.856 56.3991 1 -69.2391 -29.3861 1 -68.6079 -30.4791 1 
-67.9697 -29.2349 1 -63.0215 24.0475 1 -70.8891 -8.40684 1 
-70.8263 -9.76799 1 -69.4305 -8.38522 1 -69.3677 -9.74637 1 
-56.291 7.88708 1 -56.9429 6.76168 1 -39.3623 -30.2713 1 
-62.9884 -22.2272 1 -64.4952 -22.3191 1 -63.8542 -20.6023 1 
-70.1203 -24.924 1 -71.3239 -25.2135 1 -71.1459 -23.9946 1 
-31.7819 -25.2914 1 -30.3803 -23.2337 1 -31.9626 -23.4038 1 
-38.6389 -5.57039 1 -38.2614 -8.48332 1 -36.231 -7.01197 1 
-22.4959 36.1467 1 -26.556 -15.2314 1 -28.9515 -13.7817 1 
-28.8364 -15.9402 1 -59.3851 44.4069 1 -69.7238 -30.4503 1 
-70.4514 -31.5593 1 -70.327 -29.4512 1 -71.0546 -30.5601 1 
-29.1634 -11.2652 1 -31.4047 -9.9369 1 -31.2424 -12.5416 1 
-33.4837 -11.2132 1 -28.2523 43.4065 1 -28.0831 46.5281 1 
-25.8293 45.2706 1 -77.7698 -3.70681 1 -78.9594 -4.37226 1 
-77.7846 -5.03494 1 -72.0558 19.6449 1 -72.0555 20.9283 1 
-70.5994 20.3934 1 -44.367 56.3832 1 -43.0165 56.3153 1 
-43.7138 57.8825 1 -63.6222 -16.1133 1 -62.2725 -16.992 1 
-65.3026 -16.3754 1 -63.9528 -17.2542 1 -49.1986 12.1059 1 
-48.5135 13.073 1 -47.9005 12.0293 1 -47.2153 12.9964 1 
-75.5309 16.629 1 -74.4139 16.0655 1 -75.5464 15.2001 1 
-52.1318 -13.5906 1 -51.2911 -11.4998 1 -49.4291 -13.1633 1 
-24.6565 -4.01479 1 -22.3879 -3.2043 1 -77.7448 -0.288375 1 
-66.2493 52.7024 1 -66.0048 51.2603 1 -64.5218 52.2111 1 
-49.7243 13.0478 1 -75.4642 -2.54466 1 -58.6153 -13.8048 1 
-60.6767 -12.8596 1 -58.1967 -11.5023 1 -52.9208 -27.9666 1 
-76.7191 1.63638 1 -76.7133 0.25425 1 -46.3815 16.2312 1 
-45.0962 16.1679 1 -45.7238 15.0482 1 -62.0731 44.2145 1 
-60.9169 42.6688 1 -60.5412 45.9525 1 -76.987 31.5107 1 
-77.9001 32.1004 1 -75.8391 32.1823 1 -76.7522 32.772 1 
-54.0463 56.5369 1 -53.3829 57.9382 1 -55.1402 32.9003 1 
-53.9213 33.3778 1 -54.478 32.0053 1 -24.3432 -14.1786 1 
-26.7387 -12.7288 1 -24.3881 -11.8782 1 -77.9034 28.5183 1 
-78.8722 29.0392 1 -79.0129 27.8935 1 -66.7302 3.69488 1 
-65.1655 3.18586 1 -66.602 2.39135 1 -54.8403 -1.99242 1 
-54.2506 -0.353415 1 -55.899 -0.642711 1 -55.0852 0.815257 1 
-53.8509 -3.2495 1 -53.2612 -1.61049 1 -68.5885 23.0754 1 
-68.8438 24.0786 1 -54.4198 2.2551 1 -53.5852 1.08643 1 
-57.606 -0.748147 1 -56.8156 -2.2202 1 -45.868 54.8702 1 
-46.5734 53.4277 1 -45.2091 53.0976 1 -46.5143 31.3263 1 
-48.5737 31.8913 1 -46.9646 34.0963 1 -20.7139 64.4846 1 
-21.6542 63.6445 1 -20.922 63.3242 1 -50.5895 21.1547 1 
-49.1587 21.4143 1 -51.3754 20.091 1 -49.9446 20.3506 1 
-39.7864 33.5737 1 -44.1202 30.6952 1 -41.8177 31.5696 1 
-23.1138 60.8755 1 -22.1274 59.7652 1 -24.3275 61.239 1 
-23.3411 60.1286 1 -22.9826 -30.0029 1 -24.0244 -30.2259 1 
-23.4208 -28.802 1 -56.0174 38.2863 1 -56.8269 39.6909 1 
-57.465 38.1547 1 -67.2208 42.3562 1 -66.0917 41.1878 1 
-65.7476 43.3222 1 -55.7693 63.0743 1 -57.094 63.0711 1 
-56.3093 64.1286 1 -57.634 64.1254 1 -77.9575 -22.7793 1 
-63.5392 11.3979 1 -62.7285 12.5103 1 -64.0671 12.4022 1 
-59.3144 27.5719 1 -61.5824 40.892 1 -62.7834 42.0492 1 
-25.1827 27.7594 1 -27.6868 26.0931 1 -25.1452 24.5568 1 
-21.9112 61.2982 1 -47.7989 14.0834 1 -76.7893 19.4295 1 
-77.8123 18.8686 1 -76.7915 20.736 1 -77.8145 20.175 1 
-63.4052 13.4275 1 -26.9122 -2.27895 1 -26.9589 -5.19996 1 
-29.2147 -3.46412 1 -70.0158 30.3089 1 -68.8855 30.2322 1 
-69.5276 31.4942 1 -46.6786 -7.24417 1 -48.1861 -5.9189 1 
-46.4719 -5.13902 1 -53.8284 19.9734 1 -53.1719 20.9672 1 
-54.372 20.8955 1 -48.6049 60.5065 1 -67.8507 43.5757 1 
-66.3774 44.5418 1 -78.7766 -0.77778 1 -59.8785 40.4225 1 
-60.9298 3.22798 1 -61.0766 4.43824 1 -62.1198 2.05983 1 
-62.2666 3.2701 1 -73.1046 -12.0318 1 -37.6278 8.83314 1 
-38.1998 11.2963 1 -39.2791 9.43361 1 -48.6563 51.4054 1 
-49.2014 53.0194 1 -47.1821 51.8422 1 -47.7271 53.4562 1 
-50.9271 -22.8083 1 -51.9618 -23.8877 1 -56.6802 10.9744 1 
-55.5506 11.0322 1 -56.0424 11.9339 1 -51.1369 51.392 1 
-52.5025 52.0978 1 -50.4236 53.0371 1 -51.7892 53.7429 1 
-47.6681 16.1663 1 -46.8837 17.1924 1 -68.8988 65.2561 1 
-70.0139 65.4443 1 -50.7111 19.1157 1 -58.8004 28.6267 1 
-59.3641 29.5865 1 -69.0133 63.3107 1 -73.6474 60.6734 1 
-73.6391 61.779 1 -74.8052 61.379 1 -49.8647 51.7644 1 
-24.5032 64.0656 1 -23.2183 64.2751 1 -23.841 65.3689 1 
-39.0567 65.1574 1 -27.8221 -31.379 1 -27.264 -30.4831 1 
-65.602 -31.4388 1 -64.2605 -31.4311 1 -64.933 -32.5766 1 
-45.1233 65.4109 1 -49.1656 23.3785 1 -48.3485 22.5821 1 
-49.9758 22.2107 1 -74.3121 -16.1878 1 -74.3285 -15.0165 1 
-75.4729 -15.5665 1 -67.8604 -14.5169 1 -76.6667 -11.4168 1 
-77.7655 -10.8421 1 -76.6784 -10.319 1 -55.7568 -3.56992 1 
-54.8303 -5.14542 1 -56.533 -5.46581 1 -55.6064 -7.04131 1 
-71.6987 34.9049 1 -70.355 35.5234 1 -71.7177 36.2254 1 
-21.7339 65.5846 1 -20.7139 65.5846 1 -78.7661 7.47686 1 
-77.7665 6.94282 1 -78.9821 6.23028 1 -48.0832 40.1687 1 
-46.3616 42.238 1 -57.771 -32.3501 1 -68.1686 4.36561 1 
-66.8861 4.94394 1 -73.3229 39.1825 1 -72.0284 38.7031 1 
-73.2998 37.9546 1 -72.0054 37.4752 1 -66.5242 -19.5696 1 
-64.7851 -19.4108 1 -65.4766 -17.8961 1 -26.8485 41.7234 1 
-24.4255 43.5875 1 -67.7596 9.64471 1 -66.3162 10.3339 1 
-66.5361 9.05433 1 -62.4536 64.1695 1 -63.0063 63.1452 1 
-63.5027 64.1967 1 -74.3576 37.4173 1 -74.3314 36.1205 1 
-73.1244 36.7488 1 -24.8307 65.4015 1 -39.9263 10.772 1 
-74.5331 38.6231 1 -30.1364 33.7658 1 -32.4816 35.4609 1 
-29.8968 37.7895 1 -54.4777 38.8739 1 -54.5984 37.2514 1 
-52.8196 38.7066 1 -52.9403 37.0841 1 -40.6035 24.4823 1 
-42.7788 24.8069 1 -42.133 23.0938 1 -78.967 41.2462 1 
-78.9866 14.6291 1 -78.9712 13.5254 1 -77.7998 13.9397 1 
-77.7845 12.836 1 -73.0761 12.9322 1 -71.9015 13.5011 1 
-54.5165 6.97407 1 -53.902 5.92815 1 -53.3459 7.12652 1 
-75.4795 11.6898 1 -75.4567 10.6078 1 -74.3547 11.1688 1 
-66.8997 -20.9952 1 -65.1606 -20.8363 1 -65.8017 -22.5532 1 
-75.7645 29.7169 1 -75.7418 28.3749 1 -74.5674 29.3791 1 
-74.5447 28.0372 1 -76.7755 15.8763 1 -48.5789 20.4485 1 
-67.5815 29.99 1 -68.2864 29.1099 1 -74.3803 12.2289 1 
-51.6833 -25.6302 1 -49.3454 19.2136 1 -53.3517 -23.9163 1 
-37.9951 -25.104 1 -38.4398 -23.4491 1 -37.1167 -24.0099 1 
-26.9038 -25.8187 1 -28.3325 -25.9391 1 -46.2152 8.94552 1 
-46.9543 8.01177 1 -46.7882 9.97184 1 -47.5272 9.03809 1 
-77.7914 51.4739 1 -77.8277 50.12 1 -60.8853 -17.5603 1 
-60.0812 -15.8453 1 -47.0525 15.1135 1 -51.3415 -5.75818 1 
-50.9884 -4.04996 1 -49.7053 -5.0627 1 -35.6991 7.70748 1 
-36.9215 6.01067 1 -37.5405 7.31427 1 -50.8621 -26.6064 1 
-37.4382 -26.4522 1 -36.8025 -27.8218 1 -52.614 -4.49353 1 
-52.2609 -2.78531 1 -79.0765 61.4735 1 -59.213 42.1993 1 
-76.9304 60.3762 1 -76.8355 61.6038 1 -75.6362 60.9016 1 
-79.1149 62.4513 1 -77.7174 63.3426 1 -77.8877 61.8373 1 
-74.3102 48.3089 1 -74.3046 49.4731 1 -75.5127 48.8834 1 
-78.9222 36.2957 1 -77.793 36.991 1 -78.9619 35.1645 1 
-77.8327 35.8599 1 -69.65 -1.00438 1 -69.6343 0.267172 1 
-70.7491 -1.52298 1 -70.7334 -0.251428 1 -26.8522 -7.74097 1 
-29.1261 -8.84211 1 -29.283 -6.17018 1 -78.8525 37.5596 1 
-24.6965 -1.13425 1 -31.5146 -7.42395 1 -47.4054 18.352 1 
-47.9731 19.3276 1 -48.7446 18.2614 1 -32.5277 -29.0138 1 
-31.7795 -27.9129 1 -31.3715 -29.0763 1 -38.0933 -32.5686 1 
-61.4715 36.6234 1 -78.9685 48.3655 1 -77.8343 49.0136 1 
-78.8475 49.6124 1 -31.8341 -30.1559 1 -33.1881 -30.258 1 
-31.3351 -31.262 1 -32.6891 -31.364 1 -51.0195 5.2487 1 
-51.3256 4.07492 1 -44.9896 5.1778 1 -43.6635 4.92433 1 
-44.6864 3.84764 1 -55.7862 4.54657 1 -55.1528 5.73718 1 
-56.3592 5.67172 1 -55.7259 6.86233 1 -26.156 -19.7319 1 
-26.2572 -21.2825 1 -63.9359 40.7646 1 -64.4707 42.1479 1 
-26.4548 -17.1174 1 -57.193 -31.3254 1 -56.5137 -32.561 1 
-65.7381 30.6875 1 -66.3629 29.833 1 -65.1272 29.6663 1 
-58.3112 -31.3282 1 -57.7565 -30.2181 1 -59.8591 4.3387 1 
-59.442 3.12411 1 -58.4258 4.38139 1 -58.1432 63.0505 1 
-58.726 30.6497 1 -59.9163 30.5627 1 -58.1871 29.6445 1 
-57.549 30.7076 1 -51.4632 36.0743 1 -51.0132 34.4847 1 
-52.4903 35.4946 1 -63.0956 -29.0575 1 -64.4673 -29.0829 1 
-62.6125 -27.8437 1 -63.9842 -27.869 1 -49.4023 2.14543 1 
-49.7683 0.841135 1 -48.2065 1.10518 1 -75.529 22.5668 1 
-76.7745 21.8499 1 -75.6802 54.8128 1 -76.8762 55.4708 1 
-76.7877 54.4467 1 -55.9669 -29.0186 1 -55.129 -27.8134 1 
-56.5125 -27.803 1 -59.4604 6.6425 1 -58.9166 5.54884 1 
-61.9643 -29.0617 1 -61.2758 -30.2865 1 -39.6728 61.7691 1 
-40.3395 63.1095 1 -45.7844 7.67845 1 -48.0918 10.144 1 
-46.0728 10.8713 1 -47.3764 11.0435 1 -48.2645 5.31013 1 
-49.1306 4.81013 1 -48.1888 8.14099 1 -47.6488 7.20568 1 
-75.5312 46.4399 1 -75.5298 47.7703 1 -74.3117 46.9784 1 
-60.403 5.43236 1 -32.5359 31.949 1 -34.8811 33.6441 1 
-23.0427 48.2765 1 -24.0447 46.2022 1 -21.664 47.0289 1 
-58.941 12.7689 1 -59.6223 11.798 1 -57.7455 12.8437 1 
-58.3106 13.8166 1 -37.2255 -0.642548 1 -37.3017 1.80729 1 
-38.9504 0.395786 1 -57.2274 11.9097 1 -56.5896 12.8692 1 
-33.5871 -0.684735 1 -33.5371 1.75612 1 -77.8494 60.8594 1 
-75.5634 -16.9023 1 -76.6828 -16.2265 1 -53.6003 55.0907 1 
-54.277 53.5423 1 -54.6405 55.3106 1 -55.3172 53.7622 1 
-37.297 3.73029 1 -35.5306 3.06738 1 -35.2352 4.90382 1 
-33.4688 4.24091 1 -69.2988 -2.04367 1 -50.467 64.0953 1 
-49.4791 -22.704 1 -50.0636 -21.1359 1 -58.4029 51.5865 1 
-58.9532 53.2534 1 -59.7766 51.8053 1 -76.6778 -4.26357 1 
-75.4818 -4.92303 1 -76.6812 -3.22922 1 -75.4852 -3.88869 1 
-41.6902 7.03062 1 -41.3078 5.74408 1 -42.6782 5.93497 1 
-75.6363 27.3549 1 -74.5303 26.9116 1 -35.5044 -1.82331 1 
-35.3082 0.496031 1 -56.286 59.2249 1 -57.6276 59.2368 1 
-56.9445 60.5891 1 -67.2104 16.9924 1 -68.4391 16.8428 1 
-73.1683 6.95953 1 -71.9626 7.57083 1 -73.1382 8.11522 1 
-61.2631 61.8192 1 -61.828 60.6495 1 -60.7001 60.6358 1 
-26.0512 63.1449 1 -27.3136 63.1393 1 -26.678 61.6513 1 
-44.1075 9.69148 1 -45.4231 9.92096 1 -44.6075 11.0112 1 
-68.1386 15.8641 1 -75.5669 42.9366 1 -76.6153 43.5354 1 
-76.7752 42.3165 1 -77.8236 42.9153 1 -69.7972 17.3798 1 
-20.9984 62.1271 1 -76.6947 -13.7964 1 -75.4903 -14.4834 1 
-77.7497 -14.3188 1 -76.5452 -15.0058 1 -43.6833 65.4109 1 
-71.5502 60.4164 1 -70.4031 61.2335 1 -70.1086 59.829 1 
-34.3041 -27.9702 1 -34.9604 -29.0904 1 -35.4452 -27.8837 1 
-35.3332 58.0611 1 -34.7639 59.1665 1 -69.4967 16.4011 1 
-71.9177 14.8761 1 -72.0756 15.9526 1 -64.0547 19.2291 1 
-64.624 20.172 1 -65.4233 19.1114 1 -34.1933 60.5886 1 
-34.8269 61.7792 1 -35.3614 60.5812 1 -72.6388 -27.189 1 
-73.7239 -26.7208 1 -76.8009 18.3103 1 -77.8174 17.792 1 
-39.5704 64.1848 1 -39.9406 -31.3999 1 -70.7932 16.7264 1 
-70.6771 15.3379 1 -69.3806 15.0127 1 -53.0407 22.9725 1 
-53.5675 24.0124 1 -52.267 24.0665 1 -24.796 1.43962 1 
-36.0821 64.1471 1 -36.6066 63.059 1 -35.5402 63.0757 1 
-73.1129 -16.9388 1 -73.1294 -15.7675 1 -52.2648 7.29368 1 
-73.6717 30.9637 1 -73.5734 31.9267 1 -72.4405 31.254 1 
-78.8209 -13.8388 1 -24.1744 -16.4086 1 -77.7588 10.4835 1 
-78.7484 9.85965 1 -77.7252 9.36883 1 -75.4705 9.2881 1 
-76.5518 8.70857 1 -76.644 9.94836 1 -78.9586 8.67349 1 
-25.4929 64.0982 1 -26.0907 65.4015 1 -62.3772 24.932 1 
-68.2251 -5.16595 1 -35.3475 49.2723 1 -32.764 50.6782 1 
-34.3632 51.3464 1 -37.6916 42.4497 1 -35.1254 40.8207 1 
-39.6771 39.8963 1 -37.111 38.2672 1 -58.375 -7.03307 1 
-40.8498 59.1987 1 -41.9638 59.2353 1 -40.2311 60.6427 1 
-41.3451 60.6792 1 -63.6151 2.79185 1 -70.8153 17.885 1 
-51.9273 47.2286 1 -53.3724 48.5981 1 -72.0251 -2.23484 1 
-71.9542 -3.27902 1 -70.6783 -2.56715 1 -48.0427 -32.596 1 
-68.2294 5.52224 1 -27.2835 5.43771 1 -29.4875 6.91492 1 
-24.9355 6.80651 1 -27.1395 8.28373 1 -73.1053 35.4283 1 
-73.4032 54.9673 1 -73.4936 56.0911 1 -74.5302 55.6451 1 
-74.6206 56.7689 1 -75.6071 39.2074 1 -74.5579 39.942 1 
-78.0001 -32.0507 1 -78.9617 -32.4357 1 -69.4106 10.0203 1 
-67.774 10.7588 1 -69.3962 8.90615 1 -72.6097 60.5334 1 
-51.0646 55.0367 1 -50.468 56.4048 1 -51.5803 56.4213 1 
-69.2389 11.3786 1 -52.8568 64.106 1 -54.1854 64.1188 1 
-27.7099 32.4255 1 -27.5176 35.4654 1 -25.0911 34.1251 1 
-24.5334 40.3791 1 -27.3638 39.7355 1 -24.9845 37.4115 1 
-65.6012 35.369 1 -65.3863 33.8628 1 -64.4856 34.6635 1 
-51.4996 16.1134 1 -50.8197 17.0818 1 -52.0807 17.0572 1 
-53.4169 9.28107 1 -53.9194 10.1514 1 -54.4804 9.09938 1 
-68.1946 8.19316 1 -72.4657 65.5044 1 -71.8188 64.4867 1 
-71.2049 65.3966 1 -46.6451 12.0214 1 -75.4501 -12.1125 1 
-62.8114 19.2625 1 -28.3465 -24.4849 1 -70.976 -32.5322 1 
-30.6779 -30.2184 1 -30.253 -31.3143 1 -29.5863 -30.2678 1 
-44.0547 -0.936461 1 -42.3267 -1.18654 1 -43.4011 -2.72553 1 
-54.0483 -25.2876 1 -54.7207 -26.5369 1 -46.6876 61.7103 1 
-46.094 60.5026 1 -47.473 60.5222 1 -24.9909 9.66108 1 
-22.6141 8.11231 1 -56.4021 61.7414 1 -67.3005 -22.8174 1 
-67.6535 -24.1909 1 -68.6043 -23.1438 1 -55.259 -30.248 1 
-54.1747 -30.2928 1 -52.8046 -30.3167 1 -55.8301 -31.3469 1 
-56.538 -30.1175 1 -54.9679 19.9826 1 -55.5219 20.9112 1 
-58.2673 40.753 1 -56.5875 41.5113 1 -41.7078 50.3144 1 
-42.3989 48.2017 1 -43.1945 50.3688 1 -40.8293 42.5404 1 
-43.8531 43.3143 1 -53.2145 19.0253 1 -52.5934 20.0531 1 
-51.9964 19.0632 1 -30.1503 30.6375 1 -67.1219 26.9081 1 
-65.8556 26.9436 1 -66.5578 26.0044 1 -54.673 25.9392 1 
-55.3371 24.8476 1 -77.8352 59.8111 1 -79.0624 59.1752 1 
-79.0765 60.2235 1 -58.8004 26.664 1 -28.1373 -22.7109 1 
-53.7163 21.9453 1 -52.5162 22.0171 1 -47.305 5.99955 1 
-47.9083 -25.2279 1 -46.8014 -25.1217 1 -52.5672 41.8114 1 
-53.509 40.3465 1 -54.8092 41.5794 1 -52.5391 3.77131 1 
-51.7506 2.77505 1 -53.0596 2.44452 1 -61.0388 64.1723 1 
-61.5915 63.148 1 -69.6061 18.7983 1 -69.1727 19.9396 1 
-70.6242 19.3034 1 -48.3966 -8.29405 1 -49.9041 -6.96877 1 
-61.1631 -5.61605 1 -59.4205 -5.44521 1 -61.2975 -3.91927 1 
-59.5548 -3.74843 1 -72.5338 -22.4836 1 -71.1716 -22.4864 1 
-72.3831 -21.3179 1 -71.0209 -21.3206 1 -67.9708 63.2768 1 
-66.5737 63.2152 1 -73.2263 42.6971 1 -74.4652 43.4238 1 
-73.3047 41.6403 1 -74.5435 42.367 1 -72.5234 -26.1067 1 
-73.545 -25.3381 1 -38.0906 -11.2474 1 -37.6704 -13.933 1 
-39.87 -12.8287 1 -55.2124 26.9197 1 -56.4457 26.8392 1 
-47.8221 24.3297 1 -47.3219 23.2343 1 -46.5601 24.3606 1 
-52.8485 8.29597 1 -53.9121 8.11427 1 -57.9914 8.86052 1 
-56.7944 8.90625 1 -57.3631 9.90967 1 -22.4703 39.0791 1 
-78.9676 -18.5065 1 -78.9676 -19.9065 1 -77.8484 -19.2142 1 
-69.2667 -16.4248 1 -69.3268 -17.9313 1 -74.3619 -11.5609 1 
-74.2987 -12.6307 1 -49.2687 -15.1588 1 -47.8153 -14.6455 1 
-63.6377 23.0639 1 -63.1404 22.1707 1 -64.373 22.1231 1 
-50.4459 28.5776 1 -34.4933 54.823 1 -34.4414 56.5343 1 
-35.5413 56.2617 1 -35.9479 54.8942 1 -35.219 53.4104 1 
-55.328 61.7509 1 -43.4013 19.797 1 -44.3866 18.5177 1 
-45.1031 19.4596 1 -57.5334 32.8208 1 -56.34 32.8866 1 
-58.1212 31.7539 1 -56.9278 31.8197 1 -61.7315 0.721157 1 
-60.5126 2.01338 1 -61.4068 -0.805971 1 -60.1879 0.486255 1 
-66.4695 21.1192 1 -67.4642 20.0779 1 -65.952 20.1254 1 
-55.3699 56.5086 1 -56.4775 56.4641 1 -55.7833 57.8959 1 
-63.1613 0.0130805 1 -63.5495 1.35175 1 -75.5451 18.9922 1 
-74.4813 18.4864 1 -21.6653 -25.4142 1 -31.1406 64.1733 1 
-31.8456 65.4338 1 -32.5007 64.176 1 -34.62 12.2464 1 
-36.0281 10.3557 1 -34.0994 9.23005 1 -36.1485 -4.47824 1 
-33.7406 -5.91982 1 -78.9649 38.8326 1 -71.3934 33.5743 1 
-70.0498 34.1928 1 -44.3687 64.1155 1 -52.9333 53.6972 1 
-54.071 -32.566 1 -53.8462 51.9429 1 -55.3814 51.9765 1 
-55.2682 -32.3716 1 -54.7074 -31.3519 1 -63.1779 5.43408 1 
-63.4274 6.57883 1 -62.0875 6.49143 1 -47.3249 -26.457 1 
-43.7667 -31.3724 1 -43.1301 -32.571 1 -42.4487 -31.3762 1 
-64.6244 6.4267 1 -78.9418 2.83908 1 -75.4939 0.946304 1 
-73.1679 -10.962 1 -55.0319 30.9542 1 -55.6778 31.9915 1 
-56.2989 30.8794 1 -46.9576 -17.0006 1 -49.1455 -17.177 1 
-61.6035 31.5603 1 -42.7509 -22.6522 1 -42.2566 -21.1311 1 
-43.4162 -21.2107 1 -42.9219 -19.6896 1 -46.3181 -18.7771 1 
-45.1425 -17.1565 1 -78.9824 -21.0294 1 -55.9084 -23.7638 1 
-56.3647 -22.3791 1 -57.0814 -23.7583 1 -24.9179 -32.6793 1 
-64.2832 33.1828 1 -65.2569 32.5971 1 -74.2004 33.5499 1 
-72.9886 32.8406 1 -72.9062 34.1599 1 -74.7852 32.636 1 
-74.771 31.2475 1 -57.4514 61.7208 1 -54.4008 18.9889 1 
-72.0806 18.5549 1 -66.1402 18.0721 1 -66.734 16.0136 1 
-62.4865 9.60903 1 -61.8118 8.65637 1 -34.1394 -25.532 1 
-34.4253 -24.1682 1 -71.4205 30.5713 1 -70.9323 31.7566 1 
-45.3033 17.3399 1 -44.0181 17.2766 1 -30.1228 27.5613 1 
-32.8412 28.9808 1 -60.3952 19.4061 1 -60.9253 20.3428 1 
-59.7556 20.3496 1 -32.9247 65.436 1 -41.8864 52.0569 1 
-43.3731 52.1112 1 -70.3129 57.3451 1 -69.0463 57.2347 1 
-69.9856 56.0597 1 -29.2981 63.1061 1 -28.271 63.0981 1 
-28.7832 64.1353 1 -70.5192 14.2614 1 -71.9723 62.5816 1 
-77.8907 55.9987 1 -77.8465 57.3646 1 -76.6792 56.6415 1 
-78.7609 -8.9308 1 -77.7447 -9.52003 1 -53.9747 35.9315 1 
-75.522 -7.26571 1 -76.68 -7.88406 1 -76.6576 -8.99697 1 
-31.509 -4.66605 1 -31.4527 -2.20937 1 -33.7471 -3.41129 1 
-74.3947 -10.2426 1 -74.4944 17.1887 1 -73.2238 16.4827 1 
-35.8235 -9.99008 1 -35.7508 -12.4705 1 -39.4407 -27.7649 1 
-38.6697 -26.4789 1 -38.034 -27.8485 1 -29.4792 4.21307 1 
-27.0045 2.93914 1 -24.8089 4.16377 1 -61.4652 -27.8487 1 
-40.0775 -28.9942 1 -38.6707 -29.0777 1 -69.4837 -19.2748 1 
-67.9818 -20.0428 1 -69.7136 -20.8809 1 -68.5373 -32.5162 1 
-69.0926 -31.5433 1 -69.8723 -28.3712 1 -69.3279 -27.0589 1 
-70.4591 -27.3762 1 -22.5435 58.4094 1 -21.2146 59.0941 1 
-65.0706 -30.3324 1 -63.7291 -30.3247 1 -69.4426 3.70737 1 
-68.0403 3.06209 1 -69.4674 2.59082 1 -68.0651 1.94554 1 
-62.2783 -23.6261 1 -63.4392 -23.686 1 -65.8879 -26.5943 1 
-64.4992 -26.468 1 -65.1055 -27.915 1 -62.7904 -11.4291 1 
-64.5508 -11.8971 1 -63.0447 -13.3024 1 -55.8204 -26.4797 1 
-64.0703 -25.153 1 -64.9461 -23.7779 1 -63.378 -26.422 1 
-61.6696 65.4085 1 -44.8461 -6.07953 1 -30.5986 63.1545 1 
-31.2778 61.874 1 -43.1552 10.9851 1 -43.8678 12.0319 1 
-49.5924 35.7656 1 -40.7272 12.2667 1 -42.4837 11.8581 1 
-41.7711 10.8113 1 -48.7288 9.24306 1 -49.2933 10.1822 1 
-70.5843 -10.7534 1 -63.2398 -8.49815 1 -62.3868 -6.93175 1 
-61.4518 -9.18194 1 -60.5989 -7.61553 1 -33.8441 -29.1545 1 
-34.4463 -30.2475 1 -33.7903 -31.351 1 -52.1559 1.32407 1 
-51.2234 0.298506 1 -52.6815 -0.0340255 1 -48.3391 15.0485 1 
-48.947 16.1778 1 -49.6618 15.0898 1 -77.8632 -20.3371 1 
-52.9719 56.5209 1 -48.6318 11.0514 1 -65.539 7.98846 1 
-59.2216 8.77077 1 -71.8768 -16.3812 1 -70.6664 -17.2546 1 
-70.6063 -15.7481 1 -60.7615 6.60735 1 -60.0911 7.68067 1 
-57.8633 10.8621 1 -59.8761 16.6098 1 -58.7313 16.6412 1 
-59.3572 15.6874 1 -28.1133 60.6305 1 -27.6354 61.6101 1 
-29.3817 60.8203 1 -28.9038 61.7999 1 -51.9369 21.0469 1 
-54.0715 24.8959 1 -53.3652 26.0053 1 -75.5536 44.0616 1 
-26.4862 64.1417 1 -25.3556 61.7327 1 -25.7127 60.3402 1 
-49.8537 11.1636 1 -75.6648 56.1135 1 -32.3245 59.262 1 
-60.0764 14.6286 1 -61.3097 14.5373 1 -60.4942 33.6981 1 
-60.5953 15.551 1 -55.4728 34.0674 1 -54.2538 34.5448 1 
-52.6632 18.0704 1 -21.5321 51.4841 1 -52.2087 54.991 1 
-67.4965 59.619 1 -66.3951 59.5643 1 -68.0854 60.9592 1 
-66.9841 60.9044 1 -45.7291 50.0426 1 -45.8795 51.9391 1 
-44.5152 51.609 1 -56.5142 3.24094 1 -57.1372 4.42275 1 
-37.5731 48.9871 1 -36.5887 51.0612 1 -39.0821 54.821 1 
-40.6663 55.2584 1 -39.6129 56.3492 1 -59.9516 64.1467 1 
-54.9204 21.9087 1 -28.222 56.7791 1 -29.1084 57.8047 1 
-27.8399 58.718 1 -39.1231 60.5343 1 -38.3737 59.1238 1 
-39.4818 59.2321 1 -49.6874 -29.0385 1 -76.8227 -23.3656 1 
-75.7551 -22.9144 1 -70.6206 9.42671 1 -70.6285 8.28496 1 
-66.1985 -30.381 1 -40.5104 -7.48963 1 -78.8385 47.2017 1 
-74.9806 -30.3021 1 -73.724 -30.3996 1 -68.2825 -26.9234 1 
-68.827 -28.2357 1 -75.5229 2.23792 1 -72.0271 2.52978 1 
-73.2138 2.08686 1 -72.0568 1.51129 1 -74.3677 1.4575 1 
-73.2076 0.982843 1 -67.8249 -18.6993 1 -70.7963 2.14871 1 
-70.766 0.84206 1 -25.9694 59.2088 1 -26.7743 57.668 1 
-73.1972 -0.305455 1 -77.8054 11.7988 1 -78.795 12.3249 1 
-40.317 6.7144 1 -40.5936 8.2069 1 -44.0588 0.779692 1 
-43.0357 2.02652 1 -44.4918 2.31274 1 -57.0937 35.2976 1 
-56.887 34.0455 1 -55.6794 35.3195 1 -33.2764 56.285 1 
-70.9216 58.851 1 -71.4355 57.5184 1 -69.799 58.6777 1 
-65.9825 64.2341 1 -64.8786 64.2159 1 -65.4719 63.1709 1 
-70.753 6.87404 1 -70.7594 5.7169 1 -71.969 6.41369 1 
-45.759 2.93067 1 -47.0839 3.45338 1 -45.8468 4.31667 1 
-47.1717 4.83938 1 -56.18 10.0219 1 -55.0356 10.0996 1 
-70.3636 43.551 1 -69.0383 42.7124 1 -69.115 43.9862 1 
-53.3373 -31.3757 1 -40.8414 61.7838 1 -51.0431 -29.0845 1 
-74.3562 -4.43857 1 -60.0116 59.2457 1 -68.2063 41.2493 1 
-67.0772 40.081 1 -73.1933 -18.2992 1 -68.1558 38.7233 1 
-73.4343 -22.9125 1 -74.6069 -22.4783 1 -73.6147 -21.7876 1 
-62.0276 -2.56527 1 -63.2467 -1.32366 1 -34.0128 6.60063 1 
-36.7917 13.187 1 -50.08 47.7841 1 -48.1801 47.0489 1 
-48.2481 48.6373 1 -46.3481 47.9021 1 -52.7892 50.4486 1 
-37.6965 60.563 1 -38.2463 61.7978 1 -55.8754 60.6107 1 
-54.5516 60.5865 1 -35.8205 -24.1163 1 -36.2662 -22.5871 1 
-22.701 65.3689 1 -26.0665 -27.8481 1 -36.6518 -25.2961 1 
-50.0008 39.4723 1 -49.1432 37.7809 1 -55.65 8.98392 1 
-70.4325 11.8615 1 -70.4488 10.785 1 -58.3655 -26.4401 1 
-58.9765 -25.1551 1 -57.7561 -25.1524 1 -59.6318 -23.6814 1 
-58.4114 -23.6787 1 -58.3267 -20.9607 1 -57.6817 -22.4614 1 
-57.0097 -20.8784 1 -71.398 -26.4773 1 -70.1943 -26.1878 1 
-62.7733 38.8056 1 -74.3783 13.5843 1 -76.692 6.39187 1 
-76.7182 5.00997 1 -75.5086 5.72722 1 -65.9866 25.0608 1 
-65.3113 26.0085 1 -73.4289 -32.6144 1 -72.2804 -32.6026 1 
-73.0594 -31.4328 1 -63.8355 37.6469 1 -64.2488 39.004 1 
-68.4245 25.1051 1 -67.8403 26.0343 1 -58.3628 54.906 1 
-57.7858 53.3781 1 -59.5302 54.7813 1 -57.5138 56.3457 1 
-57.1249 57.9078 1 -58.65 59.2395 1 -48.7163 -26.5021 1 
-49.7852 57.8567 1 -70.7667 3.1672 1 -33.7931 -8.51873 1 
-69.437 1.28417 1 -71.4626 61.3505 1 -63.5248 -6.02885 1 
-64.7486 -7.34455 1 -61.4895 56.3685 1 -59.9767 56.4042 1 
-59.0117 -22.3818 1 -77.8252 47.7029 1 -77.819 46.6305 1 
-58.7013 32.8118 1 -59.3115 31.667 1 -78.9623 46.0431 1 
-50.0887 32.87 1 -51.8906 33.0651 1 -53.0424 32.335 1 
-29.9308 61.8079 1 -42.6767 -9.14518 1 -40.4278 -10.1389 1 
-50.0831 25.4125 1 -50.9608 24.2025 1 -51.5125 25.1557 1 
-48.1312 4.14996 1 -41.3611 -31.3823 1 -41.9803 -32.3909 1 
-27.0351 60.2588 1 -47.3269 54.936 1 -40.6326 -32.577 1 
-50.5568 -2.25387 1 -51.6812 -1.20884 1 -46.5218 56.2282 1 
-47.9807 56.294 1 -40.7828 -30.2536 1 -66.5826 65.454 1 
-33.2563 -24.4937 1 -35.8933 61.7625 1 -37.1856 61.7588 1 
-35.2805 -15.0115 1 -37.388 -16.4607 1 -44.8914 -23.783 1 
-44.2196 -25.2031 1 -43.372 -23.7014 1 -46.8394 -30.288 1 
-47.5308 -29.0209 1 -69.243 -12.4991 1 -68.09 -9.0574 1 
-74.3798 45.8418 1 -74.8694 30.2845 1 -75.8249 30.7937 1 
-51.0141 38.0896 1 -51.8064 40.0894 1 -37.9763 51.1042 1 
-39.3366 50.6075 1 -69.7423 54.85 1 -68.2398 54.4284 1 
-70.636 -7.41818 1 -78.9354 -17.3558 1 -66.6689 19.0861 1 
-64.296 50.3872 1 -47.7086 -18.9085 1 -47.3414 -20.4919 1 
-48.7319 -20.6234 1 -25.9414 -24.2569 1 -55.964 55.2823 1 
-44.7314 -8.05103 1 -42.899 -6.88638 1 -55.5857 -20.9443 1 
-54.3245 50.4822 1 -55.2162 48.3525 1 -56.1683 50.2366 1 
-58.9519 -32.5639 1 -37.5911 54.8759 1 -38.2497 53.4351 1 
-36.8621 53.3921 1 -58.1748 17.5968 1 -33.7376 -26.8604 1 
-22.9108 50.5818 1 -57.6378 -19.6087 1 -56.2138 -19.6746 1 
-58.9566 -27.7898 1 -73.17 -8.5296 1 -73.183 -7.19106 1 
-77.7551 -15.6658 1 -78.9104 -15.0157 1 -70.2318 48.9212 1 
-71.6634 48.1873 1 -70.3449 47.7208 1 -71.7765 46.9869 1 
-75.6322 -19.3512 1 -74.4722 -20.037 1 -75.5714 -18.0591 1 
-74.4115 -18.7448 1 -78.8264 -16.1858 1 -79.04 -25.9365 1 
-77.8576 -26.6311 1 -77.9256 -25.2492 1 -32.4168 42.7415 1 
-29.679 41.0799 1 -32.3876 39.159 1 -67.6412 12.3577 1 
-43.7745 23.3411 1 -43.1287 21.628 1 -69.4464 5.12929 1 
-69.5071 6.28591 1 -43.1736 61.7487 1 -41.5081 63.1242 1 
-42.1394 61.769 1 -65.0879 11.3083 1 -65.3826 12.3437 1 
-66.6109 11.3693 1 -41.3667 -19.1156 1 -75.4957 8.18212 1 
-65.2743 56.7183 1 -64.4811 58.1647 1 -65.9756 58.3019 1 
-71.8934 10.059 1 -73.077 9.46164 1 -22.5357 63.2834 1 
-21.9387 62.437 1 -22.2512 64.4909 1 -24.647 59.2902 1 
-33.6198 52.7422 1 -72.3273 41.0744 1 -73.3632 40.2872 1 
-72.3858 39.7214 1 -66.1008 -32.4478 1 -78.9578 -5.4149 1 
-77.783 -6.07759 1 -67.3379 -32.6005 1 -78.8541 31.5154 1 
-77.8912 30.9822 1 -76.7292 30.2652 1 -77.9093 29.6059 1 
-49.0097 14.0582 1 -50.3324 14.0995 1 -72.1605 54.5355 1 
-70.7917 53.9563 1 -72.0226 53.2875 1 -73.2652 53.7193 1 
-63.2905 -9.93701 1 -64.7993 -8.7834 1 -65.1218 -6.06827 1 
-66.283 -6.78133 1 -45.8898 29.904 1 -46.1073 28.1219 1 
-44.3377 28.9132 1 -66.4945 -2.09309 1 -68.0145 -2.71811 1 
-64.8288 -3.02414 1 -66.3488 -3.64916 1 -20.9685 -29.4879 1 
-22.2607 -29.1588 1 -57.7209 5.51271 1 -61.7641 -22.2386 1 
-58.553 -16.0181 1 -58.0864 -17.7699 1 -59.357 -17.7331 1 
-58.9085 -19.5719 1 -46.1746 45.0658 1 -70.4123 46.2684 1 
-68.781 48.1393 1 -68.8483 46.6869 1 -44.7202 55.0378 1 
-44.0613 53.2653 1 -49.1063 56.3502 1 -48.9469 42.2507 1 
-66.8265 57.0004 1 -67.0943 58.3567 1 -62.608 56.5672 1 
-64.8389 55.4268 1 -64.0709 56.5846 1 -63.376 55.4094 1 
-32.8348 60.6427 1 -36.6537 60.5775 1 -40.6918 56.6909 1 
-42.0149 56.5673 1 -41.4049 58.147 1 -69.2104 -5.61157 1 
-67.9281 -6.26867 1 -47.0135 1.8645 1 -47.0848 0.316779 1 
-31.8026 56.4946 1 -73.1643 -3.76787 1 -71.9231 -4.33725 1 
-73.1545 -5.11104 1 -71.9133 -5.68042 1 -41.53 65.127 1 
-73.1143 -13.32 1 -76.76 53.1586 1 -77.8291 52.5988 1 
-77.8388 53.6591 1 -33.0059 -16.0032 1 -35.1134 -17.4524 1 
-67.0484 -26.6902 1 -76.7134 12.3455 1 -76.6668 11.0303 1 
-78.8112 53.1163 1 -79.0093 54.3071 1 -77.7944 45.3614 1 
-22.1088 -13.575 1 -76.6021 45.9428 1 -55.6814 29.8516 1 
-54.4736 30.0072 1 -78.8138 44.8826 1 -56.0183 13.8282 1 
-58.3037 39.1044 1 -25.0348 12.3712 1 -25.1104 15.3366 1 
-27.3728 13.7336 1 -44.9603 21.9513 1 -45.5485 22.9254 1 
-46.3103 21.7991 1 -48.2818 27.4508 1 -22.0448 42.0642 1 
-22.3625 44.8876 1 -27.7247 16.7777 1 -29.9871 15.1747 1 
-79.0079 19.5138 1 -22.5769 32.5428 1 -25.1782 31.0156 1 
-45.4082 56.2884 1 -67.9274 44.8495 1 -69.2537 45.5207 1 
-67.7234 46.2017 1 -43.2711 59.2227 1 -43.7088 60.5552 1 
-42.6432 60.6644 1 -27.5699 10.9138 1 -29.9079 12.2763 1 
-52.7694 34.1079 1 -30.3902 60.6373 1 -31.1267 59.4647 1 
-30.1182 59.6476 1 -77.0912 -32.674 1 -76.7167 -31.2037 1 
-30.3084 58.3626 1 -28.9182 59.0897 1 -70.6643 -5.0118 1 
-70.6954 -3.95357 1 -58.9418 37.5682 1 -55.0486 39.7589 1 
-76.7581 -19.8808 1 -75.6633 -20.5413 1 -62.0036 13.4904 1 
-73.2002 19.043 1 -28.9271 -31.3336 1 -36.9633 -32.558 1 
-52.1337 -29.0975 1 -70.9277 39.2798 1 -70.7259 38.0552 1 
-78.8345 26.6464 1 -79 25.4827 1 -71.4759 32.2549 1 
-65.2026 65.454 1 -64.0987 65.4357 1 -73.059 45.1213 1 
-73.1316 43.9922 1 -71.8645 44.4423 1 -34.6091 44.178 1 
-32.1807 45.7148 1 -33.532 47.4988 1 -63.1521 34.9178 1 
-23.8494 57.571 1 -52.8455 59.2427 1 -51.7139 -30.3037 1 
-39.9347 5.42786 1 -38.9153 6.42225 1 -38.2963 5.11865 1 
-51.5555 -27.9903 1 -28.4389 -32.667 1 -29.5439 -32.6217 1 
-68.2623 0.928538 1 -68.2601 -0.34956 1 -65.9555 6.83648 1 
-52.7881 -32.3954 1 -52.2833 -31.3786 1 -66.6374 -0.398759 1 
-65.1376 0.233746 1 -65.223 -1.10299 1 -79.0201 -30.9007 1 
-51.554 -21.282 1 -51.3868 -19.231 1 -49.8965 -19.085 1 
-77.7661 4.48916 1 -76.7194 3.95754 1 -49.5018 17.1133 1 
-50.1169 18.1475 1 -66.1546 -23.9267 1 -76.7092 -28.3664 1 
-76.4971 -30.0016 1 -75.4497 -28.9174 1 -57.968 3.14558 1 
-65.4589 -25.2793 1 -63.1235 -31.4296 1 -62.4759 -32.5751 1 
-62.0479 -31.4242 1 -59.5975 -31.376 1 -31.7371 60.7034 1 
-21.3714 -26.7112 1 -23.055 -26.2897 1 -22.6636 -27.7821 1 
-65.0052 36.6933 1 -63.8896 35.9878 1 -58.2486 60.6111 1 
-59.271 60.6138 1 -75.7315 -21.624 1 -73.2068 17.9263 1 
-70.791 -19.7146 1 -58.6752 64.1167 1 -76.7419 14.7595 1 
-39.3587 30.5969 1 -72.0585 17.3962 1 -41.8294 12.9939 1 
-67.8254 14.8169 1 -37.1496 64.1509 1 -69.1899 -6.96387 1 
-70.6438 -6.36409 1 -48.6596 57.8005 1 -63.874 4.07765 1 
-64.3749 5.28195 1 -75.4886 -6.25578 1 -74.3522 -6.79068 1 
-74.3454 -5.45794 1 -75.8378 -24.0359 1 -44.8792 8.79656 1 
-73.1949 23.9251 1 -72.0879 24.5668 1 -75.546 21.4529 1 
-74.473 22.0163 1 -75.5335 20.1115 1 -46.2875 -31.3905 1 
-46.8901 -32.3974 1 -47.4112 -31.4077 1 -71.6147 -31.5491 1 
-76.7098 52.0547 1 -76.7461 50.7008 1 -71.6365 49.5658 1 
-67.0639 -4.4529 1 -66.7669 -5.55561 1 -76.7482 47.1276 1 
-75.5197 50.259 1 -76.7401 49.5513 1 -47.8483 21.4867 1 
-48.1626 17.2039 1 -36.4247 45.9516 1 -66.516 27.8241 1 
-67.8321 27.9546 1 -68.9023 33.5488 1 -67.5844 33.1858 1 
-69.9677 32.7575 1 -68.6498 32.3946 1 -72.9929 47.6197 1 
-22.5831 29.5372 1 -22.3586 10.9631 1 -56.3031 36.6395 1 
-57.7507 36.5078 1 -76.6926 -5.5917 1 -76.7261 -6.60163 1 
-78.9017 65.3143 1 -77.3966 65.5086 1 -78.4766 64.4586 1 
-27.0841 65.445 1 -75.5774 38.0772 1 -34.9723 36.8304 1 
-70.9382 29.1512 1 -72.499 29.8923 1 -72.0167 28.4722 1 
-30.1785 24.471 1 -27.6369 22.9348 1 -72.0138 -0.870496 1 
-43.9977 6.26616 1 -44.4483 7.5295 1 -76.1366 65.5086 1 
-74.9889 65.5057 1 -24.5388 -9.31343 1 -62.5977 -30.3289 1 
-44.2906 -30.2718 1 -44.9965 -28.9789 1 -45.4376 -30.2777 1 
-46.1435 -28.9848 1 -74.5043 24.4775 1 -74.4595 25.5972 1 
-75.5694 24.9811 1 -62.2307 -26.4271 1 -53.0656 30.2657 1 
-53.5963 31.284 1 -51.3202 27.4237 1 -52.1068 26.2109 1 
-50.0326 27.4132 1 -50.8192 26.2005 1 -63.3526 20.2605 1 
-75.6696 33.2951 1 -67.9611 21.0179 1 -66.9664 22.0593 1 
-69.4782 21.0351 1 -69.6593 22.383 1 -68.2666 22.1134 1 
-67.4087 23.094 1 -53.5773 65.3817 1 -66.8918 35.4592 1 
-66.6769 33.9529 1 -55.2456 64.1259 1 -22.2161 -15.5892 1 
-61.6981 35.4142 1 -62.618 35.9548 1 -53.3155 4.87856 1 
-77.0176 -27.2275 1 -75.7581 -27.7784 1 -53.836 3.55177 1 
-54.5383 4.69126 1 -57.345 1.96376 1 -55.8502 2.08897 1 
-55.1214 8.00254 1 -55.1221 3.3946 1 -72.3422 55.7366 1 
-70.9734 55.1574 1 -71.2167 56.3672 1 -22.3032 5.40852 1 
-79.0201 -29.6007 1 -77.6256 -30.5804 1 -79.0587 -28.3921 1 
-77.6642 -29.3717 1 -73.5036 -20.6367 1 -58.8309 14.7364 1 
-57.6876 14.7815 1 -24.8264 -26.1683 1 -24.2951 -27.9695 1 
-33.6828 61.7807 1 -25.0523 -28.9894 1 -75.5582 17.6945 1 
-63.2613 -18.7688 1 -71.8482 -13.7749 1 -73.061 46.483 1 
-71.0471 41.2804 1 -70.4936 42.4606 1 -74.3947 6.27196 1 
-74.3982 5.17853 1 -66.1734 45.8939 1 -58.3814 11.7962 1 
-75.5127 14.0833 1 -67.4585 62.0019 1 -72.966 48.9982 1 
-72.9604 50.1624 1 -42.1249 8.3994 1 -43.5636 8.56709 1 
-43.1288 7.1983 1 -27.0506 0.246489 1 -34.871 -22.639 1 
-35.8553 -20.8269 1 -33.5773 -21.5491 1 -43.2303 3.56141 1 
-78.9555 3.85852 1 -78.7923 5.04496 1 -54.8151 -19.1676 1 
-54.2011 -20.8917 1 -53.4229 -19.1002 1 -52.809 -20.8243 1 
-62.7525 49.5243 1 -64.0884 48.4415 1 -62.9601 51.47 1 
-51.0622 43.6522 1 -48.4769 43.6396 1 -41.9894 55.1348 1 
-35.932 59.1592 1 -57.2066 -26.4498 1 -71.8402 -14.9922 1 
-61.6605 -18.8014 1 -61.0467 -23.6504 1 -49.3898 26.4573 1 
-56.9485 29.7768 1 -56.3404 28.8103 1 -42.076 20.8888 1 
-40.3086 21.8877 1 -32.6398 54.9423 1 -60.4308 17.4835 1 
-61.0044 18.4104 1 -42.4131 29.2826 1 -31.1659 55.1519 1 
-31.7662 52.8615 1 -29.9523 54.0264 1 -36.9748 59.1447 1 
-36.4331 57.7885 1 -74.4485 23.1779 1 -62.1975 11.6594 1 
-63.0082 10.5471 1 -29.4387 65.4443 1 -30.6168 65.1538 1 
-30.0837 64.1837 1 -30.4823 56.8079 1 -29.5959 55.7823 1 
-74.2771 -13.6892 1 -73.0928 -14.3785 1 -45.3973 -0.150107 1 
-46.5017 -1.37165 1 -45.1591 -2.15801 1 -53.5934 -6.38945 1 
-57.5332 42.9576 1 -64.4281 60.7702 1 -65.5446 60.8412 1 
-65.2785 59.4932 1 -31.5525 5.57827 1 -51.5333 14.133 1 
-50.8965 15.057 1 -78.9922 11.0881 1 -60.4224 -10.9864 1 
-59.2261 -9.6979 1 -47.4213 63.0681 1 -46.326 63.0531 1 
-52.9656 61.7219 1 -53.473 60.5849 1 -51.6829 61.7549 1 
-52.1904 60.6179 1 -63.6097 -4.26575 1 -65.2067 -4.30517 1 
-65.0509 -10.405 1 -65.3898 24.0329 1 -64.1677 24.0555 1 
-64.903 23.1147 1 -62.6299 -20.6136 1 -63.8682 21.2 1 
-65.6463 22.0888 1 -65.1289 21.0951 1 -74.3569 8.76484 1 
-74.3685 9.84908 1 -29.9346 21.2279 1 -50.4823 45.6228 1 
-28.3823 54.6569 1 -21.94 -17.9551 1 -36.996 56.3329 1 
-31.6286 58.0493 1 -77.7927 5.56093 1 -77.7429 8.03603 1 
-76.6869 7.50959 1 -70.7556 4.29497 1 -74.387 7.60914 1 
-73.4283 28.6966 1 -75.7557 59.6259 1 -73.1528 52.6734 1 
-63.0964 40.2886 1 -69.3944 61.1651 1 -71.8001 52.1272 1 
-73.0469 51.5 1 -51.5251 49.1536 1 -53.2174 28.163 1 
-54.4709 27.9988 1 -53.7935 29.0968 1 -39.2904 17.7182 1 
-40.923 15.8655 1 -41.0761 17.5464 1 -59.277 19.4188 1 
-55.1325 28.9659 1 -32.006 -32.5693 1 -45.3243 -22.2307 1 
-45.9092 -20.5611 1 -44.4702 -20.7075 1 -43.2051 -30.2728 1 
-41.8871 -30.2767 1 -42.4958 -28.9782 1 -60.797 22.187 1 
-61.4268 21.2449 1 -40.239 19.5058 1 -42.0247 19.334 1 
-45.2572 11.9615 1 -44.5239 12.9895 1 -39.9541 28.3098 1 
-41.5922 26.7127 1 -62.0802 20.2871 1 -45.1668 14.071 1 
-46.4702 14.0181 1 -45.9119 13.0494 1 -42.2207 16.1471 1 
-42.8383 17.0023 1 -71.9945 43.3519 1 -38.532 2.7454 1 
-40.1806 1.33389 1 -46.169 57.8092 1 -44.7549 57.7877 1 
-68.5009 62.0358 1 -50.9977 63.0573 1 -65.4185 38.0504 1 
-65.5569 39.8044 1 -21.3604 49.5119 1 -78.7817 -11.3028 1 
-78.9642 -12.6326 1 -58.9842 1.8883 1 -77.7733 -7.13297 1 
-78.9578 -6.7149 1 -78.948 -7.77029 1 -39.6799 -23.638 1 
-39.2352 -25.2928 1 -32.7058 -18.0785 1 -34.5029 -19.6277 1 
-36.9105 -19.0017 1 -39.0915 -1.07928 1 -40.8164 -0.0409445 1 
-40.8846 -1.86788 1 -44.8791 -18.9235 1 -43.1853 -17.9226 1 
-43.2877 -4.69516 1 -41.959 -3.40687 1 -43.2288 15.3691 1 
-43.8564 14.2493 1 -42.0677 14.4662 1 -77.8987 -24.1197 1 
-76.9138 -24.7901 1 -78.8673 -24.6483 1 -72.6015 61.639 1 
-27.6187 29.2276 1 -68.4045 26.938 1 -69.7274 27.012 1 
-43.2135 13.1677 1 -75.5122 4.32091 1 -38.9654 26.0793 1 
-38.4716 20.5047 1 -60.2734 -19.3697 1 -61.4966 -25.1052 1 
-41.1817 -29.0173 1 -58.287 0.584613 1 -59.4908 -0.817428 1 
-65.8223 5.63923 1 -65.3214 4.43492 1 -49.5848 24.3867 1 
-57.0206 54.8527 1 -56.3737 53.3326 1 -50.8645 41.5543 1 
-54.2449 22.9359 1 -75.4389 -13.1561 1 -73.7303 29.602 1 
-77.8505 25.0434 1 -62.1426 -14.9001 1 -77.8664 54.9472 1 
-71.7135 50.7896 1 -75.4829 -10.7942 1 -75.677 58.5416 1 
-75.7246 57.2389 1 -39.5624 46.0423 1 -42.0171 45.5499 1 
-39.9442 48.6941 1 -37.2846 32.3107 1 -37.3829 34.907 1 
-64.096 63.1517 1 -64.9173 61.8944 1 -52.6615 16.0988 1 
-43.3697 54.9699 1 -44.3193 -13.273 1 -46.968 -12.2733 1 
-44.5711 -10.8407 1 -46.6258 -9.7465 1 -42.2072 -11.7202 1 
-56.7934 52.022 1 -39.7557 -15.2569 1 -41.9553 -14.1526 1 
-60.1206 -27.8143 1 -21.0317 -32.4357 1 -79.1149 63.6513 1 
-77.0791 64.1499 1 -75.9314 64.147 1 -60.4631 29.545 1 
-76.6651 63.1092 1 -71.7299 -29.3841 1 -52.6511 27.1499 1 
-59.2924 65.3829 1 -62.9093 -25.0932 1 -65.9118 54.1879 1 
-67.0413 54.1657 1 -65.9684 55.4045 1 -46.5416 19.4414 1 
-47.2425 20.3658 1 -22.4342 16.7285 1 -22.6579 13.7724 1 
-55.1969 -25.1878 1 -63.5103 26.9085 1 -33.361 -13.549 1 
-65.7609 13.914 1 -66.4781 12.9682 1 -75.4775 13.0451 1 
-62.9457 65.1753 1 -43.5813 -28.9772 1 -43.0412 -27.8181 1 
-72.0892 42.0568 1 -51.9714 -15.5861 1 -50.5989 -17.6903 1 
-50.9719 13.1318 1 -41.0276 -4.96715 1 -53.2795 17.0466 1 
-44.9134 -3.75465 1 -69.0999 59.7606 1 -61.0701 9.7589 1 
-61.5918 10.6969 1 -60.8467 11.648 1 -79.0189 30.2811 1 
-73.2023 -19.5204 1 -79.0131 -23.5071 1 -32.2836 16.3537 1 
-32.2044 13.4553 1 -76.9706 59.0463 1 -76.8919 57.9621 1 
-45.326 1.39761 1 -37.9058 -2.89026 1 -77.7562 3.19855 1 
-76.7096 2.66693 1 -48.3204 25.3555 1 -40.9337 64.1544 1 
-40.2954 65.4418 1 -53.9589 27.0838 1 -56.0189 21.8662 1 
-52.6097 29.2315 1 -54.9566 -22.4318 1 -53.5721 -22.3792 1 
-27.471 19.7057 1 -30.1338 18.077 1 -66.1331 23.007 1 
-39.5216 36.3438 1 -77.8657 27.1755 1 -76.6861 -0.846553 1 
-77.8039 21.252 1 -78.9973 21.8907 1 -64.7858 44.7308 1 
-53.3546 -15.4544 1 -54.3117 -13.9914 1 -78.9627 43.6245 1 
-51.3779 18.1229 1 -77.7947 44.2428 1 -62.5639 37.614 1 
-31.8701 10.8292 1 -29.7184 9.53643 1 -64.1844 53.6967 1 
-77.8754 58.4812 1 -73.1782 -9.60309 1 -72.1456 -9.06171 1 
-72.1352 -10.4207 1 -51.3232 22.1029 1 -50.5416 23.1944 1 
-51.7346 23.1085 1 -45.6094 20.8747 1 -26.8128 -10.4146 1 
-36.2629 -31.4279 1 -67.2271 32.1173 1 -72.0818 -20.2016 1 
-74.7257 -23.6246 1 -72.3534 -23.6084 1 -62.3564 61.8324 1 
-62.9569 60.7147 1 -62.4721 47.4489 1 -60.9596 48.1852 1 
-58.3866 -29.0067 1 -51.7768 28.3039 1 -39.4733 -32.5686 1 
-66.3196 32.8844 1 -71.9013 8.91725 1 -56.8407 -14.7199 1 
-56.4221 -12.4174 1 -47.2826 57.7489 1 -75.5035 6.84494 1 
-42.3308 0.529609 1 -73.219 27.4339 1 -54.6375 65.3887 1 
-55.9875 65.3887 1 -69.3395 37.7815 1 -65.7517 28.8223 1 
-67.0678 28.9529 1 -74.8505 -26.3141 1 -74.6532 -27.6943 1 
-35.2267 30.2923 1 -69.8079 29.0745 1 -70.6766 27.9931 1 
-45.5691 -32.5788 1 -44.3483 -32.3871 1 -69.7371 -32.6128 1 
-57.1015 -29.0102 1 -72.1161 21.9784 1 -70.8411 22.7915 1 
-70.7805 21.7414 1 -23.1413 62.0144 1 -63.8276 61.8879 1 
-23.9428 -32.6586 1 -51.9821 -17.5587 1 -44.8857 -31.3802 1 
-71.0115 26.614 1 -74.1932 -29.0149 1 -42.6581 65.4197 1 
-60.7215 35.8142 1 -68.6978 58.4982 1 -56.3699 -25.1823 1 
-61.0292 -20.6462 1 -46.7565 -22.1614 1 -46.0176 -23.6591 1 
-75.7836 -25.3427 1 -76.7954 -25.8017 1 -75.9555 -26.3982 1 
-77.8763 -27.7366 1 -25.0231 62.6512 1 -20.8945 60.6353 1 
-78.9262 -22.1579 1 -74.4018 3.77222 1 -73.2188 3.10996 1 
-72.0463 0.222992 1 -32.9705 -25.8576 1 -78.9977 24.4114 1 
-79.0129 17.0872 1 -78.7862 18.3192 1 -42.6815 53.8158 1 
-69.3827 7.69683 1 -55.8099 27.8679 1 -65.2497 27.8595 1 
-64.7144 24.9806 1 -61.121 30.629 1 -46.6714 -3.18713 1 
-47.9911 -4.28282 1 -74.9247 60.1033 1 -64.5944 28.7545 1 
-64.1152 27.8202 1 -47.9541 -2.17091 1 -49.2738 -3.2666 1 
-76.7487 13.3837 1 -57.6414 16.7178 1 -58.205 15.6903 1 
-76.7736 17.2448 1 -70.5692 52.796 1 -62.5256 4.55589 1 
-61.4352 5.61323 1 -72.2893 57.0276 1 -76.733 44.769 1 
-58.2512 65.3915 1 -57.0512 65.3915 1 -76.7031 36.3577 1 
-75.5148 36.9341 1 -75.4886 35.6373 1 -27.7486 64.136 1 
-75.6216 41.6164 1 -73.6706 65.3704 1 -27.2538 53.5273 1 
-26.8309 56.2387 1 -54.5003 -23.8165 1 -79.0335 56.7086 1 
-36.7783 -30.3034 1 -35.6209 -30.2691 1 -72.0202 3.86395 1 
-76.7099 35.0037 1 -77.8394 34.5058 1 -76.8227 33.9637 1 
-45.2688 27.0759 1 -43.5169 26.3433 1 -25.0619 18.4064 1 
-58.8894 -30.2252 1 -31.9478 7.93728 1 -33.2523 -23.1208 1 
-52.8131 25.1016 1 -33.2648 -32.3804 1 -54.9753 -15.9647 1 
-46.2353 -26.4421 1 -55.4009 22.8249 1 -72.2899 -30.373 1 
-74.6715 -24.9314 1 -63.592 25.0497 1 -64.1387 25.9748 1 
-57.0935 15.6845 1 -58.055 34.0365 1 -60.3171 21.2389 1 
-51.7972 64.1042 1 -52.3279 63.0662 1 -52.3512 65.1386 1 
-74.4026 -17.5236 1 -74.5833 -21.1879 1 -75.5656 26.0405 1 
-26.1544 -29.1795 1 -48.4807 54.9645 1 -49.8424 55.019 1 
-36.3177 -29.0285 1 -74.3926 44.5529 1 -60.4687 8.76243 1 
-54.9536 11.9966 1 -55.4662 12.9211 1 -79.0277 32.7993 1 
-73.5531 -24.0588 1 -24.6536 -31.3241 1 -21.2739 -28.3066 1 
-67.8615 -11.8678 1 -69.2413 -11.1199 1 -71.8925 -8.07305 1 
-57.5784 -3.87794 1 -64.6655 13.2895 1 -48.0542 -27.84 1 
-71.9055 -6.73451 1 -67.8941 -13.2426 1 -61.5346 19.3471 1 
-69.8707 39.0709 1 -69.9145 23.3862 1 -71.223 23.9383 1 
-70.4566 13.222 1 -46.6895 27.6802 1 -46.7281 25.585 1 
-50.1817 16.145 1 -72.1496 23.3436 1 -25.1733 21.4125 1 
-71.8074 27.2094 1 -69.9095 -23.6679 1 -31.1705 49.1838 1 
-75.5134 3.26848 1 -38.9354 4.03951 1 -52.1821 -22.3507 1 
-61.8665 15.4606 1 -69.0631 -25.8704 1 -43.3514 -15.8011 1 
-41.5329 -16.9941 1 -77.7272 -8.4154 1 -46.0002 -14.8014 1 
-48.9187 -0.173762 1 -50.3738 -0.716392 1 -41.5213 1.45596 1 
-50.8181 1.74949 1 -67.8494 -7.63605 1 -67.9015 -25.6613 1 
-62.7986 45.7219 1 -40.9655 13.7389 1 -63.509 43.5566 1 
-71.5134 -27.5597 1 -47.9007 59.0683 1 -66.6675 -25.4281 1 
-66.3539 -11.2071 1 -66.5995 -12.4921 1 -49.4983 33.506 1 
-64.5243 -14.5156 1 -64.5959 15.1924 1 -48.2769 2.69407 1 
-61.4356 51.9094 1 -32.3759 25.8999 1 -35.0943 27.3194 1 
-65.5747 -15.042 1 -66.6321 -13.8669 1 -67.9089 -1.38885 1 
-61.24 50.2606 1 -44.2703 -22.7338 1 -37.3009 28.5784 1 
-44.7797 -26.3995 1 -45.5772 -27.789 1 -40.0369 58.1804 1 
-66.6397 0.879339 1 -67.9879 -10.4942 1 -70.3854 51.5124 1 
-68.8783 50.912 1 -75.5407 45.3504 1 -49.8727 50.097 1 
-42.251 -23.7962 1 -41.7347 -22.6435 1 -41.0903 -23.6503 1 
-70.4383 36.8054 1 -66.2043 -8.14871 1 -75.576 52.5124 1 
-66.456 -9.77029 1 -30.7723 -17.1542 1 -31.07 -14.7891 1 
-37.4751 -29.0628 1 -40.5953 -25.1566 1 -67.5596 51.774 1 
-62.9478 25.9342 1 -71.7745 45.6252 1 -32.5295 -26.9438 1 
-59.2886 33.8557 1 -66.0826 31.7044 1 -66.8008 30.9747 1 
-59.6916 -20.7585 1 -50.3627 12.1071 1 -34.7808 20.7231 1 
-60.6767 -2.15997 1 -48.7388 -10.8208 1 -49.2494 -1.76142 1 
-74.1322 34.8522 1 -71.2851 40.298 1 -44.3387 47.3014 1 
-44.4084 48.8024 1 -60.9482 34.605 1 -40.458 2.97095 1 
-47.0316 49.9458 1 -43.01 18.0547 1 -54.4343 11.084 1 
-42.4065 57.8951 1 -58.2847 36.358 1 -58.6698 34.9923 1 
-56.5839 14.8737 1 -57.6714 -27.7933 1 -73.1436 -6.13041 1 
-58.3689 -2.40589 1 -74.3352 -3.09454 1 -59.9034 34.8114 1 
-39.6724 -20.063 1 -39.1651 -18.198 1 -22.5814 26.2865 1 
-54.0182 -17.4278 1 -39.0007 12.791 1 -42.6552 9.66546 1 
-39.6989 -3.67886 1 -52.1359 15.1286 1 -65.1 1.74576 1 
-41.1943 53.3758 1 -66.3543 14.7809 1 -70.5022 45.0856 1 
-69.9352 -22.1596 1 -68.2035 -21.3216 1 -68.815 -24.4 1 
-56.7856 -18.2911 1 -53.5275 -12.0481 1 -54.242 -8.40006 1 
-57.2522 -16.5393 1 -55.3869 -17.7841 1 -61.4342 7.57461 1 
-59.581 50.1566 1 -43.8464 16.2242 1 -47.0587 36.3559 1 
-57.1126 48.1089 1 -64.7964 -13.1822 1 -29.8191 47.3999 1 
-60.3493 -22.2696 1 -40.3243 -22.6311 1 -40.8448 -20.628 1 
-54.7235 23.9014 1 -55.9891 23.8531 1 -72.5315 -24.8274 1 
-78.8427 42.4051 1 -57.1224 13.8086 1 -59.4613 13.6887 1 
-66.0191 61.9387 1 -48.7352 -31.3936 1 -74.3967 2.74912 1 
-32.9877 -27.8295 1 -67.3152 50.3319 1 -56.5498 22.7757 1 
-58.9158 48.4643 1 -64.6831 26.9099 1 -63.784 59.356 1 
-78.7921 -3.12024 1 -74.5982 41.0468 1 -66.6462 38.4966 1 
-78.8388 55.4544 1 -78.7697 23.1419 1 -75.5848 23.8664 1 
-65.5952 -29.1315 1 -76.9447 29.0576 1 -76.8392 28.0375 1 
-56.6639 0.631004 1 -62.6248 21.2312 1 -38.1219 56.4041 1 
-78.7993 -27.0802 1 -52.5908 45.1692 1 -75.6014 34.5973 1 
-29.9884 44.2783 1 -37.832 57.7675 1 -38.9579 57.8386 1 
-45.3457 -25.0792 1 -22.5456 22.8347 1 -59.5184 36.1771 1 
-78.8593 33.9556 1 -22.6095 19.8422 1 -73.2193 22.7635 1 
-38.9583 14.9175 1 -46.7688 59.084 1 -51.1977 65.3799 1 
-39.1518 -22.0662 1 -32.322 22.4194 1 -44.454 20.5362 1 
-44.3628 24.3151 1 -47.797 -0.962167 1 -64.415 46.7145 1 
-57.7778 49.8011 1 -57.5618 28.7589 1 -44.5307 25.5395 1 
-23.7382 62.8608 1 -46.6668 -27.8039 1 -77.9053 33.4406 1 
-69.155 28.0286 1 -68.1048 31.2169 1 -68.8017 49.5446 1 
-44.4565 -27.8198 1 -37.4178 -20.8667 1 -78.9506 -1.95961 1 
-32.3934 19.5317 1 -39.1918 7.91474 1 -31.3956 2.87571 1 
-22.8328 -32.6586 1 -23.6785 -31.3033 1 -22.6367 -31.0803 1 
-37.8287 -22.6269 1 -44.4739 15.1045 1 -30.8608 -32.2783 1 
-76.7405 24.3309 1 -76.7311 48.2406 1 -70.3084 50.2886 1 
-55.6379 -10.4742 1 -57.0023 -9.11544 1 -45.9669 18.3701 1 
-41.1238 9.47295 1 -70.9138 -28.4562 1 
CELLS 4283 47113
10 286 166 179 178 6237 6174 6231 6228 6173 1718 
10 168 275 274 181 4035 1819 3538 6177 6238 6239 
10 276 14 263 157 6240 4026 6181 6241 1694 4025 
10 167 286 287 273 6242 1833 6243 3626 6200 6203 
10 164 270 176 284 3890 6245 6169 6244 6197 6224 
10 267 173 281 280 6246 6218 6191 6188 6219 1827 
10 162 281 174 282 6247 6221 6165 6248 1828 6220 
10 281 173 267 161 6218 6246 6191 6249 6163 3966 
10 169 157 276 170 6155 6241 6210 1709 6156 6212 
10 160 173 280 172 6162 6219 6250 6161 1712 6217 
10 288 275 11 10 6204 6206 1835 6209 6251 1841 
10 270 164 176 163 3890 6169 6245 3891 1701 6168 
10 271 178 272 285 6252 6253 1816 6199 6229 6198 
10 286 272 178 285 6201 6253 6228 1832 6198 6229 
10 287 181 167 274 6233 6176 6243 6202 6239 3539 
10 269 175 282 162 6254 6223 6192 3918 6166 6248 
10 158 264 278 265 4020 6185 6255 4003 1809 6184 
10 279 266 159 265 6186 3971 6256 6187 1810 4002 
10 281 268 161 267 6190 3929 6249 6191 1812 3966 
10 10 275 181 288 6251 6238 1721 6209 6204 6232 
10 13 10 275 12 6235 6251 1820 1842 1707 6236 
10 280 266 172 279 6189 6257 6217 1826 6186 6215 
10 160 266 280 267 3970 6189 6250 3967 1811 6188 
10 288 181 287 274 6232 6233 1834 6205 6239 6202 
10 273 274 287 167 1818 6202 6203 3626 3539 6243 
10 269 175 162 163 6254 6166 3918 3917 6167 1700 
10 279 159 172 278 6256 6160 6215 1825 6258 6216 
10 173 160 280 267 6162 6250 6219 6246 3967 6188 
10 157 277 158 264 6259 6260 1695 4021 6182 4020 
10 268 162 269 282 3928 3918 1813 6193 6248 6192 
10 269 175 163 283 6254 6167 3917 6195 6222 6261 
10 167 181 287 180 6176 6233 6243 6179 1720 6234 
10 177 285 271 284 6226 6199 6262 6227 1831 6196 
10 160 173 161 267 6162 6163 1698 3967 6246 3966 
10 158 277 157 170 6260 6259 1695 6157 6211 6156 
10 283 270 176 163 6194 6245 6225 6261 3891 6168 
10 453 1111 982 452 6263 4537 6264 2382 6265 6266 
10 276 14 157 169 6240 1694 6241 6210 6154 6155 
10 8 169 14 9 1708 6154 1722 1840 6208 6207 
10 167 286 273 166 6242 6200 3626 1704 6237 3627 
10 158 264 277 278 4020 6182 6260 6255 6185 1824 
10 164 177 271 284 6170 6262 3756 6244 6227 6196 
10 270 164 271 284 3890 3756 1815 6197 6244 6196 
10 172 266 280 160 6257 6189 6217 6161 3970 6250 
10 171 158 277 278 6158 6260 6214 6213 6255 1824 
10 270 283 176 284 6194 6225 6245 6197 1830 6224 
10 271 178 285 177 6252 6229 6199 6262 1717 6226 
10 269 175 283 282 6254 6222 6195 6192 6223 1829 
10 179 167 287 180 6175 6243 6230 1719 6179 6234 
10 271 178 177 165 6252 1717 6262 3755 6172 6171 
10 168 181 274 167 6177 6239 3538 1705 6176 3539 
10 275 10 168 12 6251 6178 4035 6236 1707 1706 
10 278 159 158 265 6258 1696 6255 6184 4002 4003 
10 279 266 172 159 6186 6257 6215 6256 3971 6160 
10 272 166 178 165 3655 6173 6253 3656 1703 6172 
10 175 283 176 163 6222 6225 1715 6167 6261 6168 
10 266 160 172 159 3970 6161 6257 3971 1697 6160 
10 982 303 981 194 6267 6268 4150 4149 6269 4145 
10 1084 172 279 280 6270 6215 4451 4450 6217 1826 
10 162 281 282 268 6247 1828 6248 3928 6190 6193 
10 175 162 174 282 6166 6165 1714 6223 6248 6220 
10 439 1102 971 504 6271 4510 6272 2742 6273 6274 
10 177 164 271 165 6170 3756 6262 6171 1702 3755 
10 281 173 161 174 6218 6163 6249 6221 1713 6164 
10 286 273 166 272 6200 3627 6237 6201 1817 3655 
10 162 281 268 161 6247 6190 3928 1699 6249 3929 
10 276 14 169 9 6240 6154 6210 1822 6207 6208 
10 159 171 172 278 6159 1711 6160 6258 6213 6216 
10 162 281 161 174 6247 6249 1699 6165 6221 6164 
10 1221 1333 1220 710 5201 5199 4859 6275 6276 6277 
10 277 264 157 263 6182 4021 6259 6183 1808 4025 
10 276 14 9 263 6240 6207 1822 6181 4026 6180 
10 158 159 278 171 1696 6258 6255 6158 6159 6213 
10 181 275 10 168 6238 6251 1721 6177 4035 6178 
10 271 178 165 272 6252 6172 3755 1816 6253 3656 
10 15 14 263 9 1839 4026 1807 1836 6207 6180 
10 1084 1083 279 172 4452 4447 4451 6270 6278 6215 
10 279 159 278 265 6256 6258 1825 6187 4002 6184 
10 13 10 11 275 6235 1841 1821 1820 6251 6206 
10 270 283 269 163 6194 6195 1814 3891 6261 3917 
10 1181 1291 1180 672 5074 5075 4743 6279 6280 6281 
10 167 286 166 179 6242 6237 1704 6175 6231 6174 
10 158 171 277 170 6158 6214 6260 6157 1710 6211 
10 277 157 276 263 6259 6241 1823 6183 4025 6181 
10 167 286 179 287 6242 6231 6175 6243 1833 6230 
10 157 277 276 170 6259 1823 6241 6156 6211 6212 
10 533 390 389 1055 2614 2195 2613 6282 6283 6284 
10 275 288 274 181 6204 6205 1819 6238 6232 6239 
10 178 272 286 166 6253 6201 6228 6173 3655 6237 
10 177 164 176 284 6170 6169 1716 6227 6244 6224 
10 912 1446 1499 1486 6285 5744 6286 6287 5694 5782 
10 486 341 340 1011 2479 2051 2478 6288 6289 6290 
10 1065 1066 402 1219 4400 6292 6291 4850 4851 6293 
10 1218 973 292 972 4846 6295 6294 4847 4123 6296 
10 382 44 21 1050 2170 1856 6297 6298 6299 4352 
10 973 186 974 293 4121 4125 4126 6300 6301 6302 
10 27 1055 26 389 4366 4367 1559 6303 6284 6304 
10 1028 1156 361 1029 4672 6306 6305 4292 4671 6307 
10 1185 1184 1059 537 4755 4750 4754 6308 6309 6310 
10 164 409 163 270 2249 2250 1701 3890 6311 3891 
10 27 390 389 51 6312 2195 6303 1889 2193 2191 
10 87 200 988 201 6143 4167 6313 6144 1742 4166 
10 822 1245 645 1334 6314 6316 3503 6315 5205 6317 
10 1064 401 400 36 6318 2228 6319 4393 6320 6321 
10 1291 794 795 1398 6322 3416 6323 5398 6324 6325 
10 1152 500 643 642 6326 2955 6327 6328 2953 2957 
10 879 1467 1466 944 6329 5640 6330 3940 6331 6332 
10 1042 153 1096 433 6333 6335 4489 6334 2320 6336 
10 748 747 1365 1250 3279 6339 6337 6338 6340 5300 
10 563 562 696 1211 2701 3102 3103 6341 6342 6343 
10 1295 676 677 799 6344 3051 6345 6346 3426 3427 
10 532 1055 1054 1180 6347 4368 6348 6349 4738 4739 
10 1211 1210 696 1329 4827 6350 6343 5186 5187 6351 
10 562 1210 696 1211 6352 6350 3102 6342 4827 6343 
10 1438 969 921 1498 6353 4097 6354 5742 6355 6356 
10 737 1240 738 601 6357 6358 3252 3248 6359 3250 
10 924 888 1545 1517 3859 6362 6360 6361 6363 5966 
10 1313 695 1329 815 6364 6366 5188 6365 3475 6367 
10 308 198 986 309 6368 4161 6369 1954 6370 6371 
10 722 1445 911 845 6372 6373 3806 3590 6374 3807 
10 816 697 696 1315 3479 3107 3478 6375 6376 6377 
10 665 788 666 1326 3393 3394 3018 6378 6379 6380 
10 695 1210 1313 1329 6381 5136 6364 6366 5187 5188 
10 959 1463 955 872 6382 6383 4060 4008 6384 3995 
10 588 1229 724 725 6385 6386 3209 3211 6387 3213 
10 717 582 1222 576 3181 6389 6388 3179 2773 6390 
10 1234 593 729 1233 6391 3224 6392 4913 6393 6394 
10 847 1506 1500 1426 6395 5777 6396 6397 5775 5753 
10 475 618 1132 1131 2880 6400 6398 6399 6401 4601 
10 348 1017 1016 493 6402 4256 6403 2500 6404 6405 
10 349 1017 1147 1018 6406 4645 6407 6408 4259 4644 
10 115 224 223 1010 6060 1766 6059 6409 4233 4234 
10 197 82 83 307 6136 1617 6137 6410 1946 1947 
10 1065 14 1098 434 6411 6413 4495 6412 2324 6414 
10 580 715 1343 1337 3173 6417 6415 6416 6418 5372 
10 979 448 1108 978 6419 6420 4528 4141 6421 4529 
10 308 197 83 307 6422 6137 1949 1951 6410 1947 
10 1278 576 1222 1159 6423 6390 5193 5040 6424 4866 
10 1097 10 415 436 6425 2267 6426 6427 2328 2329 
10 1278 717 1222 576 6428 6388 5193 6423 3179 6390 
10 1254 1253 1131 617 4969 4964 4968 6429 6430 6431 
10 627 1262 628 1139 6432 6434 2912 6433 4992 6435 
10 1110 450 1109 980 6436 6437 4536 4535 6438 4531 
10 156 38 1044 376 2154 6440 6439 2152 2316 6441 
10 701 1215 1318 1319 6442 5149 6443 6444 5153 5154 
10 594 1234 1109 593 6445 4912 6446 2811 6391 6447 
10 101 100 325 212 1636 2001 2002 6039 6038 6448 
10 1292 673 674 796 6449 3042 6450 6451 3417 3418 
10 338 337 1008 113 2042 6453 6452 2040 2038 6454 
10 700 1317 1214 699 6455 5146 6456 3116 6457 6458 
10 524 1173 663 664 6459 6460 3009 3010 6461 3012 
10 1299 663 1173 664 6462 6460 5098 6463 3012 6461 
10 1243 833 1279 705 6464 6466 5043 6465 3544 6467 
10 1276 745 1435 1325 6468 6469 5514 5175 6470 5515 
10 1299 663 664 581 6462 3012 6463 6471 3495 3508 
10 1001 329 1002 1131 6472 6473 4211 4597 6474 4596 
10 445 976 1106 446 6475 4523 6476 2361 6477 6478 
10 847 1426 1500 848 6397 5753 6396 3600 6479 6480 
10 522 378 573 1046 2581 2763 2764 6481 6482 6483 
10 527 384 383 1051 2596 2177 2595 6484 6485 6486 
10 1421 838 1244 713 6487 6489 5467 6488 3560 6490 
10 330 106 1003 331 2017 6492 6491 2021 2019 6493 
10 1017 349 1147 494 6406 6407 4645 6494 2503 6495 
10 555 1099 414 435 6496 6497 2680 2679 6498 2327 
10 987 1116 986 458 4552 4553 4165 6499 6500 6501 
10 189 976 188 72 4130 4131 1730 6120 6502 6119 
10 1377 1383 876 1378 5630 6504 6503 5344 5750 6505 
10 161 406 160 267 2240 2241 1698 3966 6506 3967 
10 1264 629 630 765 6507 2918 6508 6509 3328 3329 
10 429 288 1092 1093 6510 4474 6511 6512 4478 4479 
10 1232 591 592 728 6513 2805 6514 6515 3220 3221 
10 488 1012 342 487 6516 6517 2484 2486 6518 2482 
10 747 863 1365 1384 3646 6520 6339 6519 6521 5361 
10 471 1129 1128 614 6522 4592 6523 2868 6524 6525 
10 129 354 235 353 2088 6526 6103 2086 2090 6527 
10 1166 514 515 706 6528 2564 6529 6530 3136 3137 
10 913 814 742 1423 3814 3474 3813 6531 6532 6533 
10 1154 645 1334 644 6534 6317 5202 6535 2964 6536 
10 1086 282 1087 422 4456 4460 4461 6537 6538 6539 
10 132 238 237 1024 6088 1780 6087 6540 4275 4276 
10 244 139 361 138 5986 2109 6541 5985 1675 2108 
10 462 506 361 1156 2744 2539 2408 6542 6543 6306 
10 244 1028 243 138 4287 4288 1787 5985 6544 5984 
10 1468 1382 881 1381 5641 6546 6545 5642 5356 6547 
10 506 362 1029 1158 2540 6550 6548 6549 6551 4676 
10 1218 440 292 441 6552 2342 6294 6553 2346 2344 
10 1084 172 420 419 6270 2280 6554 6555 2278 2282 
10 440 1218 292 972 6552 6294 2342 6556 4847 6296 
10 324 998 997 1127 6557 4199 6558 6559 4584 4585 
10 1524 863 862 1503 6560 3647 6561 5850 6562 6563 
10 370 148 254 149 2134 6006 6564 2135 1685 6018 
10 759 1259 623 1258 6565 6567 3310 6566 4984 6568 
10 1173 523 663 578 6569 3008 6460 6570 3146 3199 
10 1476 827 1389 1393 6571 6572 5661 5660 6573 5384 
10 371 1039 150 255 6574 6576 2138 6575 4320 6020 
10 1187 1061 1062 397 4760 4389 4759 6577 6578 6579 
10 827 1476 1389 840 6571 5661 6572 3568 6580 6581 
10 794 1397 793 895 6582 6583 3413 3749 6584 3748 
10 374 258 1041 1042 6585 4325 6586 6587 4329 4330 
10 374 258 1042 153 6585 4329 6587 2147 5992 6333 
10 910 909 1510 1417 3803 6590 6588 6589 6591 5796 
10 139 244 361 1029 5986 6541 2109 6592 4291 6307 
10 1476 1408 925 1509 5792 6594 6593 5802 5795 6595 
10 649 1223 507 1158 6596 6598 2973 6597 4895 6599 
10 1223 507 1158 1095 6598 6599 4895 4872 6600 4894 
10 1151 499 642 641 6601 2952 6602 6603 2950 2954 
10 150 151 256 372 1687 6000 6007 2140 2141 6604 
10 1067 264 158 265 4401 4020 6605 4402 1809 4003 
10 1235 596 1111 1236 6606 6607 4914 4919 6608 4918 
10 649 1331 1223 1277 6609 5195 6596 6610 5196 5038 
10 1259 1137 1260 625 4982 4986 4987 6611 6612 6613 
10 703 571 518 1170 3125 2725 3124 6614 6615 6616 
10 406 1069 405 160 6617 6618 2242 2241 6619 2237 
10 1156 506 1029 1158 6543 6548 4671 4677 6549 4676 
10 1366 1453 867 1367 5590 6621 6620 5308 5589 6622 
10 986 458 457 309 6501 2397 6623 6371 2395 2393 
10 682 651 543 1189 3066 2978 3065 6624 6625 6626 
10 1069 266 405 160 4407 6627 6618 6619 3970 2237 
10 507 1030 1158 1095 6628 4675 6599 6600 4878 4894 
10 1017 349 348 124 6406 2075 6402 6629 2073 2071 
10 921 882 1428 1498 3847 6631 6630 6356 6632 5741 
10 698 1212 1316 1213 6633 5144 6634 6635 4833 5143 
10 1223 649 1277 1158 6596 6610 5038 4895 6597 5036 
10 404 574 1068 405 2733 6637 6636 2239 2732 6638 
10 1287 1177 1288 668 5063 5066 5067 6639 6640 6641 
10 1047 1155 523 1173 4865 6643 6642 4719 4864 6569 
10 1449 1372 1373 875 5624 5326 5623 6644 6645 6646 
10 1069 406 405 546 6617 2242 6618 6647 2653 2654 
10 379 18 378 1046 6648 6650 2162 6649 4339 6482 
10 291 439 1101 971 2340 6653 6651 6652 6272 4509 
10 439 291 290 971 2340 1900 2339 6272 6652 6654 
10 995 467 322 996 6655 2422 6656 4193 6657 6658 
10 7 240 6 182 1783 6022 1838 1723 4112 6104 
10 645 822 1334 644 3503 6315 6317 2964 3525 6536 
10 535 1182 534 674 6659 6660 2621 3041 6661 3040 
10 1289 791 1288 669 6662 6664 5070 6663 3403 6665 
10 1177 668 1178 1288 6640 6666 4734 5066 6641 5065 
10 302 78 193 303 1932 6129 6667 1936 1934 6668 
10 148 253 1037 254 6005 4314 6669 6006 1797 4313 
10 305 453 983 982 2381 6672 6670 6671 6264 4153 
10 1545 888 1538 1502 6362 6673 5960 5963 6674 5906 
10 679 1187 680 540 6675 6676 3060 3056 6677 3058 
10 1341 1327 1227 716 5227 5180 5226 6678 6679 6680 
10 981 302 193 303 6681 6667 4146 6268 1936 6668 
10 450 451 980 1110 2376 6682 6438 6436 6683 4535 
10 302 77 193 78 1931 6128 6667 1932 1612 6129 
10 1003 106 330 216 6492 2017 6491 4213 6045 6684 
10 621 756 1256 620 3302 6686 6685 2891 3301 6687 
10 194 78 303 193 6130 1934 6269 1735 6129 6668 
10 910 928 1422 1510 3879 6689 6688 6588 6690 5799 
10 32 57 1060 31 1877 6691 4381 1564 1876 4382 
10 77 302 193 980 1931 6667 6128 6692 6693 4142 
10 571 703 842 1340 3125 3127 3126 6694 6695 6696 
10 588 1229 1285 724 6385 5060 6697 3209 6386 6698 
10 55 31 1059 394 1875 4378 6699 2205 6700 6701 
10 888 924 1545 956 3859 6360 6362 4000 4001 6702 
10 466 994 320 465 6703 6704 2418 2420 6705 2416 
10 957 1452 1357 1451 6706 5587 6707 6708 5588 5584 
10 765 646 1246 828 3363 6710 6709 3526 3527 6711 
10 456 984 307 455 6712 6713 2389 2391 6714 2387 
10 1229 726 1231 1352 6715 6716 4904 5267 6717 5266 
10 541 1188 1062 1187 6718 4763 6719 6720 4764 4759 
10 1084 1083 172 419 4452 6278 6270 6555 6721 2278 
10 749 865 1363 1364 3652 6724 6722 6723 6725 5299 
10 701 1215 1319 568 6442 5153 6444 3118 6726 6727 
10 384 528 1051 527 2598 6728 6485 2596 2600 6484 
10 1402 901 1403 1484 6729 6730 5414 5688 6731 5687 
10 1427 803 775 743 6732 3589 6733 6734 3708 3366 
10 1299 581 787 1340 6471 3572 6735 5236 6736 6737 
10 1388 1391 740 1280 5379 6739 6738 5370 5378 6740 
10 981 194 303 193 4145 6269 6268 4146 1735 6668 
10 142 143 248 432 1679 6011 6010 2317 2318 6741 
10 373 517 518 1169 2569 2573 2571 6742 6743 6744 
10 401 62 400 36 2226 2224 2228 6320 1891 6321 
10 888 924 837 1517 3859 3860 3729 6363 6361 6745 
10 398 1188 542 1063 6746 6748 2640 6747 4762 6749 
10 1168 517 1283 656 6750 6752 5053 6751 2990 6753 
10 1157 508 1223 1095 6754 6755 4871 4674 6756 4872 
10 1001 214 328 1000 4207 6758 6757 4208 4203 6759 
10 1261 763 1262 1375 6760 6761 4993 5331 6762 5330 
10 733 1355 1356 1236 6763 5278 6764 6765 5273 5277 
10 1523 937 953 1524 6766 4061 6767 5849 6768 6769 
10 412 1076 553 1202 6770 6772 2674 6771 4802 6773 
10 1138 483 625 1137 6774 2902 6775 4619 6776 6612 
10 929 912 1528 947 3884 6778 6777 4017 3947 6779 
10 371 255 149 1038 6575 6019 2137 6780 4316 6781 
10 330 1003 216 1002 6491 4213 6684 6782 4214 4209 
10 945 1468 1467 1506 6783 5643 6784 6785 5787 5827 
10 1075 412 1202 1076 6786 6771 4801 4430 6770 4802 
10 475 474 617 1131 2447 2877 2878 6399 6787 6431 
10 968 967 1514 914 4082 6789 6788 4080 4072 6790 
10 1182 673 534 674 6791 3038 6660 6661 3042 3040 
10 330 1003 1002 476 6491 4214 6782 2448 6792 6793 
10 1309 687 805 688 6794 3448 6795 6796 3083 3447 
10 1444 908 1517 837 6797 6799 5830 6798 3795 6745 
10 1014 1144 490 345 4636 6802 6800 6801 6803 2491 
10 1424 1232 1233 728 5474 4910 5473 6804 6515 6805 
10 1347 774 1441 1328 6806 6807 5542 5248 6808 5570 
10 373 517 1040 372 2569 6810 6809 2145 2568 6811 
10 1013 343 226 119 6812 6814 4243 6813 2056 6065 
10 1462 943 1532 1461 6815 6816 5891 5616 6817 5881 
10 1350 1321 691 1447 5259 6819 6818 5581 5567 6820 
10 1324 1321 1447 691 5171 5567 5568 6821 6819 6820 
10 1350 719 691 1321 6822 3188 6818 5259 6823 6819 
10 1333 844 828 710 6824 3586 6825 6276 3583 3528 
10 1324 557 1321 691 6826 6827 5171 6821 3089 6819 
10 785 808 691 1447 3458 3456 3388 6828 6829 6820 
10 854 1355 1489 1488 6830 5704 6831 6832 5702 5706 
10 882 926 1476 1498 3990 6834 6833 6632 6835 5880 
10 241 315 136 1026 6836 1972 5980 4283 6837 6838 
10 1306 1199 549 685 5116 6841 6839 6840 6842 3073 
10 882 921 1428 779 3847 6630 6631 3709 3846 6843 
10 882 779 1428 1455 3709 6843 6631 6844 6845 5594 
10 1027 556 360 1119 6846 2682 6847 4874 6848 6849 
10 1044 573 1045 1043 6850 6851 4717 4335 6852 4716 
10 825 1351 776 652 6853 6854 3516 3515 6855 3368 
10 1234 593 1233 1109 6391 6393 4913 4912 6447 4908 
10 703 571 1170 1340 3125 6615 6614 6695 6694 5224 
10 877 810 906 1433 3789 3788 3790 6856 6857 6858 
10 447 978 298 977 6859 6861 2362 6860 4138 6862 
10 319 994 465 320 6863 6705 2415 1988 6704 2416 
10 1417 1316 817 1418 5455 6865 6864 5458 5456 6866 
10 159 404 158 265 2234 2235 1696 4002 6867 4003 
10 715 811 1444 837 3463 6869 6868 3557 3571 6798 
10 365 572 366 1033 2726 2727 2124 6870 6871 6872 
10 1027 556 431 360 6846 2681 6873 6847 2682 2337 
10 552 412 553 1202 2670 2674 2675 6874 6771 6773 
10 1009 485 339 1010 6875 2475 6876 4235 6877 6878 
10 1418 1316 817 1315 5456 6865 6866 5457 5145 6879 
10 1038 371 1167 515 6780 6881 4700 6880 2563 6882 
10 1346 1205 509 1224 5244 6884 6883 5245 4892 6885 
10 836 786 1487 809 3554 6887 6886 3555 3553 6888 
10 1072 1198 408 1071 4790 6890 6889 4418 4789 6891 
10 1234 594 1109 1110 6445 6446 4912 4911 6892 4536 
10 1465 877 906 1433 6893 3790 6894 5808 6856 6858 
10 1002 216 105 215 4209 6096 6895 4210 1758 6095 
10 1437 715 1343 1444 6896 6417 5527 5771 6868 5553 
10 780 860 1508 1495 3638 6899 6897 6898 6900 5790 
10 747 748 612 1250 3279 3277 3275 6340 6338 6901 
10 783 1405 807 777 6902 6903 3455 3637 6904 3821 
10 1450 934 853 1489 6905 3898 6906 5737 6907 6908 
10 896 796 795 1398 3754 3419 3752 6909 6910 6325 
10 566 426 425 1090 2709 2300 2708 6911 6912 6913 
10 932 1450 852 1507 6914 6916 3893 6915 5783 6917 
10 1309 687 1201 1308 6794 6918 5124 5126 6919 5122 
10 68 973 185 292 6920 4122 6113 1902 6295 6921 
10 1199 550 549 685 6922 2666 6841 6842 3072 3073 
10 404 1067 403 158 6923 6924 2236 2235 6605 2231 
10 973 1218 292 441 4846 6294 6295 6925 6553 2344 
10 1245 1101 606 1102 4942 6927 6926 4943 4513 6928 
10 852 1450 932 933 6916 6914 3893 3895 6929 3897 
10 314 989 990 202 6930 4174 6931 6932 4169 4173 
10 984 82 196 197 6933 6135 4155 4154 6136 1738 
10 379 522 1047 1046 2582 6935 6934 6649 6481 4344 
10 1061 396 1060 32 6936 6937 4386 4385 6938 4381 
10 194 79 80 304 6152 1614 6131 6939 1937 1938 
10 1410 1306 683 685 5433 6942 6940 6941 6840 3074 
10 610 1126 611 468 6943 6944 2861 2857 6945 2859 
10 1479 863 1503 1384 6946 6562 5767 5673 6521 5765 
10 998 470 325 471 6947 2431 6948 6949 2435 2433 
10 1350 808 824 1457 6950 3513 6951 5599 6952 6953 
10 1267 1278 708 1268 5261 6955 6954 5011 5335 6956 
10 203 5 241 315 1745 1784 4175 6957 6958 6836 
10 109 1005 218 333 6959 4219 6049 2026 6960 6961 
10 1498 1501 1543 969 5945 5944 5936 6355 6962 6963 
10 1058 30 54 29 4375 1873 6964 4376 1562 1872 
10 5 203 90 315 1745 6106 6105 6958 6957 1970 
10 470 998 325 324 6947 6948 2431 2430 6557 2003 
10 871 943 959 1462 3934 4024 4007 6965 6815 6966 
10 1269 636 823 1268 6967 3506 6968 5014 6969 6970 
10 954 1485 1484 1524 6971 5692 6972 6973 5847 5848 
10 508 1157 364 1095 6754 6974 2545 6756 4674 6975 
10 873 909 1464 955 3961 6977 6976 3992 3993 6978 
10 975 296 444 295 6979 2354 6980 6981 1915 2353 
10 635 1146 1145 1268 6982 4643 6983 6984 5009 5010 
10 202 314 313 89 6932 1969 6985 6147 1967 1965 
10 1405 777 812 807 6904 3531 6986 6903 3821 3822 
10 635 1146 1268 636 6982 5009 6984 2936 6987 6969 
10 519 654 1162 570 2986 6989 6988 2757 2985 6990 
10 825 948 1469 1436 3953 6993 6991 6992 6994 5645 
10 838 904 889 1511 3861 3781 3869 6995 6996 6997 
10 231 349 1018 1017 6998 6408 4258 4254 6406 4259 
10 221 337 1007 336 6999 7001 4224 7000 2039 7002 
10 1259 624 625 760 7003 2903 6611 7004 3313 3314 
10 428 1216 1217 1092 7005 4845 7006 7007 4840 4844 
10 481 480 623 1136 2465 2895 2896 7008 7009 7010 
10 1485 902 1484 1403 7011 7012 5692 5691 7013 5687 
10 489 1143 1142 631 7014 4634 7015 2920 7016 7017 
10 759 624 1259 760 3311 7003 6565 3315 3313 7004 
10 973 68 186 293 6920 6114 4121 6300 1904 6301 
10 338 483 1008 337 2470 7018 6452 2042 2469 6453 
10 1306 1199 685 1307 5116 6842 6840 5120 5118 7019 
10 1205 416 575 509 7020 2735 7021 6884 2548 2750 
10 1259 624 623 1136 7003 2900 6567 4983 7022 7010 
10 1292 673 796 795 6449 3417 6451 7023 3415 3419 
10 1199 550 685 1307 6922 3072 6842 5118 7024 7019 
10 1399 1292 796 1398 5401 6451 7025 5402 5397 6910 
10 1287 789 1396 1443 7026 7027 5392 5547 7028 5546 
10 578 1173 1161 663 6570 4952 7029 3199 6460 7030 
10 1078 1077 554 414 4436 7033 7031 7032 7034 2676 
10 57 396 32 1060 2211 6938 1877 6691 6937 4381 
10 1022 235 353 1021 4270 6527 7035 4271 4266 7036 
10 1523 952 953 968 7037 3983 6767 7038 4104 4099 
10 349 231 125 124 6998 6075 2074 2073 6074 1660 
10 687 1309 552 688 6794 7039 3078 3083 6796 3082 
10 1446 786 1345 1406 7040 7041 5566 5565 7042 5422 
10 1322 783 1431 1362 7043 7044 5557 5736 7045 5497 
10 673 1292 1291 795 6449 5079 7046 3415 7023 6323 
10 666 1287 1176 1326 7047 5064 7048 6380 5179 5176 
10 231 349 1017 124 6998 6406 4254 6074 2073 6629 
10 786 1446 1345 719 7040 5566 7041 3389 7049 7050 
10 239 134 358 133 6091 2101 7051 6090 1669 2100 
10 973 68 185 186 6920 6113 4122 4121 6114 1727 
10 1517 1437 1444 837 5831 5771 5830 6745 7052 6798 
10 1025 503 504 1102 7053 2534 7054 4512 7055 6273 
10 239 970 1025 359 4484 4506 4278 7056 7057 7058 
10 134 239 358 359 6091 7051 2101 2103 7056 2105 
10 1166 1038 1167 515 4696 4700 4701 6529 6880 6882 
10 640 1150 641 498 7059 7060 2951 2947 7061 2949 
10 347 229 346 1016 7062 7064 2069 7063 4252 7065 
10 869 753 1367 1368 3666 7068 7066 7067 7069 5311 
10 1039 1168 1167 516 4703 4704 4699 7070 7071 7072 
10 347 229 1016 123 7062 4252 7063 2068 6071 7073 
10 370 371 1038 515 2139 6780 7074 2562 2563 6880 
10 1168 516 1280 1167 7071 7075 5044 4704 7072 5045 
10 686 1308 1307 1200 7076 5123 7077 7078 5121 5119 
10 1174 525 664 524 7079 3011 7080 7081 2591 3010 
10 22 46 384 45 1858 2176 7082 1888 1579 2175 
10 1226 580 1343 1337 7083 6415 5234 5215 6416 5372 
10 352 128 234 1021 2083 6081 7084 7085 7086 4267 
10 525 381 1048 1049 2589 7089 7087 7088 7090 4350 
10 1097 10 436 1093 6425 2328 6427 4503 7091 7092 
10 1099 579 1227 1192 7093 7094 4891 4773 7095 4893 
10 569 1320 1216 568 7096 5156 7097 2719 7098 7099 
10 374 1042 1170 571 6587 4708 7100 2723 7101 6615 
10 811 1335 1444 1433 7102 5552 6869 7103 5509 5554 
10 1170 1041 518 1169 4709 7104 6616 4710 4705 6744 
10 1058 54 392 29 6964 2200 7105 4376 1872 7106 
10 416 169 9 1080 2270 6208 7107 7108 7109 4440 
10 393 1058 54 392 7110 6964 2202 2204 7105 2200 
10 393 536 1058 392 2623 7111 7110 2204 2622 7105 
10 780 813 702 1420 3471 3469 3377 7112 7113 7114 
10 977 976 446 1106 4135 6477 7115 4522 4523 6478 
10 1193 1067 1066 403 4776 4403 4775 7116 6924 7117 
10 544 1067 1193 403 7118 4776 7119 2648 6924 7116 
10 948 1456 1436 919 7120 5666 6994 3951 7121 7122 
10 1098 14 1065 15 6413 6411 4495 4494 1839 4396 
10 539 1185 678 1186 7123 7125 3053 7124 4758 7126 
10 521 1097 1225 1172 7127 4880 7128 7129 4715 4883 
10 1011 486 1140 1010 6288 7130 4623 4238 7131 4624 
10 1152 1023 501 500 4659 7133 7132 6326 7134 2525 
10 535 1182 675 1183 6659 7136 3043 7135 4749 7137 
10 701 1419 1420 1319 7138 5463 7139 6444 5459 5462 
10 1039 371 1167 1038 6574 6881 4699 4321 6780 4700 
10 538 1185 1059 537 7140 4754 7141 2630 6308 6310 
10 984 1113 983 455 4543 4544 4156 6714 7142 7143 
10 555 1078 414 1099 7144 7032 2680 6496 4497 6497 
10 1077 554 413 1203 7033 2677 7145 4805 7146 7147 
10 10 13 11 415 6235 1821 1841 2267 7148 7149 
10 275 13 12 414 1820 1842 6236 7150 7151 2264 
10 497 1149 640 1150 7152 7154 2946 7153 4655 7059 
10 1419 701 1420 780 7138 7139 5463 7155 3376 7112 
10 519 654 1332 1162 2986 7157 7156 6988 6989 5210 
10 363 1030 1095 246 7158 4878 7159 7160 4293 4487 
10 698 565 1213 699 3109 7161 6635 3113 3111 7162 
10 1089 1088 565 1213 4467 7164 7163 4831 4832 7161 
10 843 841 826 1392 3582 3816 3832 7165 7166 7167 
10 566 1089 425 565 7168 7169 2708 2710 7163 2706 
10 1166 1281 1282 706 5047 5051 5049 6530 7170 7171 
10 1025 359 504 358 7058 2533 7054 7172 2105 2532 
10 1126 468 1125 996 6945 7173 4583 4582 7174 4578 
10 1350 719 1321 1345 6822 6823 5259 5258 7050 5257 
10 851 1424 850 1513 7175 7177 3609 7176 5814 7178 
10 841 662 1431 1282 3573 7181 7179 7180 7182 5551 
10 753 869 1367 868 3666 7066 7068 3664 3668 7183 
10 302 450 980 301 2372 6438 6693 1933 2371 7184 
10 1397 896 1398 1477 7185 6909 5399 5664 7186 5663 
10 1470 961 1500 848 7187 7189 5754 7188 4049 6480 
10 473 1001 1130 474 7190 4593 7191 2444 7192 7193 
10 1300 690 1341 1227 7194 7195 5241 5101 7196 5226 
10 662 841 706 1282 3573 3574 3139 7182 7180 7171 
10 488 631 1142 630 2919 7017 7197 2917 2921 7198 
10 1281 706 843 1392 7170 3579 7199 5380 7200 7165 
10 382 44 43 21 2170 1577 2169 6297 1856 1855 
10 1232 1231 1107 590 4907 4902 4906 7201 7202 7203 
10 814 913 1442 1423 3814 7205 7204 6532 6531 5545 
10 621 757 622 1257 3304 3305 2894 7206 7207 7208 
10 445 588 589 1105 2792 2796 2794 7209 7210 7211 
10 461 989 988 1118 7212 4171 7213 7214 4558 4559 
10 1204 605 554 689 7215 2843 7216 7217 3187 3084 
10 913 814 1442 917 3814 7204 7205 3854 3874 7218 
10 1148 495 1018 350 7219 7221 4648 7220 2506 7222 
10 913 1374 1442 1423 7223 5748 7205 6531 5626 5545 
10 242 137 431 136 5982 2315 7224 5981 1673 2314 
10 469 997 323 1126 7225 7227 2427 7226 4581 7228 
10 195 194 80 304 1736 6131 6132 7229 6939 1938 
10 1245 1218 1330 584 5250 5192 5388 7230 7231 7232 
10 665 526 1175 666 3014 7234 7233 3018 3016 7235 
10 1240 737 1239 601 6357 7236 4931 6359 3248 7237 
10 1374 913 1442 917 7223 7205 5748 7238 3854 7218 
10 760 761 625 1260 3318 3316 3314 7239 7240 6613 
10 1209 695 1313 694 7241 6364 5137 7242 3101 7243 
10 601 1115 457 600 7244 7245 2830 2832 7246 2828 
10 682 1248 651 1189 7247 7248 3066 6624 4951 6625 
10 484 338 1009 339 2472 7250 7249 2473 2045 6876 
10 82 984 306 307 6933 7251 1944 1946 6713 1948 
10 503 1025 504 358 7053 7054 2534 2530 7172 2532 
10 385 528 1051 384 2599 6728 7252 2180 2598 6485 
10 761 1374 1373 917 7253 5329 7254 3831 7238 7255 
10 548 547 1197 707 2660 7257 7256 3140 3141 7258 
10 370 148 1037 254 2134 6669 7259 6564 6006 4313 
10 308 456 457 985 2390 2394 2392 7260 7261 7262 
10 1276 610 1126 611 7263 6943 5033 7264 2861 6944 
10 181 288 287 1092 6232 1834 6233 7265 4474 4475 
10 1266 632 633 721 7266 2927 7267 7268 3334 3335 
10 324 99 323 997 1998 1996 2000 6558 7269 7227 
10 373 1041 1040 1169 7270 4327 6809 6742 4705 4706 
10 335 110 334 1006 2031 2029 2033 7271 7272 7273 
10 1135 1006 480 334 4608 7276 7274 7275 7273 2460 
10 109 110 219 334 1645 6051 6050 2028 2029 7277 
10 313 989 202 201 7278 4169 6985 7279 4170 1743 
10 278 419 172 1083 7280 2278 6216 4448 6721 6278 
10 1453 1366 867 1458 5590 6620 6621 5604 5601 7281 
10 1430 1331 741 1497 5496 7283 7282 5627 5883 7284 
10 720 1438 839 1338 7285 7287 3565 7286 5531 7288 
10 808 1457 859 824 6952 7289 3634 3513 6953 3635 
10 1237 1113 598 597 4920 7292 7290 7291 7293 2823 
10 541 1187 1062 397 6720 4759 6719 2637 6577 6579 
10 909 1464 1510 1417 6977 5797 6590 6591 5719 5796 
10 635 708 823 1268 3336 3504 3505 6984 6956 6970 
10 860 1495 1532 1508 6900 5877 7294 6899 5790 5919 
10 110 1006 219 334 7272 4222 6051 2029 7273 7277 
10 761 913 762 1374 3815 3812 3321 7253 7223 7295 
10 1534 1545 1539 956 5961 5962 5949 7296 6702 7297 
10 1253 753 1367 752 7298 7068 5307 7299 3294 7300 
10 26 389 388 50 6304 2192 7301 1866 2190 2188 
10 871 959 872 1462 4007 4008 3677 6965 6966 7302 
10 1165 1036 369 513 4695 7305 7303 7304 7306 2558 
10 1041 373 518 1169 7270 2571 7104 4705 6742 6744 
10 1267 635 1145 1268 7307 6983 5006 5011 6984 5010 
10 882 1476 1455 1498 6833 5865 6844 6632 5880 5740 
10 1275 643 1153 644 7308 7310 5030 7309 2960 7311 
10 643 1152 1275 1153 6327 5031 7308 7310 4664 5030 
10 1146 494 1147 636 7312 6495 4646 6987 2935 7313 
10 63 316 91 37 2313 1975 1974 1887 7314 7315 
10 874 1371 873 1464 7316 7318 3683 7317 5621 6976 
10 1245 822 645 604 6314 3503 6316 7319 3500 3262 
10 852 1353 730 729 7320 7321 3611 3610 7322 3228 
10 874 1372 1371 1464 7323 5323 7316 7317 5620 5621 
10 448 979 300 978 6419 7324 2366 6421 4141 7325 
10 519 1162 1032 432 6988 4684 7326 2574 7327 7328 
10 364 1031 570 432 7329 7330 2720 2538 7331 2721 
10 582 1094 430 438 7332 7333 2772 2771 7334 2334 
10 1074 1200 410 1073 4796 7336 7335 4424 4795 7337 
10 287 286 427 1091 1833 7339 7338 4471 4472 7340 
10 1371 1463 873 1464 5617 7341 7318 5621 5622 6976 
10 291 184 972 67 7342 4119 7343 1899 6111 7344 
10 1076 1203 553 1202 4804 7345 6772 4802 4806 6773 
10 495 349 1018 350 2505 6408 7221 2506 2078 7222 
10 470 998 324 1127 6947 6557 2430 7346 4584 6559 
10 1438 969 1498 1543 6353 6355 5742 5928 6963 5936 
10 561 1210 695 562 7347 6381 3099 2698 6352 3100 
10 1299 663 581 1161 6462 3495 6471 5099 7030 7348 
10 35 60 1063 34 1883 7349 4390 1567 1882 4391 
10 524 1174 1048 1173 7081 4721 7350 6459 4722 4718 
10 381 524 1048 380 2587 7350 7089 2168 2586 7351 
10 1047 1173 523 1048 4719 6569 6642 4347 4718 7352 
10 1284 782 1395 1475 7353 7354 5390 5525 7355 5526 
10 1292 796 674 1293 6451 3418 6450 5082 7356 7357 
10 451 1111 1110 595 7358 4539 6683 2812 7359 7360 
10 27 52 390 51 1868 2194 6312 1889 1585 2193 
10 959 1463 872 1462 6382 6384 4008 6966 5619 7302 
10 368 1036 369 147 7361 7305 2133 2129 7362 2131 
10 978 447 1107 977 6859 7363 4525 4138 6860 4526 
10 902 802 1404 903 3773 7365 7364 3778 3775 7366 
10 1182 535 534 1057 6659 2621 6660 4744 7367 7368 
10 1056 1182 534 1057 4745 6660 7369 4374 4744 7368 
10 535 392 1057 1183 2620 7370 7367 7135 7371 4748 
10 269 162 1071 408 3918 7373 4414 7372 2247 6891 
10 1292 1399 796 1293 5401 7025 6451 5082 5400 7356 
10 1351 1437 1502 776 5529 5763 5761 6854 7374 7375 
10 1036 368 369 513 7361 2133 7305 7306 2557 2558 
10 1451 965 1505 1488 7376 7377 5773 5703 7378 5774 
10 1438 969 1543 922 6353 6963 5928 7379 4105 7380 
10 1072 1199 409 549 4792 7383 7381 7382 6841 2661 
10 1160 519 1162 1032 7384 6988 4687 4681 7326 4684 
10 1207 558 1081 1220 7385 7386 4814 4856 7387 4855 
10 1196 1069 546 406 4783 6647 7388 7389 6617 2653 
10 357 1025 358 238 7390 7172 2102 7391 4279 7392 
10 159 266 1068 265 3971 4405 7393 4002 1810 4404 
10 581 571 1340 1161 2766 6694 6736 7348 7394 5223 
10 1071 1198 548 1197 4789 7396 7395 4787 4791 7256 
10 414 13 12 435 7151 1842 2264 2327 7397 2326 
10 794 1397 1290 793 6582 5395 7398 3413 6583 7399 
10 1538 915 1469 1502 7400 7401 5901 5906 7402 5762 
10 1171 429 436 557 7403 2332 7404 7405 2683 2684 
10 296 976 975 444 7406 4132 6979 2354 7407 6980 
10 429 10 1093 436 2308 7091 6512 2332 2328 7092 
10 913 1375 742 762 7408 7409 3813 3812 7410 3687 
10 836 786 1486 1487 3554 7412 7411 6886 6887 5697 
10 859 1540 1472 905 7413 5908 7414 3784 7415 7416 
10 743 744 1247 1429 3267 7419 7417 7418 7420 5491 
10 973 442 293 974 7421 2347 6300 4126 7422 6302 
10 638 1270 1148 637 7423 5015 7424 2942 7425 7426 
10 775 1248 607 651 7427 7428 3365 3364 7248 3186 
10 1391 781 1448 1494 7429 7430 5574 5723 7431 5722 
10 546 1069 1195 405 6647 4781 7432 2654 6618 7433 
10 831 1410 1411 1491 7434 5437 7435 7436 5710 5711 
10 427 428 287 1091 2306 7437 7338 7340 7438 4471 
10 700 1215 567 1214 7439 7440 3115 6456 4839 7441 
10 142 1031 364 432 7442 7329 2118 2317 7331 2538 
10 450 594 1109 593 2809 6446 6437 2807 2811 6447 
10 321 209 208 995 7443 1751 7444 7445 4188 4189 
10 862 1384 1435 1503 7446 5513 7447 6563 5765 5766 
10 470 613 1127 612 2865 7448 7346 2863 2867 7449 
10 1528 1531 947 1530 5971 7450 6779 5975 5875 7451 
10 1083 560 1084 1208 7452 7453 4452 4818 7454 4817 
10 690 579 716 1227 3087 3175 3176 7196 7094 6680 
10 1476 1408 1389 840 5792 5428 5661 6580 7455 6581 
10 858 737 736 1359 3632 3249 3631 7456 7457 7458 
10 1358 858 1359 1497 7459 7456 5287 5739 7460 5738 
10 525 381 524 1048 2589 2587 2591 7087 7089 7350 
10 978 448 1107 447 6421 7461 4525 6859 2367 7363 
10 1493 1413 1412 804 5717 5443 5716 7462 7463 7464 
10 287 428 427 180 7437 2306 7338 6234 2304 2302 
10 1347 1193 545 718 5247 7467 7465 7466 7468 3183 
10 860 907 813 1508 3794 3791 3639 6899 7469 7470 
10 907 1504 813 1508 7471 7472 3791 7469 5791 7470 
10 693 742 694 1314 3260 3261 3098 7473 7474 7475 
10 1386 1232 728 727 5365 6515 7476 7477 7478 3222 
10 1515 907 860 1508 7479 3794 7480 5931 7469 6899 
10 627 484 626 1139 2907 2905 2909 6433 7481 7482 
10 153 154 259 1096 1690 5994 5993 6335 7483 4488 
10 1515 1504 907 1508 5930 7471 7479 5931 5791 7469 
10 310 987 199 986 7484 4164 7485 7486 4165 4160 
10 1243 1405 653 1322 5521 7488 7487 5162 5559 7489 
10 1388 1280 740 655 5370 6740 6738 7490 7491 3256 
10 1017 230 348 1016 4255 7492 6402 4256 4251 6403 
10 1267 577 708 1278 7493 3145 6954 5261 7494 6955 
10 982 303 194 304 6267 6269 4149 7495 1939 6939 
10 1232 591 727 590 6513 3218 7478 7201 2802 3217 
10 1424 1507 1513 851 5785 5816 5814 7175 7496 7176 
10 52 53 28 391 1586 1870 1869 2196 2197 7497 
10 932 931 1513 851 3894 7499 7498 3892 3889 7176 
10 53 1057 28 391 7500 4373 1870 2197 7501 7497 
10 1496 923 928 820 7502 4019 7503 7504 3851 3881 
10 1193 544 545 718 7119 2652 7467 7468 3182 3183 
10 671 794 1290 793 3411 7398 7505 3409 3413 7399 
10 1053 24 386 1052 4361 7507 7506 4362 4357 7508 
10 550 686 685 1307 3076 3077 3072 7024 7077 7019 
10 928 1496 1510 1527 7503 5804 6690 7509 5862 5859 
10 1003 217 331 106 4212 7510 6493 6492 6046 2019 
10 1003 1132 1002 476 4599 4600 4214 6792 7511 6793 
10 613 748 1250 612 3278 6338 7512 2867 3277 6901 
10 660 1328 718 544 7513 7514 3202 3000 7515 3182 
10 946 947 949 1530 4014 4086 4036 7516 7451 7517 
10 310 458 986 309 2396 6501 7486 1957 2395 6371 
10 14 263 402 1065 4026 7518 2230 6411 4397 6291 
10 263 15 1065 14 1807 4396 4397 4026 1839 6411 
10 1385 893 1473 920 7519 7521 5655 7520 4030 7522 
10 1471 946 1530 1536 7523 7516 5872 5916 7524 5934 
10 96 208 95 320 6033 6032 1631 1987 7525 1986 
10 797 898 798 1400 3760 3761 3425 7526 7527 7528 
10 40 378 17 39 2158 7529 1848 1573 2157 1847 
10 1094 14 9 430 7530 6207 4480 7333 2310 7531 
10 634 1144 1266 1267 7532 5003 7533 7534 5007 5008 
10 1144 1143 633 1266 4637 7536 7535 5003 5004 7267 
10 1107 447 446 977 7363 2364 7537 4526 6860 7115 
10 1072 269 408 163 4416 7372 6889 7538 3917 2246 
10 1261 763 1375 762 6760 6762 5331 7539 3324 7410 
10 1313 814 815 1442 7540 3477 6365 5544 7204 7541 
10 910 819 1417 1422 3802 7542 6589 6688 7543 5564 
10 1286 1407 788 1326 5423 7545 7544 5178 5425 6379 
10 1346 1266 1224 721 5506 5464 5245 7546 7268 7547 
10 1309 687 1413 805 6794 7548 5442 6795 3448 7549 
10 572 1160 519 714 7550 7384 2729 3195 7551 3171 
10 1086 1085 281 421 4458 4453 4457 7552 7553 7554 
10 85 310 199 309 1955 7485 6140 1953 1957 7555 
10 1451 965 1488 936 7376 7378 5703 7556 4108 7557 
10 821 1434 911 1445 7558 7560 3805 7559 5764 6373 
10 459 460 311 988 2403 2401 2399 7561 7562 7563 
10 1245 604 645 606 7319 3262 6316 6926 2846 2963 
10 761 760 1373 1260 3318 7564 7254 7240 7239 5324 
10 440 291 1101 972 2341 6651 7565 6556 7343 4508 
10 1328 1193 1347 718 5183 5247 5248 7514 7468 7466 
10 1023 356 1024 1153 7566 7567 4277 4663 7568 4662 
10 101 999 212 325 7569 4201 6039 2002 7570 6448 
10 832 948 1436 919 3952 6994 7571 3842 3951 7122 
10 1275 1153 1334 644 5030 5203 5204 7309 7311 6536 
10 51 27 50 389 1889 1867 1584 2191 6303 2190 
10 472 1129 999 471 7572 4591 7573 2438 6522 7574 
10 1167 1281 515 655 5046 7576 6882 7575 7577 2987 
10 471 613 614 1128 2866 2870 2868 6523 7578 6525 
10 430 1094 14 438 7333 7530 2310 2334 7334 2333 
10 626 1138 625 1260 7579 6775 2906 7580 4985 6613 
10 1391 781 656 1283 7429 3378 7581 5377 7582 6753 
10 1328 544 1193 718 7515 7119 5183 7514 3182 7468 
10 1177 1287 1176 667 5063 5064 4731 7583 7584 7585 
10 1165 514 369 1037 7586 2560 7303 4694 7587 7588 
10 538 1185 537 677 7140 6308 2630 3050 7589 3049 
10 528 1177 1176 667 7590 4731 7591 3020 7583 7585 
10 1287 1177 668 667 5063 6640 6639 7584 7583 3024 
10 1177 528 668 667 7590 3022 6640 7583 3020 3024 
10 1435 1485 1429 861 5755 5734 5632 7592 7593 7594 
10 59 398 1062 397 2217 7596 7595 2215 2219 6579 
10 1188 1298 681 1344 5095 7598 7597 5238 5239 7599 
10 1028 360 1027 243 7600 6847 4289 4288 7601 4284 
10 554 1203 553 413 7146 7345 2678 2677 7147 2673 
10 539 1061 1060 1186 7602 4386 7603 7124 4756 4757 
10 871 1369 870 1461 7604 7606 3674 7605 5611 7607 
10 800 1402 901 801 7608 6729 3769 3434 7609 3770 
10 1297 679 1296 1186 7610 7611 5094 5093 7612 5089 
10 940 1520 939 967 7613 7614 3920 4071 7615 4092 
10 1182 675 1183 1293 7136 7137 4749 5081 7616 5080 
10 1402 801 1296 1403 7609 7617 5409 5414 7618 5413 
10 679 678 1296 1186 3057 7619 7611 7612 7126 5089 
10 71 296 72 188 1913 1914 1606 6118 7620 6119 
10 885 836 1487 809 3866 6886 7621 3718 3555 6888 
10 913 1375 762 1374 7408 7410 3812 7223 5332 7295 
10 987 459 1116 458 7622 7623 4552 6499 2400 6500 
10 689 1204 1312 1311 7217 5133 7624 7625 5131 5135 
10 1456 948 966 919 7120 4069 7626 7121 3951 4068 
10 1416 1311 812 1312 5450 7628 7627 5451 5135 7629 
10 1077 274 413 168 4431 7631 7145 7630 3538 2261 
10 748 1364 865 749 7632 6725 3651 3282 6723 3652 
10 1541 940 859 1526 7633 3938 7634 5973 7635 7636 
10 525 1175 382 1049 7637 7638 2590 7088 4724 7639 
10 1171 583 1225 1321 7640 7641 4881 5159 7642 5158 
10 62 400 36 61 2224 6321 1891 1595 2223 1885 
10 1077 414 168 413 7034 2265 7630 7145 2266 2261 
10 552 1201 551 411 7643 7644 2672 2671 7645 2667 
10 943 871 1461 1462 3934 7605 6817 6815 6965 5616 
10 414 275 168 12 7150 4035 2265 2264 6236 1706 
10 995 208 320 994 4189 7525 7646 4190 4185 6704 
10 1077 1204 554 1203 4807 7216 7033 4805 4809 7146 
10 1077 414 413 554 7034 2266 7145 7033 2676 2677 
10 1424 728 729 851 6804 3225 7647 7175 3607 3608 
10 1077 274 1076 413 4431 4429 4433 7145 7631 7648 
10 909 910 1510 955 3803 6588 6590 3993 3994 7649 
10 1317 700 1214 1318 6455 6456 5146 5151 7650 5150 
10 1276 1435 746 1384 5514 7652 7651 5360 5513 7653 
10 701 1419 1318 820 7138 5460 6443 3491 7654 7655 
10 566 700 1214 699 3114 6456 7656 3112 3116 6458 
10 563 423 1087 564 2700 7658 7657 2704 2702 7659 
10 1118 603 1117 460 7660 7662 4560 7661 2837 7663 
10 1072 549 408 1198 7382 2662 6889 4790 7664 6890 
10 547 1196 684 546 7665 7666 3070 2657 7388 3071 
10 1148 495 350 496 7219 2506 7220 7667 2510 2508 
10 742 1375 763 762 7409 6762 3688 3687 7410 3324 
10 461 313 312 989 2405 1966 2404 7212 7278 7668 
10 1119 461 556 711 7669 3155 6848 7670 3154 3158 
10 274 167 1076 413 3539 7671 4429 7631 2262 7648 
10 314 989 202 313 6930 4169 6932 1969 7278 6985 
10 852 933 853 1450 3895 3896 3615 6916 6929 6906 
10 1023 1152 501 1153 4659 7132 7133 4663 4664 7672 
10 1240 602 738 601 7673 3251 6358 6359 2835 3250 
10 698 1212 564 697 6633 7674 3108 3110 7675 3106 
10 434 1065 402 520 6412 6291 2323 2577 7676 2576 
10 1212 563 564 697 7677 2704 7674 7675 3105 3106 
10 1347 774 832 1441 6806 3540 7678 5542 6807 7679 
10 1072 1199 1073 409 4792 4793 4421 7381 7383 7680 
10 140 362 245 139 2112 7681 5988 1676 2111 5987 
10 1353 1424 729 851 5476 7647 7322 7682 7175 3608 
10 852 1353 729 851 7320 7322 3610 3612 7682 3608 
10 508 1223 1095 507 6755 4872 6756 2546 6598 6600 
10 1230 585 1103 586 7683 7685 4901 7684 2787 7686 
10 1525 935 1489 1488 7687 7688 5852 5851 7689 5706 
10 1320 569 659 702 7096 2997 7690 7691 3121 3122 
10 887 1430 741 1497 7692 7282 3724 7693 5627 7284 
10 1357 857 856 735 7694 3630 7695 7696 3628 3625 
10 594 451 1110 595 2810 6683 6892 2814 2812 7360 
10 976 297 296 72 7697 1918 7406 6502 1916 1914 
10 407 1071 408 548 7698 6891 2248 2659 7395 2658 
10 648 739 1242 711 3511 7700 7699 3185 3530 7701 
10 599 1113 598 1238 7702 7292 2826 7703 4924 7704 
10 533 1180 532 672 7705 6349 2615 3035 6281 3034 
10 319 1121 465 994 7706 7707 2415 6863 4566 6705 
10 1099 414 13 1078 6497 7151 4498 4497 7032 4435 
10 758 1371 757 873 7708 7709 3309 3679 7318 3678 
10 13 414 1099 435 7151 6497 4498 7397 2327 6498 
10 1061 1187 540 397 4760 6677 7710 6578 6577 2635 
10 1391 1474 1388 740 5657 5658 5379 6739 7711 6738 
10 1020 233 234 127 4264 1776 4263 7712 6079 6080 
10 902 1485 954 861 7011 6971 3985 3984 7593 3986 
10 505 1064 400 543 7713 6319 2646 2755 7714 2644 
10 409 1072 408 163 7381 6889 2251 2250 7538 2246 
10 230 1017 348 124 4255 6402 7492 6073 6629 2071 
10 1298 1188 680 1187 5095 7716 7715 5096 4764 6676 
10 1003 1133 1132 476 4603 4604 4599 6792 7717 7511 
10 755 1255 619 754 7718 7719 3298 3300 7720 3296 
10 1132 618 619 1255 6400 2885 7721 4971 7722 7719 
10 862 1485 1524 1503 7723 5847 6561 6563 5829 5850 
10 1369 1368 1255 754 5314 5309 5313 7724 7725 7720 
10 1118 1242 462 1156 4935 7727 7726 5208 5209 6542 
10 1254 618 1132 1255 7728 6400 4967 4972 7722 4971 
10 335 111 1007 336 2032 7730 7729 2036 2034 7002 
10 690 1300 835 777 7194 7731 3549 3370 7732 3588 
10 1284 1327 658 1192 5182 7734 7733 5055 5181 7735 
10 712 1342 1347 832 7736 5477 7737 3542 7738 7678 
10 737 858 738 1359 3632 3907 3252 7457 7456 7739 
10 822 1330 1434 821 7740 5747 7741 3502 7742 7558 
10 294 295 974 443 1912 7744 7743 2350 2351 7745 
10 757 756 1370 1257 3306 7747 7746 7207 7748 5315 
10 510 1192 435 1079 7749 7751 2551 7750 4774 7752 
10 426 1090 567 427 6912 7753 2711 2303 7754 2712 
10 768 877 878 1378 3694 3698 3696 7755 7756 7757 
10 1056 1057 391 28 4374 7501 7758 4369 4373 7497 
10 455 1113 454 598 7142 7759 2388 2822 7292 2821 
10 1192 1099 435 1079 4773 6498 7751 4774 4499 7752 
10 910 928 1510 955 3879 6690 6588 3994 4042 7649 
10 533 1180 672 1181 7705 6281 3035 7760 4743 6279 
10 616 473 1130 474 2874 7191 7761 2875 2444 7193 
10 588 1229 589 1105 6385 7762 2796 7210 4899 7211 
10 877 1383 876 810 7763 6504 3695 3789 7764 3726 
10 1276 745 1325 610 6468 6470 5175 7263 3269 7765 
10 1383 717 876 810 7766 3727 6504 7764 3551 3726 
10 1323 608 1121 1247 7767 7768 5164 5167 7769 4948 
10 1540 1504 907 1516 5909 7471 7770 5939 5937 7771 
10 662 783 1322 653 3384 7043 7772 3007 3383 7489 
10 1243 1405 807 653 5521 6903 7773 7487 7488 3454 
10 700 1215 1214 1318 7439 4839 6456 7650 5149 5150 
10 599 1113 455 598 7702 7142 2824 2826 7292 2822 
10 1534 962 1525 963 7774 7776 5887 7775 4055 7777 
10 1507 932 1450 1539 6915 6914 5783 5905 7778 5950 
10 599 1113 1114 455 7702 4548 7779 2824 7142 7780 
10 1232 591 1107 1108 6513 7781 4906 4905 7782 4530 
10 789 1443 788 890 7028 7783 3398 3734 7784 3733 
10 202 314 89 203 6932 1967 6147 1744 7785 6148 
10 566 1214 567 1090 7656 7441 2713 6911 4834 7753 
10 1155 1173 1161 578 4864 4952 4861 7786 6570 7029 
10 666 1287 1326 789 7047 5179 6380 3396 7026 7787 
10 1501 964 969 966 7788 4111 6962 7789 4070 4098 
10 1090 1215 567 427 4838 7440 7753 7754 7790 2712 
10 1372 759 874 758 7791 3682 7323 7792 3312 3681 
10 676 799 1294 798 3426 7794 7793 3424 3428 7795 
10 1294 799 1401 798 7794 7796 5407 7795 3428 7797 
10 235 128 1021 234 6082 7086 4266 1777 6081 4267 
10 899 1482 1400 898 7798 5682 7799 3765 7800 7527 
10 426 566 567 1090 2709 2713 2711 6912 6911 7753 
10 898 899 798 1400 3765 3763 3761 7527 7799 7528 
10 775 803 1344 681 3589 7802 7801 3558 3439 7599 
10 506 1156 1029 361 6543 4671 6548 2539 6306 6307 
10 715 580 1343 692 3173 6415 6417 3190 3092 7803 
10 1259 624 1136 1137 7003 7022 4983 4982 7804 4616 
10 392 1058 1057 1183 7105 4377 7370 7371 4747 4748 
10 478 1005 1004 1134 7805 4220 7806 7807 4605 4606 
10 1221 558 1220 1082 7808 7387 4859 4858 7809 4854 
10 400 35 399 1064 7810 7811 2225 6319 4394 7812 
10 692 1206 1343 1335 7813 5233 7803 7814 5207 5235 
10 1444 908 837 811 6797 3795 6798 6869 3796 3571 
10 1333 646 1220 710 7815 7816 5199 6276 3152 6277 
10 849 1352 848 1470 7817 7819 3603 7818 5647 7188 
10 1386 726 1231 727 7820 6716 5366 7477 3219 7821 
10 726 1229 1231 589 6715 4904 6716 3214 7762 7822 
10 794 671 1290 1291 3411 7505 7398 6322 7823 5076 
10 593 1234 729 730 6391 6392 3224 3226 7824 3228 
10 755 1369 1255 754 7825 5313 7718 3300 7724 7720 
10 253 1036 252 147 4310 4311 1796 6004 7362 6003 
10 1280 656 740 655 7826 3257 6740 7491 2991 3256 
10 1369 1368 870 1461 5314 7827 7606 5611 5612 7607 
10 217 1003 216 106 4212 4213 1759 6046 6492 6045 
10 440 1218 584 441 6552 7231 2780 2346 6553 2781 
10 516 1168 1280 656 7071 5044 7075 2989 6751 7826 
10 1218 440 584 604 6552 2780 7231 7828 2840 2841 
10 1540 941 859 1541 7829 4102 7413 5974 7830 7634 
10 400 35 1064 36 7810 4394 6319 6321 1568 4393 
10 725 1229 1426 1352 6387 5483 7831 7832 5267 5482 
10 1482 899 1400 1401 7798 7799 5682 5681 7833 5408 
10 1020 352 351 127 7834 2084 7835 7712 2082 2080 
10 123 230 348 124 6072 7492 2070 1659 6073 2071 
10 1219 1066 402 545 4851 6292 6293 7836 7837 2650 
10 233 1020 351 127 4264 7835 7838 6079 7712 2080 
10 919 827 1476 1393 3870 6571 7839 7840 6573 5660 
10 1441 1328 774 1393 5570 6808 6807 5575 5382 7841 
10 1391 656 740 1280 7581 3257 6739 5378 7826 6740 
10 459 987 1117 988 7622 4556 7842 7561 4168 4555 
10 1474 1391 886 740 5657 7844 7843 7711 6739 3720 
10 1409 1305 1304 707 5430 5114 5429 7845 7846 7847 
10 13 415 435 1079 7148 2325 7397 4437 7848 7752 
10 385 1052 386 47 7849 7508 2183 2179 7850 2181 
10 1008 337 221 113 6453 6999 4228 6454 2038 6055 
10 222 1008 221 113 4227 4228 1764 6056 6454 6055 
10 462 1242 1118 711 7727 4935 7726 3163 7701 7851 
10 1052 24 386 47 4357 7507 7508 7850 1861 2181 
10 854 1355 1354 1489 6830 5275 7852 6831 5704 5705 
10 46 385 47 23 2178 2179 1580 1859 7853 1860 
10 709 583 719 1345 3147 3189 3200 7854 7855 7050 
10 731 1355 1354 854 7856 5275 7857 3616 6830 7852 
10 371 1039 1167 516 6574 4699 6881 2565 7070 7072 
10 1177 528 1051 1052 7590 6728 4730 4729 7858 4359 
10 404 159 1068 265 2234 7393 6636 6867 4002 4404 
10 294 186 69 293 7859 6150 1907 1909 6301 1905 
10 1407 1299 787 1340 5424 6735 7860 5499 5236 6737 
10 456 1115 985 1114 7861 4550 7261 7862 4551 4546 
10 657 781 834 1448 3379 3545 3546 7863 7430 7864 
10 792 1394 1289 1385 7865 5386 7866 7867 5387 5363 
10 532 1054 531 1180 6348 7868 2612 6349 4739 7869 
10 747 863 864 1365 3646 3650 3648 6339 6520 7870 
10 1364 1454 865 1363 5592 7871 6725 5299 5591 6724 
10 1149 497 640 639 7152 2946 7154 7872 2944 2948 
10 632 489 1143 490 2922 7014 7873 2923 2492 7874 
10 948 1501 964 1469 7875 7788 4056 6993 5756 7876 
10 1452 1430 1451 887 5628 5743 5588 7877 7692 7878 
10 1382 1468 911 1445 5641 7880 7879 5759 5760 6373 
10 1363 865 749 750 6724 3652 6722 7881 3654 3285 
10 321 209 322 97 7443 7882 1994 1990 6097 1992 
10 814 1314 1313 694 7883 5140 7540 3472 7475 7243 
10 945 1506 1467 944 6785 5827 6784 3944 7884 6331 
10 946 1471 1477 895 7523 5665 7885 4033 7886 7887 
10 433 571 581 1161 2724 2766 2767 7888 7394 7348 
10 1386 728 850 727 7476 3605 7889 7477 3222 3604 
10 385 1052 47 23 7849 7850 2179 7853 4358 1860 
10 836 1474 886 885 7890 7843 3989 3866 7891 3863 
10 898 1482 1400 1481 7800 5682 7527 7892 5683 5678 
10 1539 956 1519 931 7297 7894 5904 7893 4027 7895 
10 30 55 393 54 1874 2203 7896 1873 1588 2202 
10 1358 1452 857 1497 5586 7898 7897 5739 5629 7899 
10 175 283 282 1087 6222 1829 6223 7900 4459 4460 
10 665 1286 788 1326 7901 7544 3393 6378 5178 6379 
10 1452 957 857 887 6706 4059 7898 7877 4085 4064 
10 1452 1430 887 1497 5628 7692 7877 5629 5627 7693 
10 390 27 389 1055 6312 6303 2195 6283 4366 6284 
10 363 362 507 1030 2116 2541 2542 7158 7902 6628 
10 1482 951 1481 898 7903 7904 5683 7800 3975 7892 
10 1295 676 1294 1184 6344 7793 5088 5087 7905 5083 
10 679 1187 1186 1297 6675 4761 7612 7610 5092 5093 
10 1251 1129 1252 614 4958 4962 4963 7906 6524 7907 
10 1482 899 951 898 7798 3976 7903 7800 3765 3975 
10 997 323 996 210 7227 7908 4196 4195 7909 4191 
10 770 1380 1272 769 7910 5349 7911 3350 7912 7913 
10 1124 467 1125 609 7914 7916 4580 7915 2854 7917 
10 323 98 322 996 1995 1993 1997 7908 7918 6658 
10 206 992 318 993 4179 7920 7919 4183 4184 7921 
10 1157 720 570 1338 7922 3193 7923 5218 7286 7924 
10 917 760 875 1373 3830 3685 3908 7255 7564 6646 
10 1052 24 47 23 4357 1861 7850 4358 1556 1860 
10 1372 1449 1464 874 5624 5826 5620 7323 7925 7317 
10 995 209 996 322 4188 4192 4193 6656 7882 6658 
10 1492 904 1511 889 7926 6996 5933 7927 3781 6997 
10 871 1462 872 1370 6965 7302 3677 7928 5614 7929 
10 453 983 1112 454 6672 4540 7930 2385 7931 7932 
10 1418 909 1464 927 7933 6977 5720 7934 3882 7935 
10 1385 1473 1478 920 5655 5669 5667 7520 7522 7936 
10 1135 480 479 334 7274 2462 7937 7275 2460 2458 
10 508 1157 570 364 6754 7923 2722 2545 6974 2720 
10 723 1440 1285 1230 7938 5537 7939 7940 5538 5059 
10 758 623 622 1258 3308 2897 3307 7941 6568 7942 
10 431 990 1026 315 7943 4873 7944 2743 7945 6837 
10 57 396 58 32 2211 2212 1591 1877 6938 1878 
10 1119 462 1118 711 7946 7726 4563 7670 3163 7851 
10 858 1331 1359 1497 7947 5822 7456 7460 5883 5738 
10 1270 637 766 1269 7425 3338 7948 5017 7949 7950 
10 396 1061 397 58 6936 6578 2216 2212 7951 2214 
10 1078 1204 554 1077 4808 7216 7031 4436 4807 7033 
10 327 214 1000 328 7952 4203 7953 2012 6758 6759 
10 1061 33 397 58 4384 7954 6578 7951 1879 2214 
10 475 618 476 1132 2880 2881 2450 6398 6400 7511 
10 1210 695 1313 1209 6381 6364 5136 4824 7241 5137 
10 241 242 1026 136 1785 4282 4283 5980 5981 6838 
10 409 1072 549 408 7381 7382 2661 2251 6889 2662 
10 242 431 1026 136 7224 7944 4282 5981 2314 6838 
10 1517 924 837 908 6361 3860 6745 6799 3868 3795 
10 1185 539 1060 1186 7123 7603 4753 4758 7124 4757 
10 1006 335 480 334 7271 2461 7276 7273 2033 2460 
10 120 1014 344 345 7955 7956 2059 2061 6801 2063 
10 1240 737 738 1359 6357 3252 6358 5285 7457 7739 
10 1014 1143 1013 344 4632 4633 4247 7956 7957 7958 
10 552 1075 1201 411 7959 4799 7643 2671 7960 7645 
10 1275 772 1382 1274 7961 7962 5354 5032 7963 5355 
10 1153 1154 1334 644 4667 5202 5203 7311 6535 6536 
10 1152 643 1275 1274 6327 7308 5031 5027 7964 5032 
10 1529 940 941 1541 7965 3921 7966 5912 7633 7830 
10 1533 1541 1458 941 5913 5910 5885 7967 7830 7968 
10 241 5 4 315 1784 1837 5977 6836 6958 1971 
10 882 1509 918 1455 7969 7970 3839 6844 5866 7971 
10 396 1061 58 32 6936 7951 2212 6938 4385 1878 
10 859 940 1541 941 3938 7633 7634 4102 3921 7830 
10 990 241 1026 315 4483 4283 4873 7945 6836 6837 
10 1143 489 344 490 7014 2488 7957 7874 2492 2490 
10 868 942 1516 1453 3927 7974 7972 7973 7975 5824 
10 1042 374 433 571 6587 2319 6334 7101 2723 2724 
10 376 261 1043 1044 7976 4331 7977 6441 4334 4335 
10 1115 986 457 985 4549 6623 7245 4550 4162 7262 
10 701 1319 702 568 6444 7978 3191 3118 6727 3120 
10 1193 1347 545 1219 5247 7465 7467 4852 5246 7836 
10 1187 541 680 540 6720 3059 6676 6677 2639 3058 
10 800 1402 900 901 7608 7979 3767 3769 6729 3771 
10 968 951 1522 952 4103 7981 7980 4104 3980 7982 
10 951 1482 1522 952 7903 5842 7981 3980 7983 7982 
10 1534 1525 1543 963 5887 5926 5927 7775 7777 7984 
10 769 1380 1379 879 7912 5350 7985 3699 7986 7987 
10 935 934 1489 854 3903 6907 7688 3901 3899 6831 
10 1355 855 1488 854 7988 7989 5702 6830 3621 6832 
10 228 1014 227 120 4245 4246 1770 6068 7955 6067 
10 1234 1353 730 1354 5268 7321 7824 5271 5272 7990 
10 1218 1245 604 584 5250 7319 7828 7231 7230 2841 
10 1538 1501 969 1543 5902 6962 7991 5940 5944 6963 
10 1014 1143 344 490 4632 7957 7956 6800 7874 2490 
10 723 722 1445 1230 3207 6372 7992 7940 7993 5561 
10 1426 1229 724 1285 5483 6386 7994 5484 5060 6698 
10 723 722 1230 586 3207 7993 7940 3205 3204 7684 
10 1440 846 724 1426 7995 3593 7996 5539 7997 7994 
10 1013 343 119 344 6812 2056 6813 7958 2060 2058 
10 1061 33 58 32 4384 1879 7951 4385 1565 1878 
10 1240 1116 601 1115 4929 7998 6359 4930 4554 7244 
10 599 456 1114 600 2825 7862 7779 2829 2827 7999 
10 1357 734 1356 1237 8000 8001 5281 5280 8002 5276 
10 1366 866 867 1458 8003 3662 6620 5601 8004 7281 
10 1240 737 1359 1239 6357 7457 5285 4931 7236 5286 
10 1152 500 501 643 6326 2525 7132 6327 2955 2956 
10 521 510 1172 661 2580 8005 7129 3001 3002 8006 
10 1360 1240 738 1359 5289 6358 8007 5290 5285 7739 
10 109 219 218 1005 6050 1761 6049 6959 4218 4219 
10 885 1474 886 740 7891 7843 3863 3862 7711 3720 
10 1253 616 751 1252 8008 3287 8009 4966 8010 8011 
10 1266 1144 634 633 5003 7532 7533 7267 7535 2930 
10 195 81 196 983 6133 6134 1737 4152 8012 4151 
10 1152 643 501 1153 6327 2956 7132 4664 7310 7672 
10 1127 612 1250 1249 7449 6901 4956 4953 8013 4957 
10 1138 483 1137 1008 6774 6776 4619 4618 7018 4614 
10 500 354 1022 355 2520 8015 8014 2521 2093 8016 
10 1008 337 1007 221 6453 7001 4229 4228 6999 4224 
10 1339 657 834 1448 8017 3546 8018 5571 7863 7864 
10 1187 1298 1297 680 5096 5097 5092 6676 7715 8019 
10 1069 266 160 267 4407 3970 6619 4408 1811 3967 
10 335 481 1007 1006 2463 8020 7729 7271 8021 4226 
10 973 442 441 293 7421 2349 6925 6300 2347 2345 
10 1022 236 355 130 4269 8023 8016 8022 6084 2091 
10 1020 233 351 1019 4264 7838 7835 4265 4260 8024 
10 522 379 378 1046 2582 2162 2581 6481 6649 6482 
10 151 257 256 1040 5999 1800 6000 8025 4322 4323 
10 1149 1020 351 1019 4650 7835 8026 4651 4265 8024 
10 706 1281 1282 1392 7170 5051 7171 7200 5380 5381 
10 660 1328 1194 1302 7513 5184 8027 8028 5185 5104 
10 233 126 351 1019 6078 2079 7838 4260 8029 8024 
10 285 1089 284 177 4465 4466 1831 6226 8030 6227 
10 715 1337 776 1437 6418 8031 3369 6896 5528 7374 
10 368 367 512 1035 2130 2554 2555 8032 8033 8034 
10 778 1492 1491 1411 8035 5715 8036 8037 5713 5711 
10 1409 925 1408 1509 8038 6594 5431 5793 6595 5795 
10 247 364 1095 141 8039 6975 4486 6002 2117 8040 
10 367 1163 512 1035 8041 8042 2554 8033 4688 8034 
10 1009 339 223 1010 6876 8043 4230 4235 6878 4234 
10 1437 1351 1337 776 5529 5264 5528 7374 6854 8031 
10 143 365 1032 432 2120 8045 8044 2318 2322 7328 
10 855 1355 732 854 7988 8046 3619 3621 6830 3617 
10 1465 1379 1466 878 5633 5636 5637 8047 8048 8049 
10 1236 596 1112 597 6608 8051 4917 8050 2820 8052 
10 368 1035 512 1164 8032 8034 2555 8053 4692 8054 
10 590 447 446 1107 2798 2364 2797 7203 7363 7537 
10 832 1441 774 919 7679 6807 3540 3842 8055 3841 
10 602 603 1117 1241 2838 7662 8056 8057 8058 4932 
10 1035 1163 512 1164 4688 8042 8034 4692 4693 8054 
10 29 1058 1057 392 4376 4377 4372 7106 7105 7370 
10 379 522 523 1047 2582 2585 2583 6934 6935 6642 
10 827 1393 919 774 6573 7840 3870 3523 7841 3841 
10 616 1253 751 752 8008 8009 3287 3289 7299 3291 
10 401 37 36 991 8059 1569 6320 8060 4281 4496 
10 739 1242 603 1241 7700 8062 3254 8061 4937 8058 
10 1253 1366 751 752 5303 8063 8009 7299 8064 3291 
10 776 1337 715 652 8031 6418 3369 3368 8065 3172 
10 471 998 999 325 6949 4202 7574 2433 6948 7570 
10 915 825 1351 776 3824 6853 8066 3825 3516 6854 
10 467 995 466 1124 6655 8067 2423 7914 4575 8068 
10 715 580 652 1337 3173 2982 3172 6418 6416 8065 
10 1316 697 817 1315 8069 3481 6865 5145 6376 6879 
10 1261 763 762 627 6760 3324 7539 8070 3322 3320 
10 1047 379 380 523 6934 2165 8071 6642 2583 2584 
10 384 22 383 1051 7082 8072 2177 6485 4355 6486 
10 1056 1182 1181 534 4745 4746 4741 7369 6660 8073 
10 1278 717 576 708 6428 3179 6423 6955 3180 3144 
10 1377 1269 823 1376 5340 6968 8074 5341 5336 8075 
10 1012 118 342 225 8076 2053 6517 4240 6063 8077 
10 577 1267 634 1266 7493 7534 3166 8078 5008 7533 
10 187 294 70 295 8079 1908 6116 8080 1912 1910 
10 639 638 768 1271 2945 3342 3343 8081 8082 8083 
10 720 1228 650 741 8084 8085 3192 3509 8086 3259 
10 438 434 1098 14 2335 6414 8087 2333 2324 6413 
10 462 1119 1156 1028 7946 4869 6542 8088 4870 4672 
10 528 1177 1051 1176 7590 4730 6728 7591 4731 4726 
10 1233 728 592 729 6805 3221 8089 6394 3225 3223 
10 533 1056 1181 534 8090 4741 7760 2618 7369 8073 
10 438 1094 14 1098 7334 7530 2333 8087 4502 6413 
10 1341 835 1362 1431 8091 8092 5294 5498 8093 5497 
10 533 673 534 1181 3037 3038 2618 7760 8094 8073 
10 41 19 379 380 1851 8095 2161 2163 8096 2165 
10 869 1461 1368 1460 8097 5612 7067 8098 5613 5608 
10 673 1182 534 1181 6791 6660 3038 8094 4746 8073 
10 380 524 1048 523 2586 7350 7351 2584 2588 7352 
10 528 385 1051 1052 2599 7252 6728 7858 7849 4359 
10 1130 1001 1131 474 4593 4597 4598 7193 7192 6787 
10 955 928 1510 1527 4042 6690 7649 8099 7509 5859 
10 1056 52 390 27 8100 2194 8101 4370 1868 6312 
10 759 1372 1258 758 7791 5322 6566 3312 7792 7941 
10 665 1175 1326 666 7233 5177 6378 3018 7235 6380 
10 1540 941 1541 1533 7829 7830 5974 5952 7967 5913 
10 1460 1515 1516 958 5821 5825 5823 8102 8103 8104 
10 1047 380 1048 523 8071 7351 4347 6642 2584 7352 
10 92 316 204 91 1976 8105 6025 1627 1975 6024 
10 896 1480 1477 949 8106 5677 7186 3968 8107 8108 
10 478 332 477 1004 2454 2452 2456 7806 8109 8110 
10 551 550 410 1200 2669 2664 2668 8111 8112 7336 
10 802 902 1403 801 3773 7013 8113 3437 3772 7618 
10 734 1357 856 735 8000 7695 3623 3243 7696 3625 
10 505 992 991 1123 8114 4181 8115 8116 4571 4572 
10 1528 912 1499 1486 6778 6286 5864 5863 6287 5782 
10 1432 1320 702 1420 5501 7691 8117 5502 5461 7114 
10 640 497 1150 498 2946 7153 7059 2947 2516 7061 
10 871 1369 1462 1370 7604 5615 6965 7928 5317 5614 
10 637 766 1269 636 3338 7950 7949 2939 3337 6967 
10 679 1297 1296 801 7610 5094 7611 3433 8118 7617 
10 395 1060 31 394 8119 4382 8120 2210 8121 6700 
10 1066 1193 545 1219 4775 7467 7837 4851 4852 7836 
10 1193 1066 545 403 4775 7837 7467 7116 7117 2649 
10 99 98 323 210 1634 1995 1996 6093 6036 7909 
10 393 394 1059 537 2207 6701 8122 2625 2626 6310 
10 395 57 56 31 2209 1590 2208 8120 1876 1890 
10 602 1240 1116 601 7673 4929 8123 2835 6359 7998 
10 260 1096 375 1043 4491 8125 8124 4332 4505 8126 
10 1042 374 153 433 6587 2147 6333 6334 2319 2320 
10 582 692 1206 438 3178 7813 8127 2771 3093 8128 
10 153 154 1096 433 1690 7483 6335 2320 2321 6336 
10 57 395 1060 31 2209 8119 6691 1876 8120 4382 
10 590 1107 446 1106 7203 7537 2797 8129 4527 6478 
10 1105 1229 589 1106 4899 7762 7211 4524 4898 8130 
10 466 994 465 1124 6703 6705 2420 8068 4576 8131 
10 627 626 762 1261 2909 3319 3320 8070 8132 7539 
10 1188 541 680 1187 6718 3059 7716 4764 6720 6676 
10 1435 1429 744 861 5632 7420 8133 7592 7594 3640 
10 298 297 446 977 1921 2359 2360 6862 8134 7115 
10 337 483 1008 482 2469 7018 6453 2467 2471 8135 
10 779 1361 1428 1455 8136 5489 6843 6845 5593 5594 
10 626 761 762 1261 3317 3321 3319 8132 8137 7539 
10 1311 1416 812 1415 5450 7627 7628 5448 5453 8138 
10 159 404 1068 405 2234 6636 7393 2238 2239 6638 
10 1449 1442 875 1373 5780 8139 6644 5623 5749 6646 
10 1347 774 1328 718 6806 6808 5248 7466 3361 7514 
10 602 459 1116 1117 2834 7623 8123 8056 7842 4557 
10 460 459 1117 988 2403 7842 7663 7562 7561 4555 
10 456 984 985 307 6712 4159 7261 2389 6713 8140 
10 128 352 353 1021 2083 2087 2085 7086 7085 7036 
10 866 1366 751 1363 8003 8063 3658 8141 5305 8142 
10 731 1234 730 1354 8143 7824 3231 7857 5271 7990 
10 1496 923 1532 1527 7502 8144 5878 5862 8145 5879 
10 247 1031 142 248 4297 7442 6008 1791 4296 6010 
10 379 19 1047 380 8095 4342 6934 2165 8096 8071 
10 1347 774 718 832 6806 3361 7466 7678 3540 3541 
10 472 473 1129 615 2441 8146 7572 2871 2872 8147 
10 473 1130 1129 615 7191 4595 8146 2872 8148 8147 
10 319 464 465 1121 2413 2417 2415 7706 8149 7707 
10 1204 1078 554 1191 4808 7031 7216 4889 4771 8150 
10 687 1309 1201 552 6794 5124 6918 3078 7039 7643 
10 629 1264 1263 765 6507 4999 8151 3328 6509 8152 
10 1036 368 1164 1035 7361 8053 4691 4312 8032 4692 
10 1140 485 628 1139 8153 2910 8154 4625 8155 6435 
10 392 1057 53 391 7370 7500 2199 2201 7501 2197 
10 387 49 1054 388 2185 8157 8156 2189 2187 8158 
10 339 115 223 1010 2044 6059 8043 6878 6409 4234 
10 392 535 1057 391 2620 7367 7370 2201 2619 7501 
10 22 384 383 45 7082 2177 8072 1888 2175 2173 
10 1397 794 1290 1291 6582 7398 5395 5394 6322 5076 
10 1064 35 399 1063 4394 7811 7812 4395 4390 8159 
10 499 1022 353 1021 8160 7035 2517 8161 4271 7036 
10 770 1273 1272 1380 8162 5026 7911 7910 5348 5349 
10 867 866 1533 1458 3662 8164 8163 7281 8004 5885 
10 1149 1020 1150 497 4650 4654 4655 7152 8165 7153 
10 499 1151 1021 498 6601 4657 8161 2519 8166 8167 
10 1306 1410 1411 685 5433 5437 5435 6840 6941 8168 
10 687 1308 686 551 6919 7076 3080 3079 8169 3075 
10 9 169 416 8 6208 2270 7107 1840 1708 2269 
10 1438 1430 1228 720 5533 5495 5532 7285 8170 8084 
10 417 1207 575 558 8171 8172 2736 2685 7385 2737 
10 1097 415 521 436 6426 2579 7127 6427 2329 2578 
10 577 437 576 1159 2751 2739 2779 8173 8174 6424 
10 599 1113 1238 1114 7702 4924 7703 7779 4548 4923 
10 577 437 1224 509 2751 8176 8175 2752 2547 6885 
10 640 770 1272 769 3348 7911 8177 3346 3350 7913 
10 29 392 1057 53 7106 7370 4372 1871 2199 7500 
10 143 365 249 1032 2120 8178 6012 8044 8045 4298 
10 1056 52 27 28 8100 1868 4370 4369 1869 1560 
10 252 368 146 147 8179 2128 6009 6003 2129 1683 
10 1342 825 652 1351 8180 3515 8181 5265 6853 6855 
10 327 473 1000 472 2439 8182 7953 2437 2441 8183 
10 1119 461 711 1118 7669 3154 7670 4563 7214 7851 
10 182 240 135 289 4112 6023 8184 8185 8186 2312 
10 88 313 201 312 1964 7279 6145 1962 1966 8187 
10 1017 1146 493 494 4641 8188 6404 6494 7312 2504 
10 654 720 839 1338 3194 3565 3563 8189 7286 7288 
10 1379 879 1466 878 7987 6330 5636 8048 3701 8049 
10 1346 1265 721 647 5507 8191 7546 8190 8192 3201 
10 572 1033 1120 366 6871 4565 8193 2727 6872 8194 
10 594 1234 593 730 6445 6391 2811 3227 7824 3226 
10 1254 753 1367 1253 8195 7068 5306 4969 7298 5307 
10 1119 461 1118 989 7669 7214 4563 4562 7212 4558 
10 882 926 925 1476 3990 3991 3949 6833 6834 6593 
10 1119 462 711 556 7946 3163 7670 6848 2745 3158 
10 1042 374 1170 1041 6587 7100 4708 4330 6586 4709 
10 555 1099 1227 1191 6496 4891 8196 8197 4772 4890 
10 374 571 1170 518 2723 6615 7100 2572 2725 6616 
10 65 183 289 290 6149 8198 1894 1895 8199 1897 
10 986 198 199 309 4161 1740 4160 6371 6370 7555 
10 1039 371 150 372 6574 2138 6576 8200 2142 2140 
10 1060 538 1059 394 8201 7141 4383 8121 2628 6701 
10 530 1053 1179 531 8202 4736 8203 2609 8204 8205 
10 56 55 394 31 1589 2205 2206 1890 1875 6700 
10 871 943 1461 870 3934 6817 7605 3674 3933 7607 
10 56 395 31 394 2208 8120 1890 2206 2210 6700 
10 629 1141 630 487 8206 8207 2918 2914 8208 2916 
10 1060 31 394 1059 4382 6700 8121 4383 4378 6701 
10 1185 678 1296 677 7125 7619 5090 7589 3054 8209 
10 624 481 623 1136 2898 2896 2900 7022 7008 7010 
10 827 660 1302 1393 3522 8028 8210 6573 8211 5383 
10 360 462 1119 556 2407 7946 6849 2682 2745 6848 
10 684 1408 1304 829 8212 5427 8213 3533 8214 8215 
10 1210 561 695 1209 7347 3099 6381 4824 8216 7241 
10 491 1144 633 634 8217 7535 2926 2928 7532 2930 
10 742 693 1349 1314 3260 8219 8218 7474 7473 5254 
10 230 123 348 1016 6072 2070 7492 4251 7073 6403 
10 1375 844 1425 1349 8220 8221 5504 5707 8222 5653 
10 1137 1138 1260 625 4619 4985 4986 6612 6775 6613 
10 844 693 710 1349 3584 3151 3583 8222 8219 8223 
10 1078 555 554 1191 7144 2769 7031 4771 8197 8150 
10 660 1328 1302 1393 7513 5185 8028 8211 5382 5383 
10 9 14 1094 15 6207 7530 4480 1836 1839 4481 
10 979 978 191 300 4141 4136 4140 7324 7325 8224 
10 582 1159 430 1094 8225 8226 2772 7332 4679 7333 
10 299 448 300 978 2365 2366 1927 8227 6421 7325 
10 1041 373 1040 257 7270 6809 4327 4326 8228 4322 
10 1094 15 14 1098 4481 1839 7530 4502 4494 6413 
10 434 580 438 1226 2761 2776 2335 8229 7083 8230 
10 1267 577 1224 1266 7493 8175 5260 5008 8078 5464 
10 429 1171 1093 1217 7403 4713 6512 8231 4879 4843 
10 390 1056 1055 533 8101 4371 6283 2614 8090 6282 
10 429 288 1093 10 6510 4478 6512 2308 6209 7091 
10 992 505 463 1123 8114 2749 8232 4571 8116 8233 
10 429 1171 1217 557 7403 4879 8231 2683 7405 8234 
10 569 429 1217 557 2718 8231 8235 2777 2683 8234 
10 1432 1320 1324 659 5501 5170 5500 8236 7690 8237 
10 1091 428 568 427 7438 2715 8238 7340 2306 2714 
10 569 1320 659 1324 7096 7690 2997 8239 5170 8237 
10 1275 1382 773 1434 5354 8241 8240 5510 5511 8242 
10 253 1036 147 369 4310 7362 6004 8243 7305 2131 
10 700 1215 1318 701 7439 5149 7650 3119 6442 6443 
10 316 205 991 317 8244 4177 8245 1979 8246 8247 
10 1342 1351 652 1337 5265 6855 8181 5228 5264 8065 
10 1030 362 1029 245 7902 6550 4295 4294 7681 4290 
10 1463 873 955 872 7341 3992 6383 6384 3680 3995 
10 609 1247 608 744 8248 7769 2855 3266 7419 3265 
10 1088 565 564 424 7164 2707 8249 8250 2705 2703 
10 700 1215 701 567 7439 6442 3119 3115 7440 3117 
10 1498 882 1428 1455 6632 6631 5741 5740 6844 5594 
10 204 37 3 91 4176 1570 1746 6024 7315 6021 
10 37 2 3 91 1844 1547 1570 7315 1626 6021 
10 1096 1155 578 375 4670 7786 8251 8125 8252 2754 
10 458 986 457 1115 6501 6623 2397 8253 4549 7245 
10 1240 601 1239 1115 6359 7237 4931 4930 7244 4926 
10 1440 1426 724 1285 5539 7994 7996 5537 5484 6698 
10 442 294 974 443 2348 7743 7422 2352 2350 7745 
10 1364 748 1365 1250 7632 6337 5302 5298 6338 5300 
10 1275 772 773 1382 7961 3359 8240 5354 7962 8241 
10 1173 1155 523 578 4864 6643 6569 6570 7786 3146 
10 323 997 996 1126 7227 4196 7908 7228 4581 4582 
10 745 1276 746 610 6468 7651 3273 3269 7263 3271 
10 627 484 1139 485 2907 7481 6433 2908 2477 8155 
10 571 1170 1340 1161 6615 5224 6694 7394 4711 5223 
10 467 468 322 996 2426 2424 2422 6657 7174 6658 
10 1155 375 573 578 8252 2730 8254 7786 2754 2977 
10 484 1138 626 1139 8255 7579 2905 7481 4622 7482 
10 485 1140 1010 1139 8153 4624 6877 8155 4625 4620 
10 1485 902 954 1484 7011 3985 6971 5692 7012 6972 
10 954 901 953 1484 4037 3982 4043 6972 6731 8256 
10 747 1365 1249 1384 6339 5301 8257 6519 5361 5359 
10 640 769 1272 639 3346 7913 8177 2948 3345 8258 
10 767 1377 876 1378 8259 6503 3692 8260 5344 6505 
10 1256 621 620 1134 6685 2891 6687 4973 8261 8262 
10 879 906 944 1466 4010 3963 3940 6330 8263 6332 
10 1089 566 1214 565 7168 7656 4835 7163 2710 8264 
10 1008 483 1137 482 7018 6776 4614 8135 2471 8265 
10 583 1171 436 557 7640 7404 2775 2774 7405 2684 
10 973 442 974 1103 7421 7422 4126 4515 8266 4514 
10 640 1273 641 1150 8267 8268 2951 7059 5025 7060 
10 605 690 1300 1191 3157 7194 8269 8270 8271 5100 
10 1229 726 725 589 6715 3216 6387 7762 3214 3212 
10 1039 372 256 1040 8200 6604 4319 4324 6811 4323 
10 514 1166 370 1037 6528 8272 2561 7587 4697 7259 
10 752 868 1367 867 3663 7183 7300 3661 3665 6622 
10 1407 890 1439 1340 8273 8274 5558 5499 8275 5535 
10 579 1327 658 716 8276 7734 2996 3175 6679 3174 
10 217 332 108 1004 8277 2023 6047 4216 8109 8278 
10 1481 950 1480 897 8279 8281 5680 8280 3972 8282 
10 676 1295 1294 799 6344 5088 7793 3426 6346 7794 
10 1537 1506 930 944 5899 8285 8283 8284 7884 4023 
10 1538 969 960 1543 7991 4110 8286 5940 6963 8287 
10 733 734 1356 856 3240 8001 6764 3622 3623 8288 
10 1366 752 1367 867 8064 7300 5308 6620 3661 6622 
10 601 737 1239 600 3248 7236 7237 2832 3247 8289 
10 676 1294 675 798 7793 8290 3048 3424 7795 3423 
10 746 1276 1384 1249 7651 5360 7653 8291 5035 5359 
10 1523 1484 953 1483 5844 8256 6767 5845 5689 8292 
10 1410 683 831 685 6940 3445 7434 6941 3074 3444 
10 1402 1295 799 1401 5410 6346 8293 5411 5406 7796 
10 1408 925 1409 829 6594 8038 5431 8214 3864 8294 
10 660 544 574 1194 3000 2765 2999 8027 8295 8296 
10 1493 1421 889 1511 5728 8298 8297 5870 5805 6997 
10 738 858 784 1359 3907 3785 3811 7739 7456 8299 
10 1086 563 562 422 8300 2701 8301 6537 2699 2697 
10 882 830 779 1455 3710 3534 3709 6844 8302 6845 
10 1360 1331 784 1277 5522 8304 8303 5523 5196 8305 
10 599 736 600 1239 3244 3245 2829 8306 8307 8289 
10 646 1333 1220 1246 7815 5199 7816 6710 5200 4945 
10 629 486 628 1140 2913 2911 2915 8308 7130 8154 
10 817 1316 1417 818 6865 5455 6864 3486 8309 8310 
10 1141 629 630 1264 8206 2918 8207 4998 6507 6508 
10 1017 1146 494 1147 4641 7312 6494 4645 4646 6495 
10 200 987 86 311 4163 8312 6142 8311 8313 1958 
10 720 1438 922 839 7285 7379 3848 3565 7287 3849 
10 697 816 817 1315 3479 3483 3481 6376 6375 6879 
10 739 648 1242 1360 3511 7699 7700 8314 8315 5580 
10 736 737 600 1239 3249 3247 3245 8307 7236 8289 
10 1127 1126 611 1249 4586 6944 8316 4953 4954 8317 
10 1253 616 617 752 8008 2879 6430 7299 3289 3290 
10 236 1022 235 130 4269 4270 1778 6084 8022 6083 
10 646 558 1220 710 2966 7387 7816 3152 3149 6277 
10 1284 1336 661 782 5212 8319 8318 7353 8320 3381 
10 65 183 64 289 6149 6108 1599 1894 8198 1893 
10 1446 1350 719 824 5576 6822 7049 8321 6951 3514 
10 932 1507 852 851 6915 6917 3893 3892 7496 3612 
10 1437 837 1502 776 7052 8322 5763 7374 3556 7375 
10 1380 879 1467 1466 7986 6329 5639 5635 6330 5640 
10 1104 587 1230 586 8323 8325 4900 8324 2790 7684 
10 783 835 1431 1362 3636 8093 7044 7045 8092 5497 
10 662 1322 1282 1165 7772 5163 7182 8326 5160 5050 
10 472 1000 999 1129 8183 4205 7573 7572 4590 4591 
10 272 1075 411 1074 4425 7960 8327 4423 4427 8328 
10 110 220 335 111 6052 8329 2031 1646 6053 2032 
10 940 1526 1514 914 7635 5858 8330 3939 8331 6790 
10 1022 354 235 130 8015 6526 4270 8022 2089 6083 
10 1331 649 784 1277 6609 3386 8304 5196 6610 8305 
10 462 648 1242 711 2970 7699 7727 3163 3185 7701 
10 1356 734 1357 856 8001 8000 5281 8288 3623 7695 
10 1111 451 981 452 7358 8332 4538 6265 2379 8333 
10 1360 1331 1359 784 5522 5822 5290 8303 8304 8299 
10 1108 449 1109 592 8334 8336 4533 8335 2804 8337 
10 472 473 1000 1129 2441 8182 8183 7572 8146 4590 
10 1495 780 1420 1508 6898 7112 5725 5790 6897 5789 
10 1438 921 922 839 6354 4011 7379 7287 3845 3849 
10 1540 941 1533 942 7829 7967 5952 8338 3926 8339 
10 1331 858 1359 784 7947 7456 5822 8304 3785 8299 
10 1078 555 1191 1099 7144 8197 4771 4497 6496 4772 
10 940 1529 941 939 7965 7966 3921 3920 8340 3919 
10 1291 673 795 672 7046 3415 6323 6280 3039 3414 
10 1221 1083 1208 559 4857 4818 4860 8341 8342 8343 
10 1484 901 953 900 6731 3982 8256 8344 3771 3981 
10 965 935 1488 936 4107 7689 7378 4108 3906 7557 
10 1353 1507 851 852 5784 7496 7682 7320 6917 3612 
10 428 569 1216 568 2717 7097 7005 2715 2719 7099 
10 560 1209 1084 1208 8345 4820 7453 7454 4821 4817 
10 693 1314 694 1208 7473 7475 3098 8346 5139 8347 
10 480 1135 622 623 7274 8348 2893 2895 8349 2897 
10 445 446 1106 589 2361 6478 6476 2794 2795 8130 
10 511 572 1120 366 2728 8193 8350 2552 2727 8194 
10 447 298 446 977 2362 2360 2364 6860 6862 7115 
10 1075 552 1201 1202 7959 7643 4799 4801 6874 4803 
10 1534 1538 960 1543 5941 8286 8351 5927 5940 8287 
10 648 649 1277 784 3156 6610 8352 3385 3386 8305 
10 431 242 1026 1027 7224 4282 7944 6873 4285 4286 
10 1041 373 257 152 7270 8228 4326 8353 2144 5990 
10 1358 858 736 1359 7459 3631 8354 5287 7456 7458 
10 1113 984 1114 455 4543 4547 4548 7142 6714 7780 
10 858 1331 1497 741 7947 5883 7460 3786 7283 7284 
10 1240 1360 738 1241 5289 8007 6358 4934 5288 8355 
10 1005 478 1004 333 7805 7806 4220 6960 2455 8356 
10 486 1140 1010 485 7130 4624 7131 2480 8153 6877 
10 373 151 257 152 2143 5999 8228 2144 1688 5990 
10 1041 258 152 257 4325 5991 8353 4326 1801 5990 
10 480 1135 479 622 7274 7937 2462 2893 8348 2892 
10 334 1005 333 479 8357 6960 2030 2458 8358 2457 
10 756 1369 1370 1256 8359 5317 7747 6686 5312 5316 
10 1135 621 479 622 8360 2890 7937 8348 2894 2892 
10 1265 631 721 647 8361 3333 8191 8192 3332 3201 
10 1144 1143 490 633 4637 7874 6802 7535 7536 2925 
10 503 1025 1154 1102 7053 4665 8362 7055 4512 4668 
10 1143 632 490 633 7873 2923 7874 7536 2927 2925 
10 643 1152 642 1274 6327 6328 2957 7964 5027 8363 
10 692 1444 811 1335 8364 6869 3464 7814 5552 7102 
10 1151 499 641 498 6601 2950 6603 8166 2519 2949 
10 1218 585 584 441 8365 2784 7231 6553 2782 2781 
10 642 771 1274 641 3352 8366 8363 2954 3351 8367 
10 491 1144 490 633 8217 6802 2495 2926 7535 2925 
10 962 1534 1539 956 7774 5949 8368 4090 7296 7297 
10 1303 704 1195 1302 8369 8370 5106 5108 8371 5105 
10 1387 833 806 883 8372 3835 8373 8374 3996 3987 
10 174 282 1086 422 6220 4456 8375 2286 6538 6537 
10 704 660 574 1302 3131 2999 3130 8371 8028 8376 
10 882 1509 1455 1476 7969 5866 6844 6833 5802 5865 
10 381 1049 20 1048 7090 4349 8377 7089 4350 4345 
10 172 279 278 1083 6215 1825 6216 6278 4447 4448 
10 801 1297 1296 1403 8118 5094 7617 7618 5412 5413 
10 1096 1042 433 1161 4489 6334 6336 4682 4683 7888 
10 902 802 1403 1404 3773 8113 7013 7364 7365 5417 
10 378 18 379 40 6650 6648 2162 2158 1849 2160 
10 247 1031 364 142 4297 7329 8039 6008 7442 2118 
10 1336 1284 1475 782 5212 5525 5659 8320 7353 7355 
10 1394 1471 1473 894 5649 5656 5654 8378 8379 8380 
10 1086 282 174 281 4456 6220 8375 4457 1828 6221 
10 27 1056 1055 390 4370 4371 4366 6312 8101 6283 
10 1053 1052 529 1178 4362 8382 8381 4732 4733 8383 
10 1077 275 168 414 4432 4035 7630 7034 7150 2265 
10 420 280 1084 1085 8384 4450 6554 8385 4454 4455 
10 833 1493 889 883 8386 8297 4009 3996 8387 3732 
10 643 772 773 1275 3355 3359 3357 7308 7961 8240 
10 324 469 997 323 2428 7225 6558 2000 2427 7227 
10 706 841 843 1392 3574 3582 3579 7200 7166 7165 
10 821 822 773 1434 3502 3547 3711 7558 7741 8242 
10 1311 689 1203 1310 7625 8388 5130 5132 8389 5128 
10 1361 830 1511 1455 8390 8391 5806 5593 8302 5812 
10 561 1210 1085 1209 7347 4823 8392 8216 4824 4819 
10 688 1310 1202 553 8393 5127 8394 3081 8395 6773 
10 692 1444 1335 1343 8364 5552 7814 7803 5553 5235 
10 269 162 268 1071 3918 3928 1813 4414 7373 4413 
10 1289 792 791 669 7866 3407 6662 6663 3405 3403 
10 1415 883 1414 1387 8396 8397 5449 5801 8374 5800 
10 767 768 1271 1378 3344 8083 8398 8260 7755 5342 
10 110 220 219 1006 6052 1762 6051 7272 4221 4222 
10 841 1390 826 1392 8399 8400 3816 7166 5671 7167 
10 1174 525 1049 1175 7079 7088 4720 4725 7637 4724 
10 1440 723 1445 1230 7938 7992 5560 5538 7940 5561 
10 1382 1434 911 773 5511 7560 7879 8241 8242 3808 
10 205 316 92 317 8244 1976 6026 8246 1979 1977 
10 689 1310 688 553 8389 8393 3086 3085 8395 3081 
10 1231 590 589 1106 7202 2799 7822 4903 8129 8130 
10 1235 596 1236 732 6606 6608 4919 8401 3233 8402 
10 772 1382 911 773 7962 7879 3837 3359 8241 3808 
10 1440 723 1285 724 7938 7939 5537 7996 3210 6698 
10 973 1218 441 1103 4846 6553 6925 4515 4849 8403 
10 450 980 449 1109 6438 8404 2373 6437 4531 8336 
10 692 582 1206 1335 3178 8127 7813 7814 8405 5207 
10 877 1465 1378 1433 6893 5634 7756 6856 5808 5751 
10 202 314 203 990 6932 7785 1744 4173 6931 4172 
10 315 241 136 4 6836 5980 1972 1971 5977 1672 
10 811 692 1335 810 3464 7814 7102 3465 3461 8406 
10 363 140 1030 246 2114 8407 7158 7160 5989 4293 
10 582 692 810 1335 3178 3461 3462 8405 7814 8406 
10 998 324 211 100 6557 8409 4198 8408 1999 6037 
10 1383 877 1433 810 7763 6856 5508 7764 3789 6857 
10 582 1159 1094 1222 8225 4679 7332 6389 4866 4867 
10 813 1432 1420 1508 8410 5502 7113 7470 5788 5789 
10 1000 327 326 213 7953 2009 8411 4204 8412 8413 
10 1396 789 1287 790 7027 7026 5392 8414 3401 8415 
10 627 626 1261 1139 2909 8132 8070 6433 7482 4988 
10 703 1339 834 1439 8416 8018 3578 8417 5536 8418 
10 843 826 916 1395 3832 3828 3937 8419 8420 8421 
10 1473 946 1536 920 8422 7524 5917 7522 3946 8423 
10 885 782 1475 916 3719 7355 8424 3829 3827 8425 
10 362 1030 1029 1158 7902 4295 6550 6551 4675 4676 
10 1540 1526 859 1472 5921 7636 7413 5908 5857 7414 
10 805 1415 688 806 8426 8427 3447 3452 8428 3451 
10 319 464 1121 993 2413 8149 7706 8429 8430 4567 
10 747 612 1249 1250 3275 8013 8257 6340 6901 4957 
10 318 206 993 94 7919 4183 7921 1981 6029 8431 
10 606 1101 1245 604 6927 4942 6926 2846 8432 7319 
10 572 1160 365 519 7550 8433 2726 2729 7384 2575 
10 646 1207 1348 1246 8434 5252 8435 6710 4946 5263 
10 937 954 1524 862 4005 6973 6768 3909 3999 6561 
10 1121 319 993 994 7706 8429 4567 4566 6863 4187 
10 206 207 993 94 1749 4182 4183 6029 6030 8431 
10 1523 952 968 1522 7037 4104 7038 5846 7982 7980 
10 1415 689 688 806 8436 3086 8427 8428 3450 3451 
10 1133 478 1004 1134 8437 7806 4602 4607 7807 4606 
10 946 1471 1473 1536 7523 5656 8422 7524 5916 5917 
10 1361 838 1421 1511 8438 6487 5517 5806 6995 5805 
10 833 838 889 1421 3561 3869 4009 8439 6487 8298 
10 1523 952 1522 1483 7037 7982 5846 5845 8440 5841 
10 1391 781 740 656 7429 3380 6739 7581 3378 3257 
10 565 1214 1213 699 8264 4836 7161 3111 6458 7162 
10 1415 883 1387 806 8396 8374 5801 8428 3987 8373 
10 800 1295 677 799 8441 6345 3429 3431 6346 3427 
10 528 1177 668 529 7590 6640 3022 2603 8442 3023 
10 1432 1504 785 1447 5779 8444 8443 5569 5770 6828 
10 959 923 1527 1532 4078 8145 8445 8446 8144 5879 
10 707 1410 1409 1305 8447 5434 7845 7846 5432 5430 
10 1386 849 850 1513 8448 3606 7889 5815 8449 7178 
10 964 969 960 1538 4111 4110 4058 8450 7991 8286 
10 217 108 218 1004 6047 6048 1760 4216 8278 4215 
10 407 1071 548 1197 7698 7395 2659 8451 4787 7256 
10 1127 469 612 611 8452 2862 7449 8316 2860 2864 
10 1520 940 1514 967 7613 8330 5958 7615 4071 6789 
10 253 148 1037 369 6005 6669 4314 8243 2132 7588 
10 632 1265 631 721 8453 8361 2924 3334 8191 3333 
10 1526 940 1514 1520 7635 8330 5858 5970 7613 5958 
10 1012 341 342 487 8454 2054 6517 6518 2481 2482 
10 1218 1245 1101 604 5250 4942 4848 7828 7319 8432 
10 1520 1523 967 1514 5948 8455 7615 5958 5959 6789 
10 236 1023 1022 355 4273 4274 4269 8023 8456 8016 
10 218 1005 1004 333 4219 4220 4215 6961 6960 8356 
10 771 1273 1274 641 8457 5029 8366 3351 8268 8367 
10 613 470 1128 471 2865 8458 7578 2866 2435 6523 
10 1214 1317 1213 699 5146 5147 4836 6458 6457 7162 
10 502 1154 1153 644 8459 4667 8460 2959 6535 7311 
10 1151 1022 499 1021 4656 8160 6601 4657 4271 8161 
10 1430 1438 1505 922 5533 5918 5772 8461 7379 8462 
10 965 1430 1451 1505 8463 5743 7376 7377 5772 5773 
10 986 308 457 985 6369 2392 6623 4162 7260 7262 
10 1332 654 779 1428 7157 3374 8464 5490 8465 6843 
10 975 1104 974 443 4516 4517 4129 8466 8467 7745 
10 165 164 271 410 1702 3756 3755 2252 2253 8468 
10 855 733 1356 856 3620 6764 8469 3624 3622 8288 
10 884 947 1535 886 3958 8471 8470 3722 3957 8472 
10 327 214 328 103 7952 6758 2012 2008 6042 2010 
10 314 203 990 315 7785 4172 6931 1973 6957 7945 
10 466 994 1124 995 6703 4576 8068 8067 4190 4575 
10 1487 836 1535 1486 6886 8473 5924 5697 7411 5892 
10 1391 781 886 740 7429 3721 7844 6739 3380 3720 
10 618 1254 1132 1131 7728 4967 6400 6401 4968 4601 
10 1474 1494 1535 886 5724 5889 5890 7843 8474 8472 
10 849 931 1513 1470 3887 7499 8449 7818 8475 5817 
10 1448 781 884 1494 7430 3714 8476 5722 7431 8477 
10 128 352 234 127 2083 7084 6081 1663 2082 6080 
10 1138 484 626 483 8255 2905 7579 6774 2474 2904 
10 676 1295 677 1184 6344 6345 3051 7905 5087 8478 
10 1374 917 1442 1373 7238 7218 5748 5329 7255 5749 
10 1042 258 259 153 4329 1802 4328 6333 5992 5993 
10 1 38 16 262 1843 1845 1548 1806 8479 4336 
10 481 1006 1136 1007 8021 4612 7008 8020 4226 4611 
10 666 1287 789 667 7047 7026 3396 3021 7584 3397 
10 239 970 359 240 4484 7057 7056 1782 4482 8480 
10 183 970 289 290 4113 8481 8198 8199 8482 1897 
10 1386 726 849 1352 7820 3601 8448 5367 6717 7817 
10 818 909 1417 817 3800 6591 8310 3486 3799 6864 
10 1320 569 1217 1324 7096 8235 5155 5170 8239 5169 
10 11 288 10 1093 1835 6209 1841 4477 4478 7091 
10 429 1171 436 1093 7403 7404 2332 6512 4713 7092 
10 1097 10 11 415 6425 1841 4493 6426 2267 7149 
10 1067 264 403 158 4401 8483 6924 6605 4020 2231 
10 1530 946 1477 949 7516 7885 5871 7517 4036 8108 
10 1319 1320 702 568 5157 7691 7978 6727 7098 3120 
10 1036 1165 369 1037 4695 7303 7305 4315 4694 7588 
10 429 288 10 181 6510 6209 2308 2307 6232 1721 
10 1410 831 1411 685 7434 7435 5437 6941 3444 8168 
10 290 970 289 504 8482 8481 1897 2741 8484 2740 
10 1063 1188 542 1189 4762 6748 6749 4766 4767 8485 
10 987 310 199 86 7484 7485 4164 8312 1956 6141 
10 902 1485 1404 1403 7011 5690 7364 7013 5691 5417 
10 310 85 199 86 1955 6140 7485 1956 1620 6141 
10 104 214 103 328 6043 6042 1639 2011 6758 2010 
10 314 203 315 90 7785 6957 1973 1968 6106 1970 
10 1196 1303 1304 684 5107 5111 5109 7666 8486 8213 
10 5 90 4 315 6105 1625 1837 6958 1970 1971 
10 909 1418 1417 817 7933 5458 6591 3799 6866 6864 
10 189 297 72 73 8487 1916 6120 6121 1917 1607 
10 1493 804 889 883 7462 3730 8297 8387 3713 3732 
10 110 220 1006 335 6052 4221 7272 2031 8329 7271 
10 280 173 420 172 6219 2281 8384 6217 1712 2280 
10 909 874 1464 927 3959 7317 6977 3882 3935 7935 
10 800 678 677 1296 3430 3054 3429 8488 7619 8209 
10 198 308 197 83 6368 6422 1739 6138 1949 6137 
10 926 1476 840 925 6834 6580 4038 3991 6593 3865 
10 167 412 1076 413 2258 6770 7671 2262 2263 7648 
10 1295 800 677 1296 8441 3429 6345 5091 8488 8209 
10 393 30 1058 1059 7896 4375 7110 8122 4379 4380 
10 1130 616 1253 1252 7761 8008 4965 4961 8010 4966 
10 1468 846 845 1440 8489 3594 8490 5768 7995 8491 
10 1412 686 1307 1411 8492 7077 5438 5440 8493 5436 
10 367 1035 146 251 8033 8495 2126 8494 4308 6017 
10 797 675 674 1293 3421 3045 3420 8496 7616 7357 
10 170 418 171 277 2274 2275 1710 6211 8497 6214 
10 1339 657 1448 1283 8017 7863 5571 5221 8498 5572 
10 367 145 251 146 2125 6016 8494 2126 1682 6017 
10 367 368 146 1035 2130 2128 2126 8033 8032 8495 
10 1017 494 493 348 6494 2504 6404 6402 2502 2500 
10 1449 816 927 875 8499 3877 8500 6644 3798 3936 
10 706 1281 655 515 7170 7577 3138 3137 7576 2987 
10 874 1449 1464 927 7925 5826 7317 3935 8500 7935 
10 38 156 1044 262 2154 6439 6440 8479 5979 4333 
10 16 38 1044 262 1845 6440 4490 4336 8479 4333 
10 554 689 1203 1204 3084 8388 7146 7216 7217 4809 
10 624 481 1136 1137 2898 7008 7022 7804 8501 4616 
10 1259 760 625 1260 7004 3314 6611 4987 7239 6613 
10 1375 913 1423 1374 7408 6531 5625 5332 7223 5626 
10 1203 689 554 553 8388 3084 7146 7345 3085 2678 
10 427 286 287 179 7339 1833 7338 2301 6231 6230 
10 928 1496 1422 1510 7503 5730 6689 6690 5804 5799 
10 915 948 964 1469 4004 4056 4057 7401 6993 7876 
10 821 1434 773 911 7558 8242 3711 3805 7560 3808 
10 1094 582 1206 438 7332 8127 4812 7334 2771 8128 
10 821 1330 1434 1445 7742 5747 7558 7559 5562 5764 
10 71 296 188 975 1913 7620 6118 8502 6979 4127 
10 1072 269 1071 408 4416 4414 4418 6889 7372 6891 
10 689 1203 1310 553 8388 5128 8389 3085 7345 8395 
10 529 530 1178 669 2606 8503 8383 3025 3026 8504 
10 1270 767 1271 1378 8505 8398 5020 5343 8260 5342 
10 929 1531 949 947 8506 8507 4074 4017 7450 4086 
10 1072 269 163 270 4416 3917 7538 4417 1814 3891 
10 1075 272 411 166 4425 8327 7960 8508 3655 2255 
10 866 750 865 1363 3657 3654 3659 8141 7881 6724 
10 885 1388 1474 740 8509 5658 7891 3862 6738 7711 
10 165 272 166 411 3656 3655 1703 2256 8327 2255 
10 409 164 410 1073 2249 2253 2254 7680 8510 7337 
10 409 1072 163 270 7381 7538 2250 6311 4417 3891 
10 782 885 1475 809 3719 8424 7355 3550 3718 8511 
10 1218 585 1103 1330 8365 7685 4849 5192 8512 5191 
10 1493 833 1421 1387 8386 8439 5728 5727 8372 5516 
10 819 1317 699 818 8513 6457 3487 3489 8514 3485 
10 1317 698 699 818 8515 3113 6457 8514 3484 3485 
10 514 1165 369 513 7586 7303 2560 2756 7304 2558 
10 533 1180 1181 1055 7705 4743 7760 6282 4738 4742 
10 71 187 70 295 6117 6116 1605 1911 8080 1910 
10 227 1013 119 344 4242 6813 6066 8516 7958 2058 
10 613 1127 1250 1128 7448 4956 7512 7578 4589 4955 
10 745 610 609 1325 3269 2858 3268 6470 7765 8517 
10 321 995 320 466 7445 7646 1991 2419 8067 2418 
10 994 319 993 207 6863 8429 4187 4186 8518 4182 
10 282 175 422 174 6223 2287 6538 6220 1714 2286 
10 705 1163 1164 512 8519 4693 8520 3135 8042 8054 
10 187 71 975 295 6117 8502 4128 8080 1911 6981 
10 503 1154 1024 502 8362 4666 8521 2531 8459 8522 
10 1284 510 1172 1192 8523 8005 5056 5055 7749 4882 
10 1276 746 611 1249 7651 3272 7264 5035 8291 8317 
10 469 323 468 1126 2427 2425 2429 7226 7228 6945 
10 1388 1281 655 843 5371 7577 7490 8524 7199 3580 
10 332 1003 331 477 8525 6493 2024 2452 8526 2451 
10 829 925 1409 831 3864 8038 8294 3537 3955 8527 
10 815 695 1329 696 3475 6366 6367 3476 3104 6351 
10 983 81 196 306 8012 6134 4151 8528 1943 8529 
10 395 538 1060 394 2629 8201 8119 2210 2628 8121 
10 1196 1303 546 1195 5107 8530 7388 4785 5106 7432 
10 907 1515 860 958 7479 7480 3794 4041 8103 4040 
10 407 162 268 161 2243 3928 8531 2244 1699 3929 
10 81 82 196 306 1616 6135 6134 1943 1944 8529 
10 473 616 1130 615 2874 7761 7191 2872 2876 8148 
10 767 1270 1377 1378 8505 5339 8259 8260 5343 5344 
10 1303 704 1302 1389 8369 8371 5108 5374 8532 5373 
10 646 1333 1246 828 7815 5200 6710 3527 6825 6711 
10 796 797 674 1293 3422 3420 3418 7356 8496 7357 
10 327 103 102 213 2008 1638 2007 8412 6041 6098 
10 1207 646 1220 1246 8434 7816 4856 4946 6710 4945 
10 18 378 1046 17 6650 6482 4339 1550 7529 4340 
10 1174 524 664 1173 7081 3010 7080 4722 6459 6461 
10 1399 898 1481 897 8533 7892 5679 8534 3762 8280 
10 720 741 1430 1228 3509 7282 8170 8084 8086 5495 
10 101 326 102 213 2004 2005 1637 6040 8413 6098 
10 29 54 392 53 1872 2200 7106 1871 1587 2199 
10 997 99 323 210 7269 1996 7227 4195 6093 7909 
10 1221 1333 710 1349 5201 6276 6275 5256 5485 8223 
10 1034 1163 1120 511 4689 4690 4564 8535 8536 8350 
10 693 1221 710 1349 8537 6275 3151 8219 5256 8223 
10 779 921 1428 839 3846 6630 6843 3564 3845 8538 
10 1374 1375 762 1261 5332 7410 7295 5327 5331 7539 
10 466 994 995 320 6703 4190 8067 2418 6704 7646 
10 752 1366 751 867 8064 8063 3291 3661 6620 3660 
10 1368 869 754 870 7067 3667 7725 7827 3671 3669 
10 1474 836 1487 885 7890 6886 5855 7891 3866 7621 
10 343 1012 1013 226 8539 4244 6812 6814 4239 4243 
10 871 1369 755 870 7604 7825 3672 3674 7606 3670 
10 634 1266 633 721 7533 7267 2930 3494 7268 3335 
10 1462 959 1527 1532 6966 8445 5861 5891 8446 5879 
10 330 475 1002 329 2446 8540 6782 2018 2445 6473 
10 473 327 1000 328 2439 7953 8182 2440 2012 6759 
10 1374 761 1260 1261 7253 7240 5328 5327 8137 4990 
10 1001 473 1000 328 7190 8182 4208 6757 2440 6759 
10 1011 340 1010 224 6290 8541 4238 4237 8542 4233 
10 1163 1243 1279 705 4939 5043 5041 8519 6465 6467 
10 1009 484 339 485 7249 2473 6876 6875 2477 2475 
10 634 577 1266 721 3166 8078 7533 3494 3197 7268 
10 345 1014 344 490 6801 7956 2063 2491 6800 2490 
10 1355 731 732 854 7856 3234 8046 6830 3616 3617 
10 921 1438 1428 839 6354 5732 6630 3845 7287 8538 
10 1465 1512 906 1466 5809 8543 6894 5637 5828 8263 
10 434 1226 438 1098 8229 8230 2335 6414 4886 8087 
10 929 1518 1528 1542 8544 5955 6777 8545 5954 5914 
10 1471 946 894 895 7523 4032 8379 7886 4033 3750 
10 1438 1338 1428 839 5531 5503 5732 7287 7288 8538 
10 125 126 232 350 1661 6077 6076 2076 2077 8546 
10 550 409 410 1073 2665 2254 2664 8547 7680 7337 
10 1056 52 391 390 8100 2196 7758 8101 2194 2198 
10 126 1019 232 350 8029 4261 6077 2077 8548 8546 
10 692 1226 1343 1206 8549 5234 7803 7813 4888 5233 
10 653 513 512 1164 2984 2559 2983 8550 8551 8054 
10 847 846 945 1506 3597 4012 4048 6395 8552 6785 
10 244 1028 361 1029 4287 6305 6541 4291 4292 6307 
10 1338 654 1428 839 8189 8465 5503 7288 3563 8538 
10 715 1437 1343 1337 6896 5527 6417 6418 5528 5372 
10 357 132 356 1024 2097 2095 2099 8553 6540 7567 
10 437 577 1224 1159 2751 8175 8176 8174 8173 4877 
10 1405 783 807 653 6902 3455 6903 7488 3383 3454 
10 1342 1441 1347 832 5541 5542 5477 7738 7679 7678 
10 613 1251 1250 749 8554 4960 7512 3280 8555 8556 
10 371 1039 255 1038 6574 4320 6575 6780 4321 4316 
10 1350 1446 719 1345 5576 7049 6822 5258 5566 7050 
10 1333 844 710 1349 6824 3583 6276 5485 8222 8223 
10 1212 563 1087 564 7677 7657 4829 7674 2704 7659 
10 550 1199 549 409 6922 6841 2666 2665 7383 2661 
10 1198 1305 683 548 5113 8558 8557 7396 8559 3069 
10 778 686 1412 1411 3372 8492 8560 8037 8493 5440 
10 517 1168 1040 372 6750 4702 6810 2568 8561 6811 
10 1036 368 1035 252 7361 8032 4312 4311 8179 4307 
10 605 690 777 1300 3157 3370 3371 8269 7194 7732 
10 882 921 926 1498 3847 4018 3990 6632 6356 6835 
10 517 1168 1169 1040 6750 4707 6743 6810 4702 4706 
10 22 1050 383 1051 4351 8562 8072 4355 4356 6486 
10 1218 585 1330 584 8365 8512 5192 7231 2784 7232 
10 1100 437 1224 1159 8563 8176 4876 4678 8174 4877 
10 957 1452 1451 887 6706 5588 6708 4085 7877 7878 
10 609 1247 744 1325 8248 7419 3266 8517 5174 8564 
10 1175 1176 1326 666 4728 5176 5177 7235 7048 6380 
10 608 1121 465 607 7768 7707 2850 2852 8565 2849 
10 291 440 1101 439 2341 7565 6651 2340 2343 6653 
10 247 142 364 141 6008 2118 8039 6002 1678 2117 
10 394 538 1059 537 2628 7141 6701 2626 2630 6310 
10 1323 608 1247 743 7767 7769 5167 8566 3264 7417 
10 1232 1386 1231 727 5365 5366 4907 7478 7477 7821 
10 753 1254 1367 1368 8195 5306 7068 7069 5310 5311 
10 77 302 980 301 1931 6693 6692 1929 1933 7184 
10 1430 965 887 922 8463 4065 7692 8461 4066 3850 
10 588 1105 444 587 7210 8567 2791 2793 8568 2789 
10 1537 1517 908 1544 5964 6799 8569 5943 5957 8570 
10 1295 1185 677 1184 5086 7589 6345 5087 4755 8478 
10 536 676 537 1184 3046 3047 2627 8571 7905 6309 
10 704 1303 840 1389 8369 8572 3567 8532 5374 6581 
10 22 46 23 384 1858 1859 1555 7082 2176 8573 
10 947 1531 949 1530 7450 8507 4086 7451 5875 7517 
10 692 1226 1206 438 8549 4888 7813 3093 8230 8128 
10 1100 1094 9 430 4504 4480 4501 8574 7333 7531 
10 910 1417 1510 1422 6589 5796 6588 6688 5564 5799 
10 1355 1236 732 1235 5273 8402 8046 5274 4919 8401 
10 1094 1206 1098 438 4812 4813 4502 7334 8128 8087 
10 1369 1368 754 870 5314 7725 7724 7606 7827 3669 
10 1258 757 1371 1257 8575 7709 5318 4981 7207 5319 
10 40 18 17 378 1849 1550 1848 2158 6650 7529 
10 108 109 218 333 1644 6049 6048 2025 2026 6961 
10 26 49 1054 25 1865 8157 4363 1558 1864 4364 
10 755 1369 754 870 7825 7724 3300 3670 7606 3669 
10 862 863 746 1384 3647 3645 3643 7446 6521 7653 
10 1038 370 1037 254 7074 7259 4318 4317 6564 4313 
10 612 1127 611 1249 7449 8316 2864 8013 4953 8317 
10 968 929 914 1542 4081 3883 4080 8576 8545 8577 
10 731 1355 732 1235 7856 8046 3234 8578 5274 8401 
10 1005 478 479 1134 7805 2459 8358 4605 7807 8579 
10 826 782 1395 658 3520 7354 8420 3518 3382 8580 
10 1142 1264 631 1265 4997 8581 7017 5001 5002 8361 
10 191 299 190 75 8582 8583 1732 6124 1923 6123 
10 1383 717 1222 1376 7766 6388 5357 5631 8584 5465 
10 1080 417 575 416 8585 2736 8586 7108 2273 2735 
10 416 1080 1205 575 7108 4810 7020 2735 8586 7021 
10 111 112 221 336 1647 6100 6054 2034 2035 7000 
10 1080 1207 1205 575 4815 4816 4810 8586 8172 7021 
10 1122 1248 1123 651 4949 4950 4574 8587 7248 8588 
10 714 654 779 1332 3170 3374 3375 8589 7157 8464 
10 362 139 361 1029 2111 2109 2113 6550 6592 6307 
10 585 442 1103 586 2783 8266 7685 2787 2785 7686 
10 1346 647 1205 1348 8190 8590 5244 5262 8591 5253 
10 387 49 25 1054 2185 1864 8592 8156 8157 4364 
10 140 1030 246 245 8407 4293 5989 5988 4294 1789 
10 1360 648 1277 784 8315 8352 5523 8303 3385 8305 
10 947 836 1535 886 3948 8473 8471 3957 3989 8472 
10 602 1240 1241 1116 7673 4934 8057 8123 4929 4933 
10 385 528 529 1052 2599 2603 2601 7849 7858 8382 
10 1053 24 48 386 4361 1862 8593 7506 7507 2182 
10 1063 398 1062 34 6747 7596 4392 4391 8594 4387 
10 536 535 675 1183 2624 3043 3044 8595 7135 7137 
10 764 1262 763 1425 8596 6761 3327 8597 5480 8598 
10 1305 683 548 707 8558 3069 8559 7846 3143 3140 
10 148 253 147 369 6005 6004 1684 2132 8243 2131 
10 299 74 190 75 1922 6151 8583 1923 1609 6123 
10 1215 1091 568 427 4837 8238 6726 7790 7340 2714 
10 1448 781 834 884 7430 3545 7864 8476 3714 3715 
10 154 260 259 1096 5995 1803 5994 7483 4491 4488 
10 700 566 1214 567 3114 7656 6456 3115 2713 7441 
10 1027 556 1119 1026 6846 6848 4874 4286 8599 4875 
10 539 396 1061 540 2632 6936 7602 2636 2634 7710 
10 587 444 443 1104 2789 2355 2788 8323 8600 8467 
10 455 983 306 454 7143 8528 2386 2388 7931 2384 
10 1215 568 567 427 6726 2716 7440 7790 2714 2712 
10 1091 1215 1090 427 4837 4838 4473 7340 7790 7754 
10 379 41 40 18 2161 1574 2160 6648 1850 1849 
10 154 1096 433 375 7483 6336 2321 2149 8125 2549 
10 17 378 377 39 7529 2159 8601 1847 2157 2156 
10 375 1155 573 1043 8252 8254 2730 8126 4669 6852 
10 1518 1531 1480 949 5876 5873 5833 8602 8507 8107 
10 1053 387 25 1054 8603 8592 4360 4365 8156 4364 
10 442 294 293 974 2348 1909 2347 7422 7743 6302 
10 734 1237 598 597 8002 7290 3239 3238 7291 2823 
10 646 765 1246 1348 3363 6709 6710 8435 8604 5263 
10 505 1064 543 1123 7713 7714 2755 8116 4573 8605 
10 195 305 304 80 8606 1942 7229 6132 1940 1938 
10 580 1226 1190 1337 7083 4887 8607 6416 5215 5216 
10 722 1330 1445 1230 8608 5562 6372 7993 5190 5561 
10 855 1355 733 732 7988 6763 3620 3619 8046 3237 
10 1044 573 1043 376 6850 6852 4335 6441 2731 7977 
10 379 1047 18 1046 6934 4343 6648 6649 4344 4339 
10 1424 1386 850 1513 5475 7889 7177 5814 5815 7178 
10 1215 701 567 568 6442 3117 7440 6726 3118 2716 
10 797 675 1293 798 3421 7616 8496 3425 3423 8609 
10 1484 953 1483 900 8256 8292 5689 8344 3981 8610 
10 1531 1480 949 1477 5873 8107 8507 5874 5677 8108 
10 899 1401 798 1400 7833 7797 3763 7799 5408 7528 
10 895 1394 793 894 8611 8612 3748 3750 8378 3746 
10 745 1435 861 862 6469 7592 3641 3642 7447 3644 
10 464 1122 318 463 8613 8614 2412 2414 8615 2411 
10 1064 505 991 1123 7713 8115 4507 4573 8116 4572 
10 992 505 991 317 8114 8115 4181 8616 2537 8247 
10 186 294 69 70 7859 1907 6150 6115 1908 1604 
10 184 66 67 291 6110 1601 6111 7342 1898 1899 
10 1122 992 463 1123 4569 8232 8615 4574 4571 8233 
10 464 1122 463 651 8613 8615 2414 3133 8587 2980 
10 324 998 325 100 6557 6948 2003 1999 8408 2001 
10 81 305 306 983 1941 1945 1943 8012 6670 8528 
10 461 313 989 556 2405 7278 7212 3155 2746 8617 
10 137 242 431 1027 5982 7224 2315 8618 4285 6873 
10 1129 1251 1128 614 4958 4959 4592 6524 7906 6525 
10 1501 964 1469 1538 7788 7876 5756 5902 8450 5901 
10 319 318 993 94 1985 7921 8429 1983 1981 8431 
10 95 319 994 207 1984 6863 8619 6031 8518 4186 
10 1133 1256 1255 620 4974 4975 4970 8620 6687 8621 
10 703 890 842 1340 4039 3735 3127 6695 8275 6696 
10 400 35 36 61 7810 1568 6321 2223 1884 1885 
10 1254 618 1255 754 7728 7722 4972 8622 3295 7720 
10 1407 1286 787 1299 5423 8623 7860 5424 5232 6735 
10 402 263 14 157 7518 4026 2230 2229 4025 1694 
10 341 225 117 116 8624 6101 2050 2049 6062 1652 
10 338 1009 114 222 7250 8626 2041 8625 4231 6057 
10 1286 1407 787 788 5423 7860 8623 7544 7545 3395 
10 745 1435 744 861 6469 8133 3270 3641 7592 3640 
10 936 1451 1356 1488 7556 5585 8627 7557 5703 5701 
10 1232 728 592 1233 6515 3221 6514 4910 6805 8089 
10 6 240 135 182 6022 6023 1671 6104 4112 8184 
10 1353 1424 1233 729 5476 5473 5269 7322 7647 6394 
10 1108 1232 592 1233 4905 6514 8335 4909 4910 8089 
10 1233 593 592 1109 6393 2808 8089 4908 6447 8337 
10 990 203 241 315 4172 4175 4483 7945 6957 6836 
10 314 203 90 89 7785 6106 1968 1967 6148 1624 
10 431 990 315 314 7943 7945 2743 2748 6931 1973 
10 602 739 603 1241 3253 3254 2838 8057 8061 8058 
10 362 139 1029 245 2111 6592 6550 7681 5987 4290 
10 862 1435 1485 1503 7447 5755 7723 6563 5766 5829 
10 1485 1435 862 861 5755 7447 7723 7593 7592 3644 
10 963 1534 960 1543 7775 8351 4109 7984 5927 8287 
10 1355 731 1354 1235 7856 7857 5275 5274 8578 5270 
10 1371 757 872 1370 7709 3676 8628 5320 7746 7929 
10 704 660 1302 827 3131 8028 8371 3524 3522 8210 
10 404 1067 265 1068 6923 4402 6867 6636 4406 4404 
10 1371 873 872 757 7318 3680 8628 7709 3678 3676 
10 560 693 694 1208 3095 3098 3096 7454 8346 8347 
10 574 1195 1302 1194 8629 5105 8376 8296 4782 5104 
10 1069 1196 546 1195 4783 7388 6647 4781 4785 7432 
10 417 1207 558 1081 8171 7385 2685 8630 4814 7386 
10 1036 253 1037 369 4310 4314 4315 7305 8243 7588 
10 558 1221 559 1082 7808 8341 2689 7809 4858 8631 
10 263 264 157 1066 1808 4021 4025 4398 4399 8632 
10 406 1069 160 267 6617 6619 2241 6506 4408 3967 
10 748 747 864 1365 3279 3648 3649 6337 6339 7870 
10 998 470 1128 1127 6947 8458 4588 4584 7346 4589 
10 1336 1487 1406 809 5695 5696 5563 8633 6888 8634 
10 689 1311 1415 1310 7625 5448 8436 8389 5132 5447 
10 1166 514 1165 1037 6528 7586 4698 4697 7587 4694 
10 582 1094 1206 1222 7332 4812 8127 6389 4867 4868 
10 503 1154 645 606 8362 6534 2962 2847 8635 2963 
10 1487 786 1406 809 6887 7042 5696 6888 3553 8634 
10 654 1162 570 1338 6989 6990 2985 8189 5217 7924 
10 417 1080 276 169 8585 4439 8636 2271 7109 6210 
10 276 170 1081 417 6212 8637 4442 8636 2272 8630 
10 709 1336 1406 809 8638 5563 8639 3459 8633 8634 
10 8 430 9 14 2311 7531 1840 1722 2310 6207 
10 335 220 1006 1007 8329 4221 7271 7729 4225 4226 
10 481 1137 482 1007 8501 8265 2468 8020 4615 8640 
10 1118 460 1117 988 7661 7663 4560 4559 7562 4555 
10 470 998 1128 471 6947 4588 8458 2435 6949 6523 
10 264 403 158 157 8483 2231 4020 4021 2232 1695 
10 753 1253 617 752 7298 6430 3292 3294 7299 3290 
10 786 709 1406 809 3390 8639 7042 3553 3459 8634 
10 283 423 1088 1087 8641 8642 4463 4459 7658 4464 
10 849 1386 1352 1470 8448 5367 7817 7818 5646 5647 
10 1347 712 832 718 7737 3542 7678 7466 3184 3541 
10 338 1009 1008 483 7250 4232 6452 2470 8643 7018 
10 337 1008 1007 482 6453 4229 7001 2467 8135 8640 
10 337 482 1007 336 2467 8640 7001 2039 2466 7002 
10 1382 772 881 771 7962 3706 6546 8644 3356 3705 
10 780 923 1495 820 3852 8645 6898 3492 3851 8646 
10 1330 585 722 821 8512 3203 8608 7742 3497 3498 
10 644 822 1334 773 3525 6315 6536 3358 3547 8647 
10 412 1075 411 166 6786 7960 2260 2259 8508 2255 
10 1019 351 496 350 8024 2509 8648 8548 2081 2508 
10 360 462 1028 1119 2407 8088 7600 6849 7946 4870 
10 123 348 1016 347 2070 6403 7073 2068 2072 7063 
10 347 229 123 122 7062 6071 2068 2067 6102 1658 
10 461 711 1118 460 3154 7851 7214 2406 3153 7661 
10 298 189 977 190 8649 4134 6862 8650 1731 4133 
10 1016 492 1146 1145 8651 8652 4642 4638 8653 4643 
10 1146 492 1016 493 8652 8651 4642 8188 2501 6405 
10 1388 843 655 740 8524 3580 7490 6738 3581 3256 
10 374 258 153 152 6585 5992 2147 2146 5991 1689 
10 74 299 190 298 1922 8583 6151 1920 1924 8650 
10 313 989 201 312 7278 4170 7279 1966 7668 8187 
10 66 65 290 183 1600 1895 1896 6109 6149 8199 
10 312 87 988 201 1961 6313 8654 8187 6144 4166 
10 1419 780 1495 820 7155 6898 5726 7654 3492 8646 
10 349 495 1147 494 2505 8655 6407 2503 2507 6495 
10 64 182 135 289 6107 8184 1892 1893 8185 2312 
10 970 183 289 182 4113 8198 8481 4114 1724 8185 
10 106 330 216 105 2017 6684 6045 1641 2016 6096 
10 621 1135 1134 1257 8360 4610 8261 7206 4976 4977 
10 1533 942 1453 1516 8339 7975 5884 5886 7974 5824 
10 1084 172 280 420 6270 6217 4450 6554 2280 8384 
10 440 1218 1101 604 6552 4848 7565 2840 7828 8432 
10 1009 222 223 114 4231 1765 4230 8626 6057 6058 
10 354 1022 355 130 8015 8016 2093 2089 8022 2091 
10 1020 1149 351 497 4650 8026 7835 8165 7152 2511 
10 79 194 303 304 6152 6269 1935 1937 6939 1939 
10 114 1009 339 223 8626 6876 2043 6058 4230 8043 
10 1102 439 606 504 6271 2845 6928 6273 2742 2844 
10 184 66 291 971 6110 1898 7342 4115 8656 6652 
10 195 194 304 982 1736 6939 7229 4148 4149 7495 
10 978 299 191 300 8227 8582 4136 7325 1927 8224 
10 506 648 1277 1156 2971 8352 8657 6543 8658 5037 
10 797 1399 898 1400 8659 8533 3760 7526 5405 7527 
10 461 1118 988 460 7214 4559 7213 2406 7661 7562 
10 131 132 237 356 1667 6087 6086 2094 2095 8660 
10 126 233 232 1019 6078 1775 6077 8029 4260 4261 
10 923 1496 1495 820 7502 5731 8645 3851 7504 8646 
10 85 198 84 309 6139 6153 1619 1953 6370 1952 
10 1496 1419 1495 820 5729 5726 5731 7504 7654 8646 
10 1281 1166 1167 515 5047 4701 5046 7576 6529 6882 
10 1166 1281 706 515 5047 7170 6530 6529 7576 3137 
10 382 1175 525 526 7638 7637 2590 2592 7234 2594 
10 1182 535 1057 1183 6659 7367 4744 4749 7135 4748 
10 527 1050 383 526 8661 8562 2595 2597 8662 2593 
10 362 140 245 1030 2112 5988 7681 7902 8407 4294 
10 756 1369 1256 755 8359 5312 6686 3303 7825 8663 
10 1009 1138 1008 483 4617 4618 4232 8643 6774 7018 
10 684 829 1304 707 3533 8215 8213 3142 3532 7847 
10 989 461 988 312 7212 7213 4171 7668 2404 8654 
10 492 346 491 1015 2496 2494 2498 8664 8665 8666 
10 1050 382 383 526 6298 2174 8562 8662 2592 2593 
10 88 313 202 201 1964 6985 6146 6145 7279 1743 
10 707 1410 1305 683 8447 5432 7846 3143 6940 8558 
10 340 115 224 116 2046 6060 8542 2047 1651 6061 
10 707 1410 683 831 8447 6940 3143 3536 7434 3445 
10 1506 1537 1467 944 5899 5896 5827 7884 8284 6331 
10 757 756 872 1370 3306 3675 3676 7746 7747 7929 
10 1330 822 1434 1334 7740 7741 5747 5600 6315 5512 
10 1305 548 1197 707 8559 7256 5112 7846 3140 7258 
10 846 847 1426 1506 3597 6397 7997 8552 6395 5775 
10 500 1023 501 355 7134 7133 2525 2521 8456 2523 
10 1021 1151 1150 498 4657 4658 4653 8167 8166 7061 
10 918 1490 1511 1455 8667 5923 8668 7971 5920 5812 
10 367 1034 1035 251 8669 4309 8033 8494 4304 4308 
10 1058 536 537 1184 7111 2627 8670 4751 8571 6309 
10 393 536 537 1058 2623 2627 2625 7110 7111 8670 
10 1322 662 513 1165 7772 3005 8671 5160 8326 7304 
10 1421 833 1279 1387 8439 6466 5466 5516 8372 5369 
10 1407 1340 787 842 5499 6737 7860 8672 6696 3576 
10 788 1407 787 842 7545 7860 3395 3577 8672 3576 
10 1198 1305 548 1197 5113 8559 7396 4791 5112 7256 
10 379 19 18 1047 8095 1551 6648 6934 4342 4343 
10 547 684 1304 707 3070 8213 8673 3141 3142 7847 
10 382 21 43 1049 6297 1855 2169 7639 4348 8674 
10 1197 547 1304 707 7257 8673 5110 7258 3141 7847 
10 574 660 1194 1302 2999 8027 8296 8376 8028 5104 
10 929 968 950 1542 4081 4083 4075 8545 8576 8675 
10 1264 765 1348 1246 6509 8604 5418 5333 6709 5263 
10 1056 1057 534 391 4374 7368 7369 7758 7501 2617 
10 671 670 793 1290 3033 3408 3409 7505 8676 7399 
10 1056 390 391 534 8101 2198 7758 7369 2616 2617 
10 1071 407 1070 1197 7698 8677 4415 4787 8451 4786 
10 1063 1189 542 399 4766 8485 6749 8159 8678 2641 
10 1122 464 607 651 8613 2848 8679 8587 3133 3186 
10 1248 1122 607 651 4949 8679 7428 7248 8587 3186 
10 560 1083 419 559 7452 6721 2690 2692 8342 2688 
10 1407 890 1340 842 8273 8275 5499 8672 3735 6696 
10 418 559 1083 1082 2687 8342 8680 8681 8631 4449 
10 819 910 1417 818 3802 6589 7542 3489 3801 8310 
10 1083 559 418 419 8342 2687 8680 6721 2688 2279 
10 1201 1075 1074 411 4799 4427 4798 7645 7960 8328 
10 555 1078 554 414 7144 7031 2769 2680 7032 2676 
10 293 973 292 441 6300 6295 1906 2345 6925 2344 
10 1083 1221 1082 559 4857 4858 4449 8342 8341 8631 
10 283 176 423 175 6225 2290 8641 6222 1715 2289 
10 1162 1157 570 1338 4686 7923 6990 5217 5218 7924 
10 176 283 423 1088 6225 8641 2290 8682 4463 8642 
10 926 827 840 1476 3871 3568 4038 6834 6571 6580 
10 915 825 1469 1351 3824 6991 7401 8066 6853 5644 
10 1342 712 1347 1219 7736 7737 5477 5249 8683 5246 
10 280 173 281 1085 6219 6218 1827 4454 8684 4453 
10 1052 1177 529 1178 4729 8442 8382 4733 4734 8383 
10 979 301 449 300 8685 2369 8686 7324 1930 2368 
10 503 1102 1154 606 7055 4668 8362 2847 6928 8635 
10 1270 767 766 637 8505 3341 7948 7425 3339 3338 
10 979 76 300 191 8687 1926 7324 4140 6125 8224 
10 459 987 310 458 7622 7484 2398 2400 6499 2396 
10 1118 603 1242 1117 7660 8062 4935 4560 7662 4936 
10 1031 1157 364 570 4673 6974 7329 7330 7923 2720 
10 312 87 311 988 1961 1959 1963 8654 6313 7563 
10 1157 1031 1162 570 4673 4685 4686 7923 7330 6990 
10 471 1129 999 1128 6522 4591 7574 6523 4592 4587 
10 610 1325 1125 609 7765 5172 8688 2858 8517 7917 
10 608 1121 1247 1124 7768 4948 7769 8689 4577 4947 
10 890 1407 788 842 8273 7545 3733 3735 8672 3577 
10 365 1160 1033 1032 8433 4680 6870 8045 4681 4303 
10 1116 602 1117 1241 8123 8056 4557 4933 8057 4932 
10 312 461 988 460 2404 7213 8654 2402 2406 7562 
10 1540 1526 1541 859 5921 5973 5974 7413 7636 7634 
10 1127 469 1126 997 8452 7226 4586 4585 7225 4581 
10 942 868 867 1453 3927 3665 3925 7975 7973 6621 
10 1261 763 627 1262 6760 3322 8070 4993 6761 6432 
10 1262 1140 628 1139 4991 8154 6434 4992 4625 6435 
10 1141 488 1142 630 8690 7197 4631 8207 2917 7198 
10 1155 522 523 578 8691 2585 6643 7786 3004 3146 
10 1173 524 663 523 6459 3009 6460 6569 2588 3008 
10 1096 1155 1161 578 4670 4861 4682 8251 7786 7029 
10 126 233 351 127 6078 7838 2079 1662 6079 2080 
10 772 643 642 1274 3355 2957 3354 7963 7964 8363 
10 1405 783 653 1322 6902 3383 7488 5559 7043 7489 
10 662 1322 513 653 7772 8671 3005 3007 7489 2984 
10 934 854 853 1489 3899 3618 3898 6907 6831 6908 
10 571 1042 1170 1161 7101 4708 6615 7394 4683 4711 
10 1299 581 1340 1161 6471 6736 5236 5099 7348 5223 
10 467 610 1125 609 2856 8688 7916 2854 2858 7917 
10 1135 621 1134 479 8360 8261 4610 7937 2890 8579 
10 41 19 18 379 1851 1551 1850 2161 8095 6648 
10 890 1443 788 1407 7784 7783 3733 8273 5733 7545 
10 1174 525 1048 1049 7079 7087 4721 4720 7088 4350 
10 1354 1353 853 1450 5272 8693 8692 5582 5583 6906 
10 526 1176 1175 666 8694 4728 7234 3016 7048 7235 
10 1108 448 449 592 6420 2370 8334 8335 2803 2804 
10 591 448 1108 592 2801 6420 7782 2805 2803 8335 
10 227 1014 1013 344 4246 4247 4242 8516 7956 7958 
10 120 1014 227 344 7955 4246 6067 2059 7956 8516 
10 1053 530 1179 1178 8202 8203 4736 4732 8503 4737 
10 638 1148 1271 639 7424 5019 8082 2945 8695 8081 
10 1347 712 718 545 7737 3184 7466 7465 3162 3183 
10 1353 852 853 1450 7320 3615 8693 5583 6916 6906 
10 547 1196 546 406 7665 7388 2657 2656 7389 2653 
10 1303 704 546 1195 8369 3129 8530 5106 8370 7432 
10 1144 491 490 345 8217 2495 6802 6803 2493 2491 
10 1144 1014 490 1143 4636 6800 6802 4637 4632 7874 
10 756 871 872 1370 3673 3677 3675 7747 7928 7929 
10 1471 946 1477 1530 7523 7885 5665 5872 7516 5871 
10 602 739 1241 738 3253 8061 8057 3251 3255 8355 
10 1317 819 700 1318 8513 3488 6455 5151 8696 7650 
10 178 285 425 1090 6229 8698 2296 8697 4469 6913 
10 357 503 1024 502 2529 8521 8553 2527 2531 8522 
10 1419 701 1318 1319 7138 6443 5460 5459 6444 5154 
10 1025 357 1024 238 7390 8553 4280 4279 7391 4275 
10 1242 739 603 711 7700 3254 8062 7701 3530 3196 
10 228 121 345 120 6069 2062 8699 6068 1656 2061 
10 1375 742 1349 1314 7409 8218 5707 5670 7474 5254 
10 1080 417 416 169 8585 2273 7108 7109 2271 2270 
10 1034 1163 511 367 4689 8536 8535 8669 8041 2553 
10 643 772 1275 1274 3355 7961 7308 7964 7963 5032 
10 1360 739 738 1241 8314 3255 8007 5288 8061 8355 
10 1470 849 961 848 7818 4050 7187 7188 3603 4049 
10 972 67 185 292 7344 6112 4118 6296 1901 6921 
10 1102 439 971 1101 6271 6272 4510 4513 6653 4509 
10 833 838 1421 713 3561 6487 8439 3543 3560 6488 
10 368 252 146 1035 8179 6009 2128 8032 4307 8495 
10 1165 1322 1164 513 5160 5161 4863 7304 8671 8551 
10 1243 1322 653 1164 5162 7489 7487 4938 5161 8550 
10 1122 1248 607 1323 4949 7428 8679 5165 5166 8700 
10 1045 378 1046 573 8701 6482 4341 6851 2763 6483 
10 261 260 155 1043 1804 5996 5997 4331 4332 8702 
10 38 17 377 39 1846 8601 2155 1572 1847 2156 
10 109 334 1005 333 2028 8357 6959 2026 2030 6960 
10 1459 1364 864 1365 5605 8704 8703 5606 5302 7870 
10 330 1003 476 331 6491 6792 2448 2021 6493 2449 
10 750 1251 614 749 8705 7906 3283 3285 8555 3281 
10 1457 808 859 1472 6952 3634 7289 5652 8706 7414 
10 995 321 320 208 7445 1991 7646 4189 7444 7525 
10 816 1418 817 1315 8707 6866 3483 6375 5457 6879 
10 1054 1179 531 1180 4735 8205 7868 4739 4740 7869 
10 1053 387 48 25 8603 2184 8593 4360 8592 1863 
10 671 532 1180 672 3032 6349 8708 3036 3034 6281 
10 750 1251 1363 1252 8705 5296 7881 8709 4963 5295 
10 1364 748 864 1365 7632 3649 8704 5302 6337 7870 
10 1064 401 36 991 6318 6320 4393 4507 8060 4496 
10 1479 1459 864 1365 5674 8703 8710 5672 5606 7870 
10 624 1259 625 1137 7003 6611 2903 7804 4982 6612 
10 863 1479 864 1365 6946 8710 3650 6520 5672 7870 
10 760 1259 1373 1260 7004 5325 7564 7239 4987 5324 
10 970 359 289 504 7057 2409 8481 8484 2533 2740 
10 1264 1263 765 1246 4999 8152 6509 5333 5334 6709 
10 626 761 1261 1260 3317 8137 8132 7580 7240 4990 
10 180 287 179 427 6234 6230 1719 2302 7338 2301 
10 561 1210 562 1085 7347 6352 2698 8392 4823 8711 
10 1031 142 248 432 7442 6010 4296 7331 2317 6741 
10 876 1377 823 1376 6503 8074 3838 8712 5341 8075 
10 173 174 281 421 1713 6221 6218 2283 2284 7554 
10 173 420 421 1085 2281 2285 2283 8684 8385 7553 
10 44 22 21 1050 1857 1554 1856 6299 4351 4352 
10 1210 1086 562 1085 4822 8301 6352 4823 4458 8711 
10 581 578 1161 663 2768 7029 7348 3495 3199 7030 
10 1425 1263 1246 828 5479 5334 5478 8713 8714 6711 
10 929 1518 949 1531 8544 8602 4074 8506 5876 8507 
10 760 759 875 1373 3315 3684 3685 7564 8715 6646 
10 665 1286 787 788 7901 8623 3392 3393 7544 3395 
10 759 1372 875 1373 7791 6645 3684 8715 5326 6646 
10 1265 632 1266 721 8453 7266 5005 8191 3334 7268 
10 925 1490 1409 831 8716 5708 8038 3955 8717 8527 
10 686 1308 1200 551 7076 5121 7078 3075 8169 8111 
10 1372 759 875 874 7791 3684 6645 7323 3682 3686 
10 975 444 443 295 6980 2355 8466 6981 2353 2351 
10 411 1074 551 410 8328 8718 2667 2257 7335 2668 
10 552 688 1202 553 3082 8394 6874 2675 3081 6773 
10 453 305 983 454 2381 6670 6672 2385 2383 7931 
10 1336 782 1475 809 8320 7355 5659 8633 3550 8511 
10 764 629 1263 765 3326 8151 8719 3330 3328 8152 
10 511 1034 367 366 8535 8669 2553 2552 8720 2127 
10 781 1391 886 1494 7429 7844 3721 7431 5723 8474 
10 1237 1236 1112 597 4922 4917 4921 7291 8050 8052 
10 1264 1265 1348 647 5002 5505 5418 8721 8192 8591 
10 1391 1474 886 1494 5657 7843 7844 5723 5724 8474 
10 803 1427 903 743 6732 8722 3776 3708 6734 3777 
10 1284 661 658 782 8318 3003 7733 7353 3381 3382 
10 356 132 237 1024 2095 6087 8660 7567 6540 4276 
10 1284 510 658 661 8523 2995 7733 8318 3002 3003 
10 1350 808 719 824 6950 3457 6822 6951 3513 3514 
10 1504 907 813 785 7471 3791 7472 8444 3792 3510 
10 1256 1369 1255 755 5312 5313 4975 8663 7825 7718 
10 1331 649 1223 741 6609 6596 5195 7283 3258 8723 
10 1256 1133 1134 620 4974 4607 4973 6687 8620 8262 
10 965 957 1451 887 4084 6708 7376 4065 4085 7878 
10 478 1133 477 620 8437 8724 2456 2887 8620 2886 
10 449 593 1109 592 2806 6447 8336 2804 2808 8337 
10 731 854 1354 853 3616 7852 7857 3614 3618 8692 
10 451 1111 595 452 7358 7359 2812 2379 6265 2813 
10 337 112 221 113 2037 6100 6999 2038 1648 6055 
10 764 1263 1425 828 8719 5479 8597 3529 8714 8713 
10 901 1402 1403 801 6729 5414 6730 3770 7609 7618 
10 1375 844 742 763 8220 3585 7409 6762 3689 3688 
10 947 1528 1530 1535 6779 5975 7451 8471 5893 5938 
10 1394 792 793 894 7865 3410 8612 8378 3745 3746 
10 1399 1481 1480 897 5679 5680 5675 8534 8280 8282 
10 577 1278 1224 1159 7494 5039 8175 8173 5040 4877 
10 1524 863 1503 1479 6560 6562 5850 5907 6946 5767 
10 841 835 716 1341 3717 3548 3716 8725 8091 6678 
10 1398 1399 1480 897 5402 5675 5676 8726 8534 8282 
10 412 1075 1202 552 6786 4801 6771 2670 7959 6874 
10 1140 486 628 485 7130 2911 8154 8153 2480 2910 
10 955 1463 1527 1510 6383 5860 8099 7649 5798 5859 
10 1141 488 630 487 8690 2917 8207 8208 2486 2916 
10 1143 1265 1142 631 5000 5001 4634 7016 8361 7017 
10 797 1399 796 897 8659 7025 3422 3758 8534 3757 
10 353 499 1021 498 2517 8161 7036 2515 2519 8167 
10 1399 797 898 897 8659 3760 8533 8534 3758 3762 
10 398 1188 541 542 6746 6718 2638 2640 6748 2642 
10 1212 563 697 1211 7677 3105 7675 4830 6341 8727 
10 1298 803 1344 1427 8728 7802 5239 5534 6732 5488 
10 483 1138 625 626 6774 6775 2902 2904 7579 2906 
10 1536 884 1494 1478 8729 8477 5895 5894 8730 5778 
10 326 472 999 471 2436 7573 8731 2434 2438 7574 
10 700 819 820 1318 3488 3493 3490 7650 8696 7655 
10 947 1536 1535 1530 8732 5935 8471 7451 5934 5938 
10 1399 796 897 1398 7025 3757 8534 5402 6910 8726 
10 521 583 1301 1225 2778 8734 8733 7128 7641 5103 
10 796 896 897 1398 3754 3759 3757 6910 6909 8726 
10 716 1327 658 826 6679 7734 3174 3519 8735 3518 
10 1295 800 1402 799 8441 7608 5410 6346 3431 8293 
10 675 1294 1183 1293 8290 5084 7137 7616 5085 5080 
10 436 1097 1225 521 6427 4880 8736 2578 7127 7128 
10 555 1099 579 1227 6496 7093 2770 8196 4891 7094 
10 1454 866 865 1363 8737 3659 7871 5591 8141 6724 
10 803 1298 680 802 8728 7715 3438 3440 8738 3436 
10 1298 803 680 681 8728 3438 7715 7598 3439 3063 
10 1512 1537 1517 908 5898 5964 5969 8739 8569 6799 
10 1416 1415 806 812 5453 8428 8740 7627 8138 3468 
10 811 1512 908 906 8741 8739 3796 3787 8543 3823 
10 819 1317 1417 1422 8513 5454 7542 7543 5469 5564 
10 1444 908 811 1512 6797 3796 6869 5811 8739 8741 
10 1328 660 718 774 7513 3202 7514 6808 3360 3361 
10 1444 908 1512 1517 6797 8739 5811 5830 6799 5969 
10 1441 1393 774 919 5575 7841 6807 8055 7840 3841 
10 533 1180 1055 532 7705 4738 6282 2615 6349 6347 
10 387 1053 530 531 8603 8202 2605 2607 8204 2609 
10 1054 532 531 388 6348 2612 7868 8158 2610 2608 
10 541 1188 681 542 6718 7597 3061 2642 6748 3062 
10 1248 682 1344 1189 7247 8742 5240 4951 6624 5237 
10 543 1064 1189 1123 7714 4765 6626 8605 4573 4768 
10 400 1064 399 543 6319 7812 2225 2644 7714 2643 
10 887 858 1497 741 3820 7460 7693 3724 3786 7284 
10 1234 594 1110 1235 6445 6892 4911 4916 8743 4915 
10 191 76 300 75 6125 1926 8224 6124 1610 1925 
10 1108 448 1107 978 6420 7461 4530 4529 6421 4525 
10 1393 1476 919 1456 5660 7839 7840 5597 5662 7121 
10 1298 802 1404 1297 8738 7365 5415 5097 8744 5416 
10 1459 939 938 864 8745 3916 8746 8703 3914 3912 
10 1476 926 919 1456 6834 3872 7839 5662 8747 7121 
10 937 1523 967 1520 6766 8455 4087 8748 5948 7615 
10 1432 659 813 702 8236 3470 8410 8117 3122 3469 
10 816 815 1329 696 3480 6367 8749 3478 3476 6351 
10 1221 693 559 1208 8537 3094 8341 4860 8346 8343 
10 435 415 13 12 2325 7148 7397 2326 2268 1842 
10 1137 481 1136 1007 8501 7008 4616 4615 8020 4611 
10 1097 415 1079 521 6426 7848 4492 7127 2579 8750 
10 1446 786 912 824 7040 3810 6285 8321 3587 3809 
10 1317 698 1213 699 8515 6635 5147 6457 3113 7162 
10 1432 1320 659 702 5501 7690 8236 8117 7691 3122 
10 1476 827 919 926 6571 3870 7839 6834 3871 3872 
10 847 1500 930 848 6396 8751 3885 3600 6480 3886 
10 1500 961 930 848 7189 4063 8751 6480 4049 3886 
10 472 327 326 1000 2437 2009 2436 8183 7953 8411 
10 572 714 713 1244 3195 3499 3167 8752 8753 6490 
10 1427 803 1344 775 6732 7802 5488 6733 3589 7801 
10 1471 1397 1477 895 5648 5664 5665 7886 6584 7887 
10 1065 434 402 14 6412 2323 6291 6411 2324 2230 
10 1518 929 1528 1531 8544 6777 5955 5876 8506 5971 
10 794 896 795 1398 3751 3752 3416 6324 6909 6325 
10 692 1226 438 580 8549 8230 3093 3092 7083 2776 
10 863 1524 938 1479 6560 8754 3911 6946 5907 8755 
10 714 838 713 1244 3559 3560 3499 8753 6489 6490 
10 1460 868 1453 1367 8756 7973 5610 5609 7183 5589 
10 968 1542 914 1514 8576 8577 4080 6788 5929 6790 
10 1500 1506 930 1544 5777 8285 8751 5947 5942 8757 
10 847 1506 930 1500 6395 8285 3885 6396 5777 8751 
10 792 1394 893 894 7865 8758 3743 3745 8378 3747 
10 71 296 975 295 1913 6979 8502 1911 1915 6981 
10 451 981 980 1110 8332 4147 6682 6683 4534 4535 
10 1306 549 683 685 6839 3068 6942 6840 3073 3074 
10 714 1361 1244 1332 8759 5291 8753 8589 5292 5197 
10 1468 846 945 845 8489 4012 6783 8490 3594 3960 
10 1105 444 587 1104 8567 2789 8568 4521 8600 8323 
10 1289 1179 1290 670 5068 5072 5073 8760 8761 8676 
10 1454 866 1363 1458 8737 8141 5591 5603 8004 5602 
10 1357 1238 734 1237 5279 8762 8000 5280 4925 8002 
10 1023 356 237 1024 7566 8660 4272 4277 7567 4276 
10 901 1402 900 1484 6729 7979 3771 6731 5688 8344 
10 1542 968 1522 1514 8576 7980 5967 5929 6788 5968 
10 869 1461 1460 958 8097 5613 8098 3931 8763 8102 
10 448 979 449 300 6419 8686 2370 2366 7324 2368 
10 1487 885 809 1475 7621 3718 6888 5698 8424 8511 
10 1523 952 1483 953 7037 8440 5845 6767 3983 8292 
10 1292 1291 795 1398 5079 6323 7023 5397 5398 6325 
10 536 392 535 1183 2622 2620 2624 8595 7371 7135 
10 1459 865 939 864 8764 3915 8745 8703 3653 3914 
10 937 954 953 1524 4005 4043 4061 6768 6973 6769 
10 407 162 408 1071 2243 2247 2248 7698 7373 6891 
10 1105 445 1106 589 7209 6476 4524 7211 2794 8130 
10 984 456 1114 455 6712 7862 4547 6714 2391 7780 
10 979 301 980 449 8685 7184 4144 8686 2369 8404 
10 771 880 881 1381 3703 3707 3705 8765 8766 6547 
10 726 1231 590 589 6716 7202 3215 3214 7822 2799 
10 497 1149 496 639 7152 8767 2513 2944 7872 2943 
10 187 71 188 975 6117 6118 1729 4128 8502 4127 
10 585 1218 1103 441 8365 4849 7685 2782 6553 8403 
10 1113 455 454 983 7142 2388 7759 4544 7143 7931 
10 187 294 186 70 8079 7859 1728 6116 1908 6115 
10 1206 582 1222 1335 8127 6389 4868 5207 8405 5206 
10 646 558 575 1207 2966 2737 2965 8434 7385 8172 
10 1540 941 942 859 7829 3926 8338 7413 4102 3965 
10 962 932 1450 933 4091 6914 8768 4051 3897 6929 
10 858 1358 736 857 7459 8354 3631 3633 7897 3629 
10 853 934 1450 933 3898 6905 6906 3896 3900 6929 
10 1364 748 865 864 7632 3651 6725 8704 3649 3653 
10 1385 791 892 790 8769 3740 8770 8771 3404 3739 
10 668 1177 1178 529 6640 4734 6666 3023 8442 8383 
10 467 1124 466 609 7914 8068 2423 2854 7915 2853 
10 1276 610 1325 1125 7263 7765 5175 5034 8688 5172 
10 473 1130 1000 1129 7191 4594 8182 8146 4595 4590 
10 1442 917 875 1373 7218 3908 8139 5749 7255 6646 
10 219 1006 1005 334 4222 4223 4218 7277 7273 8357 
10 1429 1325 744 1247 5555 8564 7420 5491 5174 7419 
10 748 613 1250 749 3278 7512 6338 3282 3280 8556 
10 866 942 1533 941 3924 8339 8164 3923 3926 7967 
10 987 459 311 988 7622 2399 8313 4168 7561 7563 
10 725 1229 724 1426 6387 6386 3213 7831 5483 7994 
10 747 1250 1249 1365 6340 4957 8257 6339 5300 5301 
10 717 708 1376 823 3180 8772 8584 3507 3504 8075 
10 1435 1384 862 746 5513 7446 7447 7652 7653 3643 
10 610 1276 746 611 7263 7651 3271 2861 7264 3272 
10 1424 728 1233 729 6804 6805 5473 7647 3225 6394 
10 1454 1529 941 1541 5867 7966 8773 5911 5912 7830 
10 1022 500 1151 499 8014 8774 4656 8160 2522 6601 
10 139 244 1029 245 5986 4291 6592 5987 1788 4290 
10 242 137 243 1027 5982 5983 1786 4285 8618 4284 
10 315 431 136 1026 2743 2314 1972 6837 7944 6838 
10 469 1127 1126 611 8452 4586 7226 2860 8316 6944 
10 1135 623 1258 622 8349 6568 4980 8348 2897 7942 
10 489 632 1143 631 2922 7873 7014 2920 2924 7016 
10 632 1265 1143 631 8453 5000 7873 2924 8361 7016 
10 1529 1454 941 939 5867 8773 7966 8340 8775 3919 
10 517 1168 516 656 6750 7071 2570 2990 6751 2989 
10 1339 657 1169 518 8017 8777 5220 8776 2993 6744 
10 1176 527 666 526 8778 3017 7048 8694 2597 3016 
10 668 791 1288 790 3402 6664 6641 3400 3404 8779 
10 1273 770 640 641 8162 3348 8267 8268 3349 2951 
10 642 772 1274 771 3354 7963 8363 3352 3356 8366 
10 792 1289 670 669 7866 8760 3406 3405 6663 3030 
10 1185 538 678 677 7140 3052 7125 7589 3050 3054 
10 1468 880 881 945 8780 3707 6545 6783 3942 3943 
10 1298 1188 681 680 5095 7597 7598 7715 7716 3063 
10 1509 1490 1409 925 5794 5708 5793 6595 8716 8038 
10 1258 757 1257 622 8575 7207 4981 7942 3305 7208 
10 1258 757 622 758 8575 3305 7942 7941 3309 3307 
10 506 462 648 1156 2744 2970 2971 6543 6542 8658 
10 756 1256 1370 1257 6686 5316 7747 7748 4978 5315 
10 865 1454 939 941 7871 8775 3915 3922 8773 3919 
10 278 419 1083 418 7280 6721 4448 8781 2279 8680 
10 769 1272 639 1271 7913 8258 3345 8782 5023 8081 
10 513 1322 1164 653 8671 5161 8551 2984 7489 8550 
10 368 1036 1164 513 7361 4691 8053 2557 7306 8551 
10 1210 695 696 1329 6381 3104 6350 5187 6366 6351 
10 866 1454 865 941 8737 7871 3659 3923 8773 3922 
10 522 1155 523 1047 8691 6643 2585 6935 4865 6642 
10 1263 765 1246 828 8152 6709 5334 8714 3526 6711 
10 1286 1174 664 1299 5062 7080 8783 5232 5230 6463 
10 1065 1219 402 520 4850 6293 6291 7676 8784 2576 
10 976 1105 975 444 4519 4520 4132 7407 8567 6980 
10 926 1456 966 919 8747 7626 4095 3872 7121 4068 
10 1226 1206 438 1098 4888 8128 8230 4886 4813 8087 
10 1100 8 9 416 8785 1840 4501 8786 2269 7107 
10 495 349 1147 1018 2505 6407 8655 7221 6408 4644 
10 1245 1154 645 1334 4944 6534 6316 5205 5202 6317 
10 502 1154 1024 1153 8459 4666 8522 8460 4667 4662 
10 1135 1258 1257 622 4980 4981 4976 8348 7942 7208 
10 198 308 84 309 6368 1950 6153 6370 1954 1952 
10 1292 1182 1293 674 5077 5081 5082 6450 6661 7357 
10 310 987 986 458 7484 4165 7486 2396 6499 6501 
10 794 1291 795 672 6322 6323 3416 3412 6280 3414 
10 1361 830 779 714 8390 3534 8136 8759 3535 3375 
10 987 310 86 311 7484 1956 8312 8313 1960 1958 
10 1482 899 1483 952 7798 8787 5686 7983 3978 8440 
10 324 1127 997 469 6559 4585 6558 2428 8452 7225 
10 412 167 273 166 2258 3626 8788 2259 1704 3627 
10 890 703 834 1439 4039 3578 3857 8274 8417 8418 
10 899 1482 951 952 7798 7903 3976 3978 7983 3980 
10 96 209 321 97 6034 7443 1989 1632 6097 1990 
10 275 274 1077 168 1819 4431 4432 4035 3538 7630 
10 484 338 483 1009 2472 2470 2474 7249 7250 8643 
10 899 900 1483 952 3768 8610 8787 3978 3979 8440 
10 1137 1008 482 1007 4614 8135 8265 4615 4229 8640 
10 1493 833 889 1421 8386 4009 8297 5728 8439 8298 
10 1493 1492 1511 889 5718 5933 5870 8297 7927 6997 
10 1278 577 576 1159 7494 2779 6423 5040 8173 6424 
10 1308 1201 1200 551 5122 4800 5121 8169 7644 8111 
10 1066 403 402 545 7117 2233 6292 7837 2649 2650 
10 833 1421 1279 713 8439 5466 6466 3543 6488 8789 
10 689 1311 812 1415 7625 7628 3467 8436 5448 8138 
10 365 1033 249 1032 6870 4302 8178 8045 4303 4298 
10 1540 1504 905 907 5909 8790 7415 7770 7471 3793 
10 572 1160 1244 1120 7550 4941 8752 8193 4862 4940 
10 1361 838 714 1244 8438 3559 8759 5291 6489 8753 
10 912 836 1486 947 3833 7411 6287 3947 3948 8791 
10 1406 709 1345 1301 8639 7854 5422 5421 8792 5242 
10 661 1336 809 782 8319 8633 3460 3381 8320 3550 
10 1284 1327 1395 658 5182 5389 5390 7733 7734 8580 
10 1432 1504 813 785 5779 7472 8410 8443 8444 3510 
10 780 701 1420 702 3376 7139 7112 3377 3191 7114 
10 1308 686 1307 1412 7076 7077 5123 5439 8492 5438 
10 799 899 1401 798 3764 7833 7796 3428 3763 7797 
10 1212 698 1316 697 6633 6634 5144 7675 3110 8069 
10 808 859 1472 905 3634 7414 8706 3783 3784 7416 
10 1438 969 922 921 6353 4105 7379 6354 4097 4011 
10 698 1316 817 818 6634 6865 3482 3484 8309 3486 
10 995 467 996 1125 6655 6657 4193 4579 7916 4578 
10 1267 635 634 1145 7307 2933 7534 5006 6983 8793 
10 1377 1270 766 1269 5339 7948 8794 5340 5017 7950 
10 965 922 1505 963 4066 8462 7377 4100 4101 8795 
10 1437 715 1444 837 6896 6868 5771 7052 3557 6798 
10 1146 1269 1268 636 5013 5014 5009 6987 6967 6969 
10 1525 965 1505 963 8796 7377 5854 7777 4100 8795 
10 901 902 1403 1484 3774 7013 6730 6731 7012 5687 
10 263 1066 402 1065 4398 6292 7518 4397 4400 6291 
10 580 434 1190 1226 2761 8797 8607 7083 8229 4887 
10 830 1361 779 1455 8390 8136 3534 8302 5593 6845 
10 841 1341 716 1390 8725 6678 3716 8399 5375 8798 
10 935 934 963 1525 3903 4053 4054 7687 8799 7777 
10 473 1001 1000 1130 7190 4208 8182 7191 4593 4594 
10 965 935 963 1525 4107 4054 4100 8796 7687 7777 
10 1493 833 1387 883 8386 8372 5727 8387 3996 8374 
10 1413 1493 1387 883 5717 5727 5781 8800 8387 8374 
10 1393 1441 1456 919 5575 5596 5597 7840 8055 7121 
10 1374 761 1373 1260 7253 7254 5329 5328 7240 5324 
10 286 426 427 1090 8801 2303 7339 4468 6912 7754 
10 869 1460 1367 868 8098 5609 7066 3668 8756 7183 
10 297 976 189 72 7697 4130 8487 1916 6502 6120 
10 811 1512 906 1433 8741 8543 3787 7103 5810 6858 
10 1237 734 1356 733 8002 8001 5276 8802 3240 6764 
10 1337 712 1342 1190 8803 7736 5228 5216 8804 5229 
10 726 1386 1231 1352 7820 5366 6716 6717 5367 5266 
10 1493 1413 804 883 5717 7463 7462 8387 8800 3713 
10 1415 883 806 805 8396 3987 8428 8426 3712 3452 
10 187 294 974 186 8079 7743 4124 1728 7859 4125 
10 855 1355 1356 733 7988 5278 8469 3620 6763 6764 
10 1430 741 720 887 7282 3509 8170 7692 3724 3725 
10 596 733 1236 732 3235 6765 6608 3233 3237 8402 
10 591 1232 592 1108 6513 6514 2805 7782 4905 8335 
10 1331 1430 741 1228 5496 7282 7283 5194 5495 8086 
10 858 1358 857 1497 7459 7897 3633 7460 5739 7899 
10 1088 176 284 424 8682 6224 4462 8250 2292 8805 
10 329 1001 474 1131 6472 7192 2443 6474 4597 6787 
10 775 682 1248 651 3367 7247 7427 3364 3066 7248 
10 1294 676 675 1183 7793 3048 8290 5084 8806 7137 
10 844 1375 742 1349 8220 7409 3585 8222 5707 8218 
10 1533 942 867 1453 8339 3925 8163 5884 7975 6621 
10 1533 866 867 942 8164 3662 8163 8339 3924 3925 
10 558 1221 710 559 7808 6275 3149 2689 8341 3150 
10 569 429 428 1217 2718 2309 2717 8235 8231 7006 
10 750 1363 751 1252 7881 8142 3288 8709 5295 8011 
10 615 1130 1129 1252 8148 4595 8147 8807 4961 4962 
10 943 959 1462 1532 4024 6966 6815 6816 8446 5891 
10 217 107 108 332 6099 1643 6047 8277 2022 2023 
10 761 1374 762 1261 7253 7295 3321 8137 5327 7539 
10 232 1019 1018 350 4261 4262 4257 8546 8548 7222 
10 1269 766 823 636 7950 3521 6968 6967 3337 3506 
10 785 808 1472 905 3458 8706 8808 3782 3783 7416 
10 495 638 1148 637 2940 7424 7219 2938 2942 7426 
10 717 876 823 1376 3727 3838 3507 8584 8712 8075 
10 1017 349 494 348 6406 2503 6494 6402 2075 2502 
10 616 1130 1131 474 7761 4598 8809 2875 7193 6787 
10 96 321 208 320 1989 7444 6033 1987 1991 7525 
10 1184 1058 1059 537 4751 4380 4750 6309 8670 6310 
10 599 1239 600 1114 8306 8289 2829 7779 4927 7999 
10 678 1185 1296 1186 7125 5090 7619 7126 4758 5089 
10 712 1190 520 1219 8804 8810 3160 8683 4853 8784 
10 1484 1523 953 1524 5844 6767 8256 5848 5849 6769 
10 1347 712 545 1219 7737 3162 7465 5246 8683 7836 
10 682 775 1248 1344 3367 7427 7247 8742 7801 5240 
10 785 1504 905 1472 8444 8790 3782 8808 5769 7416 
10 1009 338 1008 222 7250 6452 4232 4231 8625 4227 
10 187 975 974 295 4128 4129 4124 8080 6981 7744 
10 920 891 834 1478 3954 3858 3844 7936 8811 8812 
10 365 1033 366 144 6870 6872 2124 2121 8813 2122 
10 485 627 628 1139 2908 2912 2910 8155 6433 6435 
10 778 831 1411 1491 3446 7435 8037 8036 7436 5711 
10 294 187 974 295 8079 4124 7743 1912 8080 7744 
10 341 1012 342 225 8454 6517 2054 8624 4240 8077 
10 1001 473 328 474 7190 2440 6757 7192 2444 2442 
10 808 785 1472 1447 3458 8808 8706 6829 6828 5651 
10 583 1225 1321 1345 7641 5158 7642 7855 5243 5257 
10 709 786 1345 719 3390 7041 7854 3200 3389 7050 
10 535 1182 674 675 6659 6661 3041 3043 7136 3045 
10 1518 929 949 950 8544 4074 8602 8814 4075 3974 
10 197 984 307 985 4154 6713 6410 4158 4159 8140 
10 745 1325 744 1435 6470 8564 3270 6469 5515 8133 
10 95 319 207 94 1984 8518 6031 1630 1983 6030 
10 41 19 380 42 1851 8096 2163 1575 1852 2164 
10 1168 517 516 372 6750 2570 7071 8561 2568 2566 
10 521 510 1079 1172 2580 7750 8750 7129 8005 4714 
10 722 723 1445 845 3207 7992 6372 3590 3591 6374 
10 723 1440 1445 845 7938 5560 7992 3591 8491 6374 
10 907 1504 905 785 7471 8790 3793 3792 8444 3782 
10 693 560 559 1208 3095 2692 3094 8346 7454 8343 
10 1243 1405 1416 807 5521 5452 5520 7773 6903 8815 
10 605 1204 1191 1312 7215 4889 8270 8816 5133 5134 
10 1416 1405 812 807 5452 6986 7627 8815 6903 3822 
10 704 574 546 1195 3130 2734 3129 8370 8629 7432 
10 198 308 985 197 6368 7260 4157 1739 6422 4158 
10 1388 843 916 1395 8524 3937 8817 5735 8419 8421 
10 1316 1317 1417 818 5148 5454 5455 8309 8514 8310 
10 165 1074 411 410 8818 8328 2256 2252 7335 2257 
10 295 975 974 443 6981 4129 7744 2351 8466 7745 
10 308 198 985 986 6368 4157 7260 6369 4161 4162 
10 1524 863 937 862 6560 3910 6768 6561 3647 3909 
10 1515 943 1532 860 8819 6816 5882 7480 4073 7294 
10 428 181 287 1092 2305 6233 7437 7007 7265 4475 
10 698 1317 1316 818 8515 5148 6634 3484 8514 8309 
10 565 566 1214 699 2710 7656 8264 3111 3112 6458 
10 957 1451 856 936 6708 8820 4016 4015 7556 3905 
10 1449 815 875 1442 8821 3797 6644 5780 7541 8139 
10 1451 957 856 1357 6708 4016 8820 5584 6707 7695 
10 768 1379 1271 1378 8822 5346 8083 7755 5347 5342 
10 1023 500 1022 355 7134 8014 4274 8456 2521 8016 
10 1273 770 1272 640 8162 7911 5026 8267 3348 8177 
10 1388 1475 1395 916 5786 5526 5735 8817 8425 8421 
10 186 68 69 293 6114 1603 6150 6301 1904 1905 
10 717 1383 876 1376 7766 6504 3727 8584 5631 8712 
10 1475 782 1395 916 7355 7354 5526 8425 3827 8421 
10 1174 1173 664 1299 4722 6461 7080 5230 5098 6463 
10 1039 1168 372 1040 4703 8561 8200 4324 4702 6811 
10 1366 1253 751 1252 5303 8009 8063 5304 4966 8011 
10 1303 1408 684 840 5426 8212 8486 8572 7455 3566 
10 660 1328 544 1194 7513 7515 3000 8027 5184 8295 
10 544 1328 1193 1194 7515 5183 7119 8295 5184 4779 
10 704 574 1195 1302 3130 8629 8370 8371 8376 5105 
10 370 371 149 1038 2139 2137 2135 7074 6780 6781 
10 1231 726 590 727 6716 3215 7202 7821 3219 3217 
10 679 802 1297 801 3435 8744 7610 3433 3437 8118 
10 1323 608 743 607 7767 3264 8566 8700 2852 3263 
10 396 1061 540 397 6936 7710 2634 2216 6578 2635 
10 1281 706 655 843 7170 3138 7577 7199 3579 3580 
10 932 1507 1513 1539 6915 5816 7498 7778 5905 5903 
10 687 552 1201 551 3078 7643 6918 3079 2672 7644 
10 1507 932 1513 851 6915 7498 5816 7496 3892 7176 
10 1232 1231 590 727 4907 7202 7201 7478 7821 3217 
10 1470 931 1513 1519 8475 7499 5817 5835 7895 5834 
10 849 931 850 1513 3887 3888 3606 8449 7499 7178 
10 744 1429 903 861 7420 8823 3804 3640 7594 3876 
10 932 1539 1513 931 7778 5903 7498 3894 7893 7499 
10 1427 1429 903 743 5493 8823 8722 6734 7418 3777 
10 1429 1485 903 861 5734 8824 8823 7594 7593 3876 
10 863 1479 938 864 6946 8755 3911 3650 8710 3912 
10 1363 1366 751 1252 5305 8063 8142 5295 5304 8011 
10 616 615 751 1252 2876 3286 3287 8010 8807 8011 
10 662 841 1431 783 3573 7179 7181 3384 3723 7044 
10 802 803 1404 903 3440 8825 7365 3775 3776 7366 
10 1504 1540 905 1472 5909 7415 8790 5769 5908 7416 
10 1482 951 1521 1481 7903 8826 5838 5683 7904 5839 
10 695 1210 696 562 6381 6350 3104 3100 6352 3102 
10 621 1135 1257 622 8360 4976 7206 2894 8348 7208 
10 756 1369 871 1370 8359 7604 3673 7747 5317 7928 
10 1317 819 1417 818 8513 7542 5454 8514 3489 8310 
10 1542 929 1499 1528 8545 8827 5915 5914 6777 5864 
10 1446 824 912 1499 8321 3809 6285 5744 8828 6286 
10 1526 940 859 914 7635 3938 7636 8331 3939 3817 
10 1446 1350 824 1457 5576 6951 8321 5598 5599 6953 
10 1542 968 950 1521 8576 4083 8675 5953 8829 8830 
10 910 909 1417 818 3803 6591 6589 3801 3800 8310 
10 1419 1496 1422 820 5729 5730 5470 7654 7504 8831 
10 1152 500 1151 1022 6326 8774 4661 4660 8014 4656 
10 879 769 878 1379 3699 3697 3701 7987 7985 8048 
10 906 1465 1466 878 6894 5637 8263 4013 8047 8049 
10 968 951 950 1521 4103 3977 4083 8829 8826 8830 
10 1052 385 386 529 7849 2183 7508 8382 2601 2602 
10 1494 884 1535 886 8477 8470 5889 8474 3722 8472 
10 470 1127 469 612 7346 8452 2432 2863 7449 2862 
10 1379 768 878 1378 8822 3696 8048 5347 7755 7757 
10 925 1408 1476 840 6594 5792 6593 3865 7455 6580 
10 874 1449 927 875 7925 8500 3935 3686 6644 3936 
10 1536 884 947 1535 8729 3958 8732 5935 8470 8471 
10 884 1448 1494 1478 8476 5722 8477 8730 5700 5778 
10 704 1303 684 840 8369 8486 3132 3567 8572 3566 
10 877 1465 906 878 6893 6894 3790 3698 8047 4013 
10 588 1229 725 589 6385 6387 3211 2796 7762 3212 
10 969 1501 1538 964 6962 5902 7991 4111 7788 8450 
10 1017 1146 1016 493 4641 4642 4256 6404 8188 6405 
10 1394 1397 1471 895 5396 5648 5649 8611 6584 7886 
10 1234 1353 729 730 5268 7322 6392 7824 7321 3228 
10 794 1397 1398 1291 6582 5399 6324 6322 5394 5398 
10 769 639 768 1271 3345 3343 3347 8782 8081 8083 
10 961 1544 930 908 8832 8757 4063 3997 8570 4022 
10 1421 838 889 1511 6487 3869 8298 5805 6995 6997 
10 1415 883 805 1414 8396 3712 8426 5449 8397 8833 
10 1506 945 930 944 6785 4076 8285 7884 3944 4023 
10 882 1509 1476 925 7969 5802 6833 3949 6595 6593 
10 635 492 1146 493 2931 8652 6982 2932 2501 8188 
10 970 240 182 289 4482 4112 4114 8481 8186 8185 
10 591 1232 1107 590 6513 4906 7781 2802 7201 7203 
10 811 810 1335 1433 3465 8406 7102 7103 6857 5509 
10 558 646 1220 1207 2966 7816 7387 7385 8434 4856 
10 323 98 996 210 1995 7918 7908 7909 6036 4191 
10 786 1446 912 1486 7040 6285 3810 7412 5694 6287 
10 709 1336 809 661 8638 8633 3459 3177 8319 3460 
10 552 1309 1202 688 7039 5125 6874 3082 6796 8394 
10 1498 921 966 969 6356 4094 8834 6355 4097 4098 
10 935 934 1525 1489 3903 8799 7687 7688 6907 5852 
10 1463 959 1527 1462 6382 8445 5860 5619 6966 5861 
10 936 1451 856 1356 7556 8820 3905 8627 5585 8288 
10 483 1137 482 625 6776 8265 2471 2902 6612 2901 
10 700 701 1318 820 3119 6443 7650 3490 3491 7655 
10 98 209 996 210 6035 4192 7918 6036 1752 4191 
10 442 585 1103 441 2783 7685 8266 2349 2782 8403 
10 1463 873 1464 955 7341 6976 5622 6383 3992 6978 
10 825 1342 652 712 8180 8181 3515 3517 7736 3161 
10 1463 1371 872 1370 5617 8628 6384 5618 5320 7929 
10 1545 924 1517 1519 6360 6361 5966 5965 8835 5956 
10 976 297 977 446 7697 8134 4135 6477 2359 7115 
10 1462 1463 872 1370 5619 6384 7302 5614 5618 7929 
10 335 220 1007 111 8329 4225 7729 2032 6053 7730 
10 514 662 1165 513 3006 8326 7586 2756 3005 7304 
10 374 258 152 1041 6585 5991 2146 6586 4325 8353 
10 1039 150 256 372 6576 6007 4319 8200 2140 6604 
10 1239 1115 600 1114 4926 7246 8289 4927 4551 7999 
10 111 221 1007 336 6054 4224 7730 2034 7000 7002 
10 937 1520 967 938 8748 7615 4087 3913 8836 4088 
10 508 1223 507 650 6755 6598 2546 2976 8837 2975 
10 686 778 1412 804 3372 8560 8492 3442 3443 7464 
10 899 799 1401 900 3764 7796 7833 3768 3766 8838 
10 967 1520 939 938 7615 7614 4092 4088 8836 3916 
10 1328 660 774 1393 7513 3360 6808 5382 8211 7841 
10 951 1482 1521 1522 7903 5838 8826 7981 5842 5843 
10 1067 404 403 544 6923 2236 6924 7118 2647 2648 
10 895 896 1477 949 3753 7186 7887 4034 3968 8108 
10 799 1402 1401 900 8293 5411 7796 3766 7979 8838 
10 1402 800 900 799 7608 3767 7979 8293 3431 3766 
10 1332 1361 1428 779 5292 5489 5490 8464 8136 6843 
10 1396 1385 1478 892 5393 5667 5668 8839 8770 8840 
10 950 1518 1480 949 8814 5833 8281 3974 8602 8107 
10 956 1545 1539 1519 6702 5962 7297 7894 5965 5904 
10 111 220 1007 221 6053 4225 7730 6054 1763 4224 
10 961 1470 1500 1544 7187 5754 7189 8832 5946 5947 
10 547 1196 406 1070 7665 7389 2656 8841 4784 8842 
10 1426 1352 1500 848 5482 5752 5753 6479 7819 6480 
10 1196 1069 406 1070 4783 6617 7389 4784 4412 8842 
10 1429 1427 1323 743 5493 5486 5492 7418 6734 8566 
10 775 1248 1323 607 7427 5166 8843 3365 7428 8700 
10 429 288 181 1092 6510 6232 2307 6511 4474 7265 
10 745 1325 609 744 6470 8517 3268 3270 8564 3266 
10 475 618 1131 617 2880 6401 6399 2878 2882 6431 
10 440 1218 972 1101 6552 4847 6556 7565 4848 4508 
10 125 232 1018 350 6076 4257 8844 2076 8546 7222 
10 440 439 604 1101 2343 2839 2840 7565 6653 8432 
10 264 1067 403 1066 4401 6924 8483 4399 4403 7117 
10 439 1102 606 1101 6271 6928 2845 6653 4513 6927 
10 1221 693 710 559 8537 3151 6275 8341 3094 3150 
10 1089 425 424 177 7169 2297 8845 8030 2295 2293 
10 1089 1088 284 424 4467 4462 4466 8845 8250 8805 
10 195 305 983 982 8606 6670 4152 4148 6671 4153 
10 698 565 564 1213 3109 2707 3108 6635 7161 8846 
10 343 1012 342 488 8539 6517 2057 2485 6516 2484 
10 357 132 238 133 2097 6088 7391 2098 1668 6089 
10 829 1409 1304 707 8294 5429 8215 3532 7845 7847 
10 349 125 1018 350 2074 8844 6408 2078 2076 7222 
10 453 305 304 982 2381 1942 2380 6264 6671 7495 
10 305 195 304 982 8606 7229 1942 6671 4148 7495 
10 453 1111 1112 982 6263 4542 7930 6264 4537 4541 
10 304 453 982 452 2380 6264 7495 2378 2382 6266 
10 98 209 322 996 6035 7882 1993 7918 4192 6658 
10 591 447 590 1107 2800 2798 2802 7781 7363 7203 
10 1366 1253 1367 752 5303 5307 5308 8064 7299 7300 
10 750 615 614 1252 3284 2873 3283 8709 8807 7907 
10 708 1376 823 1268 8772 8075 3504 6956 5337 6970 
10 609 1247 1325 1124 8248 5174 8517 7915 4947 5173 
10 319 95 994 320 1984 8619 6863 1988 1986 6704 
10 1239 599 1238 1114 8306 7703 4928 4927 7779 4923 
10 984 983 196 306 4156 4151 4155 7251 8528 8529 
10 334 1135 1005 479 7275 4609 8357 2458 7937 8358 
10 934 962 963 1525 4052 4055 4053 8799 7776 7777 
10 984 455 983 306 6714 7143 4156 7251 2386 8528 
10 308 198 84 83 6368 6153 1950 1949 6138 1618 
10 1232 1386 728 1424 5365 7476 6515 5474 5475 6804 
10 591 1232 727 728 6513 7478 3218 3220 6515 3222 
10 231 125 232 1018 6075 6076 1774 4258 8844 4257 
10 1104 442 974 443 8847 7422 4517 8467 2352 7745 
10 231 349 125 1018 6998 2074 6075 4258 6408 8844 
10 882 1509 925 918 7969 6595 3949 3839 7970 3950 
10 593 1233 592 729 6393 8089 2808 3224 6394 3223 
10 347 229 122 346 7062 6102 2067 2069 7064 2065 
10 593 450 449 1109 2807 2373 2806 6447 6437 8336 
10 884 920 834 1478 3843 3844 3715 8730 7936 8812 
10 781 657 656 1283 3379 2994 3378 7582 8498 6753 
10 492 635 1146 1145 2931 6982 8652 8653 6983 4643 
10 555 690 1191 1227 3088 8271 8197 8196 7196 4890 
10 557 583 1321 691 2774 7642 6827 3089 3090 6819 
10 517 657 1283 656 2992 8498 6752 2990 2994 6753 
10 151 373 1040 372 2143 6809 8025 2141 2145 6811 
10 492 635 1145 634 2931 6983 8653 2929 2933 8793 
10 360 137 1027 243 2106 8618 6847 7601 5983 4284 
10 363 1030 507 1095 7158 6628 2542 7159 4878 6600 
10 1122 992 318 463 4569 7920 8614 8615 8232 2411 
10 205 992 991 317 4180 4181 4177 8246 8616 8247 
10 503 357 1025 358 2529 7390 7053 2530 2102 7172 
10 456 599 1114 455 2825 7779 7862 2391 2824 7780 
10 510 1284 1172 661 8523 5056 8005 3002 8318 8006 
10 605 689 1312 812 3187 7624 8816 3466 3467 7629 
10 516 1167 515 655 7072 6882 2567 2988 7575 2987 
10 555 1099 435 579 6496 6498 2679 2770 7093 2759 
10 247 246 141 1095 1790 6001 6002 4486 4487 8040 
10 649 506 1277 1158 2972 8657 6610 6597 6549 5036 
10 26 1055 1054 388 4367 4368 4363 7301 8848 8158 
10 48 24 47 386 1862 1861 1581 2182 7507 2181 
10 794 671 1291 672 3411 7823 6322 3412 3036 6280 
10 27 26 50 389 1559 1866 1867 6303 6304 2190 
10 46 385 23 384 2178 7853 1859 2176 2180 8573 
10 782 826 1395 916 3520 8420 7354 3827 3828 8421 
10 1525 934 1450 1489 8799 6905 5853 5852 6907 5737 
10 656 1168 1280 1283 6751 5044 7826 6753 5053 5054 
10 1391 656 1280 1283 7581 7826 5378 5377 6753 5054 
10 371 516 1167 515 2565 7072 6881 2563 2567 6882 
10 1132 1133 619 476 4604 8849 7721 7511 7717 2883 
10 527 1176 666 667 8778 7048 3017 3019 7585 3021 
10 665 1175 1174 1286 7233 4725 8850 7901 5061 5062 
10 1174 1175 665 525 4725 7233 8850 7079 7637 3013 
10 932 962 1450 1539 4091 8768 6914 7778 8368 5950 
10 665 525 1175 526 3013 7637 7233 3014 2594 7234 
10 396 57 395 1060 2211 2209 2213 6937 6691 8119 
10 665 1286 1326 1175 7901 5178 6378 7233 5061 5177 
10 962 934 933 1450 4052 3900 4051 8768 6905 6929 
10 1504 1432 813 1508 5779 8410 7472 5791 5788 7470 
10 880 945 1467 944 3942 6784 8851 3941 3944 6331 
10 362 1030 1158 507 7902 4675 6551 2541 6628 6599 
10 396 539 1060 395 2632 7603 6937 2213 2631 8119 
10 539 396 1060 1061 2632 6937 7603 7602 6936 4386 
10 922 1438 1505 1543 7379 5918 8462 7380 5928 5925 
10 299 978 191 190 8227 4136 8582 8583 4137 1732 
10 395 539 1060 538 2631 7603 8119 2629 2633 8201 
10 451 302 981 303 2374 6681 8332 2375 1936 6268 
10 539 1185 1060 538 7123 4753 7603 2633 7140 8201 
10 161 406 267 1070 2240 6506 3966 8852 8842 4410 
10 407 406 161 1070 2245 2240 2244 8677 8842 8852 
10 1198 549 408 548 7664 2662 6890 7396 2663 2658 
10 879 880 1467 944 3704 8851 6329 3940 3941 6331 
10 200 987 199 86 4163 4164 1741 6142 8312 6141 
10 1162 654 1332 1338 6989 7157 5210 5217 8189 5362 
10 1088 1212 564 1213 4828 7674 8249 4832 4833 8846 
10 316 205 204 991 8244 1747 8105 8245 4177 4178 
10 961 924 1544 908 3998 8853 8832 3997 3868 8570 
10 874 909 1464 873 3959 6977 7317 3683 3961 6976 
10 547 407 548 1197 2655 2659 2660 7257 8451 7256 
10 624 481 1137 482 2898 8501 7804 2899 2468 8265 
10 1066 264 157 403 4399 4021 8632 7117 8483 2232 
10 1544 1537 930 908 5943 8283 8757 8570 8569 4022 
10 403 1066 402 157 7117 6292 2233 2232 8632 2229 
10 1376 1269 823 1268 5336 6968 8075 5337 5014 6970 
10 277 418 1082 1081 8497 8681 4445 4441 8854 4446 
10 417 1207 1081 1080 8171 4814 8630 8585 4815 4443 
10 1479 1459 938 864 5674 8746 8755 8710 8703 3912 
10 1350 808 1472 1447 6950 8706 5650 5581 6829 5651 
10 766 1377 823 876 8794 8074 3521 3691 6503 3838 
10 1520 1459 939 938 5836 8745 7614 8836 8746 3916 
10 959 943 923 1532 4024 4079 4078 8446 6816 8144 
10 1215 1319 568 1216 5153 6727 6726 4842 5152 7099 
10 1320 569 1216 1217 7096 7097 5156 5155 8235 4845 
10 1520 1479 1459 938 5837 5674 5836 8836 8755 8746 
10 587 1105 1104 1285 8568 4521 8323 8855 5057 5058 
10 1468 1445 845 911 5760 6374 8490 7880 6373 3807 
10 1501 948 966 1456 7875 4069 7789 5758 7120 7626 
10 376 155 375 1043 2151 2150 2153 7977 8702 8126 
10 1280 1281 1167 655 5048 5046 5045 7491 7577 7575 
10 376 261 1044 156 7976 4334 6441 2152 5998 6439 
10 1501 1498 1456 966 5945 5972 5758 7789 8834 7626 
10 456 1115 1114 600 7861 4551 7862 2827 7246 7999 
10 1526 1457 859 1472 5856 7289 7636 5857 5652 7414 
10 1498 926 1456 966 6835 8747 5972 8834 4095 7626 
10 425 1089 424 565 7169 8845 2297 2706 7163 2705 
10 286 426 178 179 8801 2298 6228 6231 2299 1718 
10 1479 1520 1524 938 5837 5922 5907 8755 8836 8754 
10 1126 469 611 468 7226 2860 6944 6945 2429 2859 
10 657 517 1283 1169 2992 6752 8498 8777 6743 5052 
10 926 921 966 1498 4018 4094 4095 6835 6356 8834 
10 1464 909 1510 955 6977 6590 5797 6978 3993 7649 
10 1170 1339 1169 518 5222 5220 4710 6616 8776 6744 
10 1075 412 273 166 6786 8788 4426 8508 2259 3627 
10 1061 33 1062 397 4384 4388 4389 6578 7954 6579 
10 74 73 298 190 1608 1919 1920 6151 6122 8650 
10 22 384 23 1051 7082 8573 1555 4355 6485 4354 
10 657 517 1169 518 2992 6743 8777 2993 2573 6744 
10 299 978 190 298 8227 4137 8583 1924 6861 8650 
10 978 298 977 190 6861 6862 4138 4137 8650 4133 
10 1520 937 1524 938 8748 6768 5922 8836 3913 8754 
10 385 1052 23 1051 7849 4358 7853 7252 4359 4354 
10 1119 461 989 556 7669 7212 4562 6848 3155 8617 
10 384 385 23 1051 2180 7853 8573 6485 7252 4354 
10 657 1339 834 703 8017 8018 3546 3128 8416 3578 
10 481 335 1007 336 2463 7729 8020 2464 2036 7002 
10 1372 758 1371 1258 7792 7708 5323 5322 7941 5318 
10 1146 635 493 636 6982 2932 8188 6987 2936 2934 
10 104 1001 328 329 8856 6757 2011 2013 6472 2015 
10 326 471 999 325 2434 7574 8731 2006 2433 7570 
10 327 214 103 213 7952 6042 2008 8412 1756 6041 
10 480 1135 623 1136 7274 8349 2895 7009 4613 7010 
10 758 759 623 1258 3312 3310 3308 7941 6566 6568 
10 623 1259 1136 1258 6567 4983 7010 6568 4984 4979 
10 418 1083 278 1082 8680 4448 8781 8681 4449 4444 
10 1272 769 1379 1271 7913 7985 5345 5023 8782 5346 
10 1534 962 960 956 7774 4093 8351 7296 4090 4046 
10 88 87 312 201 1622 1961 1962 6145 6144 8187 
10 1149 351 496 1019 8026 2509 8767 4651 8024 8648 
10 1149 497 496 351 7152 2513 8767 8026 2511 2509 
10 987 200 988 311 4163 4167 4168 8313 8311 7563 
10 459 987 311 310 7622 8313 2399 2398 7484 1960 
10 1148 495 1147 1018 7219 8655 4649 4648 7221 4644 
10 495 494 637 1147 2507 2937 2938 8655 6495 8857 
10 582 717 1222 810 3181 6388 6389 3462 3551 8858 
10 1360 739 784 738 8314 3512 8303 8007 3255 3811 
10 717 1383 1222 810 7766 5357 6388 3551 7764 8858 
10 506 649 1277 648 2972 6610 8657 2971 3156 8352 
10 1157 1031 364 1095 4673 7329 6974 4674 4485 6975 
10 460 312 311 988 2402 1963 2401 7562 8654 7563 
10 648 462 1242 1156 2970 7727 7699 8658 6542 5209 
10 1028 462 361 1156 8088 2408 6305 4672 6542 6306 
10 1448 884 834 1478 8476 3715 7864 5700 8730 8812 
10 33 59 1062 397 1880 7595 4388 7954 2215 6579 
10 373 374 152 1041 2148 2146 2144 7270 6586 8353 
10 998 211 212 100 4198 1754 4197 8408 6037 6038 
10 810 1383 1222 1335 7764 5357 8858 8406 5358 5206 
10 326 101 999 213 2004 7569 8731 8413 6040 4200 
10 1080 1100 9 416 4500 4501 4440 7108 8786 7107 
10 100 998 325 212 8408 6948 2001 6038 4197 6448 
10 418 558 1082 1081 2686 7809 8681 8854 7386 4446 
10 236 1023 355 131 4273 8456 8023 6085 8859 2092 
10 225 1011 224 116 4236 4237 1767 6062 8860 6061 
10 59 33 1062 34 1880 4388 7595 1881 1566 4387 
10 582 810 1222 1335 3462 8858 6389 8405 8406 5206 
10 1269 1146 1147 636 5013 4646 5012 6967 6987 7313 
10 1141 486 1140 1011 8861 7130 4628 4627 6288 4623 
10 277 418 171 278 8497 2275 6214 1824 8781 6213 
10 162 407 268 1071 2243 8531 3928 7373 7698 4413 
10 1171 1097 436 1093 4712 6427 7404 4713 4503 7092 
10 1091 428 1092 1216 7438 7007 4476 4841 7005 4840 
10 1171 557 1324 1217 7405 6826 5168 4879 8234 5169 
10 418 277 1082 278 8497 4445 8681 8781 1824 4444 
10 1061 1187 1186 540 4760 4761 4756 7710 6677 8862 
10 1355 733 732 1236 6763 3237 8046 5273 6765 8402 
10 591 448 1107 1108 2801 7461 7781 7782 6420 4530 
10 433 1096 578 375 6336 8251 2753 2549 8125 2754 
10 192 979 191 76 4139 4140 1733 6126 8687 6125 
10 590 1231 1107 1106 7202 4902 7203 8129 4903 4527 
10 602 1116 458 601 8123 6500 2833 2835 7998 2831 
10 938 1524 863 937 8754 6560 3911 3913 6768 3910 
10 649 1331 784 741 6609 8304 3386 3258 7283 3552 
10 459 602 1116 458 2834 8123 7623 2400 2833 6500 
10 198 85 199 309 6139 6140 1740 6370 1953 7555 
10 651 543 1189 1123 2978 6626 6625 8588 8605 4768 
10 464 607 465 1121 2848 2849 2417 8149 8565 7707 
10 893 1394 1473 894 8758 5654 7521 3747 8378 8380 
10 1126 323 468 996 7228 2425 6945 4582 7908 7174 
10 1057 535 534 391 7367 2621 7368 7501 2619 2617 
10 896 1398 1480 897 6909 5676 8106 3759 8726 8282 
10 671 532 531 1180 3032 2612 3031 8708 6349 7869 
10 1292 673 1291 1181 6449 7046 5079 5078 8094 5074 
10 485 340 339 1010 2476 2048 2475 6877 8541 6878 
10 813 1432 702 1420 8410 8117 3469 7113 5502 7114 
10 340 115 339 1010 2046 2044 2048 8541 6409 6878 
10 1135 623 1136 1258 8349 7010 4613 4980 6568 4979 
10 343 489 344 1013 2487 2488 2060 6812 8863 7958 
10 1097 1171 436 1225 4712 7404 6427 4880 4881 8736 
10 488 1012 1142 1013 6516 4630 7197 8864 4244 4629 
10 115 340 224 1010 2046 8542 6060 6409 8541 4233 
10 415 510 1079 521 2550 7750 7848 2579 2580 8750 
10 844 1333 1425 1349 6824 5481 8221 8222 5485 5653 
10 1487 786 1486 1406 6887 7412 5697 5696 7042 5693 
10 1171 583 436 1225 7640 2775 7404 4881 7641 8736 
10 271 164 270 1073 3756 3890 1815 4420 8510 4419 
10 1023 1152 1022 500 4659 4660 4274 7134 6326 8014 
10 1148 1149 1271 639 4652 5018 5019 8695 7872 8081 
10 164 409 270 1073 2249 6311 3890 8510 7680 4419 
10 640 1273 1150 1272 8267 5025 7059 8177 5026 5021 
10 1160 572 1244 714 7550 8752 4941 7551 3195 8753 
10 352 1020 234 127 7834 4263 7084 2082 7712 6080 
10 1160 572 365 1033 7550 2726 8433 4680 6871 6870 
10 830 918 1511 1455 3840 8668 8391 8302 7971 5812 
10 1020 352 234 1021 7834 7084 4263 4268 7085 4267 
10 1531 1530 1477 949 5875 5871 5874 8507 7517 8108 
10 1317 819 699 700 8513 3487 6457 6455 3488 3116 
10 1039 1168 516 372 4703 7071 7070 8200 8561 2566 
10 1292 1182 673 1181 5077 6791 6449 5078 4746 8094 
10 890 1443 1407 1439 7784 5733 8273 8274 5807 5558 
10 285 1089 425 1090 4465 7169 8698 4469 4470 6913 
10 659 1432 1447 1324 8236 5569 8865 8237 5500 5568 
10 668 529 1178 669 3023 8383 6666 3027 3025 8504 
10 1089 566 425 1090 7168 2708 7169 4470 6911 6913 
10 1298 803 681 1344 8728 3439 7598 5239 7802 7599 
10 802 1297 1403 1404 8744 5412 8113 7365 5416 5417 
10 33 59 397 58 1880 2215 7954 1879 1592 2214 
10 401 1064 400 505 6318 6319 2228 2535 7713 2646 
10 566 1089 1214 1090 7168 4835 7656 6911 4470 4834 
10 1298 803 1427 1404 8728 6732 5534 5415 8825 5556 
10 1187 541 540 397 6720 2639 6677 6577 2637 2635 
10 406 1069 267 1070 6617 4408 6506 8842 4412 4410 
10 420 561 1085 1084 2693 8392 8385 6554 8866 4455 
10 561 560 1209 1084 2695 8345 8216 8866 7453 4820 
10 1071 1198 408 548 4789 6890 6891 7395 7396 2658 
10 561 420 560 1084 2693 2691 2695 8866 6554 7453 
10 278 419 418 171 7280 2279 8781 6213 2277 2275 
10 693 844 742 1349 3584 3585 3260 8219 8222 8218 
10 897 950 1480 949 3972 8281 8282 3969 3974 8107 
10 896 897 1480 949 3759 8282 8106 3968 3969 8107 
10 695 814 1313 694 3473 7540 6364 3101 3472 7243 
10 1221 693 1208 1349 8537 8346 4860 5256 8219 5255 
10 1160 365 519 1032 8433 2575 7384 4681 8045 7326 
10 731 1234 1354 1235 8143 5271 7857 8578 4916 5270 
10 453 1111 596 1112 6263 6607 2816 7930 4542 8051 
10 359 240 289 135 8480 8186 2409 2104 6023 2312 
10 945 847 1506 930 4048 6395 6785 4076 3885 8285 
10 1323 608 607 1121 7767 2852 8700 5164 7768 8565 
10 983 305 306 454 6670 1945 8528 7931 2383 2384 
10 1247 1429 1323 743 5491 5492 5167 7417 7418 8566 
10 855 936 856 1356 3904 3905 3624 8469 8627 8288 
10 148 370 1037 369 2134 7259 6669 2132 2136 7588 
10 1358 736 857 735 8354 3629 7897 8867 3246 3628 
10 195 305 81 983 8606 1941 6133 4152 6670 8012 
10 863 747 746 1384 3646 3276 3645 6521 6519 7653 
10 1524 1485 862 954 5847 7723 6561 6973 6971 3999 
10 1435 1325 744 1429 5515 8564 8133 5632 5555 7420 
10 359 970 289 240 7057 8481 2409 8480 4482 8186 
10 1135 1006 1136 480 4608 4612 4613 7274 7276 7009 
10 992 505 317 463 8114 2537 8616 8232 2749 2410 
10 206 93 318 992 6028 1980 7919 4179 8868 7920 
10 464 1122 1121 993 8613 4570 8149 8430 4568 4567 
10 1006 481 1136 480 8021 7008 4612 7276 2465 7009 
10 1133 478 1134 620 8437 7807 4607 8620 2887 8262 
10 474 616 617 1131 2875 2879 2877 6787 8809 6431 
10 888 1545 1538 960 6362 5960 6673 4045 8869 8286 
10 616 1253 617 1131 8008 6430 2879 8809 4964 6431 
10 979 76 301 300 8687 1928 8685 7324 1926 1930 
10 626 1138 1261 1139 7579 4989 8132 7482 4622 4988 
10 1383 1377 876 1376 5630 6503 6504 5631 5341 8712 
10 115 114 339 223 1650 2043 2044 6059 6058 8043 
10 844 764 763 1425 3690 3327 3689 8221 8597 8598 
10 1545 888 956 960 6362 4000 6702 8869 4045 4046 
10 1141 486 629 1140 8861 2913 8206 4628 7130 8308 
10 1019 1149 1148 496 4651 4652 4647 8648 8767 7667 
10 1144 491 1145 634 8217 8870 4640 7532 2928 8793 
10 1545 1534 1538 960 5961 5941 5960 8869 8351 8286 
10 588 445 444 1105 2792 2358 2791 7210 7209 8567 
10 346 121 229 122 2064 6070 7064 2065 1657 6102 
10 500 1152 1151 642 6326 4661 8774 2953 6328 6602 
10 830 1361 838 714 8390 8438 3562 3535 8759 3559 
10 1157 720 1228 650 7922 8084 4896 8871 3192 8085 
10 599 736 1238 735 3244 8872 7703 3242 3246 8873 
10 739 1242 1241 1360 7700 4937 8061 8314 5580 5288 
10 494 1146 493 636 7312 8188 2504 2935 6987 2934 
10 1166 370 1038 515 8272 7074 4696 6529 2562 6880 
10 200 87 988 311 6143 6313 4167 8311 1959 7563 
10 1032 1031 248 432 4300 4296 4299 7328 7331 6741 
10 364 363 1095 141 2119 7159 6975 2117 2115 8040 
10 1055 26 389 388 4367 6304 6284 8848 7301 2192 
10 1160 714 1244 1332 7551 8753 4941 5198 8589 5197 
10 87 200 86 311 6143 6142 1621 1959 8311 1958 
10 631 1264 630 647 8581 6508 2921 3332 8721 3331 
10 792 1394 793 1289 7865 8612 3410 7866 5386 8874 
10 659 557 1324 691 2998 6826 8237 3091 3089 6821 
10 1033 250 366 144 4301 8875 6872 8813 6014 2122 
10 467 995 322 321 6655 6656 2422 2421 7445 1994 
10 1265 1346 1348 647 5507 5262 5505 8192 8190 8591 
10 775 1427 1248 1344 6733 5487 7427 7801 5488 5240 
10 1534 1545 956 960 5961 6702 7296 8351 8869 4046 
10 335 481 1006 480 2463 8021 7271 2461 2465 7276 
10 49 26 388 50 1865 7301 2187 1583 1866 2188 
10 1291 671 1180 672 7823 8708 5075 6280 3036 6281 
10 695 561 694 1209 3099 3097 3101 7241 8216 7242 
10 1337 712 1190 520 8803 8804 5216 8876 3160 8810 
10 1394 1397 793 1290 5396 6583 8612 5385 5395 7399 
10 928 819 1422 820 3880 7543 6689 3881 3493 8831 
10 1473 893 894 920 7521 3747 8380 7522 4030 4031 
10 143 1032 248 432 8044 4299 6011 2318 7328 6741 
10 143 249 248 1032 6012 1792 6011 8044 4298 4299 
10 1166 370 1037 1038 8272 7259 4697 4696 7074 4318 
10 266 1069 405 1068 4407 6618 6627 4405 4409 6638 
10 161 268 1070 267 3929 4411 8852 3966 1812 4410 
10 121 346 229 1015 2064 7064 6070 8877 8665 4248 
10 1468 846 1440 1506 8489 7995 5768 5787 8552 5776 
10 712 1342 1190 1219 7736 5229 8804 8683 5249 4853 
10 1151 500 642 499 8774 2953 6602 6601 2522 2952 
10 580 1190 520 1337 8607 8810 2760 6416 5216 8876 
10 1229 1231 589 1106 4904 7822 7762 4898 4903 8130 
10 194 79 303 78 6152 1935 6269 6130 1613 1934 
10 412 1075 273 1076 6786 4426 8788 6770 4430 4428 
10 983 453 1112 982 6672 7930 4540 4153 6264 4541 
10 827 704 840 1389 3524 3567 3568 6572 8532 6581 
10 995 467 466 321 6655 2423 8067 7445 2421 2419 
10 1118 603 460 711 7660 2837 7661 7851 3196 3153 
10 1034 1163 367 1035 4689 8041 8669 4309 4688 8033 
10 1003 477 476 331 8526 2453 6792 6493 2451 2449 
10 704 827 1302 1389 3524 8210 8371 8532 6572 5373 
10 827 1393 1302 1389 6573 5383 8210 6572 5384 5373 
10 341 225 342 117 8624 8077 2054 2050 6101 2052 
10 1143 632 633 1266 7873 2927 7536 5004 7266 7267 
10 1118 603 711 1242 7660 3196 7851 4935 8062 7701 
10 1141 1264 630 1142 4998 6508 8207 4631 4997 7198 
10 145 1034 367 251 8878 8669 2125 6016 4304 8494 
10 764 1262 1263 628 8596 4996 8719 3325 6434 8879 
10 1086 563 1087 1211 8300 7657 4461 4826 6341 4825 
10 1275 644 1334 773 7309 6536 5204 8240 3358 8647 
10 290 439 971 504 2339 6272 6654 2741 2742 6274 
10 1023 356 1153 501 7566 7568 4663 7133 2524 7672 
10 1273 1151 641 1150 5024 6603 8268 5025 4658 7060 
10 1215 1091 1216 568 4837 4841 4842 6726 8238 7099 
10 1375 913 742 1423 7408 3813 7409 5625 6531 6533 
10 814 742 1423 1314 3474 6533 6532 7883 7474 5472 
10 274 167 273 1076 3539 3626 1818 4429 7671 4428 
10 1350 808 691 719 6950 3456 6818 6822 3457 3188 
10 785 1504 1472 1447 8444 5769 8808 6828 5770 5651 
10 783 841 1431 835 3723 7179 7044 3636 3717 8093 
10 167 412 273 1076 2258 8788 3626 7671 6770 4428 
10 885 1388 740 916 8509 6738 3862 3829 8817 3988 
10 670 1289 793 1290 8760 8874 3408 8676 5073 7399 
10 1178 668 669 1288 6666 3027 8504 5065 6641 6665 
10 1086 563 422 1087 8300 2699 6537 4461 7657 6539 
10 1171 583 1321 557 7640 7642 5159 7405 2774 6827 
10 703 1339 1439 1340 8416 5536 8417 6695 5225 5535 
10 579 510 658 1192 2758 2995 2996 7095 7749 7735 
10 1074 551 410 1200 8718 2668 7335 4796 8111 7336 
10 557 569 1324 1217 2777 8239 6826 8234 8235 5169 
10 1034 145 367 366 8878 2125 8669 8720 2123 2127 
10 1303 704 684 546 8369 3132 8486 8530 3129 3071 
10 1243 1416 1387 807 5520 5813 5368 7773 8815 8880 
10 470 613 1128 1127 2865 7578 8458 7346 7448 4589 
10 913 761 917 1374 3815 3831 3854 7223 7253 7238 
10 659 569 1324 557 2997 8239 8237 2998 2777 6826 
10 692 1226 580 1343 8549 7083 3092 7803 5234 6415 
10 776 1351 1337 652 6854 5264 8031 3368 6855 8065 
10 1322 662 1282 1431 7772 7182 5163 5557 7181 5551 
10 516 1280 1167 655 7075 5045 7072 2988 7491 7575 
10 690 1300 1341 835 7194 5241 7195 3549 7731 8091 
10 835 690 716 1341 3549 3176 3548 8091 7195 6678 
10 255 1039 150 256 4320 6576 6020 1799 4319 6007 
10 492 491 1145 1015 2498 8870 8653 8664 8666 4639 
10 1337 712 520 652 8803 3160 8876 8065 3161 2981 
10 767 1270 766 1377 8505 7948 3341 8259 5339 8794 
10 638 767 1270 637 3340 8505 7423 2942 3339 7425 
10 563 423 422 1087 2700 2291 2699 7657 7658 6539 
10 282 175 1087 422 6223 7900 4460 6538 2287 6539 
10 175 423 1087 422 2289 7658 7900 2287 2291 6539 
10 1537 944 930 908 8284 4023 8283 8569 3962 4022 
10 1119 462 1156 1118 7946 6542 4869 4563 7726 5208 
10 1083 560 419 1084 7452 2690 6721 4452 7453 6555 
10 434 1190 1098 1065 8797 4769 6414 6412 4770 4495 
10 860 943 1532 923 4073 6816 7294 3853 4079 8144 
10 434 1226 1098 1190 8229 4886 6414 8797 4887 4769 
10 161 407 1070 268 2244 8677 8852 3929 8531 4411 
10 957 965 1451 936 4084 7376 6708 4015 4108 7556 
10 1012 118 226 343 8076 6064 4239 8539 2055 6814 
10 753 1254 618 617 8195 7728 3293 3292 6429 2882 
10 1237 733 1356 1236 8802 6764 5276 4922 6765 5277 
10 1137 624 482 625 7804 2899 8265 6612 2903 2901 
10 970 290 971 504 8482 6654 4117 8484 2741 6274 
10 1451 1357 856 1356 5584 7695 8820 5585 5281 8288 
10 697 1211 696 1315 8727 6343 3107 6376 5142 6377 
10 272 1075 273 166 4425 4426 1817 3655 8508 3627 
10 484 1009 483 1138 7249 8643 2474 8255 4617 6774 
10 1102 970 971 504 4511 4117 4510 6273 8484 6274 
10 354 1022 353 499 8015 7035 2090 2518 8160 2517 
10 1294 798 1400 1293 7795 7528 5403 5085 8609 5404 
10 1235 596 595 1111 6606 2817 8881 4914 6607 7359 
10 192 979 76 301 4139 8687 6126 8882 8685 1928 
10 1336 1487 809 1475 5695 6888 8633 5659 5698 8511 
10 866 1366 1363 1458 8003 5305 8141 8004 5601 5602 
10 1041 374 1170 518 6586 7100 4709 7104 2572 6616 
10 798 797 1400 1293 3425 7526 7528 8609 8496 5404 
10 1009 485 1010 1139 6875 6877 4235 4621 8155 4620 
10 494 637 1147 636 2937 8857 6495 2935 2939 7313 
10 1396 891 892 1478 8883 3741 8839 5668 8811 8840 
10 980 979 449 1109 4144 8686 8404 4531 4532 8336 
10 1397 896 895 794 7185 3753 6584 6582 3751 3749 
10 1394 1471 894 895 5649 8379 8378 8611 7886 3750 
10 979 1108 449 1109 4528 8334 8686 4532 4533 8336 
10 376 261 156 155 7976 5998 2152 2151 5997 1692 
10 1148 1149 639 496 4652 7872 8695 7667 8767 2943 
10 337 112 336 221 2037 2035 2039 6999 6100 7000 
10 484 1009 1139 485 7249 4621 7481 2477 6875 8155 
10 1009 484 1139 1138 7249 7481 4621 4617 8255 4622 
10 877 767 876 1378 3693 3692 3695 7756 8260 6505 
10 638 1270 1271 1148 7423 5020 8082 7424 5015 5019 
10 563 1086 562 1211 8300 8301 2701 6341 4826 6342 
10 286 178 1090 285 6228 8697 4468 1832 6229 4469 
10 1390 1327 716 826 5376 6679 8798 8400 8735 3519 
10 782 1284 1395 658 7353 5390 7354 3382 7733 8580 
10 1327 1390 1395 826 5376 5530 5389 8735 8400 8420 
10 1327 826 1395 658 8735 8420 5389 7734 3518 8580 
10 1244 572 1120 713 8752 8193 4940 6490 3167 8884 
10 885 1388 916 1475 8509 8817 3829 8424 5786 8425 
10 825 1342 712 832 8180 7736 3517 3867 7738 3542 
10 572 511 1120 713 2728 8350 8193 3167 3168 8884 
10 778 1492 1412 804 8035 5714 8560 3443 8885 7464 
10 1151 1273 641 1274 5024 8268 6603 5028 5029 8367 
10 1493 1492 889 804 5718 7927 8297 7462 8885 3730 
10 1307 1306 1411 685 5120 5435 5436 7019 6840 8168 
10 1413 805 804 883 7549 3449 7463 8800 3712 3713 
10 1507 1353 851 1424 5784 7682 7496 5785 5476 7175 
10 770 1273 771 641 8162 8457 3353 3349 8268 3351 
10 1267 635 1268 708 7307 6984 5011 6954 3336 6956 
10 1267 635 708 634 7307 3336 6954 7534 2933 3165 
10 489 488 1142 1013 2489 7197 7015 8863 8864 4629 
10 1143 489 1142 1013 7014 7015 4634 4633 8863 4629 
10 808 1350 691 1447 6950 6818 3456 6829 5581 6820 
10 1042 571 433 1161 7101 2724 6334 4683 7394 7888 
10 874 1372 758 1371 7323 7792 3681 7316 5323 7708 
10 904 778 1492 1491 3779 8035 7926 8886 8036 5715 
10 581 433 1161 578 2767 7888 7348 2768 2753 7029 
10 1496 928 1422 820 7503 6689 5730 7504 3881 8831 
10 869 1461 958 870 8097 8763 3931 3671 7607 4006 
10 1256 756 755 620 6686 3303 8663 6687 3301 3299 
10 1317 698 1316 1213 8515 6634 5148 5147 6635 5143 
10 1254 753 754 1368 8195 3297 8622 5310 7069 7725 
10 869 753 1368 754 3666 7069 7067 3667 3297 7725 
10 1245 822 1330 1334 6314 7740 5388 5205 6315 5600 
10 1067 544 1193 1194 7118 7119 4776 4777 8295 4779 
10 1361 714 779 1332 8759 3375 8136 5292 8589 8464 
10 433 1096 1161 578 6336 4682 7888 2753 8251 7029 
10 814 917 815 1442 3874 3875 3477 7204 7218 7541 
10 654 519 1332 714 2986 7156 7157 3170 3171 8589 
10 1160 519 1332 1162 7384 7156 5198 4687 6988 5210 
10 657 781 1448 1283 3379 7430 7863 8498 7582 5572 
10 502 1153 501 644 8460 7672 2528 2959 7311 2958 
10 1336 1284 661 1172 5212 8318 8319 5213 5056 8006 
10 1397 1394 793 895 5396 8612 6583 6584 8611 3748 
10 1275 643 644 773 7308 2960 7309 8240 3357 3358 
10 1528 912 1486 947 6778 6287 5863 6779 3947 8791 
10 838 1361 1421 1244 8438 5517 6487 6489 5291 5467 
10 587 723 1285 1230 3206 7939 8855 8325 7940 5059 
10 1468 945 881 845 6783 3943 6545 8490 3960 3956 
10 1105 588 1285 587 7210 6697 5057 8568 2793 8855 
10 722 1330 821 1445 8608 7742 3498 6372 5562 7559 
10 722 821 911 1445 3498 3805 3806 6372 7559 6373 
10 1512 811 1444 1433 8741 6869 5811 5810 7103 5554 
10 1434 1275 1334 773 5510 5204 5512 8242 8240 8647 
10 661 521 1301 1172 3001 8733 8887 8006 7129 5102 
10 881 1468 845 911 6545 8490 3956 3836 7880 3807 
10 846 723 845 1440 3592 3591 3594 7995 7938 8491 
10 653 1243 1164 705 7487 4938 8550 3164 6465 8520 
10 1243 1163 1164 705 4939 4693 4938 6465 8519 8520 
10 918 1490 1455 1509 8667 5920 7971 7970 5794 5866 
10 574 546 1195 405 2734 7432 8629 2732 2654 7433 
10 1342 825 1436 832 8180 6992 5519 7738 3867 7571 
10 968 1523 967 953 7038 8455 4082 4099 6767 4096 
10 140 363 1030 362 2114 7158 8407 2112 2116 7902 
10 1476 926 1456 1498 6834 8747 5662 5880 6835 5972 
10 902 1485 861 903 7011 7593 3984 3778 8824 3876 
10 660 827 774 1393 3522 3523 3360 8211 6573 7841 
10 574 1195 1068 405 8629 4780 6637 2732 7433 6638 
10 1050 382 526 1175 6298 2592 8662 4723 7638 7234 
10 382 1050 1049 1175 6298 4353 7639 7638 4723 4724 
10 1301 583 521 709 8734 2778 8733 8792 3147 3148 
10 948 1501 1436 1456 7875 5757 6994 7120 5758 5666 
10 1184 676 1294 1183 7905 7793 5083 4752 8806 5084 
10 1512 1537 944 1466 5898 8284 8888 5828 5897 6332 
10 906 1512 944 1466 8543 8888 3963 8263 5828 6332 
10 1467 1537 1466 944 5896 5897 5640 6331 8284 6332 
10 879 906 1466 878 4010 8263 6330 3701 4013 8049 
10 679 539 678 1186 3055 3053 3057 7612 7124 7126 
10 1536 920 884 1478 8423 3843 8729 5894 7936 8730 
10 238 239 358 133 1781 7051 7392 6089 6090 2100 
10 356 502 1024 1153 2526 8522 7567 7568 8460 4662 
10 1154 1245 645 606 4944 6316 6534 8635 6926 2963 
10 1023 131 237 356 8859 6086 4272 7566 2094 8660 
10 354 129 235 130 2088 6103 6526 2089 1665 6083 
10 1402 800 1296 801 7608 8488 5409 7609 3434 7617 
10 305 195 81 80 8606 6133 1941 1940 6132 1615 
10 1339 1448 834 1439 5571 7864 8018 5536 5573 8418 
10 302 981 193 980 6681 4146 6667 6693 4147 4142 
10 82 984 196 306 6933 4155 6135 1944 7251 8529 
10 1358 857 1357 735 7897 7694 5284 8867 3628 7696 
10 734 1237 597 733 8002 7291 3238 3240 8802 3236 
10 890 703 1439 1340 4039 8417 8274 8275 6695 5535 
10 207 319 993 94 8518 8429 4182 6030 1983 8431 
10 800 678 1296 801 3430 7619 8488 3434 3432 7617 
10 536 676 1184 1183 3046 7905 8571 8595 8806 4752 
10 1005 478 333 479 7805 2455 6960 8358 2459 2457 
10 206 93 992 205 6028 8868 4179 1748 6027 4180 
10 93 205 92 317 6027 6026 1628 1978 8246 1977 
10 962 934 1450 1525 4052 6905 8768 7776 8799 5853 
10 678 679 1296 801 3057 7611 7619 3432 3433 7617 
10 1132 475 1002 476 6398 8540 4600 7511 2450 6793 
10 1368 1254 1255 754 5310 4972 5309 7725 8622 7720 
10 1133 477 619 476 8724 2884 8849 7717 2453 2883 
10 829 1408 1304 1409 8214 5427 8215 8294 5431 5429 
10 1489 854 853 1354 6831 3618 6908 5705 7852 8692 
10 962 1534 1450 1539 7774 5888 8768 8368 5949 5950 
10 880 1468 1381 1467 8780 5642 8766 8851 5643 5638 
10 1534 962 1450 1525 7774 8768 5888 5887 7776 5853 
10 1338 654 1332 1428 8189 7157 5362 5503 8465 5490 
10 1383 877 1378 1433 7763 7756 5750 5508 6856 5751 
10 1470 961 1519 1544 7187 8889 5835 5946 8832 5951 
10 1399 797 796 1293 8659 3422 7025 5400 8496 7356 
10 1399 898 1400 1481 8533 7527 5405 5679 7892 5678 
10 404 574 1194 1068 2733 8296 8890 6636 6637 4778 
10 1067 404 1194 1068 6923 8890 4777 4406 6636 4778 
10 560 1209 1208 694 8345 4821 7454 3096 7242 8347 
10 830 838 1511 904 3562 6995 8391 3856 3861 6996 
10 1229 588 1285 1105 6385 6697 5060 4899 7210 5057 
10 830 1361 1511 838 8390 5806 8391 3562 8438 6995 
10 444 975 443 1104 6980 8466 2355 8600 4516 8467 
10 1154 502 645 644 8459 2961 6534 6535 2959 2964 
10 1490 918 1511 904 8667 8668 5923 8891 3855 6996 
10 918 830 1511 904 3840 8391 8668 3855 3856 6996 
10 1209 1314 1208 694 5138 5139 4821 7242 7475 8347 
10 968 1514 1523 1522 6788 5959 7038 7980 5968 5846 
10 1523 1514 968 967 5959 6788 7038 8455 6789 4082 
10 456 1115 457 985 7861 7245 2394 7261 4550 7262 
10 826 843 1392 1395 3832 7165 7167 8420 8419 5721 
10 536 1058 392 1183 7111 7105 2622 8595 4747 7371 
10 1481 951 1521 950 7904 8826 5839 8279 3977 8830 
10 382 1050 21 1049 6298 4352 6297 7639 4353 4348 
10 544 404 574 1194 2647 2733 2765 8295 8890 8296 
10 525 382 381 1049 2590 2171 2589 7088 7639 7090 
10 1059 31 55 30 4378 1875 6699 4379 1563 1874 
10 52 1056 391 28 8100 7758 2196 1869 4369 7497 
10 1401 1294 798 1400 5407 7795 7797 5408 5403 7528 
10 1438 720 1228 1338 7285 8084 5532 5531 7286 5219 
10 371 255 150 149 6575 6020 2138 2137 6019 1686 
10 1067 404 544 1194 6923 2647 7118 4777 8890 8295 
10 998 471 999 1128 6949 7574 4202 4588 6523 4587 
10 268 407 1070 1071 8531 8677 4411 4413 7698 4415 
10 1196 1303 684 546 5107 8486 7666 7388 8530 3071 
10 558 1221 1220 710 7808 4859 7387 3149 6275 6277 
10 647 1205 575 509 8590 7021 2968 2967 6884 2750 
10 1066 263 402 157 4398 7518 6292 8632 4025 2229 
10 1526 1529 1541 940 5976 5912 5973 7635 7965 7633 
10 1119 990 556 989 4561 8892 6848 4562 4174 8617 
10 924 1545 956 1519 6360 6702 4001 8835 5965 7894 
10 956 924 1519 931 4001 8835 7894 4027 4028 7895 
10 1212 1316 1315 697 5144 5145 5141 7675 8069 6376 
10 1212 697 1315 1211 7675 6376 5141 4830 8727 5142 
10 1319 1320 568 1216 5157 7098 6727 5152 5156 7099 
10 99 211 210 997 6094 1753 6093 7269 4194 4195 
10 1179 671 531 1180 8893 3031 8205 4740 8708 7869 
10 961 924 1519 1544 3998 8835 8889 8832 8853 5951 
10 931 924 1519 961 4028 8835 7895 4062 3998 8889 
10 1470 931 1519 961 8475 7895 5835 7187 4062 8889 
10 604 439 606 1101 2839 2845 2846 8432 6653 6927 
10 278 419 171 172 7280 2277 6213 6216 2278 1711 
10 1111 596 1112 1236 6607 8051 4542 4918 6608 4917 
10 308 197 307 985 6422 6410 1951 7260 4158 8140 
10 82 984 307 197 6933 6713 1946 6136 4154 6410 
10 1266 577 1224 721 8078 8175 5464 7268 3197 7547 
10 1113 1237 598 1238 4920 7290 7292 4924 4925 7704 
10 458 1116 986 1115 6500 4553 6501 8253 4554 4549 
10 434 580 1190 520 2761 8607 8797 2577 2760 8810 
10 577 721 509 1224 3197 3198 2752 8175 7547 6885 
10 434 1190 1065 520 8797 4770 6412 2577 8810 7676 
10 208 95 994 207 6032 8619 4185 1750 6031 4186 
10 208 209 321 96 1751 7443 7444 6033 6034 1989 
10 723 587 1285 724 3206 8855 7939 3210 3208 6698 
10 1438 921 1428 1498 6354 6630 5732 5742 6356 5741 
10 984 456 985 1114 6712 7261 4159 4547 7862 4546 
10 462 360 1028 361 2407 7600 8088 2408 2110 6305 
10 1111 981 982 452 4538 4150 4537 6265 8333 6266 
10 1006 1135 1005 334 4608 4609 4223 7273 7275 8357 
10 246 363 141 1095 7160 2115 6001 4487 7159 8040 
10 1346 647 509 1205 8190 2967 6883 5244 8590 6884 
10 1372 759 1258 1259 7791 6566 5322 5321 6565 4984 
10 756 1369 755 871 8359 7825 3303 3673 7604 3672 
10 1369 871 1462 1461 7604 6965 5615 5611 7605 5616 
10 1265 1264 631 647 5002 8581 8361 8192 8721 3332 
10 582 1159 1222 576 8225 4866 6389 2773 6424 6390 
10 1149 1272 1271 639 5022 5023 5018 7872 8258 8081 
10 877 767 1378 768 3693 8260 7756 3694 3344 7755 
10 868 753 752 1367 3664 3294 3663 7183 7068 7300 
10 636 635 823 1268 2936 3505 3506 6969 6984 6970 
10 1104 587 1285 1230 8323 8855 5058 4900 8325 5059 
10 587 588 1285 724 2793 6697 8855 3208 3209 6698 
10 1267 1144 1145 634 5007 4640 5006 7534 7532 8793 
10 491 1144 1015 345 8217 4635 8666 2493 6803 8894 
10 1357 1358 735 1238 5284 8867 7696 5279 5283 8873 
10 987 459 1117 1116 7622 7842 4556 4552 7623 4557 
10 159 266 160 405 3971 3970 1697 2238 6627 2237 
10 1031 247 364 1095 4297 8039 7329 4485 4486 6975 
10 982 303 304 452 6267 1939 7495 6266 2377 2378 
10 1199 1072 1198 549 4792 4790 4794 6841 7382 7664 
10 516 656 1280 655 2989 7826 7075 2988 2991 7491 
10 863 1479 1365 1384 6946 5672 6520 6521 5673 5361 
10 807 833 806 1387 3570 3835 3834 8880 8372 8373 
10 982 303 452 981 6267 2377 6266 4150 6268 8333 
10 429 181 428 1092 2307 2305 2309 6511 7265 7007 
10 131 1023 355 356 8859 8456 2092 2094 7566 2096 
10 1320 569 702 568 7096 3121 7691 7098 2719 3120 
10 517 1168 1283 1169 6750 5053 6752 6743 4707 5052 
10 791 668 1288 669 3402 6641 6664 3403 3027 6665 
10 1481 1518 1480 950 5832 5833 5680 8279 8814 8281 
10 26 49 388 1054 1865 2187 7301 4363 8157 8158 
10 1416 807 806 1387 8815 3834 8740 5813 8880 8373 
10 1518 1481 1521 950 5832 5839 5840 8814 8279 8830 
10 1327 579 1227 716 8276 7094 5180 6679 3175 6680 
10 992 1122 318 993 4569 8614 7920 4184 4568 7921 
10 8 1100 9 430 8785 4501 1840 2311 8574 7531 
10 1205 647 575 1348 8590 2968 7021 5253 8591 8895 
10 1100 1205 1224 509 4811 4892 4876 8896 6884 6885 
10 1366 866 751 867 8003 3658 8063 6620 3662 3660 
10 511 1163 705 512 8536 8519 3134 2556 8042 3135 
10 750 866 751 1363 3657 3658 3288 7881 8141 8142 
10 1074 1201 551 1200 4798 7644 8718 4796 4800 8111 
10 1244 713 1120 1279 6490 8884 4940 5211 8789 5042 
10 412 1075 552 411 6786 7959 2670 2260 7960 2671 
10 1201 1074 551 411 4798 8718 7644 7645 8328 2667 
10 1122 464 318 993 8613 2412 8614 4568 8430 7921 
10 1086 422 562 421 6537 2697 8301 7552 2288 2696 
10 698 1316 697 817 6634 8069 3110 3482 6865 3481 
10 1199 550 1200 1073 6922 8112 4797 4793 8547 4795 
10 1303 1408 840 1389 5426 7455 8572 5374 5428 6581 
10 1425 1333 828 1246 5481 6825 8713 5478 5200 6711 
10 123 230 229 1016 6072 1772 6071 7073 4251 4252 
10 1419 780 1420 1495 7155 7112 5463 5726 6898 5725 
10 647 1346 509 721 8190 6883 2967 3201 7546 3198 
10 1108 1233 592 1109 4909 8089 8335 4533 4908 8337 
10 594 451 450 1110 2810 2376 2809 6892 6683 6436 
10 979 448 449 1108 6419 2370 8686 4528 6420 8334 
10 66 184 183 971 6110 1725 6109 8656 4115 4116 
10 250 145 366 144 6015 2123 8875 6014 1681 2122 
10 629 1141 1140 1263 8206 4628 8308 8151 4994 4995 
10 1525 1505 1543 963 5854 5925 5926 7777 8795 7984 
10 1023 356 501 355 7566 2524 7133 8456 2096 2523 
10 356 502 1153 501 2526 8460 7568 2524 2528 7672 
10 1141 629 1264 1263 8206 6507 4998 4994 8151 4999 
10 637 1269 1147 636 7949 5012 8857 2939 6967 7313 
10 629 1140 628 1263 8308 8154 2915 8151 4995 8879 
10 1140 1262 628 1263 4991 6434 8154 4995 4996 8879 
10 637 1270 1147 1269 7425 5016 8857 7949 5017 5012 
10 1019 1148 350 496 4647 7220 8548 8648 7667 2508 
10 1256 755 1255 620 8663 7718 4975 6687 3299 8621 
10 475 330 1002 476 2446 6782 8540 2450 2448 6793 
10 1150 1151 641 498 4658 6603 7060 7061 8166 2949 
10 736 599 1238 1239 3244 7703 8872 8307 8306 4928 
10 1380 880 1381 1467 8897 8766 5353 5639 8851 5638 
10 1377 766 823 1269 8794 3521 8074 5340 7950 6968 
10 506 649 507 1158 2972 2973 2543 6549 6597 6599 
10 637 1270 1148 1147 7425 5015 7426 8857 5016 4649 
10 598 599 1238 735 2826 7703 7704 3241 3242 8873 
10 717 1278 1376 708 6428 5338 8584 3180 6955 8772 
10 880 1468 881 1381 8780 6545 3707 8766 5642 6547 
10 1289 1394 793 1290 5386 8612 8874 5073 5385 7399 
10 898 1481 897 950 7892 8280 3762 3973 8279 3972 
10 1471 946 1473 894 7523 8422 5656 8379 4032 8380 
10 1358 736 735 1238 8354 3246 8867 5283 8872 8873 
10 712 1219 520 545 8683 8784 3160 3162 7836 2651 
10 736 1358 1239 1238 8354 5282 8307 8872 5283 4928 
10 662 783 1431 1322 3384 7044 7181 7772 7043 5557 
10 1415 689 806 812 8436 3450 8428 8138 3467 3468 
10 690 1300 1191 1227 7194 5100 8271 7196 5101 4890 
10 1204 605 1191 554 7215 8270 4889 7216 2843 8150 
10 1036 368 252 147 7361 8179 4311 7362 2129 6003 
10 734 598 1238 735 3239 7704 8762 3243 3241 8873 
10 734 1238 1357 735 8762 5279 8000 3243 8873 7696 
10 676 1184 677 537 7905 8478 3051 3047 6309 3049 
10 734 1237 1238 598 8002 4925 8762 3239 7290 7704 
10 1033 1034 1120 366 4306 4564 4565 6872 8720 8194 
10 1034 250 251 145 4305 1794 4304 8878 6015 6016 
10 1035 252 146 251 4307 6009 8495 4308 1795 6017 
10 1034 511 1120 366 8535 8350 4564 8720 2552 8194 
10 1050 527 383 1051 8661 2595 8562 4356 6484 6486 
10 579 1327 1227 1192 8276 5180 7094 7095 5181 4893 
10 605 555 1191 554 2842 8197 8270 2843 2769 8150 
10 1091 286 427 1090 4472 7339 7340 4473 4468 7754 
10 719 583 691 1321 3189 3090 3188 6823 7642 6819 
10 682 775 1344 681 3367 7801 8742 3067 3558 7599 
10 1050 527 1051 1176 8661 6484 4356 4727 8778 4726 
10 701 1319 1420 702 6444 5462 7139 3191 7978 7114 
10 468 323 322 996 2425 1997 2424 7174 7908 6658 
10 1386 849 1513 1470 8448 8449 5815 5646 7818 5817 
10 417 1207 1080 575 8171 4815 8585 2736 8172 8586 
10 1217 1216 428 569 4845 7005 7006 8235 7097 2717 
10 1358 1452 1357 857 5586 5587 5284 7897 7898 7694 
10 550 686 1307 1200 3076 7077 7024 8112 7078 5119 
10 1199 550 1307 1200 6922 7024 5118 4797 8112 5119 
10 746 747 611 1249 3276 3274 3272 8291 8257 8317 
10 747 746 1384 1249 3276 7653 6519 8257 8291 5359 
10 1364 865 1459 864 6725 8764 5605 8704 3653 8703 
10 156 261 1044 262 5998 4334 6439 5979 1805 4333 
10 426 178 425 1090 2298 2296 2300 6912 8697 6913 
10 506 362 1158 507 2540 6551 6549 2543 2541 6599 
10 693 1314 1208 1349 7473 5139 8346 8219 5254 5255 
10 228 121 229 1015 6069 6070 1771 4249 8877 4248 
10 10 13 415 12 6235 7148 2267 1707 1842 2268 
10 910 819 1422 928 3802 7543 6688 3879 3880 6689 
10 1312 1204 689 605 5133 7217 7624 8816 7215 3187 
10 1099 13 435 1079 4498 7397 6498 4499 4437 7752 
10 885 1388 1475 1474 8509 5786 8424 7891 5658 5803 
10 843 1388 916 740 8524 8817 3937 3581 6738 3988 
10 1533 1453 867 1458 5884 6621 8163 5885 5604 7281 
10 1295 1185 1296 677 5086 5090 5091 6345 7589 8209 
10 250 1034 1033 366 4305 4306 4301 8875 8720 6872 
10 1518 929 950 1542 8544 4075 8814 5954 8545 8675 
10 1077 1203 413 1076 4805 7147 7145 4433 4804 7648 
10 165 271 1074 410 3755 4422 8818 2252 8468 7335 
10 415 510 435 1079 2550 2551 2325 7848 7750 7752 
10 904 778 889 1492 3779 3731 3781 7926 8035 7927 
10 707 1410 831 1409 8447 7434 3536 7845 5434 8527 
10 1229 726 1352 725 6715 6717 5267 6387 3216 7832 
10 1452 857 1497 887 7898 7899 5629 7877 4064 7693 
10 579 1099 435 1192 7093 6498 2759 7095 4773 7751 
10 1034 250 145 366 4305 6015 8878 8720 8875 2123 
10 464 319 318 993 2413 1985 2412 8430 8429 7921 
10 831 778 1411 685 3446 8037 7435 3444 3373 8168 
10 833 1243 1387 807 6464 5368 8372 3570 7773 8880 
10 902 901 1403 801 3774 6730 7013 3772 3770 7618 
10 775 1427 1323 1248 6733 5486 8843 7427 5487 5166 
10 565 1088 564 1213 7164 8249 2707 7161 4832 8846 
10 943 1515 1532 1461 8819 5882 6816 6817 5820 5881 
10 1419 701 780 820 7138 3376 7155 7654 3491 3492 
10 797 1399 1400 1293 8659 5405 7526 8496 5400 5404 
10 918 830 882 1455 3840 3710 3839 7971 8302 6844 
10 815 1313 1442 1329 6365 5544 7541 6367 5188 5543 
10 530 1179 1178 669 8203 4737 8503 3026 8898 8504 
10 398 541 1062 397 2638 6719 7596 2219 2637 6579 
10 946 1473 894 920 8422 8380 4032 3946 7522 4031 
10 1396 891 790 892 8883 3737 8414 8839 3741 3739 
10 1449 815 1442 1329 8821 7541 5780 5579 6367 5543 
10 893 791 892 1385 3742 3740 3744 7519 8769 8770 
10 60 398 34 59 2218 8594 1882 1593 2217 1881 
10 398 60 34 1063 2218 1882 8594 6747 7349 4391 
10 1449 816 815 1329 8499 3480 8821 5579 8749 6367 
10 615 750 751 1252 3284 3288 3286 8807 8709 8011 
10 1529 1520 1459 939 5869 5836 5868 8340 7614 8745 
10 940 1529 939 1520 7965 8340 3920 7613 5869 7614 
10 1478 891 834 1439 8811 3858 8812 5699 8899 8418 
10 692 1444 1343 715 8364 5553 7803 3190 6868 6417 
10 22 44 383 1050 1857 2172 8072 4351 6299 8562 
10 1235 596 732 595 6606 3233 8401 8881 2817 3232 
10 1244 1421 713 1279 5467 6488 6490 5211 5466 8789 
10 44 382 383 1050 2170 2174 2172 6299 6298 8562 
10 638 767 768 1271 3340 3344 3342 8082 8398 8083 
10 44 22 383 45 1857 8072 2172 1578 1888 2173 
10 1448 1478 834 1439 5700 8812 7864 5573 5699 8418 
10 666 1287 667 1176 7047 7584 3021 7048 5064 7585 
10 1383 877 876 1378 7763 3695 6504 5750 7756 6505 
10 1012 118 225 226 8076 6063 4240 4239 6064 1768 
10 1287 789 1443 1326 7026 7028 5547 5179 7787 5548 
10 896 1397 1398 794 7185 5399 6909 3751 6582 6324 
10 962 1534 960 963 7774 8351 4093 4055 7775 4109 
10 898 951 1481 950 3975 7904 7892 3973 3977 8279 
10 946 1536 884 947 7524 8729 3945 4014 8732 3958 
10 948 825 832 1436 3953 3867 3952 6994 6992 7571 
10 1441 832 1436 919 7679 7571 5540 8055 3842 7122 
10 1157 508 570 650 6754 2722 7923 8871 2976 3123 
10 1441 1342 1436 832 5541 5519 5540 7679 7738 7571 
10 720 1157 1228 1338 7922 4896 8084 7286 5218 5219 
10 519 1160 1332 714 7384 5198 7156 3171 7551 8589 
10 1379 1465 1378 878 5633 5634 5347 8048 8047 7757 
10 104 329 105 215 2013 2014 1640 6044 8900 6095 
10 646 1333 828 710 7815 6825 3527 3152 6276 3528 
10 1115 456 457 600 7861 2394 7245 7246 2827 2828 
10 1517 1437 837 1502 5831 7052 6745 5900 5763 8322 
10 713 511 1120 1279 3168 8350 8884 8789 8901 5042 
10 491 492 1145 634 2498 8653 8870 2928 2929 8793 
10 825 1342 1436 1351 8180 5519 6992 6853 5265 5518 
10 1300 835 1362 1341 7731 8092 5293 5241 8091 5294 
10 1529 1526 1520 940 5976 5970 5869 7965 7635 7613 
10 835 1300 1362 777 7731 5293 8092 3588 7732 8902 
10 1300 1405 1362 777 5420 5494 5293 7732 6904 8902 
10 1531 929 1528 947 8506 6777 5971 7450 4017 6779 
10 1454 1529 1459 939 5867 5868 5607 8775 8340 8745 
10 835 783 777 1362 3636 3637 3588 8092 7045 8902 
10 792 1289 793 670 7866 8874 3410 3406 8760 3408 
10 352 353 1021 498 2087 7036 7085 2514 2515 8167 
10 783 1405 777 1362 6902 6904 3637 7045 5494 8902 
10 1518 1542 950 1521 5954 8675 8814 5840 5953 8830 
10 1446 1457 824 1499 5598 6953 8321 5744 5745 8828 
10 1484 1402 900 1483 5688 7979 8344 5689 5684 8610 
10 1138 626 1261 1260 7579 8132 4989 4985 7580 4990 
10 308 456 985 307 2390 7261 7260 1951 2389 8140 
10 983 1113 1112 454 4544 4545 4540 7931 7759 7932 
10 360 137 431 1027 2106 2315 2337 6847 8618 6873 
10 984 307 455 306 6713 2387 6714 7251 1948 2386 
10 1449 1418 1464 927 5577 5720 5826 8500 7934 7935 
10 999 998 212 325 4202 4197 4201 7570 6948 6448 
10 816 1449 815 875 8499 8821 3480 3798 6644 3797 
10 1259 759 760 1373 6565 3315 7004 5325 8715 7564 
10 1372 759 1259 1373 7791 6565 5321 5326 8715 5325 
10 1503 863 862 1384 6562 3647 6563 5765 6521 7446 
10 1512 1465 906 1433 5809 6894 8543 5810 5808 6858 
10 360 1119 1028 1027 6849 4870 7600 6847 4874 4289 
10 810 1383 1335 1433 7764 5358 8406 6857 5508 5509 
10 1126 1276 611 1249 5033 7264 6944 4954 5035 8317 
10 577 1267 1224 1278 7493 5260 8175 7494 5261 5039 
10 915 964 960 1538 4057 4058 4047 7400 8450 8286 
10 120 227 119 344 6067 6066 1655 2059 8516 2058 
10 1133 1003 1004 477 4603 4217 4602 8724 8526 8110 
10 352 1020 351 497 7834 7835 2084 2512 8165 2511 
10 1166 514 1282 1165 6528 8903 5049 4698 7586 5050 
10 662 514 1282 706 3006 8903 7182 3139 3136 7171 
10 583 436 1225 521 2775 8736 7641 2778 2578 7128 
10 1390 826 1392 1395 8400 7167 5671 5530 8420 5721 
10 514 662 1282 1165 3006 7182 8903 7586 8326 5050 
10 1415 1416 806 1387 5453 8740 8428 5801 5813 8373 
10 841 706 1282 1392 3574 7171 7180 7166 7200 5381 
10 1195 1069 1068 405 4781 4409 4780 7433 6618 6638 
10 1019 1148 1018 350 4647 4648 4262 8548 7220 7222 
10 514 1166 1282 706 6528 5049 8903 3136 6530 7171 
10 348 1016 347 493 6403 7063 2072 2500 6405 2499 
10 841 1390 1392 1431 8399 5671 7166 7179 5549 5550 
10 101 326 999 325 2004 8731 7569 2002 2006 7570 
10 1003 332 1004 477 8525 8109 4217 8526 2452 8110 
10 1122 464 1121 607 8613 8149 4570 8679 2848 8565 
10 583 709 1301 1345 3147 8792 8734 7855 7854 5242 
10 709 1336 1301 1406 8638 5214 8792 8639 5563 5421 
10 671 1179 531 670 8893 8205 3031 3033 8761 3029 
10 1214 1215 567 1090 4839 7440 7441 4834 4838 7753 
10 1179 530 531 670 8203 2609 8205 8761 3028 3029 
10 742 1375 1423 1314 7409 5625 6533 7474 5670 5472 
10 786 709 1345 1406 3390 7854 7041 7042 8639 5422 
10 250 1033 249 144 4301 4302 1793 6014 8813 6013 
10 1033 365 249 144 6870 8178 4302 8813 2121 6013 
10 603 1242 1117 1241 8062 4936 7662 8058 4937 4932 
10 222 338 1008 113 8625 6452 4227 6056 2040 6454 
10 38 156 262 0 2154 5979 8479 1571 1693 5978 
10 16 1045 1044 377 4338 4717 4490 8904 8905 8906 
10 155 260 375 1043 5996 8124 2150 8702 4332 8126 
10 909 1418 1464 1417 7933 5720 6977 6591 5458 5719 
10 923 1496 1532 1495 7502 5878 8144 8645 5731 5877 
10 511 1163 1120 1279 8536 4690 8350 8901 5041 5042 
10 923 959 1527 928 4078 8445 8145 4019 4077 7509 
10 170 417 276 169 2272 8636 6212 1709 2271 6210 
10 1463 959 955 1527 6382 4060 6383 5860 8445 8099 
10 510 1284 658 1192 8523 7733 2995 7749 5055 7735 
10 353 235 1022 354 6527 4270 7035 2090 6526 8015 
10 511 705 1279 713 3134 6467 8901 3168 3169 8789 
10 343 118 226 119 2055 6064 6814 2056 1654 6065 
10 1182 675 1293 674 7136 7616 5081 6661 3045 7357 
10 134 239 359 240 6091 7056 2103 6092 1782 8480 
10 1143 489 1013 344 7014 8863 4633 7957 2488 7958 
10 400 35 61 399 7810 1884 2223 2225 7811 2221 
10 547 1196 1197 1304 7665 4788 7257 8673 5109 5110 
10 423 176 1088 424 2290 8682 8642 2294 2292 8250 
10 1196 547 684 1304 7665 3070 7666 5109 8673 8213 
10 829 1409 707 831 8294 7845 3532 3537 8527 3536 
10 365 143 249 144 2120 6012 8178 2121 1680 6013 
10 891 1396 1439 1478 8883 5746 8899 8811 5668 5699 
10 720 654 570 1338 3194 2985 3193 7286 8189 7924 
10 891 1443 1439 1396 8907 5807 8899 8883 5546 5746 
10 365 519 1032 432 2575 7326 8045 2322 2574 7328 
10 1443 891 1439 890 8907 8899 5807 7784 3738 8274 
10 852 1353 853 730 7320 8693 3615 3611 7321 3613 
10 1297 802 1403 801 8744 8113 5412 8118 3437 7618 
10 285 1089 177 425 4465 8030 6226 8698 7169 2295 
10 1309 687 1308 1413 6794 6919 5126 5442 7548 5441 
10 1311 1204 1203 689 5131 4809 5130 7625 7217 8388 
10 731 730 853 1354 3231 3613 3614 7857 7990 8692 
10 642 1151 641 1274 6602 6603 2954 8363 5028 8367 
10 1353 1507 852 1450 5784 6917 7320 5583 5783 6916 
10 1305 1197 1304 707 5112 5110 5114 7846 7258 7847 
10 510 579 435 1192 2758 2759 2551 7749 7095 7751 
10 398 60 1063 399 2218 7349 6747 2222 2220 8159 
10 1200 550 410 1073 8112 2664 7336 4795 8547 7337 
10 550 1199 409 1073 6922 7383 2665 8547 4793 7680 
10 272 165 271 1074 3656 3755 1816 4423 8818 4422 
10 1306 1199 1198 549 5116 4794 5115 6839 6841 7664 
10 870 943 1461 958 3933 6817 7607 4006 4044 8763 
10 1512 906 944 908 8543 3963 8888 8739 3823 3962 
10 121 228 345 1015 6069 8699 2062 8877 4249 8894 
10 173 280 420 1085 6219 8384 2281 8684 4454 8385 
10 717 1278 1222 1376 6428 5193 6388 8584 5338 5465 
10 580 1337 520 652 6416 8876 2760 2982 8065 2981 
10 959 928 955 1527 4077 4042 4060 8445 7509 8099 
10 814 695 1313 815 3473 6364 7540 3477 3475 6365 
10 1496 923 1527 928 7502 8145 5862 7503 4019 7509 
10 35 60 61 399 1883 1594 1884 7811 2220 2221 
10 1337 712 652 1342 8803 3161 8065 5228 7736 8181 
10 1460 1515 958 1461 5821 8103 8102 5613 5820 8763 
10 274 167 413 168 3539 2262 7631 3538 1705 2261 
10 923 860 1495 1532 3853 6900 8645 8144 7294 5877 
10 1515 943 958 1461 8819 4044 8103 5820 6817 8763 
10 687 1413 805 804 7548 7549 3448 3441 7463 3449 
10 690 605 555 1191 3157 2842 3088 8271 8270 8197 
10 275 1078 414 1077 4434 7032 7150 4432 4436 7034 
10 481 482 336 1007 2468 2466 2464 8020 8640 7002 
10 60 35 1063 399 1883 4390 7349 2220 7811 8159 
10 942 1540 859 905 8338 7413 3965 3964 7415 3784 
10 382 43 381 1049 2169 2167 2171 7639 8674 7090 
10 1174 525 524 1048 7079 2591 7081 4721 7087 7350 
10 816 1449 1315 1329 8499 5578 6375 8749 5579 5189 
10 951 968 1522 1521 4103 7980 7981 8826 8829 5843 
10 1432 659 1447 785 8236 8865 5569 8443 3387 6828 
10 899 1401 1483 900 7833 5685 8787 3768 8838 8610 
10 346 1016 229 1015 7065 4252 7064 8665 4253 4248 
10 899 1482 1483 1401 7798 5686 8787 7833 5681 5685 
10 1449 816 1315 1418 8499 6375 5578 5577 8707 5457 
10 1016 492 347 493 8651 2497 7063 6405 2501 2499 
10 1407 1443 788 1326 5733 7783 7545 5425 5548 6379 
10 1401 1402 1483 900 5411 5684 5685 8838 7979 8610 
10 43 21 20 1049 1855 1553 1854 8674 4348 4349 
10 836 947 1535 1486 3948 8471 8473 7411 8791 5892 
10 1474 836 1535 1487 7890 8473 5890 5855 6886 5924 
10 1028 244 361 138 4287 6541 6305 6544 5985 2108 
10 676 536 675 1183 3046 3044 3048 8806 8595 7137 
10 393 30 54 1058 7896 1873 2202 7110 4375 6964 
10 1016 492 1145 1015 8651 8653 4638 4253 8664 4639 
10 271 1074 410 1073 4422 7335 8468 4420 4424 7337 
10 836 1474 1535 886 7890 5890 8473 3989 7843 8472 
10 1330 585 1103 1230 8512 7685 5191 5190 7683 4901 
10 585 1330 584 821 8512 7232 2784 3497 7742 3496 
10 514 370 369 1037 2561 2136 2560 7587 7259 7588 
10 357 238 358 133 7391 7392 2102 2098 6089 2100 
10 789 788 1326 666 3398 6379 7787 3396 3394 6380 
10 969 963 960 1543 4106 4109 4110 6963 7984 8287 
10 789 1443 1326 788 7028 5548 7787 3398 7783 6379 
10 164 271 410 1073 3756 8468 2253 8510 4420 7337 
10 965 1430 1505 922 8463 5772 7377 4066 8461 8462 
10 1355 855 1356 1488 7988 8469 5278 5702 7989 5701 
10 855 936 1356 1488 3904 8627 8469 7989 7557 5701 
10 989 312 988 201 7668 8654 4171 4170 8187 4166 
10 362 506 1029 361 2540 6548 6550 2113 2539 6307 
10 855 935 1488 854 3902 7689 7989 3621 3901 6832 
10 1460 868 1516 1453 8756 7972 5823 5610 7973 5824 
10 1492 778 1412 1411 8035 8560 5714 5713 8037 5440 
10 169 1080 276 9 7109 4439 6210 6208 4440 1822 
10 558 1220 1082 1081 7387 4854 7809 7386 4855 4446 
10 868 1460 1516 958 8756 5823 7972 3930 8102 8104 
10 1085 561 421 562 8392 2694 7553 8711 2698 2696 
10 470 324 469 1127 2430 2428 2432 7346 6559 8452 
10 420 561 421 1085 2693 2694 2285 8385 8392 7553 
10 228 1014 345 1015 4245 6801 8699 4249 4250 8894 
10 757 1371 1257 1370 7709 5319 7207 7746 5320 5315 
10 429 428 1217 1092 2309 7006 8231 6511 7007 4844 
10 346 492 1016 1015 2496 8651 7065 8665 8664 4253 
10 874 758 873 1371 3681 3679 3683 7316 7708 7318 
10 761 626 625 1260 3317 2906 3316 7240 7580 6613 
10 759 624 623 1259 3311 2900 3310 6565 7003 6567 
10 1014 228 345 120 4245 8699 6801 7955 6068 2061 
10 181 428 287 180 2305 7437 6233 1720 2304 6234 
10 1470 1352 848 1500 5647 7819 7188 5754 5752 6480 
10 346 121 345 1015 2064 2062 2066 8665 8877 8894 
10 1264 647 1348 765 8721 8591 5418 6509 3362 8604 
10 132 357 238 1024 2097 7391 6088 6540 8553 4275 
10 590 446 589 1106 2797 2795 2799 8129 6478 8130 
10 1023 236 237 131 4273 1779 4272 8859 6085 6086 
10 978 299 447 298 8227 2363 6859 6861 1924 2362 
10 647 646 1348 765 2969 8435 8591 3362 3363 8604 
10 297 976 977 189 7697 4135 8134 8487 4130 4134 
10 297 189 977 298 8487 4134 8134 1921 8649 6862 
10 511 1163 1279 705 8536 5041 8901 3134 8519 6467 
10 140 363 141 246 2114 2115 1677 5989 7160 6001 
10 363 508 364 1095 2544 2545 2119 7159 6756 6975 
10 764 844 828 1425 3690 3586 3529 8597 8221 8713 
10 1042 153 259 1096 6333 5993 4328 4489 6335 4488 
10 376 261 155 1043 7976 5997 2151 7977 4331 8702 
10 601 458 457 1115 2831 2397 2830 7244 8253 7245 
10 1505 922 1543 963 8462 7380 5925 8795 4101 7984 
10 1263 764 765 828 8719 3330 8152 8714 3529 3526 
10 423 283 175 1087 8641 6222 2289 7658 4459 7900 
10 1456 1441 1436 919 5596 5540 5666 7121 8055 7122 
10 1085 173 281 421 8684 6218 4453 7553 2283 7554 
10 1085 1086 562 421 4458 8301 8711 7553 7552 2696 
10 948 1501 1469 1436 7875 5756 6993 6994 5757 5645 
10 174 1086 281 421 8375 4457 6221 2284 7552 7554 
10 24 1053 48 25 4361 8593 1862 1557 4360 1863 
10 1162 519 570 432 6988 2757 6990 7327 2574 2721 
10 737 736 1359 1239 3249 7458 7457 7236 8307 5286 
10 736 1358 1359 1239 8354 5287 7458 8307 5282 5286 
10 972 184 185 67 4119 1726 4118 7344 6111 6112 
10 291 440 292 972 2341 2342 1903 7343 6556 6296 
10 217 107 331 106 6099 2020 7510 6046 1642 2019 
10 217 332 1003 331 8277 8525 4212 7510 2024 6493 
10 217 107 332 331 6099 2022 8277 7510 2020 2024 
10 1162 1031 1032 432 4685 4300 4684 7327 7331 7328 
10 459 460 1117 603 2403 7663 7842 2836 2837 7662 
10 1031 1162 570 432 4685 6990 7330 7331 7327 2721 
10 621 1256 1257 1134 6685 4978 7206 8261 4973 4977 
10 108 218 1004 333 6048 4215 8278 2025 6961 8356 
10 621 756 757 1257 3302 3306 3304 7206 7748 7207 
10 332 217 1003 1004 8277 4212 8525 8109 4216 4217 
10 800 1295 1402 1296 8441 5410 7608 8488 5091 5409 
10 225 118 342 117 6063 2053 8077 6101 1653 2052 
10 109 219 1005 334 6050 4218 6959 2028 7277 8357 
10 621 478 620 1134 2889 2887 2891 8261 7807 8262 
10 1012 118 343 342 8076 2055 8539 6517 2053 2057 
10 1135 1005 479 1134 4609 8358 7937 4610 4605 8579 
10 1179 671 1290 670 8893 7505 5072 8761 3033 8676 
10 990 431 1026 556 7943 7944 4873 8892 2681 8599 
10 1149 640 1150 1272 7154 7059 4655 5022 8177 5021 
10 587 723 1230 586 3206 7940 8325 2790 3205 7684 
10 1104 442 443 586 8847 2352 8467 8324 2785 2786 
10 346 492 347 1016 2496 2497 2069 7065 8651 7063 
10 843 1388 1392 1395 8524 5524 7165 8419 5735 5721 
10 1281 1388 1392 843 5371 5524 5380 7199 8524 7165 
10 88 313 89 202 1964 1965 1623 6146 6985 6147 
10 1339 657 1283 1169 8017 8498 5221 5220 8777 5052 
10 722 585 1230 586 3203 7683 7993 3204 2787 7684 
10 363 508 1095 507 2544 6756 7159 2542 2546 6600 
10 1113 598 597 454 7292 2823 7293 7759 2821 2819 
10 720 1157 570 650 7922 7923 3193 3192 8871 3123 
10 880 1468 1467 945 8780 5643 8851 3942 6783 6784 
10 1517 924 908 1544 6361 3868 6799 5957 8853 8570 
10 1027 556 1026 431 6846 8599 4286 6873 2681 7944 
10 847 725 1426 848 3596 7831 6397 3600 3598 6479 
10 1097 10 1093 11 6425 7091 4503 4493 1841 4477 
10 154 260 375 155 5995 8124 2149 1691 5996 2150 
10 1309 1413 1414 805 5442 5446 5444 6795 7549 8833 
10 260 154 375 1096 5995 2149 8124 4491 7483 8125 
10 1155 1096 1043 375 4670 4505 4669 8252 8125 8126 
10 1314 1209 1313 694 5138 5137 5140 7475 7242 7243 
10 721 1346 509 1224 7546 6883 3198 7547 5245 6885 
10 176 177 284 424 1716 6227 6224 2292 2293 8805 
10 1119 990 1026 556 4561 4873 4875 6848 8892 8599 
10 286 426 1090 178 8801 6912 4468 6228 2298 8697 
10 478 332 1004 333 2454 8109 7806 2455 2027 8356 
10 1155 1045 573 1043 4885 6851 8254 4669 4716 6852 
10 387 1053 48 386 8603 8593 2184 2186 7506 2182 
10 297 976 296 445 7697 7406 1918 2357 6475 2356 
10 528 1177 529 1052 7590 8442 2603 7858 4729 8382 
10 1112 1113 597 454 4545 7293 8052 7932 7759 2819 
10 296 976 188 975 7406 4131 7620 6979 4132 4127 
10 1113 1237 1112 597 4920 4921 4545 7293 7291 8052 
10 671 1291 1180 1290 7823 5075 8708 7505 5076 5071 
10 398 1188 1062 541 6746 4763 7596 2638 6718 6719 
10 442 973 441 1103 7421 6925 2349 8266 4515 8403 
10 1185 538 1059 1060 7140 7141 4754 4753 8201 4383 
10 1310 1415 688 1414 5447 8427 8393 5445 5449 8908 
10 308 986 457 309 6369 6623 2392 1954 6371 2393 
10 723 846 724 1440 3592 3593 3210 7938 7995 7996 
10 976 445 1106 1105 6475 6476 4523 4519 7209 4524 
10 1064 543 1189 399 7714 6626 4765 7812 2643 8678 
10 505 316 991 317 2536 8245 8115 2537 1979 8247 
10 1415 805 688 1414 8426 3447 8427 5449 8833 8908 
10 1408 1303 684 1304 5426 8486 8212 5427 5111 8213 
10 651 505 543 1123 2979 2755 2978 8588 8116 8605 
10 324 99 211 100 1998 6094 8409 1999 1635 6037 
10 1310 1309 1414 688 5129 5444 5445 8393 6796 8908 
10 1309 805 1414 688 6795 8833 5444 6796 3447 8908 
10 418 558 559 1082 2686 2689 2687 8681 7809 8631 
10 1247 744 743 608 7419 3267 7417 7769 3265 3264 
10 609 1247 1124 608 8248 4947 7915 2855 7769 8689 
10 1179 671 1180 1290 8893 8708 4740 5072 7505 5071 
10 965 935 1525 1488 4107 7687 8796 7378 7689 5851 
10 340 486 1011 1010 2478 6288 6290 8541 7131 4238 
10 814 1313 1423 1442 7540 5471 6532 7204 5544 5545 
10 879 1380 1379 1466 7986 5350 7987 6330 5635 5636 
10 1460 869 958 868 8098 3931 8102 8756 3668 3930 
10 1375 1262 1425 763 5330 5480 5504 6762 6761 8598 
10 576 437 430 1159 2739 2330 2738 6424 8174 8226 
10 844 1375 1425 763 8220 5504 8221 3689 6762 8598 
10 468 467 1125 996 2426 7916 7173 7174 6657 4578 
10 467 995 1124 1125 6655 4575 7914 7916 4579 4580 
10 1228 1223 650 741 4897 8837 8085 8086 8723 3259 
10 1100 8 437 430 8785 2331 8563 8574 2311 2330 
10 1100 1094 430 1159 4504 7333 8574 4678 4679 8226 
10 437 1100 430 1159 8563 8574 2330 8174 4678 8226 
10 973 68 293 292 6920 1904 6300 6295 1902 1906 
10 67 68 185 292 1602 6113 6112 1901 1902 6921 
10 371 1039 516 372 6574 7070 2565 2142 8200 2566 
10 291 972 292 67 7343 6296 1903 1899 7344 1901 
10 973 972 185 292 4123 4118 4122 6295 6296 6921 
10 789 891 790 1396 3736 3737 3401 7027 8883 8414 
10 1176 1050 526 1175 4727 8662 8694 4728 4723 7234 
10 527 528 1176 667 2600 7591 8778 3019 3020 7585 
10 616 1130 615 1252 7761 8148 2876 8010 4961 8807 
10 825 915 1469 948 3824 7401 6991 3953 4004 6993 
10 1182 1292 673 674 5077 6449 6791 6661 6450 3042 
10 1111 453 596 452 6263 2816 6607 6265 2382 2815 
10 1325 1124 1125 609 5173 4580 5172 8517 7915 7917 
10 1410 1490 831 1409 5709 8717 7434 5434 5708 8527 
10 1351 825 1469 1436 6853 6991 5644 5518 6992 5645 
10 1431 841 1282 1392 7179 7180 5551 5550 7166 5381 
10 1100 8 416 437 8785 2269 8786 8563 2331 2336 
10 1501 948 964 966 7875 4056 7788 7789 4069 4070 
10 992 93 318 317 8868 1980 7920 8616 1978 1982 
10 318 992 317 463 7920 8616 1982 2411 8232 2410 
10 93 992 205 317 8868 4180 6027 1978 8616 8246 
10 209 98 322 97 6035 1993 7882 6097 1633 1992 
10 753 1254 754 618 8195 8622 3297 3293 7728 3295 
10 209 995 321 322 4188 7445 7443 7882 6656 1994 
10 19 1047 380 1048 4342 8071 8096 4346 4347 7351 
10 104 1001 214 328 8856 4207 6043 2011 6757 6758 
10 64 6 135 182 1598 1671 1892 6107 6104 8184 
10 381 42 380 1048 2166 2164 2168 7089 8909 7351 
10 184 291 972 971 7342 7343 4119 4115 6652 4120 
10 1102 1245 1154 606 4943 4944 4668 6928 6926 8635 
10 1132 475 1131 1002 6398 6399 4601 4600 8540 4596 
10 332 108 1004 333 2023 8278 8109 2027 2025 8356 
10 1111 596 595 452 6607 2817 7359 6265 2815 2813 
10 1489 1354 853 1450 5705 8692 6908 5737 5582 6906 
10 1254 753 1253 617 8195 7298 4969 6429 3292 6430 
10 1111 451 1110 981 7358 6683 4539 4538 8332 4534 
10 594 731 1234 730 3229 8143 6445 3227 3231 7824 
10 338 1009 339 114 7250 6876 2045 2041 8626 2043 
10 314 989 313 556 6930 7278 1969 2747 8617 2746 
10 329 1002 105 215 6473 6895 2014 8900 4210 6095 
10 785 659 1447 691 3387 8865 6828 3388 3091 6820 
10 314 989 556 990 6930 8617 2747 6931 4174 8892 
10 431 990 314 556 7943 6931 2748 2681 8892 2747 
10 381 20 42 1048 8377 1853 2166 7089 4345 8909 
10 1364 1251 1363 749 5297 5296 5299 6723 8555 6722 
10 1255 618 619 754 7722 2885 7719 7720 3295 3296 
10 1262 627 1261 1139 6432 8070 4993 4992 6433 4988 
10 42 19 380 1048 1852 8096 2164 8909 4346 7351 
10 1089 1088 424 565 4467 8250 8845 7163 7164 2705 
10 20 19 42 1048 1552 1852 1853 4345 4346 8909 
10 638 1148 639 496 7424 8695 2945 2941 7667 2943 
10 1379 769 768 1271 7985 3347 8822 5346 8782 8083 
10 506 1156 1277 1158 6543 5037 8657 6549 4677 5036 
10 648 739 784 1360 3511 3512 3385 8315 8314 8303 
10 648 1242 1277 1156 7699 5251 8352 8658 5209 5037 
10 373 374 1041 518 2148 6586 7270 2571 2572 7104 
10 657 1339 703 518 8017 8416 3128 2993 8776 3124 
10 618 1132 619 476 6400 7721 2885 2881 7511 2883 
10 1339 703 518 1170 8416 3124 8776 5222 6614 6616 
10 866 1533 1458 941 8164 5885 8004 3923 7967 7968 
10 1454 1541 941 1458 5911 7830 8773 5603 5910 7968 
10 866 1454 941 1458 8737 8773 3923 8004 5603 7968 
10 1289 1179 670 669 5068 8761 8760 6663 8898 3030 
10 1390 841 826 716 8399 3816 8400 8798 3716 3519 
10 1281 1388 655 1280 5371 7490 7577 5048 5370 7491 
10 1141 488 487 1012 8690 2486 8208 4626 6516 6518 
10 1133 478 477 1004 8437 2456 8724 4602 7806 8110 
10 668 1287 667 790 6639 7584 3024 3400 8415 3399 
10 429 1217 1093 1092 8231 4843 6512 6511 4844 4479 
10 665 1174 664 1286 8850 7080 3015 7901 5062 8783 
10 530 1053 529 1178 8202 8381 2606 8503 4732 8383 
10 1050 527 1176 526 8661 8778 4727 8662 2597 8694 
10 539 1061 1186 540 7602 4756 7124 2636 7710 8862 
10 1298 802 1297 680 8738 8744 5097 7715 3436 8019 
10 1515 943 860 958 8819 4073 7480 8103 4044 4040 
10 1185 539 678 538 7123 3053 7125 7140 2633 3052 
10 799 1295 1294 1401 6346 5088 7794 7796 5406 5407 
10 1184 1185 677 537 4755 7589 8478 6309 6308 3049 
10 1188 541 681 680 6718 3061 7597 7716 3059 3063 
10 1141 488 1012 1142 8690 6516 4626 4631 7197 4630 
10 684 1408 829 840 8212 8214 3533 3566 7455 3569 
10 560 420 419 1084 2691 2282 2690 7453 6554 6555 
10 1152 1151 642 1274 4661 6602 6328 5027 5028 8363 
10 687 1201 1308 551 6918 5122 6919 3079 7644 8169 
10 742 814 694 1314 3474 3472 3261 7474 7883 7475 
10 571 581 1340 842 2766 6736 6694 3126 3575 6696 
10 1340 581 787 842 6736 3572 6737 6696 3575 3576 
10 409 1072 270 1073 7381 4417 6311 7680 4421 4419 
10 1545 888 1502 1517 6362 6674 5963 5966 6363 5900 
10 77 192 76 301 6127 6126 1611 1929 8882 1928 
10 582 1159 576 430 8225 6424 2773 2772 8226 2738 
10 888 1517 837 1502 6363 6745 3729 6674 5900 8322 
10 638 495 1148 496 2940 7219 7424 2941 2510 7667 
10 341 486 487 1011 2479 2483 2481 6289 6288 8910 
10 594 450 1109 1110 2809 6437 6446 6892 6436 4536 
10 301 450 980 449 2371 6438 7184 2369 2373 8404 
10 1086 1210 562 1211 4822 6352 8301 4826 4827 6342 
10 486 1141 487 1011 8861 8208 2483 6288 4627 8910 
10 1211 1329 696 1315 5186 6351 6343 5142 5189 6377 
10 1141 1012 487 1011 4626 6518 8208 4627 4241 8910 
10 1154 503 645 502 8362 2962 6534 8459 2531 2961 
10 357 502 1024 356 2527 8522 8553 2099 2526 7567 
10 183 64 289 182 6108 1893 8198 1724 6107 8185 
10 1329 816 696 1315 8749 3478 6351 5189 6375 6377 
10 1540 942 1533 1516 8338 8339 5952 5939 7974 5886 
10 755 620 619 1255 3299 2888 3298 7718 8621 7719 
10 697 563 696 1211 3105 3103 3107 8727 6341 6343 
10 1000 326 999 213 8411 8731 4205 4204 8413 4200 
10 16 38 17 377 1845 1846 1549 8904 2155 8601 
10 837 888 1502 776 3729 6674 8322 3556 3728 7375 
10 522 1155 573 578 8691 8254 2764 3004 7786 2977 
10 1045 16 17 377 4338 1549 4337 8905 8904 8601 
10 1012 341 487 1011 8454 2481 6518 4241 6289 8910 
10 346 491 1015 345 2494 8666 8665 2066 2493 8894 
10 1299 663 1161 1173 6462 7030 5099 5098 6460 4952 
10 577 1267 708 634 7493 6954 3145 3166 7534 3165 
10 1144 1014 1015 345 4636 4250 4635 6803 6801 8894 
10 1278 708 1268 1376 6955 6956 5335 5338 8772 5337 
10 577 1278 576 708 7494 6423 2779 3145 6955 3144 
10 1021 1020 498 1150 4268 8911 8167 4653 4654 7061 
10 1330 822 584 821 7740 3501 7232 7742 3502 3496 
10 1242 648 1277 1360 7699 8352 5251 5580 8315 5523 
10 822 1245 1330 584 6314 5388 7740 3501 7230 7232 
10 1245 822 604 584 6314 3500 7319 7230 3501 2841 
10 946 895 1477 949 4033 7887 7885 4036 4034 8108 
10 1240 602 1241 738 7673 8057 4934 6358 3251 8355 
10 731 595 1235 732 3230 8881 8578 3234 3232 8401 
10 786 1446 719 824 7040 7049 3389 3587 8321 3514 
10 1171 557 1321 1324 7405 6827 5159 5168 6826 5171 
10 594 731 595 1235 3229 3230 2814 8743 8578 8881 
10 1110 594 595 1235 6892 2814 7360 4915 8743 8881 
10 1102 503 504 606 7055 2534 6273 6928 2847 2844 
10 796 1292 795 1398 6451 7023 3419 6910 5397 6325 
10 970 1025 504 1102 4506 7054 8484 4511 4512 6273 
10 1025 239 358 238 4278 7051 7172 4279 1781 7392 
10 1289 791 1385 1288 6662 8769 5363 5070 6664 5364 
10 398 1063 542 399 6747 6749 2640 2222 8159 2641 
10 679 1187 1297 680 6675 5092 7610 3060 6676 8019 
10 1025 970 504 359 4506 8484 7054 7058 7057 2533 
10 972 291 1101 971 7343 6651 4508 4120 6652 4509 
10 491 1144 1145 1015 8217 4640 8870 8666 4635 4639 
10 896 1397 895 1477 7185 6584 3753 7186 5664 7887 
10 810 811 906 1433 3465 3787 3788 6857 7103 6858 
10 445 976 296 444 6475 7406 2356 2358 7407 2354 
10 1353 1234 729 1233 5268 6392 7322 5269 4913 6394 
10 1377 767 876 766 8259 3692 6503 8794 3341 3691 
10 352 1020 498 1021 7834 8911 2514 7085 4268 8167 
10 1398 896 1480 1477 6909 8106 5676 5663 7186 5677 
10 372 151 256 1040 2141 6000 6604 6811 8025 4323 
10 891 789 890 1443 3736 3734 3738 8907 7028 7784 
10 891 890 834 1439 3738 3857 3858 8899 8274 8418 
10 1020 497 498 1150 8165 2516 8911 4654 7153 7061 
10 833 1243 1279 1387 6464 5043 6466 8372 5368 5369 
10 904 1492 1511 1491 7926 5933 6996 8886 5715 5932 
10 1160 572 1033 1120 7550 6871 4680 4862 8193 4565 
10 1262 764 763 628 8596 3327 6761 6434 3325 3323 
10 627 1262 763 628 6432 6761 3322 2912 6434 3323 
10 1490 904 1511 1491 8891 6996 5923 5712 8886 5932 
10 1020 352 498 497 7834 2514 8911 8165 2512 2516 
10 807 1416 806 812 8815 8740 3834 3822 7627 3468 
10 1379 769 878 768 7985 3697 8048 8822 3347 3696 
10 310 986 199 309 7486 4160 7485 1957 6371 7555 
10 1239 601 600 1115 7237 2832 8289 4926 7244 7246 
10 1116 458 601 1115 6500 2831 7998 4554 8253 7244 
10 55 393 394 1059 2203 2207 2205 6699 8122 6701 
10 513 368 512 1164 2557 2555 2559 8551 8053 8054 
10 1435 745 746 862 6469 3273 7652 7447 3642 3643 
10 888 915 1538 1502 3826 7400 6673 6674 7402 5906 
10 915 888 776 1502 3826 3728 3825 7402 6674 7375 
10 1251 613 614 749 8554 2870 7906 8555 3280 3281 
10 865 1454 1459 939 7871 5607 8764 3915 8775 8745 
10 1127 613 1250 612 7448 7512 4956 7449 2867 6901 
10 1251 750 1363 749 8705 7881 5296 8555 3285 6722 
10 805 1413 1414 883 7549 5446 8833 3712 8800 8397 
10 621 478 1134 479 2889 7807 8261 2890 2459 8579 
10 756 621 1256 1257 3302 6685 6686 7748 7206 4978 
10 915 1351 1469 1502 8066 5644 7401 7402 5761 5762 
10 1149 640 1272 639 7154 8177 5022 7872 2948 8258 
10 1351 915 776 1502 8066 3825 6854 5761 7402 7375 
10 1223 649 507 650 6596 2973 6598 8837 3159 2975 
10 1380 769 1379 1272 7912 7985 5350 5349 7913 5345 
10 649 1223 741 650 6596 8723 3258 3159 8837 3259 
10 1223 1157 1228 650 4871 4896 4897 8837 8871 8085 
10 338 222 114 113 8625 6057 2041 2040 6056 1649 
10 508 1157 1223 650 6754 4871 6755 2976 8871 8837 
10 426 286 427 179 8801 7339 2303 2299 6231 2301 
10 1314 814 1313 1423 7883 7540 5140 5472 6532 5471 
10 1394 893 1473 1385 8758 7521 5654 5387 7519 5655 
10 653 705 1164 512 3164 8520 8550 2983 3135 8054 
10 510 1192 1079 1172 7749 4774 7750 8005 4882 4714 
10 1163 511 367 512 8536 2553 8041 8042 2556 2554 
10 891 920 892 1478 3954 4029 3741 8811 7936 8840 
10 1097 521 1079 1172 7127 8750 4492 4715 7129 4714 
10 1181 673 1291 672 8094 7046 5074 6279 3039 6280 
10 533 673 1181 672 3037 8094 7760 3035 3039 6279 
10 803 1298 802 1404 8728 8738 3440 8825 5415 7365 
10 931 851 850 1513 3889 3609 3888 7499 7176 7178 
10 849 1386 850 727 8448 7889 3606 3602 7477 3604 
10 808 1350 1472 1457 6950 5650 8706 6952 5599 5652 
10 860 780 1508 813 3638 6897 6899 3639 3471 7470 
10 780 813 1420 1508 3471 7113 7112 6897 7470 5789 
10 1432 659 785 813 8236 3387 8443 8410 3470 3510 
10 1306 1410 683 1305 5433 6940 6942 5117 5432 8558 
10 942 907 958 1516 4067 4041 3932 7974 7771 8104 
10 968 1542 1522 1521 8576 5967 7980 8829 5953 5843 
10 1251 613 1250 1128 8554 7512 4960 4959 7578 4955 
10 55 30 393 1059 1874 7896 2203 6699 4379 8122 
10 359 134 240 135 2103 6092 8480 2104 1670 6023 
10 1300 605 1191 1312 8269 8270 5100 5231 8816 5134 
10 1198 1306 683 1305 5115 6942 8557 5113 5117 8558 
10 888 915 960 1538 3826 4047 4045 6673 7400 8286 
10 549 1306 683 1198 6839 6942 3068 7664 5115 8557 
10 514 1166 515 370 6528 6529 2564 2561 8272 2562 
10 1440 846 1426 1506 7995 7997 5539 5776 8552 5775 
10 770 880 1381 1380 3702 8766 8912 7910 8897 5353 
10 1100 416 1205 509 8786 7020 4811 8896 2548 6884 
10 1045 378 573 377 8701 2763 6851 8905 2159 2762 
10 767 638 1270 1271 3340 7423 8505 8398 8082 5020 
10 1083 560 1208 559 7452 7454 4818 8342 2692 8343 
10 1452 957 1357 857 6706 6707 5587 7898 4059 7694 
10 1430 965 1451 887 8463 7376 5743 7692 4065 7878 
10 459 602 603 1117 2834 2838 2836 7842 8056 7662 
10 1331 1223 1228 741 5195 4897 5194 7283 8723 8086 
10 651 1122 463 1123 8587 8615 2980 8588 4574 8233 
10 560 561 1209 694 2695 8216 8345 3096 3097 7242 
10 329 475 1002 1131 2445 8540 6473 6474 6399 4596 
10 1460 869 1367 1368 8098 7066 5609 5608 7067 5311 
10 1100 437 416 509 8563 2336 8786 8896 2547 2548 
10 770 1380 769 879 7910 7912 3350 3700 7986 3699 
10 770 880 1380 879 3702 8897 7910 3700 3704 7986 
10 692 1444 715 811 8364 6868 3190 3464 6869 3463 
10 231 1017 230 124 4254 4255 1773 6074 6629 6073 
10 920 946 1536 884 3946 7524 8423 3843 3945 8729 
10 1243 653 807 705 7487 3454 7773 6465 3164 3453 
10 1385 893 920 892 7519 4030 7520 8770 3744 4029 
10 505 651 463 1123 2979 2980 2749 8116 8588 8233 
10 1036 1165 1164 513 4695 4863 4691 7306 7304 8551 
10 833 1243 807 705 6464 7773 3570 3544 6465 3453 
10 954 902 901 1484 3985 3774 4037 6972 7012 6731 
10 1207 1205 575 1348 4816 7021 8172 5252 5253 8895 
10 705 833 1279 713 3544 6466 6467 3169 3543 8789 
10 1522 1482 1483 952 5842 5686 5841 7982 7983 8440 
10 900 953 1483 952 3981 8292 8610 3979 3983 8440 
10 1542 1514 1499 914 5929 5818 5915 8577 6790 8913 
10 824 912 1499 914 3809 6286 8828 3818 3819 8913 
10 1523 937 1524 1520 6766 6768 5849 5948 8748 5922 
10 1341 1327 716 1390 5227 6679 6678 5375 5376 8798 
10 1514 1457 1499 914 5819 5745 5818 6790 8914 8913 
10 726 1386 849 727 7820 8448 3601 3219 7477 3602 
10 976 296 188 72 7406 7620 4131 6502 1914 6119 
10 686 1307 1411 685 7077 5436 8493 3077 7019 8168 
10 1424 1386 728 850 5475 7476 6804 7177 7889 3605 
10 1424 728 851 850 6804 3607 7175 7177 3605 3609 
10 1065 1190 1219 520 4770 4853 4850 7676 8810 8784 
10 521 1225 1301 1172 7128 5103 8733 7129 4883 5102 
10 29 1057 28 53 4372 4373 1561 1871 7500 1870 
10 935 854 1489 1488 3901 6831 7688 7689 6832 5706 
10 731 594 1234 1235 3229 6445 8143 8578 8743 4916 
10 1056 390 534 533 8101 2616 7369 8090 2614 2618 
10 1251 1364 1250 749 5297 5298 4960 8555 6723 8556 
10 1111 1110 595 1235 4539 7360 7359 4914 4915 8881 
10 849 931 1470 961 3887 8475 7818 4050 4062 7187 
10 1364 748 1250 749 7632 6338 5298 6723 3282 8556 
10 472 615 1129 614 2871 8147 7572 2869 2873 6524 
10 472 1129 471 614 7572 6522 2438 2869 6524 2868 
10 1528 947 1486 1535 6779 8791 5863 5893 8471 5892 
10 772 1382 1274 771 7962 5355 7963 3356 8644 8366 
10 1434 1382 911 1445 5511 7879 7560 5764 5759 6373 
10 1301 521 661 709 8733 3001 8887 8792 3148 3177 
10 1045 378 377 17 8701 2159 8905 4337 7529 8601 
10 816 1449 927 1418 8499 8500 3877 8707 5577 7934 
10 1364 1454 1459 865 5592 5607 5605 6725 7871 8764 
10 99 324 211 997 1998 8409 6094 7269 6558 4194 
10 761 917 1373 760 3831 7255 7254 3318 3830 7564 
10 967 940 1514 914 4071 8330 6789 4072 3939 6790 
10 1063 1064 1189 399 4395 4765 4766 8159 7812 8678 
10 38 16 1044 377 1845 4490 6440 2155 8904 8906 
10 1457 824 1499 914 6953 8828 5745 8914 3818 8913 
10 297 976 445 446 7697 6475 2357 2359 6477 2361 
10 1219 402 520 545 6293 2576 8784 7836 2650 2651 
10 448 591 1107 447 2801 7781 7461 2367 2800 7363 
10 815 917 875 1442 3875 3908 3797 7541 7218 8139 
10 299 448 978 447 2365 6421 8227 2363 2367 6859 
10 880 770 1381 771 3702 8912 8766 3703 3353 8765 
10 770 1273 1381 771 8162 5352 8912 3353 8457 8765 
10 1273 771 1274 1381 8457 8366 5029 5352 8765 5351 
10 1273 770 1381 1380 8162 8912 5352 5348 7910 5353 
10 771 1382 1274 1381 8644 5355 8366 8765 5356 5351 
10 1000 472 999 326 8183 7573 4205 8411 2436 8731 
10 326 327 102 213 2009 2007 2005 8413 8412 6098 
10 213 101 999 212 6040 7569 4200 1755 6039 4201 
10 329 1001 328 474 6472 6757 2015 2443 7192 2442 
10 1044 573 376 377 6850 2731 6441 8906 2762 2974 
10 177 1089 284 424 8030 4466 6227 2293 8845 8805 
10 376 38 1044 377 2316 6440 6441 2974 2155 8906 
10 1055 389 532 388 6284 2611 6347 8848 2192 2610 
10 1055 532 1054 388 6347 6348 4368 8848 2610 8158 
10 341 1012 225 1011 8454 4240 8624 6289 4241 4236 
10 1141 486 487 629 8861 2483 8208 8206 2913 2914 
10 1336 661 1301 1172 8319 8887 5214 5213 8006 5102 
10 998 324 997 211 6557 6558 4199 4198 8409 4194 
10 354 500 1022 499 2520 8014 8015 2518 2522 8160 
10 1492 1493 1412 804 5718 5716 5714 8885 7462 7464 
10 1248 651 1189 1123 7248 6625 4951 4950 8588 4768 
10 1492 778 889 804 8035 3731 7927 8885 3443 3730 
10 687 1308 804 686 6919 8915 3441 3080 7076 3442 
10 687 1413 804 1308 7548 7463 3441 6919 5441 8915 
10 1413 1387 1414 883 5781 5800 5446 8800 8374 8397 
10 1308 686 1412 804 7076 8492 5439 8915 3442 7464 
10 1413 1308 1412 804 5441 5439 5443 7463 8915 7464 
10 1045 378 17 1046 8701 7529 4337 4341 6482 4340 
10 1044 573 377 1045 6850 2762 8906 4717 6851 8905 
10 1418 909 927 817 7933 3882 7934 6866 3799 3878 
10 375 376 1043 573 2153 7977 8126 2730 2731 6852 
10 1 38 262 0 1843 8479 1806 1546 1571 5978 
10 401 63 62 36 2227 1596 2226 6320 1886 1891 
10 387 49 48 25 2185 1582 2184 8592 1864 1863 
10 1058 536 1184 1183 7111 8571 4751 4747 8595 4752 
10 1056 533 1181 1055 8090 7760 4741 4371 6282 4742 
10 1262 764 1263 1425 8596 8719 4996 5480 8597 5479 
10 1001 104 215 329 8856 6044 4206 6472 2013 8900 
10 1100 1080 1205 416 4500 4810 4811 8786 7108 7020 
10 544 1193 545 403 7119 7467 2652 2648 7116 2649 
10 1258 757 758 1371 8575 3309 7941 5318 7709 7708 
10 689 1415 688 1310 8436 8427 3086 8389 5447 8393 
10 1310 1203 1202 553 5128 4806 5127 8395 7345 6773 
10 401 37 63 36 8059 1887 2227 6320 1569 1886 
10 275 1078 13 414 4434 4435 1820 7150 7032 7151 
10 387 1054 531 388 8156 7868 2607 2189 8158 2608 
10 1371 1463 872 873 5617 6384 8628 7318 7341 3680 
10 178 285 177 425 6229 6226 1717 2296 8698 2295 
10 1189 543 542 399 6626 2645 8485 8678 2643 2641 
10 1474 885 1487 1475 7891 7621 5855 5803 8424 5698 
10 1179 1053 1054 531 4736 4365 4735 8205 8204 7868 
10 1053 387 1054 531 8603 8156 4365 8204 2607 7868 
10 269 162 408 163 3918 2247 7372 3917 1700 2246 
10 165 272 411 1074 3656 8327 2256 8818 4423 8328 
10 1327 579 658 1192 8276 2996 7734 5181 7095 7735 
10 1506 1537 930 1544 5899 8283 8285 5942 5943 8757 
10 1341 690 716 1227 7195 3176 6678 5226 7196 6680 
10 777 605 1312 812 3371 8816 8916 3531 3466 7629 
10 689 1311 1312 812 7625 5135 7624 3467 7628 7629 
10 327 214 213 1000 7952 1756 8412 7953 4203 4204 
10 302 451 980 450 2374 6682 6693 2372 2376 6438 
10 979 192 980 301 4139 4143 4144 8685 8882 7184 
10 1437 715 837 776 6896 3557 7052 7374 3369 3556 
10 682 543 542 1189 3065 2645 3064 6624 6626 8485 
10 682 1344 1189 542 8742 5237 6624 3064 8917 8485 
10 192 77 980 301 6127 6692 4143 8882 1929 7184 
10 961 1500 930 1544 7189 8751 4063 8832 5947 8757 
10 726 725 848 1352 3216 3598 3599 6717 7832 7819 
10 1133 1132 619 1255 4604 7721 8849 4970 4971 7719 
10 745 1276 1435 746 6468 5514 6469 3273 7651 7652 
10 679 539 1186 540 3055 7124 7612 3056 2636 8862 
10 95 208 994 320 6032 4185 8619 1986 7525 6704 
10 1504 1515 907 1516 5930 7479 7471 5937 5825 7771 
10 849 726 848 1352 3601 3599 3603 7817 6717 7819 
10 1344 1188 1189 542 5238 4767 5237 8917 6748 8485 
10 1188 1344 681 542 5238 7599 7597 6748 8917 3062 
10 1344 682 681 542 8742 3067 7599 8917 3064 3062 
10 607 775 743 1323 3365 3366 3263 8700 8843 8566 
10 907 1540 942 905 7770 8338 4067 3793 7415 3964 
10 1081 170 276 277 8637 6212 4442 4441 6211 1823 
10 437 1100 1224 509 8563 4876 8176 2547 8896 6885 
10 1346 1265 1266 721 5507 5005 5506 7546 8191 7268 
10 775 1427 743 1323 6733 6734 3366 8843 5486 8566 
10 659 1324 1447 691 8237 5568 8865 3091 6821 6820 
10 412 1076 413 553 6770 7648 2263 2674 6772 2673 
10 869 1461 870 1368 8097 7607 3671 7067 5612 7827 
10 1331 858 784 741 7947 3785 8304 7283 3786 3552 
10 1405 783 1322 1362 6902 7043 5559 5494 7045 5736 
10 841 1341 1390 1431 8725 5375 8399 7179 5498 5549 
10 1515 860 1532 1508 7480 7294 5882 5931 6899 5919 
10 841 835 1341 1431 3717 8091 8725 7179 8093 5498 
10 1440 1468 1445 845 5768 5760 5560 8491 8490 6374 
10 387 1053 386 530 8603 7506 2186 2605 8202 2604 
10 1001 329 215 1002 6472 8900 4206 4211 6473 4210 
10 1382 772 911 881 7962 3837 7879 6546 3706 3836 
10 467 610 468 1125 2856 2857 2426 7916 8688 7173 
10 1468 1382 911 881 5641 7879 7880 6545 6546 3836 
10 1396 1385 892 790 5393 8770 8839 8414 8771 3739 
10 802 679 1297 680 3435 7610 8744 3436 3060 8019 
10 1396 1287 1288 790 5392 5067 5391 8414 8415 8779 
10 1287 668 1288 790 6639 6641 5067 8415 3400 8779 
10 1385 1396 1288 790 5393 5391 5364 8771 8414 8779 
10 1427 1429 1404 903 5493 5595 5556 8722 8823 7366 
10 398 59 1062 34 2217 7595 7596 8594 1881 4387 
10 1188 398 1062 1063 6746 7596 4763 4762 6747 4392 
10 547 407 1197 1070 2655 8451 7257 8841 8677 4786 
10 803 1427 1404 903 6732 5556 8825 3776 8722 7366 
10 549 1198 683 548 7664 8557 3068 2663 7396 3069 
10 907 1540 1516 942 7770 5939 7771 4067 8338 7974 
10 407 547 406 1070 2655 2656 2245 8677 8841 8842 
10 1464 1463 955 1510 5622 6383 6978 5797 5798 7649 
10 1490 918 831 925 8667 3873 8717 8716 3950 3955 
10 1187 679 1186 540 6675 7612 4761 6677 3056 8862 
10 1086 422 421 174 6537 2288 7552 8375 2286 2284 
10 1429 1485 1404 903 5734 5690 5595 8823 8824 7366 
10 1485 902 1404 903 7011 7364 5690 8824 3778 7366 
10 1457 824 914 859 6953 3818 8914 7289 3635 3817 
10 931 1539 1513 1519 7893 5903 7499 7895 5904 5834 
10 1457 1526 859 914 5856 7636 7289 8914 8331 3817 
10 1526 1457 1514 914 5856 5819 5858 8331 8914 6790 
10 829 1408 925 840 8214 6594 3864 3569 7455 3865 
10 561 1209 1085 1084 8216 4819 8392 8866 4820 4455 
10 417 1080 1081 276 8585 4443 8630 8636 4439 4442 
10 647 1264 630 765 8721 6508 3331 3362 6509 3329 
10 1053 1052 386 529 4362 7508 7506 8381 8382 2602 
10 93 206 318 94 6028 7919 1980 1629 6029 1981 
10 297 189 298 73 8487 8649 1921 1917 6121 1919 
10 1107 977 446 1106 4526 7115 7537 4527 4522 6478 
10 857 858 1497 887 3633 7460 7899 4064 3820 7693 
10 1076 1203 413 553 4804 7147 7648 6772 7345 2673 
10 918 1490 1509 925 8667 5794 7970 3950 8716 6595 
10 73 189 298 190 6121 8649 1919 6122 1731 8650 
10 1309 552 1202 1201 7039 6874 5125 5124 7643 4803 
10 299 191 300 75 8582 8224 1927 1923 6124 1925 
10 1196 547 1197 1070 7665 7257 4788 4784 8841 4786 
10 550 686 1200 551 3076 7078 8112 2669 3075 8111 
10 610 1126 468 1125 6943 6945 2857 8688 4583 7173 
10 791 1385 1288 790 8769 5364 6664 3404 8771 8779 
10 1130 616 1131 1253 7761 8809 4598 4965 8008 4964 
10 475 329 474 1131 2445 2443 2447 6399 6474 6787 
10 488 489 1142 631 2489 7015 7197 2919 2920 7017 
10 1289 1178 669 1288 5069 8504 6663 5070 5065 6665 
10 632 1265 1266 1143 8453 5005 7266 7873 5000 5004 
10 629 764 1263 628 3326 8719 8151 2915 3325 8879 
10 340 486 1010 485 2478 7131 8541 2476 2480 6877 
10 235 128 353 1021 6082 2085 6527 4266 7086 7036 
10 186 294 974 293 7859 7743 4125 6301 1909 6302 
10 957 857 856 1357 4059 3630 4016 6707 7694 7695 
10 976 445 1105 444 6475 7209 4519 7407 2358 8567 
10 822 1434 1334 773 7741 5512 6315 3547 8242 8647 
10 129 128 353 235 1664 2085 2086 6103 6082 6527 
10 43 381 20 42 2167 8377 1854 1576 2166 1853 
10 1360 738 784 1359 8007 3811 8303 5290 7739 8299 
10 381 43 20 1049 2167 1854 8377 7090 8674 4349 
10 1173 524 523 1048 6459 2588 6569 4718 7350 7352 
10 1339 703 1170 1340 8416 6614 5222 5225 6695 5224 
10 525 1174 664 665 7079 7080 3011 3013 8850 3015 
10 418 170 417 1081 2274 2272 2276 8854 8637 8630 
10 946 1536 947 1530 7524 8732 4014 7516 5934 7451 
10 330 216 105 1002 6684 6096 2016 6782 4209 6895 
10 329 330 105 1002 2018 2016 2014 6473 6782 6895 
10 1225 583 1301 1345 7641 8734 5103 5243 7855 5242 
10 836 786 912 1486 3554 3810 3833 7411 7412 6287 
10 527 528 1051 1176 2600 6728 6484 8778 7591 4726 
10 912 929 1499 914 3884 8827 6286 3819 3883 8913 
10 1490 1410 831 1491 5709 7434 8717 5712 5710 7436 
10 1490 918 904 831 8667 3855 8891 8717 3873 3780 
10 778 904 831 1491 3779 3780 3446 8036 8886 7436 
10 904 1490 831 1491 8891 8717 3780 8886 5712 7436 
10 612 747 1249 611 3275 8257 8013 2864 3274 8317 
10 453 1112 597 454 7930 8052 2818 2385 7932 2819 
10 423 1088 564 424 8642 8249 2702 2294 8250 2703 
10 1319 1320 1420 702 5157 5461 5462 7978 7691 7114 
10 104 1001 215 214 8856 4206 6044 6043 4207 1757 
10 1453 868 867 1367 7973 3665 6621 5589 7183 6622 
10 847 725 724 1426 3596 3213 3595 6397 7831 7994 
10 442 1104 974 1103 8847 4517 7422 8266 4518 4514 
10 942 868 1516 958 3927 7972 7974 3932 3930 8104 
10 690 555 579 1227 3088 2770 3087 7196 8196 7094 
10 654 779 1428 839 3374 6843 8465 3563 3564 8538 
10 720 1430 887 922 8170 7692 3725 3848 8461 3850 
10 1468 846 1506 945 8489 8552 5787 6783 4012 6785 
10 587 1104 443 586 8323 8467 2788 2790 8324 2786 
10 922 969 1543 963 4105 6963 7380 4101 4106 7984 
10 1330 585 1230 722 8512 7683 5190 8608 3203 7993 
10 964 915 1469 1538 4057 7401 7876 8450 7400 5901 
10 225 341 1011 116 8624 6289 4236 6062 2049 8860 
10 1501 1498 966 969 5945 8834 7789 6962 6355 4098 
10 530 1053 386 529 8202 7506 2604 2606 8381 2602 
10 1011 340 224 116 6290 8542 4237 8860 2047 6061 
10 1089 565 1214 1213 7163 8264 4835 4831 7161 4836 
10 451 302 980 981 2374 6693 6682 8332 6681 4147 
10 341 340 1011 116 2051 6290 6289 2049 2047 8860 
10 1129 615 1252 614 8147 8807 4962 6524 2873 7907 
10 1251 750 614 1252 8705 3283 7906 4963 8709 7907 
10 816 1418 927 817 8707 7934 3877 3483 6866 3878 
10 1372 1449 874 875 5624 7925 7323 6645 6644 3686 
10 1212 1088 564 1087 4828 8249 7674 4829 4464 7659 
10 1091 428 1216 568 7438 7005 4841 8238 2715 7099 
10 563 1212 1087 1211 7677 4829 7657 6341 4830 4825 
10 574 1195 1194 1068 8629 4782 8296 6637 4780 4778 
10 1394 792 893 1385 7865 3743 8758 5387 7867 7519 
10 1289 792 1385 791 7866 7867 5363 6662 3407 8769 
10 792 893 1385 791 3743 7519 7867 3407 3742 8769 
10 920 1473 1478 1536 7522 5669 7936 8423 5917 5894 
10 675 1294 1293 798 8290 5085 7616 3423 7795 8609 
10 891 789 1443 1396 3736 7028 8907 8883 7027 5546 
10 533 1055 389 532 6282 6284 2613 2615 6347 2611 
10 1088 423 564 1087 8642 2702 8249 4464 7658 7659 
10 884 781 886 1494 3714 3721 3722 8477 7431 8474 
10 1287 789 667 790 7026 3397 7584 8415 3401 3399 
10 1385 920 1478 892 7520 7936 5667 8770 4029 8840 
10 192 77 193 980 6127 6128 1734 4143 6692 4142 
10 664 1299 581 787 6463 6471 3508 3391 6735 3572 
10 373 151 1040 257 2143 8025 6809 8228 5999 4322 
10 981 451 303 452 8332 2375 6268 8333 2379 2377 
10 517 373 1040 1169 2569 6809 6810 6743 6742 4706 
10 1286 664 787 1299 8783 3391 8623 5232 6463 6735 
10 205 316 204 92 8244 8105 1747 6026 1976 6025 
10 1286 665 787 664 7901 3392 8623 8783 3015 3391 
10 170 418 277 1081 2274 8497 6211 8637 8854 4441 
10 1212 698 564 1213 6633 3108 7674 4833 6635 8846 
10 1179 530 670 669 8203 3028 8761 8898 3026 3030 
10 401 37 991 316 8059 4281 8060 2338 7314 8245 
10 401 37 316 63 8059 7314 2338 2227 1887 2313 
10 1064 401 991 505 6318 8060 4507 7713 2535 8115 
10 1179 1289 1178 669 5068 5069 4737 8898 6663 8504 
10 1429 744 903 743 7420 3804 8823 7418 3267 3777 
10 401 316 991 505 2338 8245 8060 2535 2536 8115 
10 954 1484 953 1524 6972 8256 4043 6973 5848 6769 
10 646 647 1348 575 2969 8591 8435 2965 2968 8895 
10 1276 610 1125 1126 7263 8688 5034 5033 6943 4583 
10 283 176 284 1088 6225 6224 1830 4463 8682 4462 
10 1207 646 1348 575 8434 8435 5252 8172 2965 8895 
10 1105 975 444 1104 4520 6980 8567 4521 4516 8600 
10 846 847 724 1426 3597 3595 3593 7997 6397 7994 
10 1336 709 1301 661 8638 8792 5214 8319 3177 8887 
10 360 1028 361 138 7600 6305 2110 2107 6544 2108 
10 965 1525 1505 1488 8796 5854 7377 7378 5851 5774 
10 618 1254 1131 617 7728 4968 6401 2882 6429 6431 
10 1028 360 243 138 7600 7601 4288 6544 2107 5984 
10 860 780 923 1495 3638 3852 3853 6900 6898 8645 
10 613 1251 614 1128 8554 7906 2870 7578 4959 6525 
10 360 137 243 138 2106 5983 7601 2107 1674 5984 
10 781 1391 1448 1283 7429 5574 7430 7582 5377 5572 
10 227 1013 226 119 4242 4243 1769 6066 6813 6065 
10 1523 937 967 953 6766 4087 8455 6767 4061 4096 
10 631 1264 1142 630 8581 4997 7017 2921 6508 7198 
10 2 63 91 37 1597 1974 1626 1844 1887 7315 
10 1058 393 1059 537 7110 8122 4380 8670 2625 6310 
10 954 1485 862 861 6971 7723 3999 3986 7593 3644 
10 404 1067 158 265 6923 6605 2235 6867 4402 4003 
10 907 1515 958 1516 7479 8103 4041 7771 5825 8104 
10 1012 343 1013 488 8539 6812 4244 6516 2485 8864 
10 343 489 1013 488 2487 8863 6812 2485 2489 8864 
10 719 583 1321 1345 3189 7642 6823 7050 7855 5257 
10 503 1025 1024 1154 7053 4280 8521 8362 4665 4666 
10 503 357 1024 1025 2529 8553 8521 7053 7390 4280 
10 1382 771 881 1381 8644 3705 6546 5356 8765 6547 
10 1537 1512 944 908 5898 8888 8284 8569 8739 3962 
10 1380 880 1467 879 8897 8851 5639 7986 3704 6329 
10 778 686 1411 685 3372 8493 8037 3373 3077 8168 
10 1153 643 501 644 7310 2956 7672 7311 2960 2958 
10 255 1038 254 149 4316 4317 1798 6019 6781 6018 
10 1038 370 254 149 7074 6564 4317 6781 2135 6018 
10 725 1352 1426 848 7832 5482 7831 3598 7819 6479 
10 1309 1310 1202 688 5129 5127 5125 6796 8393 8394 
10 932 956 1539 931 4089 7297 7778 3894 4027 7893 
10 1517 924 1544 1519 6361 8853 5957 5956 8835 5951 
10 1465 877 1378 878 6893 7756 5634 8047 3698 7757 
10 730 1353 853 1354 7321 8693 3613 7990 5272 8692 
10 932 962 1539 956 4091 8368 7778 4089 4090 7297 
10 929 1542 1499 914 8545 5915 8827 3883 8577 8913 
10 884 1536 1494 1535 8729 5895 8477 8470 5935 5889 
10 929 912 1499 1528 3884 6286 8827 6777 6778 5864 
10 1300 605 1312 777 8269 8816 5231 7732 3371 8916 
10 786 1446 1486 1406 7040 5694 7412 7042 5565 5693 
10 1430 1438 922 720 5533 7379 8461 8170 7285 3848 
10 935 855 1488 936 3902 7989 7689 3906 3904 7557 
10 1091 428 287 1092 7438 7437 4471 4476 7007 4475 
10 596 733 597 1236 3235 3236 2820 6608 6765 8050 
10 126 351 1019 350 2079 8024 8029 2077 2081 8548 
10 733 1237 597 1236 8802 7291 3236 6765 4922 8050 
10 453 596 597 1112 2816 2820 2818 7930 8051 8052 
10 522 1155 1047 1046 8691 4865 6935 6481 4884 4344 
10 819 1317 1422 1318 8513 5469 7543 8696 5151 5468 
10 1419 1318 820 1422 5460 7655 7654 5470 5468 8831 
10 1155 522 573 1046 8691 2764 8254 4884 6481 6483 
10 1045 1155 573 1046 4885 8254 6851 4341 4884 6483 
10 1104 1230 1103 586 4900 4901 4518 8324 7684 7686 
10 608 1121 1124 465 7768 4577 8689 2850 7707 8131 
10 1124 466 608 465 8068 2851 8689 8131 2420 2850 
10 844 1333 828 1425 6824 6825 3586 8221 5481 8713 
10 1124 466 609 608 8068 2853 7915 8689 2851 2855 
10 442 1104 1103 586 8847 4518 8266 2785 8324 7686 
10 1416 1405 1312 812 5452 5419 5451 7627 6986 7629 
10 1405 777 1312 812 6904 8916 5419 6986 3531 7629 
10 1133 620 1255 619 8620 8621 4970 8849 2888 7719 
10 159 266 405 1068 3971 6627 2238 7393 4405 6638 
10 1124 1121 994 465 4577 4566 4576 8131 7707 6705 
10 415 11 1079 13 7149 4438 7848 7148 1821 4437 
10 11 415 1079 1097 7149 7848 4438 4493 6426 4492 
10 1133 477 620 619 8724 2886 8620 8849 2884 2888 
10 1405 1300 1312 777 5420 5231 5419 6904 7732 8916 
10 1133 1003 477 476 4603 8526 8724 7717 6792 2453 
10 1318 819 820 1422 8696 3493 7655 5468 7543 8831 
10 37 316 204 991 7314 8105 4176 4281 8245 4178 
10 1122 607 1121 1323 8679 8565 4570 5165 8700 5164 
10 236 131 355 130 6085 2092 8023 6084 1666 2091 
10 558 418 417 1081 2686 2276 2685 7386 8854 8630 
10 239 1025 358 359 4278 7172 7051 7056 7058 2105 
10 37 316 91 204 7314 1975 7315 4176 8105 6024 
10 495 637 1148 1147 2938 7426 7219 8655 8857 4649 
10 970 183 971 290 4113 4116 4117 8482 8199 6654 
10 291 66 290 971 1898 1896 1900 6652 8656 6654 
10 66 183 290 971 6109 8199 1896 8656 4116 6654 

CELL_TYPES 4283
24
24
24
24
24
24
24
24
24
24
24
24
24
24
24
24
24
24
24
24
24
24
24
24
24
24
24
24
24
24
24
24
24
24
24
24
24
24
24
24
24
24
24
24
24
24
24
24
24
24
24
24
24
24
24
24
24
24
24
24
24
24
24
24
24
24
24
24
24
24
24
24
24
24
24
24
24
24
24
24
24
24
24
24
24
24
24
24
24
24
24
24
24
24
24
24
24
24
24
24
24
24
24
24
24
24
24
24
24
24
24
24
24
24
24
24
24
24
24
24
24
24
24
24
24
24
24
24
24
24
24
24
24
24
24
24
24
24
24
24
24
24
24
24
24
24
24
24
24
24
24
24
24
24
24
24
24
24
24
24
24
24
24
24
24
24
24
24
24
24
24
24
24
24
24
24
24
24
24
24
24
24
24
24
24
24
24
24
24
24
24
24
24
24
24
24
24
24
24
24
24
24
24
24
24
24
24
24
24
24
24
24
24
24
24
24
24
24
24
24
24
24
24
24
24
24
24
24
24
24
24
24
24
24
24
24
24
24
24
24
24
24
24
24
24
24
24
24
24
24
24
24
24
24
24
24
24
24
24
24
24
24
24
24
24
24
24
24
24
24
24
24
24
24
24
24
24
24
24
24
24
24
24
24
24
24
24
24
24
24
24
24
24
24
24
24
24
24
24
24
24
24
24
24
24
24
24
24
24
24
24
24
24
24
24
24
24
24
24
24
24
24
24
24
24
24
24
24
24
24
24
24
24
24
24
24
24
24
24
24
24
24
24
24
24
24
24
24
24
24
24
24
24
24
24
24
24
24
24
24
24
24
24
24
24
24
24
24
24
24
24
24
24
24
24
24
24
24
24
24
24
24
24
24
24
24
24
24
24
24
24
24
24
24
24
24
24
24
24
24
24
24
24
24
24
24
24
24
24
24
24
24
24
24
24
24
24
24
24
24
24
24
24
24
24
24
24
24
24
24
24
24
24
24
24
24
24
24
24
24
24
24
24
24
24
24
24
24
24
24
24
24
24
24
24
24
24
24
24
24
24
24
24
24
24
24
24
24
24
24
24
24
24
24
24
24
24
24
24
24
24
24
24
24
24
24
24
24
24
24
24
24
24
24
24
24
24
24
24
24
24
24
24
24
24
24
24
24
24
24
24
24
24
24
24
24
24
24
24
24
24
24
24
24
24
24
24
24
24
24
24
24
24
24
24
24
24
24
24
24
24
24
24
24
24
24
24
24
24
24
24
24
24
24
24
24
24
24
24
24
24
24
24
24
24
24
24
24
24
24
24
24
24
24
24
24
24
24
24
24
24
24
24
24
24
24
24
24
24
24
24
24
24
24
24
24
24
24
24
24
24
24
24
24
24
24
24
24
24
24
24
24
24
24
24
24
24
24
24
24
24
24
24
24
24
24
24
24
24
24
24
24
24
24
24
24
24
24
24
24
24
24
24
24
24
24
24
24
24
24
24
24
24
24
24
24
24
24
24
24
24
24
24
24
24
24
24
24
24
24
24
24
24
24
24
24
24
24
24
24
24
24
24
24
24
24
24
24
24
24
24
24
24
24
24
24
24
24
24
24
24
24
24
24
24
24
24
24
24
24
24
24
24
24
24
24
24
24
24
24
24
24
24
24
24
24
24
24
24
24
24
24
24
24
24
24
24
24
24
24
24
24
24
24
24
24
24
24
24
24
24
24
24
24
24
24
24
24
24
24
24
24
24
24
24
24
24
24
24
24
24
24
24
24
24
24
24
24
24
24
24
24
24
24
24
24
24
24
24
24
24
24
24
24
24
24
24
24
24
24
24
24
24
24
24
24
24
24
24
24
24
24
24
24
24
24
24
24
24
24
24
24
24
24
24
24
24
24
24
24
24
24
24
24
24
24
24
24
24
24
24
24
24
24
24
24
24
24
24
24
24
24
24
24
24
24
24
24
24
24
24
24
24
24
24
24
24
24
24
24
24
24
24
24
24
24
24
24
24
24
24
24
24
24
24
24
24
24
24
24
24
24
24
24
24
24
24
24
24
24
24
24
24
24
24
24
24
24
24
24
24
24
24
24
24
24
24
24
24
24
24
24
24
24
24
24
24
24
24
24
24
24
24
24
24
24
24
24
24
24
24
24
24
24
24
24
24
24
24
24
24
24
24
24
24
24
24
24
24
24
24
24
24
24
24
24
24
24
24
24
24
24
24
24
24
24
24
24
24
24
24
24
24
24
24
24
24
24
24
24
24
24
24
24
24
24
24
24
24
24
24
24
24
24
24
24
24
24
24
24
24
24
24
24
24
24
24
24
24
24
24
24
24
24
24
24
24
24
24
24
24
24
24
24
24
24
24
24
24
24
24
24
24
24
24
24
24
24
24
24
24
24
24
24
24
24
24
24
24
24
24
24
24
24
24
24
24
24
24
24
24
24
24
24
24
24
24
24
24
24
24
24
24
24
24
24
24
24
24
24
24
24
24
24
24
24
24
24
24
24
24
24
24
24
24
24
24
24
24
24
24
24
24
24
24
24
24
24
24
24
24
24
24
24
24
24
24
24
24
24
24
24
24
24
24
24
24
24
24
24
24
24
24
24
24
24
24
24
24
24
24
24
24
24
24
24
24
24
24
24
24
24
24
24
24
24
24
24
24
24
24
24
24
24
24
24
24
24
24
24
24
24
24
24
24
24
24
24
24
24
24
24
24
24
24
24
24
24
24
24
24
24
24
24
24
24
24
24
24
24
24
24
24
24
24
24
24
24
24
24
24
24
24
24
24
24
24
24
24
24
24
24
24
24
24
24
24
24
24
24
24
24
24
24
24
24
24
24
24
24
24
24
24
24
24
24
24
24
24
24
24
24
24
24
24
24
24
24
24
24
24
24
24
24
24
24
24
24
24
24
24
24
24
24
24
24
24
24
24
24
24
24
24
24
24
24
24
24
24
24
24
24
24
24
24
24
24
24
24
24
24
24
24
24
24
24
24
24
24
24
24
24
24
24
24
24
24
24
24
24
24
24
24
24
24
24
24
24
24
24
24
24
24
24
24
24
24
24
24
24
24
24
24
24
24
24
24
24
24
24
24
24
24
24
24
24
24
24
24
24
24
24
24
24
24
24
24
24
24
24
24
24
24
24
24
24
24
24
24
24
24
24
24
24
24
24
24
24
24
24
24
24
24
24
24
24
24
24
24
24
24
24
24
24
24
24
24
24
24
24
24
24
24
24
24
24
24
24
24
24
24
24
24
24
24
24
24
24
24
24
24
24
24
24
24
24
24
24
24
24
24
24
24
24
24
24
24
24
24
24
24
24
24
24
24
24
24
24
24
24
24
24
24
24
24
24
24
24
24
24
24
24
24
24
24
24
24
24
24
24
24
24
24
24
24
24
24
24
24
24
24
24
24
24
24
24
24
24
24
24
24
24
24
24
24
24
24
24
24
24
24
24
24
24
24
24
24
24
24
24
24
24
24
24
24
24
24
24
24
24
24
24
24
24
24
24
24
24
24
24
24
24
24
24
24
24
24
24
24
24
24
24
24
24
24
24
24
24
24
24
24
24
24
24
24
24
24
24
24
24
24
24
24
24
24
24
24
24
24
24
24
24
24
24
24
24
24
24
24
24
24
24
24
24
24
24
24
24
24
24
24
24
24
24
24
24
24
24
24
24
24
24
24
24
24
24
24
24
24
24
24
24
24
24
24
24
24
24
24
24
24
24
24
24
24
24
24
24
24
24
24
24
24
24
24
24
24
24
24
24
24
24
24
24
24
24
24
24
24
24
24
24
24
24
24
24
24
24
24
24
24
24
24
24
24
24
24
24
24
24
24
24
24
24
24
24
24
24
24
24
24
24
24
24
24
24
24
24
24
24
24
24
24
24
24
24
24
24
24
24
24
24
24
24
24
24
24
24
24
24
24
24
24
24
24
24
24
24
24
24
24
24
24
24
24
24
24
24
24
24
24
24
24
24
24
24
24
24
24
24
24
24
24
24
24
24
24
24
24
24
24
24
24
24
24
24
24
24
24
24
24
24
24
24
24
24
24
24
24
24
24
24
24
24
24
24
24
24
24
24
24
24
24
24
24
24
24
24
24
24
24
24
24
24
24
24
24
24
24
24
24
24
24
24
24
24
24
24
24
24
24
24
24
24
24
24
24
24
24
24
24
24
24
24
24
24
24
24
24
24
24
24
24
24
24
24
24
24
24
24
24
24
24
24
24
24
24
24
24
24
24
24
24
24
24
24
24
24
24
24
24
24
24
24
24
24
24
24
24
24
24
24
24
24
24
24
24
24
24
24
24
24
24
24
24
24
24
24
24
24
24
24
24
24
24
24
24
24
24
24
24
24
24
24
24
24
24
24
24
24
24
24
24
24
24
24
24
24
24
24
24
24
24
24
24
24
24
24
24
24
24
24
24
24
24
24
24
24
24
24
24
24
24
24
24
24
24
24
24
24
24
24
24
24
24
24
24
24
24
24
24
24
24
24
24
24
24
24
24
24
24
24
24
24
24
24
24
24
24
24
24
24
24
24
24
24
24
24
24
24
24
24
24
24
24
24
24
24
24
24
24
24
24
24
24
24
24
24
24
24
24
24
24
24
24
24
24
24
24
24
24
24
24
24
24
24
24
24
24
24
24
24
24
24
24
24
24
24
24
24
24
24
24
24
24
24
24
24
24
24
24
24
24
24
24
24
24
24
24
24
24
24
24
24
24
24
24
24
24
24
24
24
24
24
24
24
24
24
24
24
24
24
24
24
24
24
24
24
24
24
24
24
24
24
24
24
24
24
24
24
24
24
24
24
24
24
24
24
24
24
24
24
24
24
24
24
24
24
24
24
24
24
24
24
24
24
24
24
24
24
24
24
24
24
24
24
24
24
24
24
24
24
24
24
24
24
24
24
24
24
24
24
24
24
24
24
24
24
24
24
24
24
24
24
24
24
24
24
24
24
24
24
24
24
24
24
24
24
24
24
24
24
24
24
24
24
24
24
24
24
24
24
24
24
24
24
24
24
24
24
24
24
24
24
24
24
24
24
24
24
24
24
24
24
24
24
24
24
24
24
24
24
24
24
24
24
24
24
24
24
24
24
24
24
24
24
24
24
24
24
24
24
24
24
24
24
24
24
24
24
24
24
24
24
24
24
24
24
24
24
24
24
24
24
24
24
24
24
24
24
24
24
24
24
24
24
24
24
24
24
24
24
24
24
24
24
24
24
24
24
24
24
24
24
24
24
24
24
24
24
24
24
24
24
24
24
24
24
24
24
24
24
24
24
24
24
24
24
24
24
24
24
24
24
24
24
24
24
24
24
24
24
24
24
24
24
24
24
24
24
24
24
24
24
24
24
24
24
24
24
24
24
24
24
24
24
24
24
24
24
24
24
24
24
24
24
24
24
24
24
24
24
24
24
24
24
24
24
24
24
24
24
24
24
24
24
24
24
24
24
24
24
24
24
24
24
24
24
24
24
24
24
24
24
24
24
24
24
24
24
24
24
24
24
24
24
24
24
24
24
24
24
24
24
24
24
24
24
24
24
24
24
24
24
24
24
24
24
24
24
24
24
24
24
24
24
24
24
24
24
24
24
24
24
24
24
24
24
24
24
24
24
24
24
24
24
24
24
24
24
24
24
24
24
24
24
24
24
24
24
24
24
24
24
24
24
24
24
24
24
24
24
24
24
24
24
24
24
24
24
24
24
24
24
24
24
24
24
24
24
24
24
24
24
24
24
24
24
24
24
24
24
24
24
24
24
24
24
24
24
24
24
24
24
24
24
24
24
24
24
24
24
24
24
24
24
24
24
24
24
24
24
24
24
24
24
24
24
24
24
24
24
24
24
24
24
24
24
24
24
24
24
24
24
24
24
24
24
24
24
24
24
24
24
24
24
24
24
24
24
24
24
24
24
24
24
24
24
24
24
24
24
24
24
24
24
24
24
24
24
24
24
24
24
24
24
24
24
24
24
24
24
24
24
24
24
24
24
24
24
24
24
24
24
24
24
24
24
24
24
24
24
24
24
24
24
24
24
24
24
24
24
24
24
24
24
24
24
24
24
24
24
24
24
24
24
24
24
24
24
24
24
24
24
24
24
24
24
24
24
24
24
24
24
24
24
24
24
24
24
24
24
24
24
24
24
24
24
24
24
24
24
24
24
24
24
24
24
24
24
24
24
24
24
24
24
24
24
24
24
24
24
24
24
24
24
24
24
24
24
24
24
24
24
24
24
24
24
24
24
24
24
24
24
24
24
24
24
24
24
24
24
24
24
24
24
24
24
24
24
24
24
24
24
24
24
24
24
24
24
24
24
24
24
24
24
24
24
24
24
24
24
24
24
24
24
24
24
24
24
24
24
24
24
24
24
24
24
24
24
24
24
24
24
24
24
24
24
24
24
24
24
24
24
24
24
24
24
24
24
24
24
24
24
24
24
24
24
24
24
24
24
24
24
24
24
24
24
24
24
24
24
24
24
24
24
24
24
24
24
24
24
24
24
24
24
24
24
24
24
24
24
24
24
24
24
24
24
24
24
24
24
24
24
24
24
24
24
24
24
24
24
24
24
24
24
24
24
24
24
24
24
24
24
24
24
24
24
24
24
24
24
24
24
24
24
24
24
24
24
24
24
24
24
24
24
24
24
24
24
24
24
24
24
24
24
24
24
24
24
24
24
24
24
24
24
24
24
24
24
24
24
24
24
24
24
24
24
24
24
24
24
24
24
24
24
24
24
24
24
24
24
24
24
24
24
24
24
24
24
24
24
24
24
24
24
24
24
24
24
24
24
24
24
24
24
24
24
24
24
24
24
24
24
24
24
24
24
24
24
24
24
24
24
24
24
24
24
24
24
24
24
24
24
24
24
24
24
24
24
24
24
24
24
24
24
24
24
24
24
24
24
24
24
24
24
24
24
24
24
24
24
24
24
24
24
24
24
24
24
24
24
24
24
24
24
24
24
24
24
24
24
24
24
24
24
24
24
24
24
24
24
24
24
24
24
24
24
24
24
24
24
24
24
24
24
24
24
24
24
24
24
24
24
24
24
24
24
24
24
24
24
24
24
24
24
24
24
24
24
24
24
24
24
24
24
24
24
24
24
24
24
24
24
24
24
24
24
24
24
24
24
24
24
24
24
24
24
24
24
24
24
24
24
24
24
24
24
24
24
24
24
24
24
24
24
24
24
24
24
24
24
24
24
24
24
24
24
24
24
24
24
24
24
24
24
24
24
24
24
24
24
24
24
24
24
24
24
24
24
24
24
24
24
24
24
24
24
24
24
24
24
24
24
24
24
24
24
24
24
24
24
24
24
24
24
24
24
24
24
24
24
24
24
24
24
24
24
24
24
24
24
24
24
24
24
24
24
24
24
24
24
24
24
24
24
24
24
24
24
24
24
24
24
24
24
24
24
24
24
24
24
24
24
24
24
24
24
24
24
24
24
24
24
24
24
24
24
24
24
24
24
24
24
24
24
24
24
24
24
24
24
24
24
24
24
24
24
24
24
24
24
24
24
24
24
24
24
24
24
24
24
24
24
24
24
24
24
24
24
24
24
24
24
24
24
24
24
24
24
24
24
24
24
24
24
24
24
24
24
24
24
24
24
24
24
24
24
24
24
24
24
24
24
24
24
24
24
24
24
24
24
24
24
24
24
24
24
24
24
24
24
24
24
24
24
24
24
24
24
24
24
24
24
24
24
24
24
24
24
24
24
24
24
24
24
24
24
24
24
24
24
24
24
24
24
24
24
24
24
24
24
24
24
24
24
24
24
24
24
24
24
24
24
24
24
24
24
24
24
24
24
24
24
24
24
24
24
24
24
24
24
24
24
24
24
24
24
24
24
24
24
24
24
24
24
24
24
24
24
24
24
24
24
24
24
24
24
24
24
24
24
24
24
24
24
24
24
24
24
24
24
24
24
24
24
24
24
24
24
24
24
24
24
24
24
24
24
24
24
24
24
24
24
24
24
24
24
24
24
24
24
24
24
24
24
24
24
24
24
24
24
24
24
24
24
24
24
24
24
24
24
24
24
24
24
24
24
24
24
24
24
24
24
24
24
24
24
24
24
24
24
24
24
24
24
24
24
24
24
24
24
24
24
24
24
24
24
24
24
24
24
24
24
24
24
24
24
24
24
24
24
24
24
24
24
24
24
24
24
24
24
24
24
24
24
24
24
24
24
24
24
24
24
24
24
24
24
24
24
24
24
24
24
24
24
24
24
24
24
24
24
24
24
24
24
24
24
24
24
24
24
24
24
24
24
24
24
24
24
24
24
24
24
24
24
24
24
24
24
24
24
24
24
24
24
24
24
24
24
24
24
24
24
24
24
24
24
24
24
24
24
24
24
24
24
24
24
24
24
24
24
24
24
24
24
24
24
24
24
24
24
24
24
24
24
24
24
24
24
24
24
24
24
24
24
24
24
24
24
24
24
24
24
24
24
24
24
24
24
24
24
24
24
24
24
24
24
24
24
24
24
24
24
24
24
24
24
24
24
24
24
24
24
24
24
24
24
24
24
24
24
24
24
24
24
24
24
24
24
24
24
24
24
24
24
24
24
24
24
24
24
24
24
24
24
24
24
24
24
24
24
24
24
24
24
24
24
24
24
24
24
24
24
24
24
24
24
24
24
24
24
24
24
24
24
24
24
24
24
24
24
24
24
24
24
24
24
24
24
24
24
24
24
24
24
24
24
24
24
24
24
24
24
24
24
24
24
24
24
24
24
24
24
24
24
24
24
24
24
24
24
24
24
24
24
24
24
24
24
24
24
24
24
24
24
24
24
24
24
24
24
24
24
24
24
24
24
24
24
24
24
24
24
24
24
24
24
24
24
24
24
24
24
24
24
24
24
24
24
24
24
24
24
24
24
24
24
24
24
24
24
24
24
24
24
24
24
24
24
24
24
24
24
24
24
24
24
24
24
24
24
24
24
24
24
24
24
24
24
24
24
24
24
24
24
24
24
24
24
24
24
24
24
24
24
24
24
24
24
24
24
24
24
24
24
24
24
24
24
24
24
24
24
24
24
24
24
24
24
24
24
24
24
24
24
24
24
24
24
24
24
24
24
24
24
24
24
24
24
24
24
24
24
24
24
24
24
24
24
24
24
24
24
24
24
24
24
24
24
24
24
24
24
24
24
24
24
24
24
24
24
24
24
24
24
24
24
24
24
24
24
24
24
24
24
24
24
24
24
24
24
24
24
24
24
24
24
24
24
24
24
24
24
24
24
24
24
24
24
24
24
24
24
24
24
24
24
24
24
24
24
24
24
24
24
24
24
24
24
24
24
24
24
24
24
24
24
24
24
24
24
24
24
24
24
24
24
24
24
24
24
24
24
24
24
24
24
24
24
24
24
24
24
24
24
24
24
24
24
24
24
24
24
24
24
24
24
24
24
24
24
24
24
24
24
24
24
24
24
24
24
24
24
24
24
24
24
24
24
24
24
24
24
24
24
24
24
24
24
24
24
24
24
24
24
24
24
24
24
24
24
24
24
24
24
24
24
24
24
24
24
24
24
24
24
24
24
24
24
24
24
24
24
24
24
24
24
24
24
24
24
24
24
24
24
24
24
24
24
24
24
24
24
24
24
24
24
24
24
24
24
24
24
24
24
24
24
24
24
24
24
24
24
24
24
24
24
24
24
24
24
24
24
24
24
24
24
24
24
24
24
24

POINT_DATA 8918
FIELD FieldData 19
Displacement 3 8918 double
0 0 0 0 0 0 0 0 0 
0 0 0 -3.66477 32.5717 -0.137242 -3.66303 32.5733 0.129404 
4.43244 31.6104 -0.204967 4.43575 31.6128 0.0617657 2.99419 19.483 -0.141943 
2.99185 19.4376 -0.0392689 -0.379714 13.6904 -0.142726 -0.375468 13.6796 0.0270403 
-0.370452 13.5484 -0.111416 -0.386749 13.5398 -0.0106857 3.00204 19.3093 -0.171641 
2.97412 19.3326 0.0212565 0 0 0 0 0 0 
0 0 0 0 0 0 0 0 0 
0 0 0 0 0 0 0 0 0 
0 0 0 0 0 0 0 0 0 
0 0 0 0 0 0 0 0 0 
0 0 0 0 0 0 0 0 0 
0 0 0 0 0 0 0 0 0 
0 0 0 0 0 0 0 0 0 
0 0 0 0 0 0 0 0 0 
0 0 0 0 0 0 0 0 0 
0 0 0 0 0 0 0 0 0 
0 0 0 0 0 0 0 0 0 
0 0 0 0 0 0 0 0 0 
0 0 0 0 0 0 0 0 0 
0 0 0 0 0 0 0 0 0 
0 0 0 0 0 0 0 0 0 
0 0 0 4.11269 31.6456 -0.201049 3.8329 31.6751 -0.197553 
3.544 31.7033 -0.193838 3.24495 31.7306 -0.189894 2.9677 31.7549 -0.186301 
2.6881 31.7797 -0.182859 2.38976 31.8072 -0.179411 2.08971 31.8369 -0.176175 
1.79707 31.8685 -0.17335 1.51272 31.9018 -0.170939 1.22894 31.9375 -0.168706 
0.904893 31.9811 -0.166405 0.632409 32.0196 -0.164616 0.328992 32.0639 -0.162769 
0.0359975 32.1073 -0.161048 -0.246828 32.1491 -0.159414 -0.551915 32.1936 -0.15764 
-0.815492 32.2311 -0.156101 -1.10989 32.2715 -0.154297 -1.42733 32.3133 -0.152266 
-1.69685 32.3471 -0.150517 -1.99023 32.3826 -0.148564 -2.26808 32.4149 -0.146686 
-2.5544 32.4474 -0.144716 -2.82537 32.4777 -0.14285 -3.10486 32.5088 -0.140947 
-3.40075 32.5419 -0.138974 1.07845 1.23136 -0.0892843 1.74872 2.06161 -0.0737616 
2.2224 2.78114 -0.0796662 2.57886 3.42675 -0.0896261 2.89418 4.11135 -0.100004 
3.13734 4.75454 -0.110038 3.34266 5.42108 -0.11968 3.4936 6.02834 -0.12795 
3.6097 6.60731 -0.1356 3.71878 7.30495 -0.144434 3.79117 7.91911 -0.151827 
3.84523 8.53759 -0.15895 3.88379 9.16098 -0.165775 3.91047 9.82013 -0.17258 
3.92508 10.4251 -0.178558 3.93319 11.0665 -0.184583 3.93673 11.7145 -0.190305 
3.9385 12.369 -0.195781 3.94148 13.0296 -0.200937 3.94848 13.6957 -0.205741 
3.96381 14.4302 -0.210545 3.98735 15.1042 -0.214441 4.02367 15.812 -0.218264 
4.07374 16.5199 -0.221545 4.13852 17.2259 -0.224264 4.21422 17.8957 -0.226221 
4.31152 18.6217 -0.227374 4.41014 19.2749 -0.22769 4.51301 19.9166 -0.226986 
4.61685 20.5752 -0.225589 4.70678 21.2221 -0.224172 4.77676 21.8921 -0.223366 
4.81747 22.534 -0.222462 4.83294 23.2429 -0.222268 4.82607 23.8747 -0.222291 
4.80261 24.5807 -0.222135 4.77147 25.2376 -0.221636 4.73292 25.937 -0.220706 
4.6952 26.5812 -0.219535 4.65066 27.33 -0.218075 4.61049 28.0196 -0.216426 
4.56989 28.7467 -0.214476 4.53148 29.4772 -0.212256 4.49555 30.2099 -0.209887 
4.46495 30.8769 -0.207559 -3.63004 31.8051 -0.139054 -3.58268 30.7714 -0.141559 
-3.53195 29.6699 -0.144258 -3.47293 28.3659 -0.147387 -3.40687 26.8242 -0.15093 
-3.34206 25.1094 -0.154474 -3.29125 23.354 -0.157429 -3.26252 21.1508 -0.159945 
-3.28539 19.1149 -0.160373 -3.37766 16.8915 -0.157464 -3.51626 14.91 -0.151735 
-3.67324 13.0218 -0.144034 -3.79742 11.2634 -0.135487 -3.84317 9.32662 -0.12583 
-3.76644 7.81321 -0.119613 -3.57253 6.40361 -0.116262 -3.27581 5.16959 -0.11651 
-2.85654 4.00964 -0.121835 -2.39727 3.07055 -0.134523 -1.83818 2.17128 -0.164001 
-1.05529 1.17997 -0.245418 2.86078 18.9473 -0.131881 2.5896 18.4717 -0.127247 
2.32423 18.0333 -0.125073 2.04931 17.5666 -0.12404 1.76167 17.0681 -0.1231 
1.50237 16.6142 -0.119215 1.23199 16.1337 -0.117176 0.963558 15.6604 -0.114122 
0.697837 15.1986 -0.112709 0.408723 14.7142 -0.108149 0.118482 14.2598 -0.0991608 
-0.155099 13.8631 -0.0910792 2.79352 19.1789 -0.116601 2.55844 18.8449 -0.122054 
2.29183 18.4342 -0.124827 2.03268 18.005 -0.1227 1.76581 17.5499 -0.121989 
1.52392 17.1297 -0.122502 1.26921 16.6767 -0.118548 1.00771 16.2151 -0.116508 
0.764348 15.7905 -0.115978 0.5179 15.3662 -0.110683 0.256634 14.9314 -0.110104 
0.0175291 14.5351 -0.108392 -0.220479 14.1135 -0.103145 4.14799 31.6445 0.0653016 
3.81206 31.6799 0.0693251 3.45043 31.7146 0.07318 3.06887 31.7486 0.0768916 
2.70752 31.7804 0.0802059 2.32599 31.8157 0.0836467 1.94188 31.8549 0.0870797 
1.58202 31.8958 0.0903367 1.24795 31.9374 0.0933617 0.873992 31.9877 0.0967674 
0.511193 32.0394 0.100037 0.11915 32.0971 0.103474 -0.244929 32.151 0.106527 
-0.630087 32.2069 0.109568 -0.965 32.2538 0.112093 -1.33038 32.3027 0.114684 
-1.67927 32.3469 0.117023 -2.04405 32.3908 0.119348 -2.40148 32.4319 0.121547 
-2.75186 32.4712 0.123671 -3.08715 32.5085 0.125727 -3.39101 32.5425 0.12764 
1.05856 1.18155 0.269773 1.81839 2.15091 0.194861 2.35962 3.01716 0.162418 
2.75984 3.80527 0.141792 3.0929 4.62883 0.124891 3.34805 5.44197 0.11129 
3.52303 6.16563 0.101502 3.66683 6.94908 0.0924601 3.77517 7.76653 0.0842694 
3.84301 8.50246 0.0778819 3.89012 9.27528 0.0719183 3.91891 10.0869 0.0665986 
3.93302 10.9088 0.0619115 3.93841 11.7415 0.0576701 3.94102 12.5534 0.0539708 
3.94706 13.4061 0.0502376 3.9614 14.2348 0.0466629 3.99149 15.1331 0.0425924 
4.03904 16.0021 0.0384092 4.10765 16.8704 0.0338709 4.19483 17.7021 0.0291613 
4.31069 18.5881 0.0236739 4.43836 19.4271 0.0182563 4.56518 20.2165 0.0133362 
4.68811 21.0466 0.00978762 4.7736 21.8057 0.00924835 4.82607 22.6528 0.0124056 
4.83678 23.3943 0.0171814 4.82149 24.1822 0.0230131 4.78801 24.9885 0.0289975 
4.74573 25.7796 0.0345262 4.69675 26.616 0.0397542 4.64452 27.4962 0.0445804 
4.59339 28.3851 0.04899 4.54505 29.2802 0.0530054 4.50356 30.1123 0.0564089 
4.46668 30.9125 0.0593265 -3.62982 31.8399 0.127691 -3.59475 31.0731 0.125961 
-3.54864 30.0721 0.123807 -3.49518 28.9026 0.121419 -3.43894 27.6305 0.118998 
-3.37965 26.1873 0.116571 -3.32367 24.6048 0.11446 -3.2745 22.6099 0.112726 
-3.26427 20.2344 0.111386 -3.32655 17.8643 0.110614 -3.447 15.7944 0.109722 
-3.59201 13.9723 0.108178 -3.73051 12.2722 0.106763 -3.82635 10.5993 0.106958 
-3.83377 8.94453 0.109232 -3.72387 7.40853 0.111548 -3.50343 6.05985 0.112522 
-3.21542 4.97023 0.111891 -2.8442 3.98075 0.113873 -2.38656 3.05478 0.107437 
-1.82597 2.16309 0.101702 -1.0734 1.23915 0.123018 2.87258 18.9566 -0.0234602 
2.6314 18.5309 -0.0199992 2.35339 18.0722 -0.0139221 2.08943 17.6312 -0.010615 
1.85399 17.2265 -0.00714201 1.61524 16.8062 -0.00190689 1.37763 16.3881 -0.00133092 
1.11371 15.9204 0.00149533 0.854985 15.4667 0.00254722 0.605937 15.0395 0.00578931 
0.335674 14.5903 0.00574087 0.0928598 14.2071 0.00161384 -0.160827 13.8491 -0.0108482 
2.78629 19.1657 -0.0465761 2.54783 18.8291 -0.0257846 2.2799 18.4107 -0.0165977 
2.03154 18.0032 -0.0106621 1.79083 17.5904 -0.00700388 1.53845 17.1471 -0.00442429 
1.30046 16.7304 0.000142982 1.0656 16.3133 0.00059978 0.810135 15.8652 0.00201499 
0.528492 15.3813 0.00473234 0.270267 14.9448 0.00204543 0.0241514 14.5431 0.00577313 
-0.238756 14.0998 0.00473939 4.05759 31.0506 -0.201957 3.75053 31.0797 -0.19802 
3.43492 31.108 -0.193973 3.15448 31.0922 -0.190524 2.8622 31.117 -0.186934 
2.57667 31.1485 -0.183588 2.27273 31.1648 -0.180275 1.98323 31.1763 -0.1774 
1.68283 31.1931 -0.174655 1.39434 31.2345 -0.17219 1.10076 31.2717 -0.169886 
0.809492 31.3081 -0.167775 0.519685 31.3494 -0.165804 0.216037 31.4009 -0.163822 
-0.0717648 31.4542 -0.161994 -0.369735 31.5032 -0.160136 -0.644487 31.549 -0.158441 
-0.939272 31.6051 -0.156574 -1.23514 31.6501 -0.154693 -1.51833 31.6841 -0.152868 
-1.81274 31.7136 -0.150957 -2.09886 31.7459 -0.149065 -2.3797 31.7849 -0.14717 
-2.65462 31.816 -0.145319 -2.91756 31.8163 -0.143613 -3.18015 31.8238 -0.141906 
-3.44449 31.9965 -0.139846 1.05589 1.09704 -0.11652 1.70092 2.01489 -0.102005 
2.1415 2.76582 -0.104026 2.49326 3.49329 -0.110022 2.75992 4.16436 -0.117022 
2.9869 4.85338 -0.124479 3.16775 5.54858 -0.132121 3.30363 6.2045 -0.139159 
3.42302 6.83251 -0.145296 3.51174 7.49919 -0.152136 3.57316 8.16405 -0.158757 
3.62037 8.80315 -0.164797 3.6508 9.43682 -0.170568 3.66735 10.0857 -0.176226 
3.67641 10.7084 -0.181392 3.67799 11.3793 -0.186621 3.68166 12.0136 -0.191315 
3.68845 12.6846 -0.195987 3.68569 13.3719 -0.200357 3.70392 14.0766 -0.204591 
3.71613 14.7333 -0.20802 3.75003 15.4337 -0.211526 3.8005 16.1374 -0.214752 
3.85621 16.8183 -0.217387 3.92552 17.4961 -0.219609 4.01605 18.1977 -0.221513 
4.11579 18.8627 -0.222815 4.22509 19.5155 -0.223706 4.33601 20.1767 -0.224023 
4.44064 20.8494 -0.223859 4.50314 21.4819 -0.223482 4.54899 22.1573 -0.222864 
4.58418 22.8147 -0.222107 4.58485 23.5255 -0.221299 4.5651 24.1939 -0.220501 
4.53271 24.8974 -0.219497 4.49582 25.5805 -0.21832 4.45048 26.2935 -0.216901 
4.41451 27.024 -0.215411 4.37424 27.7184 -0.213741 4.33958 28.4105 -0.212001 
4.30597 29.1487 -0.209964 4.27355 29.8446 -0.20786 4.25238 30.4942 -0.205908 
-3.22674 30.1536 -0.145104 -3.12847 28.9401 -0.148222 -3.02176 27.4993 -0.151704 
-2.92266 25.9538 -0.155066 -2.75953 24.1958 -0.15858 -2.56673 20.1283 -0.162303 
-2.63871 17.9984 -0.161043 -2.79263 16.0156 -0.157698 -2.98053 14.0894 -0.152659 
-3.15762 12.2718 -0.146673 -3.26653 10.5686 -0.140214 -3.28722 8.78858 -0.133565 
-3.17661 7.21968 -0.12932 -2.96785 5.79559 -0.127602 -2.63754 4.44035 -0.129753 
-1.69206 2.07134 -0.154631 -1.08661 1.15611 -0.199181 -0.504449 0.545135 -0.187944 
-0.417574 0.484339 -0.168302 -0.366776 0.469577 -0.160223 -0.336863 0.479888 -0.167656 
-0.29738 0.50157 -0.180491 -0.252381 0.506341 -0.182149 -0.202284 0.499985 -0.171812 
-0.174909 0.507474 -0.163395 -0.146333 0.490492 -0.169615 -0.104466 0.493922 -0.180337 
-0.0640421 0.491048 -0.178703 -0.0221158 0.479917 -0.170558 0.000263969 0.496985 -0.164963 
0.0193758 0.495544 -0.176284 0.0611385 0.497865 -0.181542 0.099809 0.50111 -0.185524 
0.138357 0.498581 -0.187758 0.177004 0.498119 -0.181525 0.194979 0.499099 -0.185379 
0.237409 0.49438 -0.184567 0.275997 0.486166 -0.183204 0.320463 0.48446 -0.181732 
0.3891 0.497773 -0.167134 0.450403 0.523653 -0.158372 0.502804 0.508569 -0.146238 
2.44127 19.9683 -0.21706 2.34981 19.3698 -0.191342 2.16388 18.8548 -0.182547 
1.93392 18.3483 -0.178546 1.69229 17.8244 -0.175484 1.4359 17.2979 -0.17254 
1.19024 16.7778 -0.169646 0.932113 16.306 -0.167292 0.675217 15.7942 -0.164767 
0.409094 15.2636 -0.161507 0.145657 14.7398 -0.157885 -0.0962125 14.2146 -0.154232 
-0.331069 13.5991 -0.156332 -0.508631 12.7408 -0.240917 2.96992 19.4505 -0.191777 
2.74007 18.8764 -0.180223 2.51144 18.4148 -0.176472 2.26597 17.9268 -0.176252 
2.02099 17.4552 -0.17566 1.79612 17.005 -0.174831 1.55107 16.5221 -0.17269 
1.31119 16.052 -0.170266 1.08295 15.5871 -0.168853 0.849946 15.1017 -0.167344 
0.635599 14.6253 -0.164371 0.431074 14.1182 -0.162967 0.251484 13.568 -0.172681 
0.172906 12.9466 -0.202518 3.16908 20.3641 -0.269223 -3.33179 31.1828 -0.142277 
-2.59349 22.205 -0.161388 -2.10385 3.05366 -0.140106 2.46 20.5236 -0.239936 
-0.62409 12.8382 -0.187829 0.0142413 12.3452 -0.222278 3.26548 20.1914 -0.224687 
2.77017 20.8699 -0.243677 3.63656 30.5014 -0.198059 3.3305 30.4621 -0.194376 
3.05391 30.4506 -0.19108 2.76991 30.4514 -0.187806 2.46844 30.4482 -0.184528 
2.16797 30.4728 -0.181392 1.86617 30.4964 -0.178452 1.56982 30.4954 -0.175878 
1.27973 30.5469 -0.173379 0.984098 30.5945 -0.171021 0.699915 30.633 -0.168916 
0.405702 30.6677 -0.166865 0.105046 30.7319 -0.164783 -0.189856 30.7669 -0.162861 
-0.473855 30.8436 -0.16094 -0.751193 30.8971 -0.159134 -1.06237 30.9305 -0.157148 
-1.34338 30.9417 -0.15538 -1.62739 30.9884 -0.153511 -1.93141 31.0258 -0.151517 
-2.21074 31.0838 -0.149627 -2.48354 31.109 -0.147836 -2.73958 31.1645 -0.146086 
-2.8523 29.5564 -0.148639 1.69836 2.15656 -0.117668 2.04035 2.84106 -0.122118 
2.34778 3.56685 -0.126661 2.58609 4.25579 -0.132 2.80275 5.00844 -0.137656 
2.97271 5.73453 -0.143279 3.10349 6.41154 -0.148617 3.20155 7.05981 -0.153833 
3.28071 7.73961 -0.159363 3.34221 8.42836 -0.164762 3.36909 9.05077 -0.169654 
3.39307 9.6911 -0.174458 3.41088 10.3368 -0.179082 3.42288 11.0218 -0.183755 
3.42062 11.6641 -0.187797 3.41879 12.3222 -0.191671 3.41754 13.0227 -0.195545 
3.41633 13.7168 -0.198997 3.43533 14.3971 -0.202226 3.46689 15.0501 -0.205119 
3.51274 15.7516 -0.208027 3.56927 16.4193 -0.210644 3.63427 17.1164 -0.212945 
3.71396 17.8067 -0.215043 3.8095 18.494 -0.217041 3.91438 19.1445 -0.218956 
4.04695 19.7746 -0.220935 4.1701 20.4318 -0.222383 4.22583 21.0921 -0.222857 
4.26393 21.7144 -0.222893 4.31712 22.4163 -0.222192 4.33219 23.1174 -0.220954 
4.31516 23.8015 -0.219523 4.28115 24.5169 -0.217932 4.23963 25.2176 -0.216312 
4.19017 25.9397 -0.214544 4.1432 26.6907 -0.212665 4.10991 27.415 -0.210916 
4.0915 28.0886 -0.209409 4.06361 28.8319 -0.207481 4.04517 29.5494 -0.205597 
3.97878 30.3686 -0.202707 1.11699 1.31069 -0.12869 -2.70529 28.2012 -0.152203 
-2.5372 26.7231 -0.155869 -2.42252 25.2936 -0.158789 3.28859 19.8307 -0.21109 
-0.697145 11.9445 -0.193986 -2.08919 16.8963 -0.161883 -2.28693 15.0012 -0.158847 
-2.51365 13.2312 -0.155161 -2.66622 11.5067 -0.150795 -2.73747 9.82612 -0.145914 
-2.68448 8.09536 -0.141616 -2.52742 6.52958 -0.139312 -2.31036 5.13165 -0.139057 
-1.88398 21.0572 -0.164917 2.12155 20.9157 -0.214772 -0.324504 11.557 -0.203006 
-0.786753 1.02056 -0.159146 -0.756894 1.09564 -0.160213 -0.665035 1.09276 -0.162158 
-0.577063 1.11128 -0.165909 -0.501897 1.1402 -0.164867 -0.4076 1.12031 -0.163291 
-0.324081 1.10902 -0.163934 -0.249216 1.0916 -0.16557 -0.176715 1.09018 -0.169179 
-0.101473 1.08854 -0.167274 -0.0344472 1.08027 -0.167843 0.0282042 1.08178 -0.169236 
0.0930171 1.0707 -0.171454 0.165821 1.09326 -0.176325 0.23814 1.09717 -0.177963 
0.314315 1.0948 -0.177752 0.385792 1.09133 -0.177532 0.46728 1.09668 -0.175181 
0.544258 1.0769 -0.172614 0.626165 1.07378 -0.168219 0.708128 1.05873 -0.160759 
0.866451 1.13717 -0.147244 1.92459 19.6917 -0.188891 2.03513 20.3036 -0.201324 
1.5429 18.6334 -0.177354 1.31684 18.0623 -0.173596 1.10092 17.4907 -0.17031 
0.869255 16.9731 -0.167673 0.614063 16.4598 -0.165242 0.366823 15.9045 -0.162521 
0.113942 15.2895 -0.159481 -0.125286 14.682 -0.157788 -0.371089 13.9936 -0.160682 
-0.634944 13.1923 -0.172277 -2.99811 30.8654 -0.145058 0.456266 11.8399 -0.200015 
2.73673 18.4725 -0.185805 2.50005 17.9107 -0.181043 2.27799 17.3848 -0.178893 
2.06291 16.8877 -0.176848 1.8405 16.3899 -0.175073 1.61272 15.8994 -0.173109 
1.40148 15.4017 -0.171458 1.19499 14.8991 -0.17006 0.997466 14.3778 -0.169249 
0.823555 13.8279 -0.170082 0.685845 13.2154 -0.175371 0.585324 12.5282 -0.188115 
-1.99229 23.7214 -0.163041 -1.98158 3.80887 -0.141877 -1.91838 19.0283 -0.164263 
-1.03631 1.22873 -0.168638 1.74699 19.1524 -0.18168 3.00135 19.1042 -0.196689 
3.39222 21.0229 -0.230933 3.53901 20.632 -0.223114 -1.34794 1.88149 -0.151651 
-0.870223 12.3314 -0.181862 2.32839 21.5212 -0.22025 -1.50451 2.63394 -0.148814 
3.10209 21.5355 -0.230581 0.195347 11.0936 -0.194383 3.24899 29.7633 -0.195209 
2.97613 29.7386 -0.192111 2.67557 29.7261 -0.188799 2.36981 29.7055 -0.185647 
2.05946 29.6929 -0.182627 1.74761 29.7191 -0.179686 1.4651 29.7531 -0.177157 
1.16987 29.8083 -0.174616 0.874073 29.8506 -0.172262 0.578284 29.8599 -0.170099 
0.28925 29.8921 -0.168016 -0.0169104 29.9505 -0.165837 -0.292153 30.0265 -0.163866 
-0.581006 30.1418 -0.161766 -0.877384 30.1599 -0.159847 -1.16924 30.1279 -0.158064 
-1.44717 30.1733 -0.156221 -1.75798 30.216 -0.154176 -2.05174 30.2903 -0.152179 
-2.32571 30.4422 -0.150153 3.53203 29.8188 -0.198484 -0.70971 13.7381 -0.166437 
3.80641 29.888 -0.201734 1.90047 2.94065 -0.137437 2.17547 3.68227 -0.140693 
2.39378 4.42111 -0.144646 2.59809 5.21037 -0.148661 2.75719 5.96323 -0.152856 
2.87201 6.63926 -0.156833 2.97331 7.32163 -0.160964 3.03532 7.99813 -0.165396 
3.07056 8.66351 -0.169747 3.10207 9.30448 -0.173708 3.13107 9.96393 -0.177646 
3.13855 10.6222 -0.181441 3.14138 11.3149 -0.185117 3.1405 11.9569 -0.188242 
3.13734 12.6429 -0.191332 3.13122 13.3673 -0.194271 3.14285 14.0466 -0.196863 
3.16752 14.7094 -0.199221 3.21002 15.3656 -0.201521 3.27614 16.0644 -0.204081 
3.3358 16.7532 -0.206187 3.40641 17.4108 -0.208164 3.49741 18.1201 -0.210442 
3.59541 18.8004 -0.212835 3.72013 19.4868 -0.216054 3.89137 20.0575 -0.219441 
3.96489 20.6329 -0.221432 3.90689 21.1393 -0.222697 4.01186 21.9305 -0.22276 
4.06909 22.6958 -0.221184 4.0672 23.401 -0.219167 4.01944 24.0801 -0.216987 
3.96 24.8155 -0.214641 3.89537 25.5625 -0.212311 3.84377 26.3319 -0.210093 
3.82158 27.1083 -0.208149 3.80772 27.8003 -0.206506 3.78668 28.5447 -0.204625 
3.79052 29.2487 -0.203067 3.01714 18.5851 -0.197821 3.35288 19.2429 -0.20855 
-2.43903 28.9231 -0.152427 -2.23005 27.5539 -0.156254 -1.98342 25.8346 -0.160537 
1.47987 2.04129 -0.135145 1.89039 21.9971 -0.205589 -1.86873 14.0753 -0.160966 
-1.26996 22.1415 -0.168025 -2.16626 9.02619 -0.15278 -2.06362 7.31431 -0.149734 
-1.91174 5.76894 -0.148032 -0.970025 11.3333 -0.179587 0.866401 11.5147 -0.18962 
1.51643 19.9561 -0.186632 -0.618007 10.8402 -0.18623 -2.07629 12.3837 -0.158819 
-1.06579 1.70551 -0.154618 -0.963312 1.78421 -0.157478 -0.828425 1.80871 -0.159685 
-0.710388 1.84685 -0.160549 -0.568162 1.82252 -0.16177 -0.434063 1.77372 -0.163347 
-0.322694 1.76059 -0.165221 -0.214793 1.77791 -0.166626 -0.109253 1.76925 -0.167391 
-0.00739998 1.71702 -0.168689 0.0907815 1.70685 -0.170671 0.198767 1.76135 -0.173328 
0.310348 1.79404 -0.175183 0.427935 1.80081 -0.17634 0.545033 1.79042 -0.17594 
0.670093 1.80118 -0.174118 0.789589 1.78728 -0.170793 0.90979 1.75296 -0.165452 
1.01187 1.70338 -0.158845 1.10743 1.64076 -0.14949 0.778197 17.6733 -0.170414 
1.14871 18.8616 -0.177058 0.511092 17.2528 -0.16833 0.278424 16.6117 -0.165657 
0.0593718 15.9405 -0.163033 -0.198465 15.2443 -0.161518 -0.450875 14.5761 -0.16225 
-0.969127 12.8554 -0.171872 0.674625 10.7025 -0.18975 2.66381 22.2169 -0.218603 
2.55865 17.3549 -0.186342 2.35215 16.792 -0.183382 2.13961 16.2637 -0.180785 
1.93314 15.7555 -0.178584 1.73194 15.2264 -0.176799 1.5375 14.7295 -0.175338 
1.35807 14.1985 -0.17463 1.1987 13.6284 -0.17532 1.08683 12.9761 -0.178442 
0.990211 12.2461 -0.184282 -1.72078 4.41014 -0.148018 1.32593 19.4476 -0.181343 
-1.60162 15.7801 -0.162686 -2.18035 10.7919 -0.156199 0.944333 18.2586 -0.173434 
3.67936 21.473 -0.224723 -0.148906 10.3087 -0.186266 2.75532 17.948 -0.18994 
-2.60106 30.226 -0.148849 1.75315 21.2566 -0.201701 -1.39596 17.6792 -0.16507 
-1.16656 19.9413 -0.167902 2.15639 22.7558 -0.207243 -1.19604 11.8982 -0.173883 
3.41553 21.969 -0.224577 1.66372 20.5569 -0.194105 0.382472 9.85575 -0.185529 
-1.30371 24.7587 -0.166133 3.63622 20.1377 -0.217617 2.91046 28.8997 -0.193586 
2.60308 28.8864 -0.190312 2.27306 28.8259 -0.187139 1.96777 28.7243 -0.184478 
1.656 28.7589 -0.181567 1.36537 28.8779 -0.178751 1.05893 28.9531 -0.176065 
0.765212 28.9884 -0.173697 0.463098 29.0262 -0.171349 0.160363 29.038 -0.169146 
-0.140746 29.126 -0.166863 -0.422257 29.2321 -0.164725 -0.697124 29.4392 -0.162475 
-0.974347 29.2524 -0.161046 -1.27161 29.2448 -0.159137 -1.57221 29.4625 -0.156802 
-1.87413 29.3331 -0.155139 -2.23489 29.5808 -0.152408 -1.51966 8.30978 -0.160702 
-1.67404 26.9814 -0.160651 2.71 16.7651 -0.191982 1.75646 3.11042 -0.149668 
1.99168 3.86158 -0.151906 2.19211 4.63809 -0.154638 2.37185 5.45958 -0.157733 
2.51332 6.25128 -0.161019 2.62247 6.95361 -0.164045 2.75014 7.60112 -0.166497 
2.73724 8.22124 -0.170451 2.77691 8.89502 -0.173795 2.80846 9.56972 -0.177031 
2.8384 10.2343 -0.180091 2.85029 10.9269 -0.183064 2.84093 11.5697 -0.185541 
2.83399 12.2807 -0.187972 2.83038 13.0086 -0.190176 2.83317 13.7244 -0.192126 
2.84327 14.3959 -0.19372 2.88437 15.0413 -0.195365 2.96349 15.707 -0.197536 
3.02715 16.4155 -0.199316 3.09119 17.0755 -0.200917 3.18775 17.711 -0.203059 
3.28475 18.4419 -0.205587 3.82928 22.9806 -0.219488 3.73975 23.6131 -0.216551 
3.66453 24.3349 -0.213563 3.59118 25.1267 -0.210566 3.50854 25.9327 -0.207626 
3.47728 26.7544 -0.205214 3.48931 27.5294 -0.203447 3.4899 28.3292 -0.20158 
1.31176 20.7259 -0.188924 1.44945 2.3292 -0.148494 1.67199 23.14 -0.197719 
-1.10956 13.5377 -0.166475 0.118421 17.5287 -0.168714 -0.614903 21.2143 -0.171837 
1.39314 12.0847 -0.183171 -1.42633 6.43929 -0.157114 -0.948601 10.1653 -0.175688 
-1.5758 13.1118 -0.163764 -2.00231 28.4591 -0.156 1.14216 10.4834 -0.185886 
0.00733624 8.95617 -0.179378 -1.17775 2.44756 -0.154434 -1.05995 2.61971 -0.15622 
-0.878026 2.66439 -0.158703 -0.670626 2.53634 -0.161254 -0.49743 2.44143 -0.163384 
-0.359466 2.49649 -0.16512 -0.219033 2.57062 -0.166823 -0.0724761 2.50455 -0.168556 
0.0500749 2.30986 -0.170139 0.182874 2.50953 -0.171961 0.33759 2.56962 -0.173725 
0.494738 2.57392 -0.174807 0.66172 2.57693 -0.174852 0.841081 2.60259 -0.173368 
1.0052 2.58416 -0.170267 1.16611 2.52311 -0.165186 1.3115 2.439 -0.158181 
-0.090746 16.6688 -0.165823 -0.267228 15.9115 -0.163903 -0.633253 15.3401 -0.163868 
-1.22582 14.703 -0.163598 0.92082 9.51631 -0.183637 -0.506229 9.51116 -0.177744 
3.04614 22.8421 -0.216811 2.50412 23.537 -0.206615 -0.817415 14.4087 -0.164438 
1.31062 11.3105 -0.18527 2.44946 16.1761 -0.187238 2.27343 15.5992 -0.184896 
2.07877 15.0925 -0.182353 1.88611 14.5739 -0.18049 1.71914 14.071 -0.179318 
1.56359 13.5069 -0.179064 1.46613 12.8308 -0.180605 3.20605 28.9991 -0.196667 
3.50481 29.0935 -0.199926 3.75497 22.2931 -0.222186 0.640714 8.44452 -0.180027 
1.47856 22.2667 -0.196622 -1.31861 10.83 -0.17075 1.09096 20.2995 -0.184088 
3.01514 18.0167 -0.19817 0.775133 18.9889 -0.175909 -0.449834 19.7131 -0.171358 
0.449125 18.3728 -0.172338 1.35617 21.4584 -0.193101 -0.951145 16.5075 -0.164957 
-1.27573 4.75236 -0.155962 -1.31563 12.5809 -0.16858 -0.400056 7.99091 -0.172528 
1.92163 24.075 -0.197994 -0.755906 18.292 -0.168033 -0.726065 23.0277 -0.171382 
0.900333 19.7005 -0.179501 -1.64646 11.6646 -0.16501 -1.48083 3.32485 -0.150423 
-1.73919 10.0809 -0.161778 2.86713 17.4172 -0.194957 2.84335 27.9853 -0.19526 
2.52679 28.0232 -0.191848 2.23642 27.705 -0.189854 1.89135 27.6389 -0.186756 
1.56056 27.768 -0.183406 1.25556 28.1026 -0.179905 0.974698 28.0008 -0.177859 
0.661031 28.0843 -0.175135 0.330526 28.1291 -0.17247 0.0211431 28.1623 -0.170109 
-0.290196 28.3233 -0.16755 -0.662404 28.4885 -0.164641 -1.07061 28.2571 -0.162325 
-1.50686 28.3241 -0.159356 1.37226 8.37306 -0.17924 1.7339 11.2561 -0.18375 
1.78298 4.05454 -0.160676 1.9595 4.92616 -0.163013 2.1301 5.80394 -0.16504 
2.25882 6.64152 -0.167631 2.38577 7.54426 -0.170594 2.39151 8.45995 -0.174701 
2.49849 9.18084 -0.176989 2.46772 9.87067 -0.179745 2.56321 10.5415 -0.1818 
2.51231 11.1875 -0.183727 2.50045 11.8974 -0.185379 2.51042 12.6304 -0.186849 
2.5139 13.393 -0.188064 2.52792 14.0907 -0.189047 2.50458 14.8525 -0.18923 
3.51136 22.8947 -0.218793 3.32804 23.7159 -0.213524 3.29723 24.5975 -0.209727 
3.13271 25.3946 -0.2056 3.08185 26.356 -0.20221 3.11444 27.2556 -0.200062 
0.013442 20.5633 -0.175536 -0.48059 16.3961 -0.165271 -0.850428 5.53405 -0.162726 
-0.925422 8.78018 -0.169701 -0.906825 7.19933 -0.165182 -1.07825 26.7242 -0.164954 
1.3762 24.4086 -0.19051 -0.388019 17.3771 -0.167374 -1.25324 3.58216 -0.154455 
-0.957894 3.52923 -0.158355 -0.692807 3.1595 -0.161696 -0.52974 3.14916 -0.163619 
-0.392372 3.46448 -0.165471 -0.155732 3.5055 -0.168158 0.0612787 3.179 -0.170389 
0.273033 3.46637 -0.172357 0.499982 3.43277 -0.173733 0.713053 3.38452 -0.174112 
0.956091 3.46733 -0.172972 1.17913 3.49571 -0.17045 1.3856 3.38436 -0.165806 
1.57622 3.23503 -0.158705 -0.154442 18.4503 -0.170246 1.44546 9.51527 -0.18218 
2.85574 24.3642 -0.206332 1.64274 10.3921 -0.183407 2.22987 25.103 -0.197415 
2.13876 13.847 -0.184378 1.88627 13.4518 -0.182117 3.16536 28.1426 -0.198363 
0.199284 7.37052 -0.175227 2.74539 16.089 -0.19335 0.944497 6.97041 -0.176628 
1.17662 23.3498 -0.19042 -1.29825 9.61769 -0.167933 2.6226 15.4934 -0.191117 
0.0736301 19.4043 -0.173519 0.962092 21.3244 -0.186346 -0.739468 4.12655 -0.161934 
-0.053828 22.2639 -0.176738 -0.48093 24.715 -0.172044 1.78352 12.082 -0.183288 
1.62922 25.3943 -0.190743 0.46978 19.7121 -0.176665 0.569504 20.8097 -0.180412 
2.2358 14.4865 -0.185288 1.83648 12.8109 -0.182579 0.377284 5.90959 -0.173802 
2.25237 26.5338 -0.193377 1.31744 26.8931 -0.183596 0.894535 26.9473 -0.179792 
0.540196 27.2603 -0.176106 0.223675 27.0804 -0.173958 -0.12624 27.2051 -0.171008 
-0.442543 27.5866 -0.167939 1.6991 5.28772 -0.169097 1.89629 6.17847 -0.170103 
1.93427 7.02196 -0.172798 1.52418 7.30954 -0.17598 1.957 8.09002 -0.176233 
2.03159 9.25064 -0.17956 2.13365 11.4745 -0.183802 2.67469 25.7553 -0.199893 
2.67452 27.0055 -0.196195 -0.396835 4.62249 -0.166572 -0.266531 6.21489 -0.169878 
1.03353 22.3246 -0.189117 0.0461328 4.50085 -0.170587 0.45682 4.58222 -0.173297 
0.703974 4.25075 -0.173808 0.956277 4.28149 -0.173502 1.30088 4.67266 -0.171678 
1.54385 4.29485 -0.167398 2.19184 13.0329 -0.184968 1.09339 25.6709 -0.184624 
-0.755617 27.4746 -0.165915 2.15008 10.5 -0.182261 2.16325 12.2726 -0.184482 
0.732691 24.6872 -0.18314 1.7806 26.5226 -0.188872 0.579634 26.1481 -0.178871 
0.0891443 25.7606 -0.175463 0.726055 23.3154 -0.184875 -0.445075 26.4424 -0.170027 
0.54131 22.2708 -0.182697 1.46672 6.05686 -0.17354 0.923197 5.40925 -0.174533 
0.203138 23.8933 -0.178822 4.10314 30.748 0.0628791 3.66955 31.0001 0.0684978 
3.30303 31.0503 0.072483 2.95721 30.9858 0.0757376 2.57589 30.9777 0.0793951 
2.19679 31.0008 0.0829679 1.80507 31.0446 0.0866349 1.4527 31.0672 0.0898217 
1.08697 31.1179 0.0931215 0.722559 31.1614 0.0963022 0.359915 31.2094 0.0994068 
-0.0162435 31.2652 0.102529 -0.399404 31.3164 0.105566 -0.749419 31.3723 0.108262 
-1.1137 31.4425 0.110993 -1.46013 31.4599 0.11335 -1.83062 31.5326 0.115924 
-2.19151 31.5728 0.118293 -2.5355 31.5794 0.120431 -2.87149 31.6203 0.122586 
-3.22013 31.7979 0.125096 0.886382 0.950821 0.230909 1.77934 2.17952 0.183827 
2.30272 3.13111 0.155021 2.68734 4.00115 0.135988 2.96017 4.83581 0.121401 
3.16326 5.62958 0.109909 3.32737 6.4459 0.0999894 3.43904 7.25055 0.0916972 
3.51928 8.05004 0.0844256 3.58621 8.83152 0.0779842 3.61788 9.64127 0.0721822 
3.63205 10.4652 0.0669878 3.63965 11.3201 0.0620843 3.64243 12.124 0.0578654 
3.63692 12.9898 0.0536883 3.64029 13.8293 0.049772 3.67189 14.6619 0.0457879 
3.70839 15.5327 0.0415831 3.76737 16.3976 0.0372367 3.84673 17.2203 0.0329404 
3.94791 18.0739 0.0284058 4.08464 18.8876 0.0241448 4.22958 19.7142 0.0203516 
4.36036 20.5465 0.0179385 4.46917 21.3513 0.0174746 4.53678 22.1635 0.0193534 
4.56057 22.9464 0.0228644 4.55346 23.7475 0.0272767 4.51508 24.5777 0.0324394 
4.47804 25.3839 0.0371335 4.42883 26.2274 0.041882 4.36377 27.1094 0.0465825 
4.31896 27.9541 0.0505344 4.25483 28.8576 0.0547061 4.19693 29.7412 0.0584506 
-3.3534 31.2514 0.124824 -3.32563 30.4924 0.123172 -3.17257 29.5752 0.120456 
-3.07773 28.327 0.117582 -3.04378 26.9886 0.115167 -2.62252 23.431 0.107113 
-2.56152 21.2336 0.104603 -2.5871 19.0622 0.103218 -2.67609 16.9796 0.102711 
-2.82012 14.9721 0.103075 -2.99403 13.2279 0.104374 -3.16315 11.556 0.106766 
-3.25883 9.95269 0.110592 -3.26116 8.25397 0.11547 -3.14422 6.68256 0.12032 
-2.92352 5.31808 0.124691 -2.54121 3.98522 0.130592 -1.62357 1.93138 0.137009 
-1.12138 1.15595 0.147821 -0.748606 0.804114 0.173538 -0.476795 0.556586 0.197786 
-0.496619 0.668747 0.182381 -0.415494 0.670046 0.180409 -0.319087 0.603485 0.177442 
-0.248947 0.559861 0.184068 -0.199291 0.578974 0.184818 -0.14395 0.593176 0.183935 
-0.099971 0.591887 0.177125 -0.0524504 0.589042 0.182423 -0.00288016 0.590577 0.181754 
0.0505591 0.590647 0.180332 0.0990206 0.598978 0.172872 0.146555 0.60917 0.170254 
0.185792 0.583107 0.174986 0.237846 0.561507 0.177819 0.288647 0.562875 0.17514 
0.322142 0.536507 0.178702 0.377153 0.541741 0.190693 0.52447 0.636145 0.206146 
2.47886 19.9891 0.0578044 2.38934 19.4356 0.0403319 2.21574 18.9065 0.0390971 
1.98576 18.4207 0.0420242 1.75673 17.9402 0.0447622 1.5315 17.4799 0.0475314 
1.3137 17.0068 0.0505558 1.07641 16.5421 0.0531028 0.8327 16.0603 0.0554351 
0.582967 15.5896 0.0577689 0.338345 15.1127 0.0600541 0.106734 14.6458 0.0617962 
-0.112336 14.195 0.0608091 -0.336106 13.6057 0.0632479 -0.532491 12.679 0.143003 
2.93273 19.3676 0.0227041 2.73287 18.8416 0.0276682 2.51621 18.3838 0.0325182 
2.28033 17.9331 0.0401574 2.0614 17.4897 0.0413008 1.82285 17.0196 0.045842 
1.58851 16.547 0.0487719 1.35365 16.1098 0.0512336 1.11885 15.6202 0.0535313 
0.873346 15.1181 0.0563404 0.641808 14.6306 0.0605568 0.420058 14.0933 0.0618834 
0.241122 13.5473 0.069866 0.129747 12.98 0.0896385 3.12051 20.3969 0.0958884 
-2.7201 25.5776 0.110577 -2.09792 2.86167 0.135428 -0.062281 12.3211 0.133513 
2.61038 20.5131 0.0894097 -0.637253 12.8319 0.101834 3.22455 20.1082 0.0423183 
3.50676 30.4201 0.0683948 3.83353 30.1254 0.0638351 2.85684 30.1437 0.0745168 
2.463 30.1351 0.0784901 2.05829 30.1378 0.0823978 1.66364 30.1681 0.0860785 
1.30437 30.1999 0.0893114 0.941282 30.2352 0.0924476 0.589692 30.3099 0.0954734 
0.202909 30.3447 0.0986004 -0.168551 30.3888 0.101523 -0.535519 30.4447 0.104367 
-0.882887 30.5041 0.107001 -1.26391 30.5743 0.10983 -1.60777 30.6201 0.112265 
-1.97061 30.6992 0.114857 -2.32666 30.6958 0.117171 -2.65826 30.6064 0.119121 
-3.01314 30.6992 0.121594 -1.96043 18.0038 0.0955642 2.25305 3.40911 0.144937 
1.83356 2.528 0.164123 1.23989 1.56095 0.189122 2.55872 4.24409 0.130184 
2.78543 5.06023 0.118075 2.95405 5.89193 0.107622 3.08328 6.71816 0.0988469 
3.19369 7.54232 0.0910417 3.26549 8.36147 0.084126 3.30899 9.18887 0.0778179 
3.32842 10.0238 0.0721536 3.33344 10.8645 0.0669775 3.34124 11.6721 0.062252 
3.33834 12.5527 0.0575427 3.33881 13.3915 0.0533249 3.34781 14.2196 0.0492529 
3.37588 15.069 0.0450208 3.42388 15.961 0.04062 3.48969 16.767 0.0366197 
3.58729 17.5973 0.0324821 3.71443 18.401 0.028748 3.86408 19.2118 0.0258127 
4.01146 20.0316 0.024162 4.1467 20.8737 0.0241843 4.21814 21.6587 0.0265406 
4.26668 22.4552 0.0292407 4.27558 23.2786 0.0326227 4.23551 24.114 0.0369494 
4.18938 24.9427 0.0410711 4.13574 25.8072 0.0451812 4.079 26.7078 0.0492582 
4.02908 27.5478 0.0528724 3.97209 28.4083 0.0565667 3.9099 29.2737 0.0601791 
-1.17557 1.53469 0.164751 -2.7496 29.2356 0.116965 -2.03136 24.2891 0.102726 
-2.6241 27.4429 0.112762 3.39093 20.7999 0.0546633 -1.91356 20.0398 0.0965504 
-1.71764 2.793 0.148289 -1.92073 22.107 0.098778 -2.04678 15.9402 0.0958713 
-2.25027 14.0569 0.0988648 -2.47835 12.3716 0.103362 -2.64612 10.7995 0.108854 
-2.6911 9.16446 0.115386 -2.64722 7.45505 0.122593 -2.48936 5.83988 0.12997 
-2.22365 4.34423 0.137815 0.400384 11.8803 0.101445 -0.41582 11.3897 0.123 
-0.951071 1.50247 0.166455 -0.708048 1.31023 0.164797 -0.550198 1.21301 0.166055 
-0.452865 1.23991 0.169208 -0.355252 1.28421 0.168715 -0.2591 1.30531 0.165415 
-0.154588 1.30357 0.164689 -0.0512172 1.28205 0.166385 0.0464121 1.25483 0.164812 
0.144411 1.2675 0.159306 0.244913 1.27261 0.155567 0.339512 1.27522 0.153661 
0.437887 1.25844 0.154145 0.544202 1.25201 0.155375 0.637644 1.2234 0.159409 
0.713563 1.1583 0.167791 0.898051 1.24921 0.180679 2.15955 20.9648 0.0671901 
-0.650749 13.2965 0.0850408 -0.777765 11.9589 0.113962 1.95397 19.7919 0.0470055 
1.78533 19.2729 0.0459496 1.60749 18.7443 0.0465927 1.40537 18.2026 0.0484439 
1.20748 17.7235 0.0507688 0.992982 17.2076 0.0532439 0.76507 16.6982 0.0556175 
0.527099 16.1842 0.0581601 0.303137 15.6833 0.0608601 0.0817912 15.1594 0.0636607 
-0.143378 14.6132 0.0666331 -0.384617 14.0279 0.0736364 3.22088 19.6795 0.0315427 
2.80589 21.3825 0.0778603 2.97027 18.963 0.0287627 2.3266 17.4104 0.0389339 
2.11733 16.9179 0.0417394 1.89258 16.3832 0.0447353 1.67648 15.8889 0.0477072 
1.45788 15.3911 0.0508037 1.22529 14.8849 0.0541411 1.0155 14.3431 0.0582297 
0.822386 13.7697 0.0634167 0.668167 13.1649 0.0703698 0.550448 12.5381 0.0820511 
3.20751 30.2528 0.0711177 2.05723 20.4145 0.0546184 2.75216 18.4226 0.0317906 
2.53089 17.9029 0.0358492 3.27212 21.5857 0.063205 -2.15299 26.3645 0.107199 
3.52542 20.5095 0.038172 0.124926 11.1908 0.115089 2.35957 21.445 0.0768782 
-0.905169 12.4718 0.0989973 -1.48428 25.1902 0.0993992 1.91142 29.223 0.0818633 
2.74056 29.257 0.0735983 1.53399 29.2656 0.0853435 1.16402 29.3094 0.0885862 
0.809553 29.3616 0.0915673 0.426817 29.3895 0.0946055 0.056155 29.4144 0.0974573 
-0.323051 29.4593 0.100364 -0.672935 29.5196 0.103055 -1.03857 29.5928 0.105854 
-1.41136 29.6551 0.108624 -1.76912 29.7215 0.111261 -2.09392 29.8929 0.113862 
-2.39578 29.5564 0.115194 -1.42541 14.991 0.0903186 -1.32963 18.9356 0.0889996 
3.54619 29.6822 0.0657 3.07074 18.427 0.0317611 2.18697 3.7196 0.13702 
1.44131 2.1095 0.165735 2.72108 6.17921 0.105628 2.83754 7.00163 0.0977892 
2.9293 7.86605 0.0903331 2.9904 8.71378 0.0836359 3.02679 9.56158 0.0775186 
3.03949 10.4204 0.071875 3.0449 11.2312 0.0668396 3.04025 12.0699 0.0619621 
3.02806 12.9626 0.0571472 3.01901 13.8056 0.0528389 3.02977 14.6328 0.0486716 
3.07466 15.4859 0.0443283 3.13769 16.3734 0.039999 3.21973 17.1565 0.0362166 
3.33829 17.9864 0.0323154 3.4739 18.7558 0.0297285 3.66308 19.5367 0.0282415 
3.79972 20.3559 0.0293307 3.89707 21.1467 0.0328331 3.96039 21.9576 0.036195 
3.97484 22.7321 0.0390711 3.93558 23.6014 0.0427254 3.86773 24.4467 0.0464042 
3.81341 25.3474 0.0497163 3.74669 26.2624 0.0532121 3.71226 27.1513 0.056164 
3.69718 27.9795 0.0587523 2.55654 5.28887 0.115302 -2.28809 28.1387 0.111566 
3.63506 21.3856 0.0439572 -1.36189 16.8953 0.0884681 -2.11066 8.31372 0.121314 
-2.13519 9.95275 0.113033 -2.07441 11.5236 0.105348 -2.04266 6.53933 0.129712 
-0.855568 10.8555 0.115323 2.33144 29.2003 0.0777353 -0.873498 1.8791 0.160423 
-0.622321 2.04319 0.160267 -0.479785 2.1191 0.159248 -0.325034 2.11885 0.158274 
-0.158958 2.09145 0.157591 -0.00521435 2.06298 0.15611 0.145117 2.03922 0.153439 
0.292872 2.04528 0.150007 0.449452 2.06423 0.147116 0.601372 2.08418 0.145629 
0.775859 2.1033 0.145579 0.930971 2.04946 0.148367 1.04384 1.9403 0.153944 
-1.18903 2.26323 0.157161 -1.00401 13.072 0.0917397 -0.132544 10.4157 0.116645 
1.40116 19.5705 0.0528504 1.22617 19.0362 0.0535441 1.0442 18.5 0.0549257 
0.848142 17.9599 0.0569465 0.63901 17.4048 0.0591184 0.422688 16.8613 0.0616469 
0.206524 16.3071 0.0642836 0.005899 15.7521 0.0672411 -0.211605 15.1747 0.0711899 
-0.456172 14.5795 0.0764482 -0.737759 13.8966 0.0834889 2.21652 16.2781 0.0443059 
2.42348 16.8537 0.0409293 1.82144 15.1904 0.0508888 1.59441 14.6756 0.054438 
1.39282 14.122 0.0585671 1.20729 13.5376 0.0634013 1.05375 12.9145 0.0693993 
0.929573 12.2466 0.0777633 0.581835 10.8023 0.102438 -1.79114 13.0407 0.0982172 
1.8516 2.9563 0.1494 0.795106 11.5389 0.0891166 2.35061 4.41478 0.126276 
-0.749932 1.93924 0.160589 -1.08275 11.5751 0.108114 1.5474 20.1217 0.0536896 
2.02673 15.6862 0.0477166 3.17582 29.3192 0.0689052 -1.77233 27.3145 0.106036 
-1.26921 20.8804 0.0902422 2.78256 17.945 0.034359 3.63163 28.8397 0.0621479 
2.87147 22.4577 0.0695162 -0.514466 10.0614 0.119353 1.98812 22.0099 0.0702434 
-1.27713 22.9685 0.093421 -1.87016 4.92986 0.138431 -1.59663 3.46465 0.147358 
-1.21296 12.2416 0.0996036 1.6881 21.4412 0.0635725 2.39365 22.3369 0.0728444 
1.11635 1.79045 0.16269 0.282855 10.0053 0.111893 3.48768 19.8573 0.0314502 
1.70113 20.626 0.0563935 3.28468 19.1405 0.0304333 2.61992 17.3917 0.0377341 
0.742464 9.5765 0.105031 1.55028 22.5945 0.0700621 1.76794 28.3019 0.0813229 
0.651712 28.3882 0.0905401 0.284305 28.4136 0.093323 -0.105893 28.4343 0.0962352 
-0.464695 28.4457 0.0988943 -0.820247 28.5793 0.101821 -1.21783 28.6691 0.104928 
-1.6018 28.6693 0.107706 -1.99957 28.8531 0.110959 -0.714076 19.7248 0.0822562 
-1.36648 12.8256 0.0959223 2.64617 8.22173 0.089728 2.55729 7.34106 0.0968102 
2.44989 6.44679 0.104491 2.69674 9.08961 0.0832351 2.71628 9.97391 0.0771757 
2.71904 10.7821 0.0719392 2.72438 11.6107 0.0667108 2.71992 12.5092 0.0614201 
2.68848 13.3962 0.0566336 2.65845 14.245 0.0523722 2.69862 15.0874 0.0479518 
2.78591 15.937 0.0435085 2.82347 16.7866 0.0395992 3.65989 22.2094 0.0474657 
3.68493 23.0323 0.0481813 3.4927 23.7961 0.0537852 3.46842 24.8434 0.0552047 
3.38773 25.8268 0.0580286 3.35107 26.7499 0.0604122 3.34843 27.6111 0.062423 
3.31896 22.7422 0.0580424 2.32932 5.59386 0.11249 -0.566312 3.04274 0.151663 
1.39576 28.3172 0.0845671 -0.72818 16.119 0.0806238 -1.54366 9.28528 0.117884 
1.04626 19.8013 0.0588052 -1.38149 11.3983 0.10639 -1.54228 7.31878 0.127168 
-1.69837 10.7444 0.10948 1.11226 20.5162 0.0606696 -0.329567 2.98705 0.150863 
-1.26686 10.5429 0.112626 -0.790373 3.05928 0.152071 -0.122347 2.96578 0.14934 
0.0883875 2.89877 0.147315 0.287307 2.8797 0.144603 0.495649 2.91306 0.141489 
0.703387 2.96743 0.13893 0.930088 3.00027 0.137485 1.1652 2.97182 0.138132 
1.37604 2.8569 0.141914 -1.20849 13.7965 0.0904505 -0.0977675 9.27511 0.117214 
-1.13228 2.71734 0.154196 0.838972 19.3573 0.0603012 0.643232 18.8003 0.0617906 
0.475032 18.1886 0.0633228 0.292289 17.5361 0.065123 0.0574718 16.9958 0.0682171 
-0.185633 16.4326 0.071764 -0.301129 15.7869 0.0736599 -0.52367 15.2525 0.0776379 
-0.869823 14.7698 0.0838919 1.79255 13.9159 0.0581812 1.95831 14.5198 0.0540134 
1.4188 12.767 0.0678968 1.2945 12.0878 0.074564 -0.820154 17.9113 0.0818919 
1.59861 13.3482 0.0626754 2.53668 16.2866 0.0429872 1.02961 28.3926 0.0876704 
2.97061 17.5909 0.0355019 2.19266 28.229 0.077167 1.48826 2.59395 0.149855 
-0.60861 21.65 0.0839785 1.87116 3.57935 0.135894 -1.05099 26.3061 0.0981684 
-1.61212 11.9776 0.101903 1.20443 11.3009 0.0829027 2.97816 23.483 0.0638174 
3.36641 28.418 0.0642336 2.12763 4.6132 0.122932 1.19347 22.0528 0.0680151 
1.94381 23.1887 0.0727736 -0.632523 23.9625 0.0891949 -1.26357 3.85242 0.146154 
2.60184 28.2041 0.072804 1.32399 21.1069 0.0618988 2.41762 15.6116 0.0466859 
-0.917941 2.72292 0.154453 2.45735 23.4211 0.0704109 3.02295 28.3649 0.0682981 
0.378882 8.73525 0.113522 1.04001 10.4499 0.0934367 -1.45569 5.5173 0.136344 
2.26828 14.867 0.0509274 0.526588 27.0822 0.0883219 -0.628267 27.3119 0.097309 
-1.00184 27.6911 0.101023 2.38313 9.51492 0.0829029 2.27757 7.73553 0.0959791 
-0.0436779 20.2769 0.0745081 0.825033 21.5258 0.0679406 0.916385 8.2112 0.108275 
2.35494 8.62874 0.0891645 2.16067 6.78993 0.103543 2.36909 10.3699 0.0773172 
2.36874 11.1892 0.07189 2.3942 12.0208 0.0663703 2.37511 12.9487 0.0608453 
2.26723 13.8698 0.0562191 3.11614 24.3567 0.0611463 3.00256 25.2943 0.0630886 
2.93509 26.3667 0.0654598 2.94819 27.3455 0.0670373 1.11479 23.1388 0.0732843 
1.64849 27.2873 0.0803665 -0.304293 4.05025 0.142455 1.22894 9.27119 0.0978611 
-0.564231 3.95967 0.144638 -1.01485 8.01873 0.124377 -0.978477 9.5587 0.119088 
0.608336 20.5476 0.0669517 -0.0455236 3.96194 0.140833 -0.909418 4.34269 0.142812 
2.04647 5.88684 0.110914 0.221993 3.86462 0.138645 0.468076 3.81991 0.13623 
0.729807 3.8651 0.133152 1.00506 4.00599 0.129916 1.32334 4.05609 0.128173 
1.65909 4.01601 0.128678 -0.0260394 7.88468 0.120217 -0.517616 8.63013 0.121263 
-0.235428 27.2865 0.0942888 0.120038 27.444 0.0921106 0.203839 19.0501 0.0686786 
0.130107 18.2795 0.0688109 -0.063811 17.6879 0.0710981 -0.379072 17.2472 0.0754821 
-1.01907 6.24242 0.131999 1.62521 12.0727 0.0715735 1.78856 12.6117 0.0665223 
-1.36798 27.7093 0.10381 0.128627 22.0769 0.0768745 0.52374 7.29129 0.117412 
2.03014 27.3851 0.0772297 0.648033 22.8757 0.0748416 1.44612 23.8574 0.0747563 
1.96655 5.0121 0.118774 1.5351 10.2947 0.0864037 -0.391912 25.8899 0.0919005 
2.47743 27.0419 0.0720385 0.881366 27.4872 0.0867456 1.60745 11.2882 0.0777644 
0.444986 19.6718 0.0666706 1.99436 13.2225 0.0613423 -0.290089 18.6516 0.0753914 
2.63415 24.4873 0.0677277 1.25527 27.3188 0.0835495 1.12528 6.55615 0.113999 
1.98566 10.7832 0.077804 2.00506 9.91266 0.0837043 1.95233 24.732 0.0739528 
0.388996 4.96093 0.130329 1.51511 26.0997 0.0791089 1.66681 6.27888 0.11046 
0.658522 4.7224 0.12891 0.968342 5.07048 0.123852 1.31837 5.20036 0.1203 
1.66767 5.06896 0.119062 0.125075 26.194 0.088864 1.46905 7.77328 0.103324 
2.1111 12.4757 0.0652882 0.148033 6.23181 0.125692 1.89139 7.28094 0.102229 
-0.219336 5.22557 0.134167 0.0948755 4.87757 0.133518 1.99087 11.7133 0.071207 
2.08139 9.0754 0.0886211 0.632792 25.5304 0.0836436 -0.4723 6.85534 0.127016 
-0.610735 5.12427 0.136791 2.48185 25.7062 0.0700947 0.829189 24.1848 0.0784369 
0.996885 26.3646 0.0832854 1.67629 9.10805 0.0927874 1.94791 8.23282 0.0955895 
0.657509 5.94279 0.122466 0.143958 24.3355 0.0834986 2.0207 26.2623 0.0753339 
1.21586 25.0964 0.0788824 0 0 0 0 0 0 
0 0 0 0 0 0 0 0 0 
0 0 0 0 0 0 0 0 0 
0 0 0 0 0 0 0 0 0 
0 0 0 0 0 0 0 0 0 
0 0 0 0 0 0 0 0 0 
0 0 0 0 0 0 0 0 0 
0 0 0 0 0 0 0 0 0 
0 0 0 0 0 0 0 0 0 
0 0 0 0 0 0 0 0 0 
0 0 0 0 0 0 0 0 0 
0 0 0 0 0 0 0 0 0 
0 0 0 0 0 0 0 0 0 
0 0 0 0 0 0 0 0 0 
0 0 0 0 0 0 0 0 0 
0 0 0 0 0 0 0 0 0 
0 0 0 0 0 0 0 0 0 
0 0 0 0 0 0 4.27253 31.6281 -0.202998 
3.97287 31.6605 -0.199328 3.68865 31.6894 -0.195697 3.39479 31.7171 -0.191863 
3.10662 31.7428 -0.18809 2.82818 31.7672 -0.184568 2.5392 31.7932 -0.181101 
2.2399 31.8218 -0.177764 1.94345 31.8524 -0.174732 1.65487 31.8848 -0.172116 
1.37071 31.9194 -0.169795 1.0667 31.959 -0.167517 0.768445 32.0003 -0.165499 
0.480417 32.0417 -0.163681 0.18223 32.0856 -0.161899 -0.105642 32.1283 -0.160228 
-0.399608 32.1715 -0.15853 -0.683838 32.2125 -0.156872 -0.962812 32.2515 -0.155201 
-1.26869 32.2926 -0.153284 -1.5621 32.3304 -0.151395 -1.84352 32.365 -0.14955 
-2.12911 32.3989 -0.147625 -2.41117 32.4312 -0.145702 -2.68981 32.4626 -0.143784 
-2.96505 32.4932 -0.141894 -3.25277 32.5253 -0.139954 -3.53276 32.5568 -0.138109 
0.661565 0.499657 -0.192179 1.44039 1.6672 -0.0726202 1.99844 2.42869 -0.0775895 
2.40849 3.10746 -0.0850471 2.74446 3.77138 -0.0948493 3.02176 4.43406 -0.105078 
3.24556 5.08828 -0.114885 3.42192 5.72479 -0.123935 3.5546 6.31768 -0.131841 
3.66796 6.9557 -0.140075 3.75739 7.61158 -0.148173 3.82027 8.22781 -0.155427 
3.86625 8.84869 -0.162387 3.89866 9.4898 -0.169225 3.91875 10.1219 -0.175598 
3.92989 10.745 -0.181591 3.93537 11.3898 -0.187475 3.93766 12.041 -0.193086 
3.93971 12.6986 -0.1984 3.94437 13.3621 -0.203383 3.95505 14.0624 -0.208174 
3.9744 14.7669 -0.212534 4.00397 15.458 -0.216385 4.04703 16.1661 -0.219952 
4.10437 16.8733 -0.222974 4.17485 17.5614 -0.225315 4.26127 18.2599 -0.226894 
4.36003 18.9496 -0.227621 4.46154 19.5972 -0.227395 4.56592 20.2475 -0.226347 
4.66386 20.8998 -0.224924 4.74483 21.5574 -0.223812 4.80013 22.2125 -0.222913 
4.82841 22.8869 -0.222408 4.83147 23.5573 -0.222311 4.81608 24.2259 -0.222254 
4.78803 24.9078 -0.221919 4.75286 25.586 -0.221193 4.71435 26.2583 -0.220122 
4.67301 26.9547 -0.21884 4.63054 27.6742 -0.217265 4.59002 28.3827 -0.21547 
4.55044 29.1116 -0.213378 4.51322 29.8434 -0.211112 4.48006 30.5434 -0.208745 
4.44864 31.2437 -0.206258 -3.64743 32.1884 -0.138148 -3.60642 31.2883 -0.140299 
-3.55729 30.2208 -0.14291 -3.50221 29.0182 -0.145832 -3.43923 27.5956 -0.149179 
-3.37301 25.9676 -0.152767 -3.3142 24.2326 -0.156053 -3.271 22.2533 -0.158915 
-3.26722 20.1323 -0.16055 -3.32281 17.9995 -0.159441 -3.44197 15.8945 -0.154965 
-3.59509 13.9577 -0.148084 -3.74196 12.135 -0.139839 -3.83661 10.2879 -0.130537 
-3.8191 8.56729 -0.122425 -3.68581 7.10753 -0.11751 -3.44052 5.7875 -0.115825 
-3.0845 4.59279 -0.118141 -2.64211 3.54649 -0.127579 -2.13397 2.63288 -0.14765 
-1.48131 1.69958 -0.195518 -0.585524 0.643722 -0.311433 2.9467 19.1398 -0.145567 
2.7294 18.7125 -0.129857 2.45749 18.254 -0.126808 2.18967 17.8026 -0.126896 
1.90775 17.3199 -0.125456 1.63257 16.842 -0.121703 1.37041 16.376 -0.120779 
1.10106 15.8986 -0.118178 0.833314 15.4299 -0.114816 0.555672 14.9557 -0.111749 
0.264106 14.4838 -0.104184 -0.0215798 14.0532 -0.0972463 -0.275139 13.7003 -0.0875882 
-0.395351 13.6566 -0.116302 2.89637 19.3139 -0.11409 2.67911 19.0207 -0.120323 
2.426 18.645 -0.123994 2.16071 18.2212 -0.12491 1.8968 17.7764 -0.12387 
1.64315 17.3387 -0.122895 1.39511 16.9022 -0.12168 1.13596 16.4438 -0.119394 
0.884017 16.0011 -0.117513 0.641164 15.5775 -0.113566 0.385767 15.1467 -0.111512 
0.136504 14.7325 -0.109066 -0.105559 14.3224 -0.10716 -0.318714 13.8903 -0.114029 
3.01676 19.3583 -0.144986 4.29181 31.6287 0.0635418 3.9801 31.6625 0.0673404 
3.63163 31.6976 0.0712972 3.2602 31.7318 0.0750648 2.88868 31.7644 0.0785612 
2.51714 31.7977 0.0819438 2.13414 31.8348 0.085356 1.76196 31.8749 0.0887023 
1.41485 31.9162 0.091858 1.06066 31.9622 0.0950864 0.69221 32.0134 0.0984112 
0.314692 32.0682 0.101775 -0.063265 32.1242 0.105014 -0.437858 32.1792 0.108063 
-0.797735 32.2306 0.110852 -1.14783 32.2786 0.113413 -1.50486 32.3251 0.115865 
-1.86162 32.3691 0.118189 -2.22267 32.4115 0.120455 -2.57656 32.4517 0.122609 
-2.91942 32.4899 0.124697 -3.23904 32.5255 0.12668 -3.52702 32.5579 0.128522 
0.583755 0.650788 0.317045 1.46822 1.68724 0.230575 2.10463 2.59245 0.175476 
2.57113 3.41522 0.151367 2.93682 4.21925 0.132828 3.22882 5.03642 0.117832 
3.44081 5.80385 0.106211 3.60011 6.557 0.096833 3.72561 7.3571 0.088226 
3.8121 8.13377 0.0809716 3.86921 8.88796 0.0748226 3.90666 9.67994 0.0691791 
3.92743 10.4966 0.0641777 3.93644 11.3239 0.0597393 3.9397 12.1463 0.055804 
3.94331 12.9787 0.0520964 3.95297 13.8197 0.0484477 3.97438 14.6834 0.0446444 
4.0129 15.5675 0.0405471 4.07073 16.4366 0.0361773 4.1488 17.287 0.031563 
4.25032 18.1466 0.0264684 4.3733 19.0098 0.0209446 4.5022 19.8241 0.0156784 
4.62937 20.6338 0.0112777 4.73459 21.4269 0.00916319 4.80507 22.2282 0.0105158 
4.83482 23.0218 0.0146576 4.83192 23.786 0.0200402 4.80658 24.5832 0.02601 
4.76786 25.3823 0.0317909 4.72176 26.1963 0.0371933 4.67077 27.0549 0.0422098 
4.61878 27.9398 0.0468356 4.56889 28.832 0.0510474 4.52395 29.696 0.0547258 
4.48487 30.5123 0.0578877 4.4512 31.2627 0.0605384 -3.64645 32.2066 0.128546 
-3.61233 31.4566 0.12682 -3.57171 30.5728 0.124872 -3.52179 29.4876 0.122594 
-3.46672 28.2669 0.120184 -3.40858 26.9094 0.117732 -3.35027 25.3967 0.115428 
-3.29552 23.6084 0.113489 -3.26172 21.4227 0.11197 -3.28565 19.0471 0.111006 
-3.38001 16.8243 0.110314 -3.51729 14.8769 0.109042 -3.6639 13.1153 0.107378 
-3.78651 11.4293 0.106608 -3.84302 9.76722 0.108046 -3.79427 8.17404 0.110555 
-3.62933 6.73354 0.11235 -3.37243 5.51576 0.1127 -3.04368 4.47858 0.112896 
-2.62982 3.5242 0.111239 -2.12338 2.61979 0.105419 -1.48374 1.72276 0.101819 
-0.670766 0.50526 0.193015 2.96146 19.1417 -0.0262455 2.75635 18.7463 -0.0215384 
2.4929 18.304 -0.0164773 2.22205 17.8543 -0.0115251 1.97291 17.4315 -0.00730617 
1.73549 17.0181 -0.00302865 1.49765 16.5988 -0.000600106 1.24808 16.1562 0.00243463 
0.987249 15.6954 0.00457775 0.731104 15.2524 0.00460776 0.472629 14.8139 0.00719564 
0.214831 14.3958 0.0053779 -0.0384298 14.0168 -0.00164098 -0.286783 13.706 -0.0234143 
-0.398761 13.6663 -0.00606349 2.90007 19.309 -0.0449469 2.67157 19.0055 -0.0327638 
2.41501 18.6244 -0.0208846 2.15544 18.2085 -0.013076 1.90898 17.7965 -0.00716149 
1.66182 17.3678 -0.00357124 1.419 16.9387 -0.00172076 1.18127 16.5204 0.0017939 
0.935656 16.0873 0.00329365 0.668308 15.6217 0.00466516 0.397456 15.1608 0.00479815 
0.147109 14.7422 0.00341866 -0.110823 14.3179 0.0057186 -0.334539 13.8862 0.00757006 
3.0146 19.342 -0.0333053 -3.66389 32.5725 -0.00392016 4.4341 31.6116 -0.0715932 
2.97643 19.3105 -0.0812307 2.99528 19.4566 -0.0857206 -0.373883 13.6938 -0.0607893 
-0.377804 13.5549 -0.0615715 0 0 0 0 0 0 
0 0 0 0 0 0 0 0 0 
0 0 0 0 0 0 0 0 0 
0 0 0 0 0 0 0 0 0 
0 0 0 0 0 0 0 0 0 
0 0 0 0 0 0 0 0 0 
0 0 0 0 0 0 0 0 0 
0 0 0 0 0 0 0 0 0 
0 0 0 0 0 0 0 0 0 
0 0 0 0 0 0 0 0 0 
0 0 0 0 0 0 0 0 0 
0 0 0 0 0 0 0 0 0 
0 0 0 0 0 0 0 0 0 
0 0 0 0 0 0 0 0 0 
0 0 0 0 0 0 0 0 0 
0 0 0 0 0 0 0 0 0 
0 0 0 0 0 0 4.28861 31.2614 -0.20425 
4.08509 31.3481 -0.201513 3.94493 31.3629 -0.199742 3.79157 31.3775 -0.197782 
3.64687 31.3916 -0.19591 3.90422 31.0655 -0.199993 3.4892 31.4058 -0.193883 
3.33948 31.4192 -0.191933 3.59298 31.0942 -0.196001 3.19924 31.4115 -0.190201 
3.06064 31.4235 -0.188429 3.29494 31.1002 -0.192241 2.91445 31.4361 -0.186625 
2.77481 31.4482 -0.18491 3.00859 31.1045 -0.188716 2.63188 31.4641 -0.183221 
2.48306 31.4776 -0.181488 2.71964 31.1325 -0.185237 2.33077 31.4859 -0.179851 
2.1812 31.5007 -0.178263 2.42487 31.1563 -0.181901 2.03611 31.5065 -0.176826 
1.89034 31.5222 -0.175412 2.12806 31.1702 -0.178801 1.73976 31.5306 -0.174051 
1.59812 31.5473 -0.172806 1.83303 31.1843 -0.175987 1.45346 31.568 -0.171565 
1.31208 31.586 -0.170447 1.53852 31.2135 -0.1734 1.16491 31.6044 -0.169307 
1.00338 31.6264 -0.168131 1.24742 31.2528 -0.171008 0.857472 31.6445 -0.167112 
0.721483 31.6639 -0.166197 0.954954 31.2897 -0.16881 0.576398 31.6844 -0.165236 
0.424851 31.7067 -0.164274 0.664391 31.3286 -0.166774 0.272937 31.7323 -0.16331 
0.126469 31.7542 -0.162418 0.367633 31.3751 -0.164799 -0.0174201 31.7807 -0.161531 
-0.158946 31.8018 -0.160691 0.0719306 31.4276 -0.1629 -0.307832 31.8261 -0.159788 
-0.460597 31.8485 -0.158887 -0.220945 31.4788 -0.161063 -0.597788 31.8713 -0.158042 
-0.729838 31.8902 -0.157244 -0.507257 31.5263 -0.15929 -0.877035 31.9181 -0.156328 
-1.02455 31.9384 -0.155414 -0.792007 31.5773 -0.157516 -1.17225 31.9609 -0.154481 
-1.33132 31.9818 -0.153471 -1.08729 31.6278 -0.155641 -1.47265 31.9987 -0.152575 
-1.6077 32.0157 -0.151689 -1.37678 31.6673 -0.153783 -1.75467 32.0305 -0.150739 
-1.90164 32.0482 -0.149762 -1.66554 31.6991 -0.15192 -2.0445 32.0643 -0.148808 
-2.18362 32.0805 -0.147869 -1.95578 31.7299 -0.150014 -2.3239 32.1 -0.146919 
-2.46719 32.1161 -0.145944 -2.23925 31.7655 -0.14812 -2.60457 32.1317 -0.145014 
-2.74011 32.1468 -0.14409 -2.51712 31.8005 -0.146247 -2.87156 32.147 -0.14323 
-3.01129 32.1625 -0.142283 -2.78604 31.8162 -0.144465 -3.1426 32.1663 -0.141425 
-3.29049 32.1828 -0.14044 -3.04882 31.82 -0.142758 -3.42265 32.2692 -0.139411 
-3.55465 32.2841 -0.138544 -3.53727 31.9008 -0.139453 -3.31231 31.9101 -0.140874 
0.465187 0.37361 -0.156666 1.0664 1.11817 -0.10632 1.4167 1.56879 -0.0892509 
1.72651 2.01405 -0.0891687 1.96991 2.39439 -0.0909369 1.40496 1.56843 -0.101903 
2.18368 2.75846 -0.0935474 2.36609 3.09686 -0.0970489 1.93586 2.39636 -0.101502 
2.53863 3.44927 -0.100729 2.69854 3.80499 -0.105033 2.32772 3.13326 -0.106427 
2.82933 4.13066 -0.109047 2.95279 4.4631 -0.113279 2.63385 3.83072 -0.113352 
3.06443 4.79833 -0.117333 3.16834 5.1413 -0.121867 2.87973 4.5101 -0.120762 
3.25726 5.48051 -0.126083 3.33318 5.79165 -0.129989 3.08282 5.20166 -0.128312 
3.40067 6.11276 -0.133826 3.45852 6.40871 -0.137357 3.23978 5.87681 -0.135668 
3.51825 6.71719 -0.14068 3.57281 7.07225 -0.144786 3.36643 6.51889 -0.142207 
3.61672 7.40058 -0.148429 3.65287 7.71225 -0.151904 3.47045 7.16578 -0.14871 
3.68361 8.04044 -0.155422 3.71027 8.35371 -0.158778 3.54506 7.83131 -0.155458 
3.73407 8.66967 -0.161964 3.75292 8.98479 -0.165208 3.59876 8.4833 -0.161791 
3.76837 9.29869 -0.16826 3.78127 9.63102 -0.171505 3.63719 9.1196 -0.167726 
3.78978 9.95319 -0.174496 3.79659 10.2576 -0.177319 3.6604 9.76082 -0.173435 
3.80147 10.5673 -0.180054 3.80498 10.8894 -0.182899 3.67277 10.3966 -0.178833 
3.80617 11.2238 -0.18567 3.80734 11.5486 -0.188402 3.67784 11.0433 -0.184043 
3.80951 11.8653 -0.190868 3.80983 12.1926 -0.19345 3.68002 11.696 -0.18902 
3.8136 12.5281 -0.195933 3.81456 12.8578 -0.198346 3.68485 12.3486 -0.193697 
3.81349 13.2022 -0.200677 3.81658 13.5341 -0.20292 3.68648 13.0278 -0.19823 
3.82582 13.8876 -0.205197 3.83323 14.2531 -0.20745 3.69378 13.7239 -0.202513 
3.83945 14.5831 -0.209282 3.85098 14.9179 -0.211175 3.70884 14.4048 -0.206356 
3.86791 15.2704 -0.213009 3.88605 15.6216 -0.214788 3.73148 15.0834 -0.209826 
3.91116 15.9759 -0.216492 3.93635 16.327 -0.218046 3.77341 15.7856 -0.213193 
3.96397 16.67 -0.219423 3.99662 17.02 -0.220734 3.82647 16.4782 -0.21614 
4.03099 17.3613 -0.221861 4.06933 17.6935 -0.222841 3.88893 17.1577 -0.218573 
4.114 18.0465 -0.223779 4.16346 18.407 -0.224447 3.96882 17.8476 -0.22065 
4.21286 18.7412 -0.225049 4.2631 19.0664 -0.225257 4.06456 18.531 -0.222251 
4.3171 19.3935 -0.225561 4.36963 19.7141 -0.225431 4.16981 19.19 -0.223331 
4.42439 20.0442 -0.225421 4.47741 20.3752 -0.225026 4.28108 19.8471 -0.223891 
4.52924 20.7097 -0.224797 4.57486 21.0365 -0.224294 4.39034 20.5139 -0.223986 
4.60606 21.3497 -0.224016 4.64145 21.6896 -0.223536 4.4748 21.1657 -0.223709 
4.66449 22.0229 -0.22316 4.68448 22.3492 -0.222797 4.52991 21.819 -0.223228 
4.70254 22.6737 -0.222446 4.70974 23.0333 -0.222244 4.57003 22.4853 -0.222454 
4.71048 23.3847 -0.221907 4.70611 23.7044 -0.221774 4.58767 23.1688 -0.221706 
4.69707 24.0353 -0.221456 4.68427 24.3913 -0.221219 4.57688 23.8585 -0.220925 
4.66882 24.7404 -0.220806 4.65228 25.0708 -0.220459 4.5502 24.5444 -0.220024 
4.63455 25.4105 -0.219945 4.6144 25.7613 -0.21943 4.51493 25.2379 -0.218936 
4.59236 26.1166 -0.218754 4.5728 26.4394 -0.218185 4.47346 25.9361 -0.217637 
4.55532 26.8037 -0.21747 4.53244 27.1784 -0.216684 4.4325 26.658 -0.216153 
4.51273 27.5252 -0.215872 4.4922 27.87 -0.215032 4.39421 27.3706 -0.21461 
4.47518 28.2159 -0.214168 4.45453 28.5792 -0.213185 4.35666 28.064 -0.212905 
4.43797 28.9483 -0.212176 4.41853 29.3133 -0.211096 4.32242 28.7793 -0.211007 
4.40248 29.6614 -0.210066 4.38437 30.0273 -0.208884 4.28942 29.4964 -0.208924 
4.37393 30.3524 -0.207903 4.35855 30.6856 -0.206758 4.26267 30.1692 -0.206897 
-3.40474 30.4623 -0.143343 -3.37926 29.9116 -0.144677 -3.33018 29.3046 -0.146256 
-3.30049 28.653 -0.147793 -3.17752 29.547 -0.146673 -3.24716 27.9318 -0.149575 
-3.21389 27.1619 -0.151294 -3.07472 28.2199 -0.149987 -3.16436 26.3877 -0.153026 
-3.13146 25.5323 -0.154754 -2.97133 26.7267 -0.153444 -3.04988 24.6503 -0.156566 
-3.02387 23.7764 -0.157929 -2.83914 25.0745 -0.15698 -2.9117 20.6361 -0.160982 
-2.92354 19.6282 -0.160972 -2.95781 18.5548 -0.16032 -3.00662 17.4541 -0.159028 
-2.59356 19.0618 -0.161958 -3.08189 16.4568 -0.156975 -3.15522 15.4717 -0.154701 
-2.70814 17.0042 -0.15961 -3.24627 14.5074 -0.151675 -3.33052 13.5616 -0.148619 
-2.88311 15.0481 -0.155331 -3.41553 12.6578 -0.145081 -3.48356 11.7686 -0.14161 
-3.07241 13.1759 -0.149788 -3.53465 10.9286 -0.137871 -3.56649 9.93792 -0.133603 
-3.22132 11.417 -0.143517 -3.56913 9.06773 -0.12991 -3.53838 8.28678 -0.127027 
-3.29266 9.6768 -0.136747 -3.47695 7.52471 -0.124725 -3.38743 6.79119 -0.123211 
-3.2478 8.00469 -0.131112 -3.27619 6.10325 -0.122306 -3.13495 5.45529 -0.122605 
-3.089 6.50913 -0.127986 -2.96346 4.80291 -0.123542 -2.7593 4.18691 -0.126256 
-2.82307 5.12114 -0.127921 -2.05674 2.56594 -0.147696 -1.76493 2.08479 -0.161854 
-1.47984 1.65508 -0.18511 -1.0694 1.12735 -0.226474 -1.42181 1.62524 -0.170147 
-0.470467 0.463883 -0.223099 -0.260707 0.23298 -0.159668 -0.23336 0.211058 -0.16513 
-0.210895 0.196129 -0.152166 -0.196838 0.186319 -0.143739 -0.455977 0.513464 -0.172716 
-0.184932 0.190601 -0.148338 -0.171594 0.182254 -0.1429 -0.389023 0.476764 -0.16069 
-0.165707 0.193227 -0.153372 -0.146729 0.211343 -0.135506 -0.349276 0.4757 -0.160869 
-0.154051 0.220452 -0.140131 -0.141085 0.218735 -0.142789 -0.317377 0.46913 -0.184471 
-0.138977 0.222865 -0.142777 -0.126237 0.218553 -0.145615 -0.275877 0.481457 -0.186321 
-0.118395 0.223098 -0.139584 -0.105027 0.201852 -0.146578 -0.230302 0.481556 -0.181369 
-0.0938713 0.203367 -0.144375 -0.0803638 0.197255 -0.142005 -0.188073 0.505085 -0.161615 
-0.0698244 0.197647 -0.14948 -0.0540669 0.21735 -0.138454 -0.159352 0.49888 -0.160991 
-0.0515799 0.21544 -0.141708 -0.041935 0.218062 -0.141354 -0.123768 0.471244 -0.182937 
-0.0405662 0.216052 -0.142571 -0.0296364 0.213986 -0.142727 -0.0842469 0.469812 -0.186199 
-0.0278339 0.21396 -0.137907 -0.0147213 0.194163 -0.149842 -0.0454385 0.46448 -0.183074 
-0.00645113 0.193747 -0.143398 0.00611555 0.199826 -0.145014 -0.012142 0.488848 -0.163448 
0.0154485 0.200792 -0.147949 0.0270815 0.220273 -0.136841 0.00997727 0.497797 -0.164827 
0.0298639 0.216395 -0.143522 0.0398106 0.219509 -0.14321 0.042797 0.475646 -0.18548 
0.041169 0.220739 -0.143819 0.0523524 0.218889 -0.144761 0.0806285 0.476573 -0.1892 
0.0541461 0.221678 -0.139516 0.0639217 0.217107 -0.143131 0.117028 0.47767 -0.191065 
0.0700481 0.221288 -0.13907 0.0882293 0.201335 -0.153274 0.15493 0.477011 -0.190652 
0.0983314 0.201763 -0.149439 0.114342 0.222418 -0.13973 0.185203 0.498347 -0.17925 
0.121827 0.213764 -0.14362 0.132594 0.219168 -0.142733 0.219117 0.4746 -0.188342 
0.13393 0.211188 -0.144377 0.145195 0.213377 -0.145524 0.259074 0.468221 -0.187154 
0.149087 0.211358 -0.144977 0.160901 0.210958 -0.144676 0.298082 0.462601 -0.184411 
0.171965 0.217887 -0.145346 0.192913 0.200042 -0.151778 0.351831 0.468839 -0.179694 
0.208305 0.199233 -0.14349 0.227247 0.208115 -0.148583 0.416545 0.510433 -0.157354 
0.231863 0.197466 -0.151725 0.255794 0.205025 -0.14766 0.473718 0.516146 -0.149086 
2.66015 19.4653 -0.194453 2.69212 19.7212 -0.214173 2.48011 18.9121 -0.17488 
2.59173 19.1882 -0.180583 2.41029 19.6645 -0.200091 2.25025 18.4333 -0.168533 
2.37034 18.6729 -0.170111 2.25903 19.1079 -0.185226 1.99479 17.9474 -0.166539 
2.12481 18.1953 -0.167261 2.0467 18.5978 -0.179565 1.72776 17.4378 -0.164771 
1.86621 17.6975 -0.165674 1.80931 18.0826 -0.176621 1.4679 16.9492 -0.161822 
1.59338 17.1835 -0.162843 1.55955 17.5576 -0.173791 1.20944 16.4506 -0.15902 
1.34058 16.6974 -0.160352 1.30815 17.0346 -0.170627 0.946094 15.9781 -0.157342 
1.07534 16.2216 -0.158672 1.05591 16.5389 -0.168142 0.684685 15.4923 -0.154316 
0.812018 15.7298 -0.155771 0.798472 16.0466 -0.165532 0.407672 14.9855 -0.150315 
0.545077 15.2355 -0.152771 0.536526 15.5255 -0.162904 0.132559 14.4961 -0.14547 
0.267065 14.7347 -0.148699 0.270652 14.9982 -0.159415 -0.117601 14.03 -0.139329 
0.00104027 14.2533 -0.142555 0.0160646 14.4744 -0.155703 -0.326088 13.5196 -0.143532 
-0.237267 13.7762 -0.138117 -0.215522 13.9208 -0.153703 -0.480866 13.2264 -0.258209 
-0.548906 13.1868 -0.232309 2.95005 19.5253 -0.173027 2.85782 19.2697 -0.167311 
2.75633 19.0455 -0.163354 2.65254 18.8473 -0.164124 2.85065 19.1407 -0.183329 
2.53332 18.6375 -0.16331 2.41439 18.4213 -0.165345 2.63221 18.6466 -0.178533 
2.28264 18.1883 -0.165436 2.1532 17.9632 -0.16202 2.38976 18.1723 -0.174653 
2.02866 17.7322 -0.162688 1.90161 17.4985 -0.162686 2.14699 17.6943 -0.175856 
1.7839 17.2786 -0.161675 1.66784 17.0636 -0.16147 1.91283 17.2328 -0.175169 
1.54018 16.828 -0.160652 1.41762 16.5959 -0.159601 1.67764 16.766 -0.173895 
1.29213 16.367 -0.158911 1.16673 16.1299 -0.157773 1.43536 16.2897 -0.171586 
1.04681 15.9037 -0.156685 0.93102 15.6846 -0.155696 1.20117 15.8221 -0.169755 
0.808299 15.4498 -0.154474 0.692046 15.228 -0.152938 0.97012 15.347 -0.168079 
0.575304 14.9992 -0.153004 0.457675 14.7708 -0.153258 0.745906 14.8667 -0.165988 
0.343329 14.5344 -0.152619 0.235725 14.3149 -0.151572 0.531122 14.3732 -0.162498 
0.12392 14.0624 -0.155355 0.0248397 13.8155 -0.156851 0.333545 13.8451 -0.165334 
-0.0414287 13.5308 -0.173937 -0.0700607 13.2399 -0.198347 0.197439 13.2611 -0.183869 
3.09753 19.8537 -0.275151 3.16368 19.893 -0.25541 4.26131 30.964 -0.204746 
0.516968 0.427006 -0.124748 -3.48097 31.4939 -0.14067 -3.45722 30.977 -0.141918 
-0.552446 0.558414 -0.199798 -2.94014 22.7754 -0.159462 -2.92523 21.6821 -0.160414 
-2.39863 3.75413 -0.133302 -2.48579 3.51309 -0.131262 -2.2521 3.01444 -0.13884 
-2.57327 21.166 -0.162096 2.44158 20.2403 -0.229303 2.65869 20.0022 -0.239685 
-0.607016 12.7945 -0.214084 -0.534295 13.1194 -0.178341 -0.478321 13.2191 -0.175603 
-0.121835 12.9648 -0.229989 -0.260847 12.6504 -0.23343 3.24765 20.2796 -0.246639 
3.13423 19.9051 -0.214499 0.112887 12.6727 -0.219657 2.82384 20.152 -0.25958 
2.99431 20.54 -0.258185 2.60602 20.6565 -0.244356 3.116 19.8205 -0.211514 
-3.27932 30.6683 -0.143694 0.750313 0.76697 -0.129568 3.69334 30.7907 -0.198028 
3.53548 30.8046 -0.19601 3.38238 30.7852 -0.19417 3.24217 30.777 -0.192449 
3.4838 30.482 -0.196209 3.10386 30.7715 -0.190803 2.95774 30.7837 -0.189024 
3.19243 30.4564 -0.192715 2.8157 30.7843 -0.18736 2.67303 30.7998 -0.185702 
2.91212 30.4509 -0.189418 2.52222 30.7984 -0.18405 2.37042 30.8064 -0.182389 
2.61935 30.4495 -0.186133 2.22012 30.8188 -0.180846 2.07557 30.8245 -0.179386 
2.31831 30.4601 -0.182934 1.92458 30.8363 -0.177949 1.77461 30.8447 -0.176574 
2.01709 30.4842 -0.17989 1.62632 30.8442 -0.175268 1.48231 30.865 -0.174033 
1.71795 30.4955 -0.177141 1.33713 30.8906 -0.172779 1.19057 30.9093 -0.171623 
1.42468 30.5208 -0.174608 1.04261 30.933 -0.17047 0.897164 30.9513 -0.169385 
1.13178 30.5704 -0.172169 0.754957 30.9704 -0.168369 0.610193 30.9913 -0.16735 
0.841841 30.6136 -0.169948 0.463005 31.0084 -0.166355 0.311265 31.0344 -0.165326 
0.552612 30.6503 -0.167877 0.160872 31.0663 -0.164314 0.0169919 31.0931 -0.163372 
0.255176 30.6998 -0.165815 -0.130456 31.1105 -0.162442 -0.279493 31.1351 -0.161492 
-0.0425822 30.7495 -0.163817 -0.421483 31.1733 -0.160549 -0.558953 31.1964 -0.159691 
-0.331999 30.8054 -0.1619 -0.697561 31.223 -0.158787 -0.845101 31.2512 -0.157841 
-0.612638 30.8705 -0.160039 -1.00057 31.2678 -0.15687 -1.14868 31.2904 -0.155911 
-0.90689 30.914 -0.158141 -1.28905 31.2959 -0.155048 -1.43084 31.3129 -0.15412 
-1.20293 30.9363 -0.156265 -1.57272 31.3363 -0.153201 -1.7201 31.3511 -0.152235 
-1.48541 30.9653 -0.154447 -1.87199 31.3698 -0.151235 -2.0152 31.3859 -0.150295 
-1.77941 31.0073 -0.152519 -2.15477 31.4149 -0.14934 -2.2953 31.4343 -0.148401 
-2.07106 31.0549 -0.150575 -2.43163 31.447 -0.147498 -2.56916 31.4625 -0.146582 
-2.34711 31.0965 -0.148732 -2.69713 31.4903 -0.145703 -2.82863 31.4904 -0.144854 
-2.61153 31.1368 -0.146961 -3.03949 29.8548 -0.146878 -2.99026 29.2484 -0.148424 
4.15485 30.7725 -0.20392 1.70074 2.07464 -0.110257 1.9224 2.45524 -0.111117 
2.09125 2.79279 -0.113716 2.2701 3.16421 -0.116296 1.87955 2.501 -0.119669 
2.42146 3.52131 -0.119021 2.55687 3.86473 -0.121825 2.20306 3.20593 -0.124224 
2.67437 4.20252 -0.124685 2.78965 4.55527 -0.127979 2.4737 3.91268 -0.129398 
2.8965 4.92468 -0.131314 2.98792 5.27998 -0.134653 2.70126 4.63351 -0.134683 
3.07189 5.6368 -0.137995 3.14007 5.97095 -0.141212 2.89298 5.37238 -0.140429 
3.20507 6.30455 -0.144144 3.26485 6.6237 -0.146944 3.04196 6.07365 -0.145901 
3.31381 6.94334 -0.149789 3.35819 7.28172 -0.152899 3.15558 6.73601 -0.151165 
3.3976 7.61731 -0.155816 3.4282 7.95403 -0.158959 3.24399 7.39988 -0.156595 
3.45887 8.29475 -0.161818 3.48222 8.6177 -0.164704 3.31393 8.08405 -0.162051 
3.49572 8.92605 -0.167322 3.51074 9.2458 -0.170042 3.35737 8.73941 -0.167243 
3.52278 9.56347 -0.172611 3.5308 9.89021 -0.175265 3.38253 9.37078 -0.172104 
3.53978 10.2111 -0.177737 3.544 10.5241 -0.180148 3.40311 10.0138 -0.176784 
3.55024 10.8651 -0.182621 3.55059 11.2017 -0.185106 3.41775 10.6791 -0.181421 
3.54969 11.522 -0.187278 3.55114 11.8398 -0.189509 3.42213 11.3427 -0.185794 
3.55047 12.1684 -0.19158 3.55344 12.5039 -0.193781 3.41972 11.9929 -0.189794 
3.55305 12.8543 -0.195841 3.55133 13.1974 -0.197825 3.4177 12.6722 -0.193669 
3.55086 13.545 -0.199713 3.55972 13.8964 -0.201677 3.41606 13.3697 -0.197323 
3.56925 14.2377 -0.203461 3.5753 14.5645 -0.205049 3.42466 14.0569 -0.200615 
3.59097 14.8924 -0.20663 3.60786 15.2407 -0.208307 3.44975 14.7237 -0.20369 
3.63066 15.5934 -0.209818 3.65597 15.943 -0.21137 3.48801 15.401 -0.20663 
3.68412 16.2789 -0.212701 3.71209 16.617 -0.213952 3.5392 16.0857 -0.209369 
3.74436 16.9678 -0.215196 3.77939 17.3044 -0.216262 3.5997 16.7682 -0.211815 
3.81881 17.6516 -0.21736 3.86465 18.0003 -0.218312 3.67207 17.462 -0.214043 
3.91197 18.3456 -0.219281 3.96262 18.6768 -0.220002 3.75991 18.1508 -0.216112 
4.01444 19.0029 -0.220812 4.07004 19.3287 -0.22139 3.86077 18.8197 -0.218011 
4.13565 19.6442 -0.222209 4.19215 19.9752 -0.22262 3.98059 19.46 -0.220003 
4.25295 20.3035 -0.223193 4.30627 20.6411 -0.223308 4.10989 20.1037 -0.22169 
4.33334 20.9703 -0.223447 4.36512 21.2885 -0.223342 4.20083 20.7621 -0.222634 
4.38425 21.5979 -0.223138 4.40704 21.9384 -0.222873 4.2483 21.4027 -0.222959 
4.43437 22.2866 -0.222568 4.45125 22.6189 -0.222061 4.29459 22.0644 -0.222619 
4.45999 22.9658 -0.221638 4.45911 23.3251 -0.221093 4.3281 22.7656 -0.221537 
4.45158 23.6639 -0.220451 4.44069 24.0014 -0.219956 4.32605 23.4582 -0.220256 
4.42466 24.3557 -0.219229 4.40745 24.7105 -0.218633 4.29975 24.1581 -0.218755 
4.3874 25.058 -0.21789 4.36816 25.4019 -0.217243 4.26125 24.8664 -0.217132 
4.344 25.7608 -0.216435 4.32065 26.119 -0.215677 4.21535 25.5779 -0.215409 
4.29756 26.4927 -0.214798 4.27907 26.8593 -0.21403 4.16678 26.3146 -0.213594 
4.26271 27.2202 -0.213164 4.24216 27.5681 -0.212349 4.1264 27.0525 -0.211841 
4.23315 27.904 -0.211551 4.21554 28.2505 -0.210657 4.10046 27.7516 -0.210201 
4.20176 28.6216 -0.209717 4.18473 28.9909 -0.208704 4.07718 28.4599 -0.208471 
4.17565 29.3494 -0.207784 4.15931 29.6973 -0.206725 4.05401 29.1904 -0.206543 
4.12618 30.1068 -0.205282 4.11564 30.4318 -0.204324 4.0115 29.9587 -0.204169 
0.823025 0.911352 -0.132487 1.08556 1.19511 -0.117331 1.40276 1.63454 -0.113646 
-2.67231 23.1995 -0.160227 -2.91673 28.5702 -0.150222 -2.86326 27.8506 -0.151942 
-2.77912 27.1104 -0.153811 -2.7294 26.3392 -0.155457 -2.62066 27.4619 -0.154091 
-2.67206 25.6228 -0.156946 -2.58983 24.7462 -0.158667 -2.47894 26.0081 -0.157392 
3.26547 20.0257 -0.217852 3.12879 19.6606 -0.203174 -1.92395 2.56289 -0.143839 
-0.599348 12.304 -0.207801 -0.692698 12.4094 -0.193873 -2.36132 17.4479 -0.161223 
-2.44143 16.4599 -0.159806 -2.53748 15.5108 -0.157961 -2.63594 14.5476 -0.155853 
-2.18184 15.9466 -0.160416 -2.74591 13.6638 -0.153681 -2.83936 12.7512 -0.15129 
-2.40004 14.1133 -0.157008 -2.91232 11.8937 -0.148821 -2.97091 11.0341 -0.146002 
-3.00463 10.2023 -0.143166 -3.01943 9.29786 -0.140137 -2.71356 10.6666 -0.148404 
-2.98956 8.44576 -0.137738 -2.93817 7.64342 -0.135838 -2.72675 8.96292 -0.143556 
-2.85523 6.87465 -0.134574 -2.75565 6.14344 -0.133901 -2.62118 7.31452 -0.140095 
-2.64001 5.45729 -0.133864 -2.48298 4.76254 -0.134716 -2.43423 5.83158 -0.138705 
-2.23694 21.6295 -0.163126 -2.2235 20.5972 -0.163451 2.26161 20.4553 -0.216669 
2.28537 20.7322 -0.225469 -0.162 11.9763 -0.209542 -0.400237 12.1444 -0.212934 
-0.532225 11.7833 -0.200428 -0.610572 0.752748 -0.156006 -0.569439 0.738809 -0.156705 
-0.570263 0.779516 -0.155714 -0.536969 0.77973 -0.160166 -0.772507 1.05603 -0.157915 
-0.506103 0.777815 -0.164001 -0.47426 0.784303 -0.168243 -0.709369 1.09202 -0.160828 
-0.44509 0.799684 -0.169827 -0.408053 0.799541 -0.170146 -0.620642 1.09922 -0.165755 
-0.383944 0.815756 -0.167424 -0.347292 0.813072 -0.164286 -0.538683 1.12565 -0.165416 
-0.312048 0.807672 -0.163782 -0.284 0.806482 -0.15987 -0.452602 1.12962 -0.163429 
-0.256127 0.802109 -0.159927 -0.228876 0.796502 -0.163624 -0.365204 1.11352 -0.163237 
-0.201101 0.784119 -0.165126 -0.170927 0.786149 -0.168851 -0.286785 1.09995 -0.164045 
-0.145624 0.783785 -0.169907 -0.115163 0.78165 -0.170133 -0.212402 1.08964 -0.168533 
-0.0892382 0.783433 -0.169223 -0.0590568 0.77705 -0.166981 -0.139231 1.08813 -0.169243 
-0.0336657 0.777581 -0.166103 -0.0121275 0.782751 -0.163552 -0.0669874 1.08374 -0.166881 
0.00832524 0.783155 -0.163913 0.0304963 0.785864 -0.168928 -0.00322913 1.08011 -0.168299 
0.0546497 0.777141 -0.169935 0.0827044 0.778465 -0.17302 0.0601696 1.0758 -0.169933 
0.108128 0.787442 -0.174832 0.138015 0.789759 -0.17626 0.129094 1.08087 -0.174625 
0.163885 0.791543 -0.177441 0.193267 0.789958 -0.178529 0.201766 1.09587 -0.176744 
0.21924 0.790151 -0.178419 0.249984 0.788506 -0.177031 0.275908 1.09527 -0.178699 
0.274145 0.78925 -0.177986 0.299636 0.788721 -0.17626 0.350195 1.09254 -0.177384 
0.327148 0.789218 -0.176228 0.360804 0.790415 -0.17526 0.425533 1.09283 -0.176424 
0.385292 0.777409 -0.174222 0.416527 0.774621 -0.172913 0.50532 1.08599 -0.174542 
0.443913 0.770741 -0.171454 0.480541 0.772885 -0.169207 0.58376 1.07539 -0.169991 
0.50639 0.760559 -0.166035 0.556729 0.774368 -0.16009 0.665544 1.06545 -0.164129 
0.617062 0.807054 -0.154652 0.670857 0.826828 -0.147271 0.78296 1.09479 -0.152729 
0.7685 0.894379 -0.135058 2.05017 19.2762 -0.18532 2.13052 19.544 -0.189851 
2.19254 19.8462 -0.197089 2.2309 20.1496 -0.207189 2.07695 20.6074 -0.208469 
1.98825 19.997 -0.194356 1.62347 18.2274 -0.175424 1.73604 18.4984 -0.176969 
1.38137 17.6782 -0.171898 1.5029 17.9492 -0.173383 1.4318 18.347 -0.175158 
1.14932 17.1323 -0.168686 1.26754 17.3988 -0.170155 1.21022 17.7757 -0.171632 
0.904181 16.6374 -0.166219 1.02915 16.8796 -0.167369 0.985529 17.2318 -0.168703 
0.648689 16.1246 -0.16371 0.772678 16.3877 -0.164991 0.741631 16.7169 -0.166185 
0.392663 15.5808 -0.160687 0.520855 15.8552 -0.162389 0.49038 16.1826 -0.163664 
0.135642 15.0098 -0.157496 0.261707 15.2841 -0.159204 0.240175 15.5979 -0.160711 
-0.103066 14.4383 -0.155757 0.0128816 14.7206 -0.156868 -0.00578396 14.9885 -0.158047 
-0.345475 13.7792 -0.158868 -0.223519 14.1157 -0.156575 -0.244792 14.3465 -0.157998 
-0.615684 12.9972 -0.177184 -0.483337 13.3801 -0.166528 -3.16494 31.024 -0.143668 
-3.11237 30.5096 -0.145079 0.336179 12.3819 -0.202552 0.247203 12.0847 -0.208878 
2.73103 18.6852 -0.182522 2.6206 18.4334 -0.179674 2.49983 18.1675 -0.177886 
2.38238 17.9121 -0.17653 2.61834 18.1884 -0.182933 2.26734 17.6586 -0.176527 
2.15052 17.4144 -0.176069 2.38963 17.6476 -0.17972 2.03847 17.1722 -0.174801 
1.9302 16.941 -0.174356 2.17051 17.1366 -0.177777 1.81486 16.6983 -0.173533 
1.69679 16.4511 -0.172632 1.95182 16.6392 -0.175965 1.57843 16.2116 -0.171567 
1.46308 15.9709 -0.170558 1.72664 16.1451 -0.174064 1.35239 15.7275 -0.169707 
1.24348 15.4888 -0.168919 1.50677 15.6514 -0.172251 1.13433 15.2437 -0.168189 
1.02419 14.9932 -0.167324 1.29761 15.1515 -0.170775 0.917911 14.7396 -0.166663 
0.819399 14.4922 -0.166122 1.09468 14.6399 -0.169541 0.723112 14.2248 -0.165791 
0.631015 13.9611 -0.166907 0.90749 14.1046 -0.169454 0.552349 13.6621 -0.169151 
0.47566 13.3751 -0.174013 0.748274 13.5232 -0.171741 0.424296 13.035 -0.179752 
0.386548 12.7217 -0.192434 0.628739 12.8726 -0.180769 -2.37496 23.9583 -0.160754 
-2.28925 22.9677 -0.162126 -2.20567 24.5057 -0.161075 -2.30535 4.10839 -0.137052 
-2.05544 3.4095 -0.140426 -2.16347 4.47098 -0.139945 -2.24043 19.5777 -0.163182 
-2.27706 18.5184 -0.162564 -1.99352 17.9611 -0.163181 -1.89313 20.0421 -0.164779 
-1.3686 1.63751 -0.16406 -1.05453 1.1783 -0.177921 1.84675 18.7504 -0.17923 
1.95117 19.014 -0.181476 1.64776 18.8921 -0.179032 2.98112 19.2914 -0.194413 
2.85735 18.9823 -0.188981 2.86466 18.776 -0.189559 3.2784 20.7234 -0.239662 
3.35321 20.5969 -0.233045 4.01788 30.7096 -0.202339 3.86437 30.7241 -0.200378 
3.80793 30.4354 -0.200391 -3.38822 31.5897 -0.141063 -2.77856 28.8787 -0.150449 
-2.92522 30.2109 -0.146862 -2.95791 31.3409 -0.144334 -3.08925 31.3446 -0.143483 
-3.25599 31.5033 -0.142092 1.41853 1.73276 -0.121066 3.14241 19.4639 -0.203995 
3.39609 20.4267 -0.224049 3.42271 20.2309 -0.217843 -1.7356 2.45903 -0.147292 
-1.50808 1.94806 -0.154567 0.981197 1.2109 -0.139546 -2.59632 12.367 -0.153226 
-1.92945 22.3881 -0.164313 -0.803312 12.1379 -0.188424 -0.743441 12.569 -0.18391 
2.21746 21.2056 -0.217436 2.38894 21.0302 -0.22712 -0.785787 0.886691 -0.174006 
-0.714643 0.841152 -0.164858 -0.902275 1.11362 -0.163056 1.84115 19.4211 -0.184507 
-1.75638 3.21917 -0.145406 -1.78722 2.81235 -0.144828 -1.44419 2.25271 -0.150025 
-0.498171 13.599 -0.16635 -0.764206 12.7635 -0.17715 2.94741 21.1973 -0.237454 
3.12573 20.9506 -0.243316 3.26737 21.2587 -0.231756 0.332584 11.4841 -0.197885 
0.111924 11.7013 -0.204389 2.54022 21.1842 -0.230968 0.52617 12.1893 -0.195584 
-0.0585515 11.3521 -0.198564 3.48001 20.8287 -0.226905 3.28942 30.1129 -0.19478 
3.15115 30.1068 -0.193161 3.01473 30.0948 -0.191587 2.87271 30.0949 -0.189976 
3.11279 29.7509 -0.19364 2.72253 30.089 -0.188286 2.57175 30.0871 -0.18667 
2.82608 29.7321 -0.190416 2.41902 30.0771 -0.185092 2.26869 30.0892 -0.1835 
2.52286 29.7154 -0.18721 2.11371 30.083 -0.182021 1.96273 30.0947 -0.180545 
2.21471 29.6987 -0.184116 1.80698 30.1078 -0.17906 1.65876 30.1074 -0.177784 
1.90351 29.7055 -0.181125 1.51762 30.1243 -0.176514 1.37258 30.1502 -0.175263 
1.60626 29.7357 -0.178407 1.22502 30.1775 -0.174016 1.07725 30.2015 -0.1728 
1.31733 29.7803 -0.175873 0.929352 30.2225 -0.171664 0.787324 30.242 -0.170575 
1.02179 29.8292 -0.173412 0.639411 30.2463 -0.169533 0.492382 30.2639 -0.168472 
0.725975 29.8551 -0.171159 0.347806 30.2798 -0.167459 0.197571 30.3121 -0.166385 
0.433572 29.876 -0.169054 0.0443953 30.341 -0.165328 -0.103005 30.3587 -0.164338 
0.135976 29.9214 -0.166923 -0.24072 30.3966 -0.163375 -0.38267 30.4351 -0.162407 
-0.154664 29.9886 -0.164846 -0.527197 30.4926 -0.161362 -0.665866 30.5195 -0.160454 
-0.436691 30.0844 -0.162814 -0.814075 30.5285 -0.159498 -0.969701 30.5452 -0.15849 
-0.729296 30.1511 -0.160809 -1.1156 30.5291 -0.157621 -1.25616 30.5348 -0.156717 
-1.02338 30.1442 -0.158956 -1.39513 30.5575 -0.155812 -1.5372 30.5808 -0.154865 
-1.30824 30.1508 -0.157138 -1.69258 30.6022 -0.153843 -1.84466 30.6209 -0.152856 
-1.6026 30.1949 -0.155202 -1.99151 30.6581 -0.151844 -2.13124 30.687 -0.15091 
-1.90485 30.2533 -0.153182 -2.2682 30.7631 -0.149887 -2.40465 30.7756 -0.148997 
-2.18871 30.3663 -0.15117 3.58396 30.1602 -0.198262 3.43102 30.1403 -0.196433 
3.39077 29.7912 -0.196845 -0.665091 13.4559 -0.168218 -0.537317 13.8609 -0.16391 
3.89245 30.1285 -0.202218 3.72126 30.1946 -0.199897 3.66944 29.8537 -0.200101 
3.92588 29.7188 -0.203666 1.96966 2.88257 -0.130203 2.12481 3.24895 -0.131876 
2.26171 3.61723 -0.133935 2.38192 3.96623 -0.136066 2.04655 3.31257 -0.138915 
2.49069 4.33178 -0.13861 2.60005 4.7135 -0.140825 2.29172 4.05259 -0.142488 
2.70158 5.10394 -0.143468 2.78698 5.47222 -0.145766 2.50239 4.81674 -0.146485 
2.86622 5.8445 -0.148364 2.93164 6.18764 -0.150616 2.68254 5.5876 -0.150658 
2.98898 6.52192 -0.152995 3.03798 6.85022 -0.155297 2.81795 6.30176 -0.154819 
3.08863 7.18795 -0.157486 3.12813 7.53171 -0.160053 2.92562 6.98099 -0.15888 
3.15907 7.86668 -0.162419 3.18987 8.21458 -0.164984 3.00686 7.6601 -0.163171 
3.20725 8.54422 -0.167348 3.22066 8.85833 -0.169632 3.05502 8.33089 -0.167569 
3.23634 9.17636 -0.171815 3.24823 9.49892 -0.174019 3.08792 8.98412 -0.171762 
3.26275 9.82661 -0.176158 3.27146 10.1513 -0.178271 3.11791 9.63432 -0.175716 
3.27532 10.4789 -0.180305 3.28107 10.8229 -0.182465 3.13584 10.2931 -0.179552 
3.28263 11.1679 -0.184482 3.28118 11.49 -0.186377 3.14065 10.9685 -0.183293 
3.28093 11.8102 -0.188109 3.27968 12.1398 -0.18993 3.14117 11.6358 -0.186725 
3.27831 12.4824 -0.191625 3.27733 12.8327 -0.19339 3.1387 12.2999 -0.189849 
3.27442 13.1949 -0.194988 3.27363 13.5416 -0.196509 3.13349 13.0052 -0.192861 
3.27944 13.8817 -0.197987 3.2889 14.221 -0.199426 3.13597 13.7071 -0.195571 
3.30108 14.5533 -0.200785 3.31697 14.8785 -0.202115 3.15384 14.3782 -0.198031 
3.33789 15.208 -0.203392 3.36094 15.557 -0.204773 3.18723 15.0378 -0.200427 
3.39373 15.9083 -0.206115 3.42226 16.2401 -0.207345 3.24115 15.7153 -0.202856 
3.45163 16.5866 -0.208443 3.48454 16.933 -0.209549 3.30393 16.4092 -0.205149 
3.51953 17.264 -0.210574 3.55963 17.6071 -0.211654 3.36921 17.0824 -0.207146 
3.60484 17.9639 -0.212747 3.65314 18.3059 -0.213854 3.44974 17.7658 -0.209285 
3.7016 18.6478 -0.214952 3.75494 18.9719 -0.215938 3.54461 18.4604 -0.211667 
3.81616 19.3163 -0.217338 3.8838 19.6307 -0.21857 3.65655 19.1438 -0.214429 
3.96859 19.9164 -0.220055 4.03143 20.2451 -0.221136 3.80646 19.7723 -0.217821 
4.0668 20.533 -0.22169 4.09642 20.8635 -0.222412 3.92964 20.3455 -0.220414 
4.06457 21.1189 -0.222573 4.08518 21.4301 -0.222765 3.93784 20.8866 -0.221988 
4.13888 21.8237 -0.222809 4.16421 22.1772 -0.222258 3.96585 21.533 -0.222785 
4.19515 22.5561 -0.221744 4.20077 22.91 -0.220972 4.04491 22.3116 -0.221919 
4.2017 23.2588 -0.220166 4.19158 23.6044 -0.21931 4.07077 23.0471 -0.220151 
4.16915 23.9405 -0.218332 4.1509 24.3019 -0.217344 4.04499 23.7392 -0.218063 
4.12227 24.666 -0.216338 4.10062 25.0196 -0.215386 3.99086 24.4468 -0.215812 
4.06899 25.3898 -0.214327 4.04361 25.7538 -0.213368 3.92825 25.1883 -0.213438 
4.01807 26.1356 -0.212307 3.99418 26.5135 -0.211358 3.86972 25.9469 -0.211152 
3.98305 26.8994 -0.210418 3.96621 27.2632 -0.209562 3.83258 26.7201 -0.2091 
3.95924 27.6078 -0.208728 3.94993 27.9456 -0.207974 3.81445 27.4543 -0.207364 
3.93936 28.3167 -0.207015 3.92533 28.6891 -0.20606 3.79687 28.1724 -0.205604 
3.92721 29.0404 -0.205267 3.91792 29.3996 -0.204325 3.79814 29.5683 -0.202401 
3.78824 28.8967 -0.203875 3.00706 18.8497 -0.19716 2.87106 18.5252 -0.191694 
3.31457 19.5444 -0.209233 3.17368 19.1819 -0.202923 3.18272 18.9107 -0.203275 
-2.64555 29.2396 -0.150536 -2.57201 28.5624 -0.152308 -2.4674 27.8773 -0.154226 
-2.38332 27.1391 -0.156052 -0.77481 0.815175 -0.200495 -2.25968 26.2782 -0.158228 
-2.20246 25.5651 -0.15963 -1.21234 1.55444 -0.155395 1.17664 1.57885 -0.140177 
1.31716 1.67882 -0.129748 1.58449 2.08854 -0.126899 1.99907 21.4639 -0.209881 
2.10311 21.7624 -0.212502 -2.07533 14.5377 -0.159571 -2.19421 13.6519 -0.158565 
-1.62919 22.9303 -0.1656 -1.5744 21.6036 -0.166378 -2.45518 9.42619 -0.14933 
-2.42949 8.55058 -0.147287 -2.37657 7.70392 -0.145624 -2.30066 6.91011 -0.144539 
-2.12914 8.17318 -0.150946 -2.21905 6.14544 -0.143862 -2.11616 5.43794 -0.143508 
-2.00088 6.54158 -0.148542 -0.831817 11.622 -0.188052 -0.935489 11.8421 -0.181623 
0.736713 12.0132 -0.189926 0.665177 11.666 -0.193537 1.63448 19.5574 -0.18473 
1.71635 19.8325 -0.188062 -0.476444 11.1926 -0.193379 -0.660602 11.4005 -0.190829 
-0.809355 11.0978 -0.183597 -1.07729 1.44329 -0.154992 -2.29291 12.8065 -0.15714 
-2.37428 11.9422 -0.155353 -1.97557 13.2275 -0.160111 -0.918624 1.39805 -0.156527 
-0.858996 1.39256 -0.158382 -0.821416 1.43546 -0.160066 -0.764453 1.44169 -0.161379 
-1.01404 1.74271 -0.156245 -0.709933 1.45683 -0.162433 -0.660086 1.46945 -0.16232 
-0.894603 1.79479 -0.158896 -0.612429 1.49047 -0.162151 -0.553299 1.47814 -0.161684 
-0.768797 1.82683 -0.160277 -0.495132 1.46771 -0.161714 -0.440825 1.46132 -0.162291 
-0.637959 1.83403 -0.161116 -0.385079 1.43785 -0.162938 -0.337385 1.4291 -0.164207 
-0.499851 1.79785 -0.162342 -0.290778 1.42288 -0.165623 -0.245796 1.42185 -0.166902 
-0.377961 1.76708 -0.164254 -0.201002 1.43054 -0.167368 -0.154038 1.42954 -0.167154 
-0.268704 1.76904 -0.166129 -0.110101 1.42571 -0.166986 -0.0668166 1.4207 -0.166984 
-0.161673 1.77361 -0.166922 -0.0254711 1.39535 -0.167354 0.015095 1.39631 -0.168383 
-0.0575777 1.74316 -0.167901 0.055314 1.39116 -0.169265 0.0967354 1.38589 -0.170874 
0.0417279 1.71208 -0.169506 0.142042 1.41242 -0.172599 0.18682 1.42409 -0.1743 
0.143879 1.73412 -0.171934 0.233695 1.43982 -0.17566 0.280215 1.44208 -0.176487 
0.2539 1.7775 -0.174458 0.329136 1.44522 -0.177034 0.376932 1.4443 -0.177123 
0.368653 1.7971 -0.17598 0.425094 1.43854 -0.176822 0.471777 1.43722 -0.17621 
0.486128 1.79527 -0.17628 0.522604 1.44132 -0.175459 0.575198 1.44552 -0.174542 
0.606602 1.79525 -0.175165 0.623725 1.43704 -0.173126 0.673968 1.4288 -0.171544 
0.72903 1.79345 -0.172728 0.721379 1.40899 -0.169116 0.77512 1.41048 -0.166588 
0.848815 1.76873 -0.168641 0.813971 1.38231 -0.163177 0.868208 1.37909 -0.159069 
0.960063 1.72646 -0.162677 0.903387 1.34328 -0.154462 0.996377 1.38846 -0.147602 
1.28481 1.83078 -0.14284 1.05857 1.6694 -0.154537 0.828186 17.3214 -0.169111 
0.939304 17.5869 -0.170454 1.23793 18.4618 -0.175579 1.34362 18.7547 -0.177518 
0.568548 16.8532 -0.166877 0.691249 17.1187 -0.168098 0.644374 17.4648 -0.16936 
0.328069 16.2545 -0.164289 0.44732 16.5413 -0.165527 0.395403 16.9325 -0.16697 
0.091872 15.6099 -0.16162 0.214515 15.9279 -0.162891 0.169506 16.2766 -0.164242 
-0.156628 14.9564 -0.160147 -0.0392266 15.2724 -0.160683 -0.0689185 15.5955 -0.162022 
-0.406547 14.2753 -0.161711 -0.282348 14.6318 -0.160408 -0.322943 14.9146 -0.161492 
-0.917308 12.5848 -0.175967 -0.802141 13.0139 -0.172087 0.571739 11.2621 -0.193609 
0.443012 10.899 -0.192687 0.775786 11.1151 -0.190157 2.49626 21.8525 -0.219157 
2.71028 21.5631 -0.227546 2.52411 17.637 -0.183463 2.4167 17.3637 -0.182167 
2.31011 17.0908 -0.180863 2.20683 16.834 -0.179918 2.45506 17.0729 -0.184662 
2.09682 16.5773 -0.178695 1.99 16.3211 -0.177821 2.24571 16.5275 -0.181936 
1.88265 16.0737 -0.176724 1.77344 15.8213 -0.175807 2.03612 16.0096 -0.179604 
1.6679 15.5633 -0.174844 1.56762 15.3078 -0.174123 1.83195 15.4915 -0.177635 
1.4653 15.0654 -0.173269 1.36787 14.8075 -0.172728 1.63399 14.9785 -0.175994 
1.27228 14.5477 -0.172143 1.1803 14.2803 -0.171967 1.44622 14.4651 -0.174838 
1.09435 14.0003 -0.172097 1.01461 13.7193 -0.17282 1.27579 13.9148 -0.174797 
0.953551 13.3962 -0.174653 0.890796 13.086 -0.177282 1.13869 13.3039 -0.176764 
0.843053 12.7219 -0.180519 0.791329 12.3765 -0.185546 0.929572 11.882 -0.187397 
-1.98495 24.778 -0.161913 -2.01143 4.76349 -0.143885 -1.85733 4.09893 -0.144735 
-1.7234 3.55695 -0.146188 -1.61179 3.86545 -0.148916 -1.82982 5.08778 -0.147625 
1.4387 19.0423 -0.179736 1.53295 19.3088 -0.181997 1.42405 19.7017 -0.183734 
1.24003 19.1538 -0.179031 1.76122 2.43257 -0.128286 -1.84247 16.3376 -0.162158 
-1.94568 15.3911 -0.160973 -2.42352 11.1484 -0.153612 -2.46204 10.3028 -0.151484 
-2.18856 9.91315 -0.154542 -2.13787 11.5884 -0.157752 1.02774 17.874 -0.172028 
1.12939 18.1667 -0.173673 1.04846 18.5594 -0.175117 0.862854 17.9651 -0.171895 
3.53356 21.2612 -0.226705 3.62054 21.0486 -0.224882 -1.03896 1.47274 -0.155294 
0.0209891 10.7099 -0.191147 -0.225964 10.9259 -0.191756 2.74172 18.2162 -0.187777 
2.6248 17.924 -0.185169 2.65626 17.6503 -0.187857 2.88458 18.2609 -0.193659 
-2.54228 30.6676 -0.14834 -2.67036 30.6952 -0.147474 -2.8688 31.015 -0.14557 
-2.33414 28.2382 -0.154376 -0.841045 13.2973 -0.169359 -2.79956 30.5456 -0.146958 
-2.10567 26.6934 -0.158488 1.93479 21.0948 -0.208058 1.81718 21.6217 -0.204028 
1.88529 20.7868 -0.202189 -2.7266 29.8913 -0.148747 -1.73182 14.9261 -0.161628 
3.79623 21.3096 -0.223834 3.72079 20.8921 -0.222681 -1.65375 18.3529 -0.164722 
-1.74229 17.2906 -0.163484 -1.48999 16.729 -0.163778 -1.21051 21.0402 -0.168237 
-1.52443 20.4998 -0.166452 2.02008 22.3662 -0.206778 2.23988 22.1482 -0.212464 
-1.09212 11.6134 -0.177341 -1.02964 12.1056 -0.177384 -1.09196 12.3784 -0.173136 
-0.386685 10.5921 -0.186724 2.88317 21.8537 -0.224416 3.40903 21.4912 -0.228876 
3.5602 21.715 -0.225919 3.26305 21.7588 -0.227762 1.79338 20.1296 -0.1923 
1.84623 20.4377 -0.197483 1.70873 20.9057 -0.198351 -2.51991 29.5744 -0.150658 
1.7051 2.4923 -0.136068 -0.57736 14.1613 -0.163984 0.531388 10.2885 -0.187065 
0.294227 10.4645 -0.189079 2.40437 22.4763 -0.212804 1.03526 12.612 -0.181206 
-1.64263 25.2966 -0.163341 -1.64627 24.2444 -0.164512 -1.28112 23.449 -0.167446 
-1.5406 19.4901 -0.165994 -2.46334 30.3342 -0.149503 3.58653 20.3904 -0.220109 
3.46172 19.9918 -0.214907 -1.19921 1.78418 -0.153376 0.122805 10.0921 -0.18619 
3.49571 19.6899 -0.213288 1.59446 20.2561 -0.190213 2.94309 29.3196 -0.192827 
2.79261 29.3127 -0.191206 2.63926 29.3067 -0.189558 2.48608 29.2959 -0.187964 
2.75704 28.8926 -0.191947 2.32157 29.2661 -0.186392 2.166 29.2596 -0.184845 
2.43828 28.8555 -0.188708 2.01391 29.209 -0.183559 1.85753 29.2221 -0.182083 
2.1205 28.7745 -0.18578 1.70217 29.2393 -0.18062 1.5606 29.2565 -0.179359 
1.81176 28.741 -0.18301 1.41558 29.3155 -0.177956 1.2678 29.3435 -0.176674 
1.51047 28.818 -0.180155 1.11476 29.3806 -0.175365 0.966785 29.4022 -0.174143 
1.21191 28.9151 -0.177367 0.820001 29.4193 -0.173003 0.672077 29.4244 -0.171883 
0.911831 28.9705 -0.174848 0.520994 29.4428 -0.17075 0.376545 29.4593 -0.169673 
0.6139 29.0073 -0.172502 0.225088 29.4648 -0.168608 0.0721563 29.4943 -0.16748 
0.311496 29.0322 -0.17025 -0.0785881 29.538 -0.166367 -0.216045 29.5762 -0.16537 
0.00963593 29.0822 -0.168003 -0.357014 29.6291 -0.164312 -0.501255 29.6869 -0.163253 
-0.281613 29.1793 -0.165789 -0.638924 29.7904 -0.162131 -0.787057 29.7996 -0.161167 
-0.559735 29.3359 -0.163602 -0.925659 29.706 -0.160459 -1.07154 29.6901 -0.15955 
-0.835824 29.3461 -0.161763 -1.22026 29.6863 -0.158614 -1.35916 29.7089 -0.157679 
-1.12302 29.2489 -0.160084 -1.50961 29.8179 -0.156512 -1.66499 29.8392 -0.155496 
-1.42189 29.3539 -0.157963 -1.81596 29.7746 -0.154659 -1.96281 29.8116 -0.153671 
-1.72317 29.3981 -0.155972 -2.14324 29.9357 -0.152292 -2.28025 30.0115 -0.151286 
-2.05445 29.4571 -0.153777 -1.84688 8.66548 -0.156431 -1.79699 7.79913 -0.154921 
-1.95164 27.2679 -0.158427 -1.82823 26.409 -0.160623 2.6298 17.0628 -0.189149 
2.52965 16.7727 -0.187604 3.66124 29.5336 -0.200774 1.82827 3.01987 -0.144047 
1.96455 3.39117 -0.144962 2.08368 3.76614 -0.146619 2.19224 4.13772 -0.14803 
1.88116 3.48595 -0.150711 2.2936 4.52441 -0.149973 2.39546 4.92197 -0.151398 
2.09815 4.24994 -0.153311 2.48597 5.33019 -0.153506 2.56509 5.71004 -0.155124 
2.28792 5.04929 -0.156039 2.63646 6.10292 -0.157231 2.69313 6.44421 -0.158861 
2.44724 5.85595 -0.159273 2.74851 6.79273 -0.160713 2.7985 7.13703 -0.162488 
2.57099 6.60295 -0.162484 2.86262 7.45897 -0.163789 2.89353 7.80001 -0.165883 
2.68855 7.27812 -0.165251 2.88701 8.1071 -0.167992 2.90482 8.44281 -0.170033 
2.74568 7.91089 -0.168499 2.92436 8.77715 -0.171892 2.94024 9.10012 -0.173693 
2.759 8.55845 -0.172131 2.95592 9.43529 -0.175508 2.97036 9.76713 -0.177257 
2.79429 9.23267 -0.175445 2.98532 10.0976 -0.178912 2.9889 10.4285 -0.180641 
2.82467 9.9023 -0.178558 2.99498 10.7733 -0.182297 2.99613 11.1209 -0.183979 
2.84529 10.5808 -0.181584 2.99162 11.4412 -0.185391 2.9909 11.7631 -0.186834 
2.84603 11.2484 -0.18433 2.98771 12.1176 -0.188234 2.98577 12.4613 -0.189623 
2.83749 11.9253 -0.18681 2.98417 12.8247 -0.190897 2.98086 13.1871 -0.192176 
2.83159 12.6449 -0.189134 2.98226 13.5449 -0.193278 2.98811 13.8842 -0.194368 
2.83065 13.3669 -0.191212 2.99286 14.2203 -0.19535 3.00553 14.5509 -0.196364 
2.83687 14.0606 -0.192907 3.02547 14.8746 -0.197361 3.04718 15.2014 -0.198424 
2.86231 14.7192 -0.194504 3.08598 15.536 -0.199622 3.11954 15.8835 -0.200799 
2.92224 15.3746 -0.196514 3.15057 16.2401 -0.20177 3.18105 16.5822 -0.202734 
2.99321 16.062 -0.198481 3.21233 16.9148 -0.20352 3.24816 17.241 -0.204521 
3.05725 16.7462 -0.200022 3.29601 17.5618 -0.205583 3.34168 17.9138 -0.206842 
3.13774 17.3935 -0.201892 3.38985 18.2829 -0.207987 3.43949 18.6207 -0.20944 
3.23393 18.0768 -0.204202 3.4713 19.0265 -0.210645 3.5363 19.3672 -0.21251 
3.67565 19.8152 -0.21636 3.762 20.1003 -0.218257 3.80187 20.3868 -0.219807 
3.84331 21.7088 -0.223375 3.9517 22.8375 -0.220429 3.9483 23.1937 -0.219356 
3.90614 23.5061 -0.218028 3.88032 23.8499 -0.216832 3.78632 23.2948 -0.218018 
3.8444 24.2062 -0.215336 3.81337 24.5784 -0.214001 3.70316 23.9728 -0.215093 
3.77751 24.9696 -0.212623 3.74449 25.347 -0.211371 3.62837 24.7303 -0.21196 
3.70339 25.7462 -0.209931 3.67742 26.1342 -0.208815 3.54998 25.5295 -0.209 
3.66138 26.5421 -0.207609 3.65047 26.9328 -0.206672 3.49283 26.3439 -0.206359 
3.65593 27.3182 -0.205807 3.64919 27.6658 -0.204976 3.48317 27.1423 -0.204301 
3.64904 28.0643 -0.204062 3.63872 28.4376 -0.203109 3.48934 27.9296 -0.202545 
1.4139 20.3434 -0.18818 1.48609 20.6461 -0.191511 3.31555 18.8435 -0.206843 
3.14881 18.5172 -0.201847 1.46691 2.18088 -0.1424 1.67166 2.62731 -0.142703 
1.61188 2.71926 -0.148843 1.28528 1.98324 -0.148734 1.77905 22.5739 -0.201907 
1.90935 22.9473 -0.202318 -1.03409 13.1897 -0.168587 -0.909106 13.6314 -0.166692 
0.204586 17.0664 -0.167243 0.315992 17.3954 -0.168666 -0.942567 21.6798 -0.169893 
-0.886426 20.5825 -0.16982 1.24354 12.5237 -0.181295 1.19381 12.1576 -0.183436 
-1.74474 6.87465 -0.153488 -1.67435 6.0941 -0.152423 -1.48461 7.37367 -0.158491 
-0.785427 10.4936 -0.180201 -0.965417 10.7563 -0.178375 -1.71856 13.5899 -0.161989 
-1.82866 12.7453 -0.161686 -2.2205 28.6912 -0.1542 -2.116 28.0069 -0.156119 
1.00991 10.992 -0.187636 0.912303 10.5865 -0.18773 0.19276 9.41207 -0.182207 
-0.0654338 9.62507 -0.182512 -1.07782 2.11414 -0.155755 -0.998799 2.12324 -0.157051 
-0.952031 2.21083 -0.157854 -0.880914 2.22786 -0.158584 -1.11979 2.53195 -0.155457 
-0.802688 2.25188 -0.159634 -0.719083 2.23801 -0.160396 -0.968216 2.64069 -0.157602 
-0.625929 2.17638 -0.161456 -0.548312 2.15074 -0.16242 -0.771791 2.59929 -0.160045 
-0.470923 2.10472 -0.163382 -0.406543 2.09788 -0.16433 -0.582344 2.48837 -0.162318 
-0.346413 2.1252 -0.16515 -0.283334 2.13372 -0.165911 -0.428762 2.46877 -0.164263 
-0.222549 2.17042 -0.166599 -0.159989 2.16563 -0.167223 -0.289859 2.53346 -0.166023 
-0.0959622 2.13344 -0.168003 -0.0358212 2.10662 -0.168707 -0.14486 2.53754 -0.167678 
0.0178917 2.01109 -0.169422 0.0745246 2.00589 -0.170456 -0.00911417 2.40693 -0.169332 
0.133368 2.10388 -0.17147 0.196949 2.13189 -0.172581 0.114248 2.40942 -0.17107 
0.264792 2.16122 -0.173591 0.33015 2.17809 -0.174413 0.259283 2.53941 -0.172918 
0.398848 2.17991 -0.175158 0.46787 2.18371 -0.175541 0.415738 2.57148 -0.174389 
0.540939 2.18464 -0.175705 0.610315 2.17995 -0.175398 0.577594 2.57486 -0.175026 
0.688823 2.19137 -0.174839 0.762808 2.19835 -0.17376 0.750176 2.58879 -0.174325 
0.833778 2.18741 -0.172279 0.905171 2.18243 -0.170706 0.922327 2.59223 -0.172103 
0.973446 2.14947 -0.168123 1.04613 2.13528 -0.165506 1.08494 2.5519 -0.168127 
1.10648 2.08987 -0.161918 1.16949 2.06897 -0.15855 1.23811 2.47875 -0.162178 
-0.0107888 16.3006 -0.164816 0.0950773 16.6448 -0.16593 0.0158676 17.0988 -0.167251 
0.487655 17.8081 -0.170442 0.617285 18.0259 -0.171647 0.285324 17.9525 -0.170446 
-0.229429 15.5736 -0.162851 -0.102126 15.9295 -0.16372 -0.177427 16.2906 -0.164769 
-0.536975 14.9501 -0.163285 -0.410666 15.2907 -0.162888 -0.448855 15.6304 -0.163809 
-1.40918 15.2379 -0.163105 -1.54937 14.3869 -0.162563 -1.40128 13.9067 -0.16369 
0.802238 10.1013 -0.186059 0.658001 9.68544 -0.184622 1.03515 10.0049 -0.184656 
-0.332285 9.90891 -0.182299 -0.557979 10.1748 -0.181381 2.86004 22.5241 -0.218188 
3.0688 22.1952 -0.221606 2.3313 23.1386 -0.207027 2.58102 22.8848 -0.211954 
2.77467 23.1741 -0.211395 -0.759372 14.0682 -0.165147 -0.632176 14.4907 -0.163396 
-0.72277 14.8755 -0.163895 1.15689 11.7708 -0.185223 1.0904 11.4025 -0.186825 
1.35233 11.6986 -0.184399 2.39697 16.4861 -0.185257 2.29413 16.2149 -0.183963 
2.57923 16.4684 -0.189482 2.20236 15.9324 -0.182747 2.10337 15.6714 -0.181727 
2.36057 15.8878 -0.185911 2.00216 15.4242 -0.180433 1.90631 15.1535 -0.179643 
2.17565 15.3457 -0.183552 1.80579 14.8996 -0.178586 1.71329 14.6455 -0.177981 
1.98173 14.8334 -0.18135 1.62557 14.3987 -0.177259 1.54084 14.1283 -0.177037 
1.80164 14.323 -0.179808 1.45882 13.8501 -0.176904 1.38373 13.5611 -0.177236 
1.63963 13.7898 -0.179077 1.33218 13.2246 -0.178198 1.27921 12.8967 -0.179605 
1.42791 12.4586 -0.181871 1.51218 13.1701 -0.179798 3.78116 20.6376 -0.220876 
-1.2954 2.16595 -0.151938 3.22723 29.3814 -0.195928 3.09077 29.3686 -0.1944 
3.05862 28.9493 -0.195083 -1.26851 18.8105 -0.166555 3.51807 29.4562 -0.19921 
3.37672 29.4281 -0.197583 3.35581 29.0465 -0.198289 3.64796 29.1716 -0.201501 
3.72155 21.8809 -0.223833 3.88818 22.1117 -0.22253 3.91133 22.4999 -0.221549 
3.58656 22.1383 -0.223225 -1.22622 2.19866 -0.152908 -1.48685 25.868 -0.163577 
1.22903 10.8994 -0.185789 -2.33688 29.2521 -0.152413 -2.11835 29.0197 -0.154219 
0.781749 8.98478 -0.181197 0.518042 9.14058 -0.182079 1.68177 22.1362 -0.2011 
1.57225 22.6983 -0.197645 1.61102 21.7664 -0.199377 -1.14206 11.0712 -0.17583 
-1.26669 11.3687 -0.172331 -1.1443 10.5015 -0.173388 3.79299 22.6371 -0.22079 
1.30028 20.135 -0.185492 1.20296 20.5135 -0.186408 1.2099 19.8761 -0.183104 
3.64581 28.8188 -0.202292 3.14879 18.2273 -0.202027 3.01454 18.3035 -0.198018 
2.88307 17.9799 -0.194142 3.10007 17.8654 -0.200825 -2.4179 29.9034 -0.150637 
-0.963396 13.974 -0.16546 0.863049 18.6238 -0.1749 0.960309 18.9304 -0.176655 
-0.5284 20.4627 -0.171779 -0.808953 19.8317 -0.169588 0.694927 18.3243 -0.172998 
0.613139 18.6827 -0.173976 -0.0361522 14.0264 -0.0468434 0.105189 14.2331 -0.0485506 
1.33456 21.0917 -0.191227 1.50484 21.0129 -0.194005 1.55346 21.3639 -0.196977 
-1.16947 17.0907 -0.165169 -1.27592 16.1455 -0.163982 -1.3644 5.59132 -0.156171 
-1.58818 5.25494 -0.152201 3.49704 28.7115 -0.200779 -1.25699 12.2361 -0.171009 
-1.14166 12.7132 -0.170168 -0.733352 9.84945 -0.177482 3.23902 22.3877 -0.220532 
-1.83746 27.7196 -0.158371 -0.248065 9.2429 -0.179283 -0.201973 8.47295 -0.176042 
-0.450517 8.74705 -0.174805 1.79585 23.6018 -0.198202 2.03803 23.4224 -0.20162 
1.2244 2.00837 -0.153481 -0.955582 19.1148 -0.168166 -1.07512 17.9896 -0.16647 
-0.844373 17.3993 -0.166398 -0.596954 19.004 -0.169556 -0.996361 22.5883 -0.169651 
-0.667147 22.12 -0.1719 -1.01343 23.8926 -0.168917 1.02724 19.2832 -0.178692 
1.11034 19.581 -0.180675 0.99797 20.0001 -0.181711 0.840792 19.3438 -0.17767 
-1.08002 15.6059 -0.164128 2.20821 23.7987 -0.201918 -1.3345 2.53342 -0.151938 
-1.85867 12.0179 -0.16176 -1.91456 11.223 -0.160917 -1.50403 2.97428 -0.149534 
-1.33548 2.8832 -0.152206 -1.26423 2.96642 -0.153241 -1.49967 4.57276 -0.151923 
-1.96237 10.4334 -0.159007 -1.95531 9.5469 -0.157514 -1.64401 9.20372 -0.161293 
-1.70723 10.8775 -0.163846 2.80758 17.6864 -0.192479 2.71107 17.3818 -0.19065 
2.78711 17.091 -0.193323 2.93984 17.7163 -0.196434 0.331337 8.70389 -0.17984 
-1.21547 13.0591 -0.167696 1.37962 2.38053 -0.153869 2.87692 28.4432 -0.194405 
2.72271 28.4357 -0.192774 2.5651 28.4554 -0.191077 2.39949 28.4245 -0.18946 
2.68531 28.0035 -0.193571 2.25515 28.2664 -0.188476 2.1016 28.2151 -0.18715 
2.38202 27.8635 -0.190824 1.93018 28.1823 -0.185597 1.77346 28.1998 -0.184138 
2.06387 27.6708 -0.188277 1.60882 28.2636 -0.182483 1.46307 28.3238 -0.181064 
1.72558 27.7027 -0.185077 1.31082 28.4902 -0.179344 1.15737 28.5283 -0.177957 
1.40768 27.9351 -0.181643 1.01726 28.4768 -0.176979 0.870236 28.4951 -0.175749 
1.11488 28.0513 -0.178858 0.713454 28.5361 -0.17444 0.562406 28.5556 -0.173223 
0.817505 28.0425 -0.176463 0.397045 28.5772 -0.171947 0.245823 28.5837 -0.170805 
0.495417 28.1068 -0.173808 0.090911 28.5998 -0.16966 -0.0593759 28.6441 -0.16848 
0.175583 28.1459 -0.171296 -0.21538 28.7244 -0.167217 -0.355869 28.7776 -0.16614 
-0.134663 28.2432 -0.168821 -0.542377 28.8603 -0.164696 -0.679469 28.9636 -0.163568 
-0.47643 28.4065 -0.166076 -0.818125 28.8707 -0.162826 0.226323 14.421 -0.0496161 
0.370412 14.6506 -0.051727 -1.02232 28.7545 -0.161706 -1.17078 28.7508 -0.160737 
-0.866698 28.3735 -0.16348 -1.38917 28.7846 -0.159258 -1.53926 28.893 -0.158092 
-1.28873 28.2913 -0.160823 1.15341 8.93278 -0.181432 1.01181 8.40396 -0.17991 
-1.4431 12.8419 -0.165986 -1.3438 13.3213 -0.165629 1.56744 11.6641 -0.18378 
1.52316 11.2763 -0.18426 1.88747 3.95353 -0.15662 1.98587 4.34259 -0.157559 
2.07689 4.77734 -0.159147 2.16467 5.18982 -0.160217 1.87799 4.48986 -0.161634 
2.25244 5.6273 -0.16171 2.32138 6.02553 -0.162971 2.05005 5.36502 -0.163916 
2.38764 6.44225 -0.164597 2.44054 6.79565 -0.165827 2.19865 6.22304 -0.166253 
2.50674 7.24494 -0.167582 2.56805 7.56987 -0.16861 2.32643 7.09364 -0.169023 
2.56322 7.88332 -0.170416 0.50544 14.8741 -0.0519172 0.650221 15.1172 -0.0521546 
2.56496 8.33702 -0.172716 2.58494 8.67664 -0.174202 2.39255 8.00213 -0.17266 
2.63828 9.03558 -0.175519 2.65402 9.37489 -0.176969 2.44689 8.82123 -0.175852 
2.63879 9.71726 -0.178512 2.65351 10.0514 -0.179807 2.48467 9.52579 -0.178435 
2.70135 10.386 -0.180977 2.70707 10.7337 -0.182322 2.51652 10.2067 -0.180762 
2.68194 11.0549 -0.18345 2.67689 11.3776 -0.184527 2.53855 10.8645 -0.182802 
2.67145 11.7311 -0.185572 2.66743 12.0878 -0.186615 2.50675 11.5427 -0.184604 
2.67285 12.4533 -0.187548 2.67059 12.8181 -0.188465 2.50508 12.2643 -0.186153 
2.67253 13.1987 -0.189254 2.67383 13.557 -0.19 2.51102 13.0123 -0.187507 
2.6806 13.9056 -0.190697 2.68599 14.2413 -0.19128 2.51946 13.7426 -0.188582 
2.6732 14.6219 -0.191532 2.69512 14.9432 -0.192224 2.5138 14.4728 -0.189116 
2.8664 16.5896 -0.195734 2.8997 16.9157 -0.196375 2.97711 17.2474 -0.19785 
3.02622 17.561 -0.199071 3.67239 22.9384 -0.219251 3.62563 23.258 -0.217532 
3.53783 23.6618 -0.215139 3.49814 24.0294 -0.213378 3.42159 23.3009 -0.215636 
3.48297 24.4634 -0.211638 3.44567 24.864 -0.210046 3.31252 24.1577 -0.211357 
3.364 25.2575 -0.208015 3.32273 25.6651 -0.206571 3.2149 24.9953 -0.207436 
3.29609 26.1419 -0.204841 3.28118 26.5558 -0.203708 3.10718 25.8763 -0.203845 
3.29617 27.0035 -0.202574 3.30295 27.3928 -0.20176 3.09822 26.8068 -0.201097 
1.53016 2.76804 -0.153904 -0.301753 20.8933 -0.173594 -0.215669 20.1418 -0.173244 
3.34784 28.6636 -0.199141 -0.3715 16.1515 -0.164611 -0.284917 16.5362 -0.16563 
-1.13291 5.98486 -0.160219 -1.07312 5.1369 -0.159109 -1.41685 11.7717 -0.169236 
-1.48596 12.1224 -0.166964 -0.720447 9.14096 -0.173663 -0.938241 9.47322 -0.17254 
-1.21503 7.75874 -0.16314 -1.17324 6.81162 -0.160867 -0.884708 6.36069 -0.163993 
-1.61805 12.3873 -0.164523 -1.37586 26.8543 -0.162773 -1.18974 25.7416 -0.165685 
3.2861 22.8612 -0.217917 3.46227 22.4349 -0.221097 1.52318 23.7793 -0.193954 
1.64521 24.2408 -0.194413 -0.235647 17.0212 -0.166698 -0.134575 17.459 -0.168089 
-0.431081 16.8855 -0.16635 -1.16615 3.09757 -0.155238 -1.06226 3.11797 -0.156629 
-1.36819 3.44987 -0.152199 -0.927139 3.09345 -0.158573 -0.813118 3.02728 -0.159923 
-1.10306 3.55332 -0.156582 -0.686934 2.84592 -0.161448 -0.592662 2.79739 -0.162484 
-0.821303 3.34272 -0.160149 -0.518273 2.79264 -0.163398 -0.441276 2.82032 -0.164442 
-0.610794 3.15404 -0.162701 -0.381362 2.97551 -0.16525 -0.300602 3.0131 -0.166173 
-0.464021 3.30619 -0.164515 -0.194723 3.0335 -0.167506 -0.111091 2.9995 -0.168403 
-0.27426 3.48489 -0.166822 -0.0121438 2.83929 -0.169531 0.0560755 2.74 -0.170308 
-0.0431753 3.34163 -0.169324 0.129199 2.84164 -0.171171 0.775252 15.3314 -0.054121 
0.90843 15.5628 -0.0554197 0.226821 2.98299 -0.172241 0.314257 3.01366 -0.172965 
0.163822 3.32225 -0.171479 0.416232 2.99719 -0.173848 0.504707 2.99954 -0.174203 
0.386588 3.44924 -0.173174 0.60083 2.97555 -0.174606 0.694205 2.97751 -0.174411 
0.606538 3.40796 -0.174113 0.805586 3.01749 -0.174079 0.906124 3.03168 -0.173069 
0.832782 3.42463 -0.17385 1.0077 3.04434 -0.171891 1.10076 3.03678 -0.170546 
1.06626 3.47995 -0.171978 1.19226 2.97927 -0.168023 1.28435 2.95142 -0.165749 
1.28212 3.43778 -0.168452 1.36759 2.87361 -0.162011 1.45176 2.83549 -0.15871 
1.66565 3.16861 -0.154646 1.48075 3.30661 -0.16278 -0.0137803 17.9881 -0.169559 
0.146406 18.4205 -0.171391 -0.267761 17.9142 -0.168815 1.2975 9.99284 -0.183978 
1.18628 9.51171 -0.183137 1.41255 8.94587 -0.180791 -1.75445 28.3922 -0.157655 
-1.59013 27.6528 -0.160036 2.68289 23.9493 -0.206549 2.94799 23.6068 -0.210708 
3.18938 23.2847 -0.214824 3.09337 24.0315 -0.209975 1.48094 10.8447 -0.184434 
1.39418 10.4291 -0.184461 1.54673 9.95589 -0.182841 1.68998 10.8254 -0.183687 
2.0773 24.5851 -0.197881 2.36469 24.3266 -0.20208 2.38516 15.2254 -0.187 
2.29208 14.9656 -0.185861 2.01021 14.2078 -0.182435 1.93101 13.9516 -0.181938 
1.80124 13.7603 -0.180772 1.72642 13.4752 -0.180591 2.01245 13.6482 -0.183159 
1.78155 3.54348 -0.155319 3.1855 28.5714 -0.197498 3.03757 28.5207 -0.195987 
3.00492 28.0637 -0.196752 3.32824 28.2362 -0.199936 0.416014 7.91099 -0.177191 
0.109653 8.15543 -0.17698 -1.93811 28.8962 -0.155569 2.88609 16.2498 -0.19632 
2.72505 16.429 -0.192706 2.59695 16.1293 -0.190219 2.85323 15.8977 -0.195547 
-1.48825 11.2428 -0.168035 1.15977 7.67555 -0.178077 0.802406 7.69782 -0.177975 
0.579608 7.16879 -0.176454 -1.29152 27.5235 -0.162193 -1.1619 14.1154 -0.16438 
-1.01937 14.5507 -0.164033 2.5399 24.7257 -0.202144 1.32571 22.8124 -0.193556 
1.4212 23.2472 -0.194194 1.27481 23.8755 -0.190789 -1.12426 9.88395 -0.171229 
-1.31609 10.2295 -0.169495 -1.11683 9.20417 -0.169162 2.75218 15.2664 -0.193367 
2.79328 15.597 -0.194304 -1.52782 10.4473 -0.166657 -0.0949745 7.68488 -0.174183 
-0.928498 15.0227 -0.163661 -0.78544 15.9165 -0.164509 3.13991 27.7 -0.199188 
3.32735 27.8351 -0.200924 3.63925 22.5878 -0.220728 0.0471921 19.9827 -0.174665 
-0.188626 19.5626 -0.172455 1.13453 21.0294 -0.187745 1.15935 21.3954 -0.189563 
-0.80102 4.82417 -0.162252 -0.997919 4.43509 -0.159134 -0.390457 22.65 -0.173961 
-0.331293 21.7444 -0.174135 -0.016392 21.4127 -0.176341 -0.891872 24.7418 -0.168949 
-0.601839 23.8718 -0.171873 -0.778015 25.7192 -0.168586 1.62717 12.4509 -0.182247 
1.58946 12.0778 -0.183062 1.75892 11.6699 -0.183627 2.68274 15.7915 -0.192291 
-0.0374295 18.9277 -0.172019 -0.297852 19.0802 -0.171007 -1.27924 4.16294 -0.154752 
-1.11904 4.13573 -0.157276 1.50245 24.8981 -0.190964 1.77475 24.7392 -0.194034 
-0.455266 18.3766 -0.169193 -1.22673 8.53654 -0.164929 -0.919228 7.98673 -0.167158 
0.623776 19.3531 -0.176514 0.683531 19.7115 -0.17814 -0.662843 8.39227 -0.17177 
1.41545 21.8606 -0.195155 1.92653 25.2443 -0.194126 -0.568875 17.8333 -0.167817 
1.02763 20.8125 -0.185436 0.826999 20.5624 -0.182296 0.767425 21.0702 -0.183326 
0.265326 18.8896 -0.173177 2.53241 15.8356 -0.189297 2.44804 15.5417 -0.188045 
1.68684 3.64393 -0.159955 2.15493 14.7892 -0.183854 2.06218 14.525 -0.182916 
1.85976 13.1322 -0.18235 1.70026 13.1549 -0.181052 1.653 12.8158 -0.181598 
2.18557 14.1677 -0.18474 0.653491 6.44115 -0.175178 0.295873 6.63302 -0.174429 
2.24498 27.121 -0.191548 2.07082 27.0871 -0.189995 1.43947 27.3295 -0.183545 
1.28719 27.4986 -0.181756 1.14588 27.4484 -0.180667 1.03729 15.7894 -0.0563788 
1.17171 16.0262 -0.0578181 0.935102 27.4736 -0.178848 0.778195 27.5166 -0.177426 
1.10502 26.9196 -0.181726 0.600785 27.6718 -0.175631 0.435647 27.6951 -0.17428 
0.716938 27.1042 -0.177916 0.277287 27.6041 -0.173252 0.122877 27.6215 -0.172034 
0.38151 27.1704 -0.175033 -0.0525039 27.6832 -0.170597 -0.207714 27.764 -0.169279 
0.0484487 27.1433 -0.172468 -0.366384 27.9547 -0.167748 -0.552132 28.0375 -0.166272 
-0.284373 27.3963 -0.169466 -1.69015 28.8285 -0.157259 2.56207 15.1735 -0.190088 
1.83127 5.10256 -0.166338 1.91257 5.54246 -0.167127 2.01475 5.98793 -0.16781 
2.07716 6.40842 -0.168833 1.8011 5.73294 -0.16949 2.09788 6.82687 -0.170469 
2.1601 7.28087 -0.171682 1.91897 6.59978 -0.17138 1.30339 16.2601 -0.0591226 
1.4392 16.5005 -0.0604237 1.95063 7.55586 -0.17453 1.73037 7.16027 -0.174698 
1.74169 7.69958 -0.176308 2.17358 7.8094 -0.173735 2.17461 8.27242 -0.175505 
2.21454 8.8493 -0.177339 2.26542 9.21026 -0.178349 1.99904 8.67178 -0.177878 
2.25081 9.55908 -0.179563 1.55731 16.7096 -0.0615704 1.68633 16.9365 -0.0637684 
2.31059 10.1815 -0.181138 2.35707 10.5169 -0.18199 2.09538 9.87776 -0.180965 
2.32399 11.3269 -0.183831 2.31722 11.6838 -0.184478 2.38158 14.2858 -0.187259 
2.37048 14.6676 -0.187127 -1.52269 9.84669 -0.164975 1.45283 7.83814 -0.17759 
1.23399 7.13744 -0.176717 2.90409 25.5712 -0.202704 2.88028 26.0552 -0.201139 
2.87784 26.6786 -0.199099 2.89574 27.1295 -0.198112 2.67494 26.3827 -0.198041 
-0.614628 5.07611 -0.164706 -0.574895 4.3728 -0.164324 -0.0435185 6.79144 -0.172476 
-0.330875 7.09563 -0.171095 0.241429 20.1416 -0.176261 0.271563 19.5616 -0.175055 
0.997824 21.8236 -0.187937 1.19209 21.8954 -0.191211 1.25472 22.3 -0.192693 
-0.856577 3.82493 -0.160311 0.467502 19.0391 -0.174689 2.97854 27.6197 -0.197678 
-0.578937 6.70937 -0.16784 -0.568458 5.87189 -0.166415 2.33449 13.9649 -0.186617 
2.75971 27.4967 -0.195683 2.32701 13.6154 -0.186387 2.45428 25.4255 -0.198706 
2.76374 25.0629 -0.203417 1.74039 9.37224 -0.180971 1.70498 8.80948 -0.179494 
1.80601 17.1466 -0.0645392 1.94981 17.3962 -0.06608 0.055912 3.83183 -0.170528 
0.172146 3.97855 -0.17144 2.06774 17.5985 -0.0671246 2.20503 17.8322 -0.0689001 
0.361025 4.01923 -0.172863 0.487496 4.00179 -0.173395 0.25018 4.54141 -0.172146 
0.599188 3.83888 -0.173929 0.715284 3.81434 -0.173911 0.583669 4.41523 -0.173643 
0.833078 3.82971 -0.173936 0.963308 3.87174 -0.173186 0.829365 4.26515 -0.173853 
1.12962 4.06496 -0.172423 1.25167 4.08042 -0.170903 1.12491 4.47487 -0.172936 
1.58138 3.71525 -0.163216 1.47272 3.83779 -0.16666 1.66406 4.17075 -0.164466 
-0.553634 15.8682 -0.164346 -1.41324 8.95953 -0.164017 -0.660622 7.59154 -0.168938 
0.291457 20.6925 -0.177875 0.524225 20.26 -0.178714 2.35323 13.2109 -0.18646 
2.16319 13.4406 -0.184681 2.03982 13.2387 -0.18366 2.35194 12.8286 -0.186045 
-0.71426 16.4521 -0.165293 2.00278 25.8158 -0.193066 1.70598 25.958 -0.189662 
1.74899 4.60685 -0.165137 1.23474 25.0427 -0.187456 1.35893 25.532 -0.187795 
2.33702 18.0521 -0.0705214 2.46918 18.2716 -0.0728727 1.10316 22.8347 -0.19012 
1.62826 4.78994 -0.168128 2.33179 10.8428 -0.182827 2.33292 12.0816 -0.185063 
2.33711 12.4493 -0.185595 -0.667426 16.948 -0.166137 2.99664 24.8827 -0.205956 
-0.26644 23.488 -0.174856 2.60025 27.5151 -0.193986 3.07906 24.4779 -0.208102 
-0.341703 5.41026 -0.168125 -0.599217 27.5311 -0.166921 -0.708862 27.9813 -0.165286 
0.0602781 6.0636 -0.172121 0.255695 21.5431 -0.17891 1.80892 12.4472 -0.182983 
2.60771 18.4998 -0.074333 2.74659 18.7372 -0.0773436 2.24258 25.8214 -0.195562 
2.46227 26.1428 -0.196502 2.14842 11.8742 -0.184192 2.86254 18.9464 -0.0791092 
2.95299 19.1366 -0.0907212 1.20584 26.2798 -0.18427 1.47326 26.1472 -0.186954 
-0.722977 3.63902 -0.161624 -0.632804 3.63342 -0.162688 -0.557754 3.79296 -0.163798 
-0.400048 4.03788 -0.165997 -0.268166 4.0587 -0.167403 -0.064383 3.99904 -0.169352 
-0.157116 13.8571 -0.0481325 -0.173243 4.56183 -0.168718 1.3592 3.89177 -0.168859 
0.735876 20.2585 -0.18035 -1.48242 3.99091 -0.151423 1.94496 10.8708 -0.183195 
1.89709 10.4389 -0.182726 2.01493 12.9186 -0.183679 1.42504 4.48023 -0.169949 
2.14362 10.9879 -0.183156 1.05112 24.5509 -0.186749 0.911544 25.1759 -0.184019 
0.953749 24.0236 -0.186609 2.45463 27.3537 -0.192969 1.83694 27.0812 -0.187764 
1.67049 27.1471 -0.186057 0.560353 26.7039 -0.17752 0.401798 26.6154 -0.176349 
0.156339 26.4191 -0.174774 -0.01789 26.4825 -0.173248 0.333203 25.955 -0.17707 
0.878402 22.8224 -0.18706 0.950138 23.3351 -0.187651 0.728513 23.9995 -0.18425 
-0.912811 27.866 -0.16411 2.17652 12.6535 -0.184735 1.49704 4.97738 -0.17058 
1.54767 26.7072 -0.186241 2.01593 26.5256 -0.191081 -1.07394 27.49 -0.163707 
-0.76163 26.5856 -0.167394 -0.462618 25.5774 -0.171173 1.84234 9.81323 -0.181575 
0.749443 21.8019 -0.184676 0.787035 22.3028 -0.185766 0.633622 22.7924 -0.183991 
1.50203 6.68169 -0.174765 1.21586 6.50278 -0.17551 1.93404 11.3611 -0.183673 
0.200372 5.19957 -0.172182 0.424441 5.23966 -0.173325 2.46467 26.7679 -0.19476 
2.00126 12.5375 -0.183733 1.97397 12.1734 -0.18382 1.96071 11.7732 -0.183764 
0.941874 6.18432 -0.175245 0.65739 5.65567 -0.174448 1.19008 5.72985 -0.174216 
0.681598 4.99369 -0.173958 -0.599886 26.9586 -0.167955 -0.917029 27.1 -0.165439 
-0.0961413 5.34815 -0.170167 1.58935 5.66747 -0.171493 1.68038 6.11359 -0.172045 
0.994532 26.3102 -0.182167 0.835275 25.9112 -0.181642 0.736586 26.5463 -0.17937 
1.70045 6.53819 -0.173045 0.656538 25.4176 -0.181078 0.243309 22.2736 -0.179492 
0.557643 21.5395 -0.182035 1.39288 5.36166 -0.172467 0.0759647 23.0785 -0.178042 
0.371072 23.0829 -0.18109 1.12102 5.03418 -0.173534 -0.177944 26.1036 -0.172663 
-0.19673 25.2398 -0.173791 1.66647 8.22139 -0.178108 0.813691 4.82616 -0.174059 
0.948793 4.84111 -0.173819 -0.139127 24.3088 -0.17543 0.146018 24.825 -0.177384 
-0.286025 26.8238 -0.170532 -0.443596 27.0139 -0.169012 0.410414 25.229 -0.179042 
0.466144 24.291 -0.180991 0.463918 23.6087 -0.181736 4.30716 31.2787 0.0623095 
3.95706 31.214 0.0660913 4.12527 31.1962 0.0641101 3.55942 31.3574 0.0708476 
3.74064 31.3402 0.0688841 3.88666 30.8747 0.0657215 3.18544 31.3993 0.0747146 
3.37636 31.3826 0.0728024 3.48666 31.0255 0.0705206 2.8319 31.3829 0.0780197 
3.01233 31.3674 0.0762937 3.13048 31.0181 0.074118 2.45072 31.3964 0.0815424 
2.64096 31.3791 0.0797818 2.76691 30.9815 0.0775719 2.06949 31.4276 0.0850699 
2.26076 31.4082 0.0833142 2.38656 30.9887 0.0811946 1.69395 31.47 0.0885113 
1.87308 31.4496 0.0868758 2.00102 31.022 0.0848133 1.35091 31.5022 0.0916054 
1.5173 31.4812 0.0900674 1.62881 31.0553 0.0882327 0.981212 31.5528 0.0949359 
1.16757 31.5274 0.0932492 1.26965 31.092 0.0914814 0.617684 31.6005 0.0981646 
0.798672 31.5743 0.0965575 0.90449 31.1393 0.0947205 0.240245 31.6534 0.101424 
0.436141 31.6242 0.0997348 0.54093 31.1853 0.0978695 -0.130033 31.7083 0.104511 
0.052135 31.681 0.103004 0.171501 31.2374 0.100985 -0.514386 31.7619 0.107571 
-0.321487 31.7337 0.106042 -0.208142 31.291 0.104067 -0.857032 31.8132 0.110165 
-0.689135 31.7896 0.108903 -0.574622 31.3446 0.106933 -1.22206 31.8728 0.112831 
-1.03886 31.8483 0.111524 -0.931716 31.4078 0.10964 -1.56983 31.9035 0.115186 
-1.39492 31.8814 0.114012 -1.28698 31.4516 0.112183 -1.93753 31.9617 0.117647 
-1.75475 31.9398 0.11646 -1.64541 31.4966 0.114648 -2.29674 32.0024 0.119927 
-2.11774 31.9819 0.118799 -2.01104 31.5529 0.117117 -2.64391 32.0253 0.122065 
-2.46858 32.0058 0.120973 -2.36345 31.5763 0.119364 -2.97947 32.0644 0.124165 
-2.81181 32.0458 0.12312 -2.70344 31.5999 0.121509 -3.30563 32.1702 0.126366 
-3.15372 32.1533 0.125409 -3.04576 31.7091 0.123842 -3.51045 32.1912 0.127676 
0.470359 0.481817 0.228287 1.35736 1.49069 0.221046 0.955503 0.99281 0.253173 
2.0785 2.59326 0.173626 1.80112 2.13035 0.191506 1.37165 1.57124 0.205828 
2.53694 3.46843 0.148971 2.33508 3.05595 0.15948 2.06094 2.66367 0.167442 
2.89483 4.31839 0.130661 2.72755 3.89152 0.139168 2.50766 3.57083 0.144673 
3.15802 5.14297 0.116431 3.0299 4.72392 0.123066 2.83341 4.42033 0.128284 
3.3461 5.9017 0.105826 3.25838 5.53024 0.110706 3.06864 5.23355 0.115382 
3.49952 6.7016 0.096327 3.42805 6.30115 0.10083 3.25128 6.03822 0.104693 
3.60926 7.51294 0.0880362 3.55547 7.09647 0.092118 3.38803 6.84809 0.0956552 
3.68268 8.28017 0.0811899 3.64922 7.90639 0.0843678 3.48304 7.65004 0.0879218 
3.73926 9.05683 0.0749794 3.71635 8.66579 0.077915 3.55572 8.44062 0.0811136 
3.76914 9.86736 0.0694041 3.75553 9.45783 0.0720944 3.60457 9.23582 0.0750174 
3.78289 10.6899 0.0644314 3.7767 10.2764 0.0668199 3.62683 10.0525 0.0695064 
3.78898 11.533 0.0598834 3.78722 11.1153 0.0620123 3.63701 10.8919 0.0644613 
3.79136 12.3402 0.0558874 3.79087 11.9343 0.0577837 3.64132 11.7214 0.0599416 
3.79134 13.1987 0.051913 3.78905 12.7735 0.0538312 3.63918 12.5563 0.0557777 
3.80001 14.032 0.0481497 3.79333 13.6199 0.0499761 3.6374 13.4091 0.0517467 
3.83059 14.8963 0.0441818 3.81586 14.4505 0.0461795 3.65427 14.2454 0.0477697 
3.87258 15.7653 0.0399633 3.84882 15.3348 0.0420283 3.68762 15.0974 0.0436939 
3.93643 16.6312 0.0355167 3.90177 16.2015 0.0377403 3.735 15.9654 0.0394433 
4.0199 17.4579 0.0310216 3.97571 17.0462 0.0332992 3.80424 16.8094 0.0351137 
4.12882 18.3272 0.0260775 4.06974 17.8881 0.0286485 3.89434 17.6479 0.0306822 
4.26177 19.1543 0.0213048 4.19656 18.7364 0.0238195 4.01421 18.4816 0.0262385 
4.39847 19.9636 0.0170697 4.33341 19.568 0.0191372 4.15646 19.3021 0.0221419 
4.52599 20.7968 0.0142005 4.46299 20.3779 0.0155425 4.29679 20.1316 0.018887 
4.62309 21.5809 0.0136454 4.57977 21.1956 0.0136747 4.4189 20.9495 0.0173605 
4.68321 22.4133 0.0159953 4.65741 21.9824 0.0143676 4.50848 21.7569 0.0181707 
4.69985 23.176 0.0199854 4.69533 22.7996 0.0178187 4.55334 22.5536 0.0209262 
4.68822 23.9702 0.0250305 4.69724 23.5716 0.0223571 4.5606 23.3452 0.0249611 
4.65192 24.7879 0.0305684 4.67017 24.3814 0.0277957 4.5367 24.1607 0.0298453 
4.61199 25.5854 0.0356819 4.63434 25.1879 0.033086 4.49772 24.9795 0.0348038 
4.56271 26.4244 0.0407082 4.58825 26.0051 0.0382104 4.45394 25.8045 0.0395141 
4.50397 27.3047 0.0455 4.53095 26.8642 0.0431812 4.39637 26.6673 0.0442563 
4.4559 28.1707 0.0496958 4.48207 27.7264 0.0475486 4.34111 27.5311 0.0486058 
4.39966 29.0695 0.0538028 4.42428 28.6225 0.0518297 4.28645 28.4052 0.052682 
4.35008 29.9271 0.0574193 4.37105 29.5115 0.0557477 4.22535 29.299 0.0566045 
0.473946 0.474138 0.230258 -3.47407 31.1622 0.125396 -3.49165 31.5456 0.126261 
-3.4371 30.2822 0.123487 -3.46023 30.7827 0.124574 -3.33955 30.8719 0.123995 
-3.3337 29.2389 0.120922 -3.36061 29.8234 0.122146 -3.2491 30.0339 0.121814 
-3.25801 27.9788 0.118274 -3.28639 28.6143 0.119522 -3.12497 28.9512 0.119003 
-3.21119 26.5884 0.115834 -3.24122 27.3088 0.117105 -3.06029 27.6581 0.116338 
-2.94664 23.0226 0.109744 -2.9715 24.0141 0.110874 -2.91026 20.7392 0.107748 
-2.91467 21.9166 0.108633 -2.58597 22.3319 0.10577 -2.95416 18.4719 0.106649 
-2.92167 19.6449 0.107112 -2.56564 20.1469 0.103793 -3.06103 16.3972 0.106184 
-2.99794 17.4237 0.10625 -2.62256 18.0184 0.102859 -3.20838 14.4823 0.105951 
-3.13085 15.3909 0.105844 -2.74171 15.9719 0.102763 -3.36682 12.7567 0.106252 
-3.29194 13.6123 0.105826 -2.90683 14.0961 0.103631 -3.50149 11.0771 0.107724 
-3.44799 11.9278 0.106624 -3.08408 12.3882 0.105393 -3.55596 9.43911 0.110618 
-3.54588 10.2888 0.108912 -3.22093 10.7517 0.108499 -3.50302 7.81604 0.114471 
-3.55262 8.61046 0.112513 -3.2755 9.10162 0.11287 -3.33386 6.35203 0.117877 
-3.44031 7.05432 0.116172 -3.21987 7.46777 0.117819 -3.07723 5.12197 0.120477 
-3.22023 5.69385 0.119175 -3.05099 6.00098 0.122398 -2.69697 3.95702 0.123723 
-2.88857 4.48066 0.122528 -2.75389 4.65548 0.127192 -1.72211 2.00629 0.123531 
-2.0217 2.48803 0.123253 -1.101 1.16068 0.132458 -1.48868 1.65677 0.120174 
-1.39392 1.55506 0.139608 -0.4948 0.393307 0.16428 -0.362925 0.368229 0.204789 
-0.418776 0.385897 0.194426 -0.226999 0.265588 0.180452 -0.251443 0.27807 0.187484 
-0.599728 0.669278 0.191443 -0.232506 0.317133 0.182214 -0.253438 0.324824 0.19607 
-0.485939 0.612152 0.194605 -0.198835 0.285488 0.163905 -0.213003 0.289258 0.168655 
-0.455403 0.657936 0.181523 -0.15076 0.261798 0.158578 -0.163748 0.260822 0.156291 
-0.362875 0.616039 0.176093 -0.114694 0.244855 0.158103 -0.127707 0.241324 0.154765 
-0.282358 0.556793 0.178469 -0.0942132 0.28298 0.17201 -0.105718 0.282923 0.173538 
-0.222885 0.558196 0.185806 -0.0701669 0.255674 0.157826 -0.0804997 0.259201 0.161195 
-0.173323 0.57411 0.184986 -0.0459129 0.257561 0.157529 -0.0553693 0.256949 0.157141 
-0.122614 0.573872 0.178642 -0.0204305 0.256091 0.161203 -0.0300115 0.255598 0.157002 
-0.0754777 0.571795 0.178424 0.00174397 0.286975 0.172704 -0.00762884 0.288267 0.172091 
-0.0257609 0.579533 0.182187 0.0294332 0.254156 0.157963 0.0166392 0.256636 0.162742 
0.0227665 0.577828 0.182017 0.0560746 0.259667 0.155534 0.0458728 0.259874 0.156193 
0.0736071 0.574411 0.175789 0.0829483 0.263723 0.156121 0.071777 0.262693 0.154665 
0.122124 0.580146 0.169926 0.105926 0.254593 0.152568 0.0949482 0.250349 0.15086 
0.167485 0.5784 0.171252 0.118039 0.241992 0.151 0.108492 0.2498 0.146961 
0.211211 0.556574 0.17535 0.145422 0.243806 0.153451 0.132359 0.24488 0.153469 
0.261905 0.543865 0.175369 0.166871 0.234747 0.154207 0.151342 0.232113 0.152788 
0.305848 0.524573 0.175909 0.197528 0.239685 0.160428 0.180704 0.231946 0.157171 
0.348626 0.512381 0.182362 0.269502 0.311393 0.198034 0.24088 0.302756 0.188703 
0.446024 0.571269 0.196537 2.68083 19.7558 0.0589791 2.68185 19.4973 0.0317664 
2.61091 19.2352 0.0228332 2.52118 18.9822 0.0232677 2.45264 19.7089 0.0443643 
2.41327 18.7347 0.0233963 2.291 18.4831 0.0257235 2.30752 19.1664 0.0384834 
2.1621 18.2541 0.0277299 2.04011 18.0202 0.029433 2.09902 18.6599 0.0403461 
1.91643 17.7899 0.0308754 1.80519 17.5786 0.0328323 1.8678 18.177 0.042904 
1.6865 17.3557 0.0347052 1.57209 17.1378 0.0371332 1.63997 17.7071 0.0456241 
1.45888 16.9074 0.0381122 1.34382 16.6924 0.039249 1.41837 17.2403 0.048898 
1.22134 16.4662 0.0414008 1.09302 16.226 0.0421093 1.19011 16.7716 0.0515166 
0.967811 15.9913 0.0432984 0.841866 15.7583 0.0441069 0.949476 16.2982 0.054274 
0.712729 15.5293 0.0454651 0.592128 15.3089 0.0463597 0.702432 15.8218 0.0564727 
0.465852 15.0786 0.0477651 0.336433 14.8451 0.0479117 0.455064 15.348 0.0587536 
0.21532 14.6227 0.0478884 0.100629 14.419 0.0466653 0.216438 14.8757 0.061022 
-0.0145996 14.2137 0.0466838 -0.126432 14.0016 0.0428488 -0.0100064 14.4187 0.0618048 
-0.226642 13.7708 0.0444962 -0.329055 13.5216 0.043194 -0.219097 13.9201 0.0627542 
-0.522093 13.1175 0.133268 -0.44876 13.145 0.174662 2.85486 19.225 0.00542319 
2.93938 19.4487 0.00410398 2.64983 18.8184 0.0178766 2.75345 19.0113 0.0104518 
2.83553 19.0942 0.0231418 2.39955 18.3854 0.0285691 2.5251 18.6066 0.0250773 
2.62803 18.6123 0.0313957 2.16816 17.966 0.0304396 2.28161 18.1728 0.0259186 
2.40097 18.1586 0.0373209 1.93105 17.539 0.03328 2.05245 17.7529 0.0323819 
2.17113 17.7123 0.0400951 1.68503 17.0831 0.035907 1.80832 17.3121 0.0341135 
1.94522 17.2573 0.0437972 1.44942 16.6396 0.038466 1.56494 16.8547 0.0365877 
1.70842 16.7856 0.0469133 1.21334 16.2114 0.040463 1.32825 16.4275 0.0391021 
1.47391 16.3306 0.0496364 0.968129 15.7419 0.0428272 1.092 15.9752 0.0416897 
1.23887 15.8677 0.0520997 0.704877 15.2477 0.0450583 0.839976 15.5014 0.0435411 
0.99876 15.3721 0.0545642 0.459455 14.7808 0.0446766 0.581856 15.0157 0.0456085 
0.75945 14.8773 0.0578857 0.224084 14.3018 0.0497739 0.331115 14.5221 0.0506343 
0.528391 14.3662 0.0601427 0.0219043 13.7846 0.053065 0.117027 14.0498 0.05239 
0.323122 13.8239 0.0647164 -0.06374 13.2277 0.0896857 -0.0633813 13.5187 0.0622079 
0.16655 13.2669 0.0767437 3.16406 19.8917 0.0818419 3.07258 19.8615 0.129421 
4.28496 30.8306 0.0610999 -3.42494 31.8188 0.126395 4.30331 30.4308 0.059601 
-2.66798 24.5044 0.108751 -3.02036 25.0925 0.112409 -3.04933 25.8806 0.113634 
-2.48591 3.42341 0.123411 -2.34037 3.42806 0.132711 -0.56078 0.481021 0.139243 
-2.24225 2.92429 0.124874 -0.318981 12.5821 0.146769 -0.123777 12.9666 0.131563 
2.69698 19.9652 0.0995878 2.51156 20.2258 0.0784727 0.401882 0.424147 0.23074 
-0.477004 13.225 0.0816621 -0.515025 13.1174 0.0803279 -0.61939 12.7485 0.120228 
3.07385 19.7321 0.0334199 3.12539 19.8475 0.0205624 2.88959 20.3338 0.0979498 
0.07653 12.7043 0.117321 3.25221 20.2205 0.0764887 -1.88168 2.40247 0.136386 
4.14939 30.2443 0.0606909 0.680833 0.766649 0.221909 3.40459 30.7351 0.0704481 
3.58797 30.7103 0.0684316 3.75098 30.5626 0.0661819 3.96815 30.4371 0.0633435 
4.01545 29.9338 0.0611644 3.67035 30.273 0.0661399 2.71602 30.5604 0.0770058 
2.90652 30.5649 0.0750984 2.32968 30.5678 0.0807492 2.51909 30.5566 0.078917 
2.66025 30.1389 0.0765137 1.93167 30.5911 0.0845169 2.12735 30.5693 0.0826803 
2.2608 30.1357 0.0804591 1.5584 30.6177 0.0879587 1.73437 30.6063 0.0863411 
1.86092 30.1521 0.0842623 1.19609 30.659 0.0912049 1.37872 30.6334 0.0895599 
1.48386 30.1834 0.0877099 0.832474 30.6984 0.0943631 1.01446 30.6764 0.0928011 
1.12258 30.2171 0.0908897 0.475357 30.7598 0.0974289 0.656546 30.7355 0.0959032 
0.765225 30.2724 0.0939677 0.0938844 30.8051 0.100551 0.281882 30.7769 0.0990108 
0.395968 30.3273 0.0970564 -0.283522 30.8527 0.103547 -0.0919093 30.8269 0.102031 
0.0168962 30.3669 0.10008 -0.642115 30.9086 0.106319 -0.467008 30.8805 0.104962 
-0.352259 30.4171 0.10296 -0.99808 30.9734 0.108993 -0.815768 30.9381 0.107632 
-0.709356 30.4748 0.105698 -1.36192 31.0171 0.111588 -1.18851 31.0084 0.110403 
-1.07352 30.5396 0.10843 -1.7192 31.0764 0.114105 -1.53376 31.0401 0.1128 
-1.43589 30.5975 0.111055 -2.08113 31.136 0.116586 -1.90051 31.1159 0.115372 
-1.7892 30.6599 0.113572 -2.43117 31.1376 0.11881 -2.25905 31.1344 0.117712 
-2.1486 30.6977 0.11602 -2.76499 31.1133 0.120864 -2.5969 31.093 0.119763 
-2.49241 30.6512 0.118147 -3.11677 31.2486 0.123346 -2.94234 31.1598 0.122078 
-2.83565 30.6528 0.120359 -2.31744 17.4963 0.0990902 -2.27162 18.5332 0.0991491 
2.47268 3.70186 0.140999 2.28084 3.2595 0.150021 2.06896 2.82045 0.160681 
1.81087 2.34348 0.173318 2.05657 2.97159 0.154228 1.5003 1.84552 0.188387 
1.08206 1.25655 0.207048 0.878075 1.08042 0.198096 1.55164 2.04411 0.176467 
2.76214 4.54006 0.125856 2.62554 4.1135 0.132944 2.41592 3.82891 0.137228 
2.97684 5.34627 0.113998 2.87493 4.94123 0.119751 2.67976 4.65337 0.123809 
3.14317 6.17128 0.103951 3.06086 5.7552 0.108819 2.87637 5.47672 0.112604 
3.26327 6.98705 0.0953516 3.20736 6.57768 0.0994621 3.02407 6.30553 0.103079 
3.35816 7.79876 0.0877623 3.31804 7.39352 0.0912998 3.14284 7.13076 0.0948338 
3.42712 8.59894 0.0810783 3.39382 8.20368 0.0842224 3.23316 7.95206 0.0874801 
3.46437 9.41731 0.0750237 3.44902 9.00863 0.0779152 3.29018 8.7751 0.0809012 
3.48084 10.2465 0.0695682 3.47434 9.83165 0.0721887 3.321 9.60612 0.0749363 
3.48682 11.0939 0.0645031 3.48367 10.6645 0.0669622 3.33246 10.4439 0.0694944 
3.49182 11.8991 0.0600628 3.491 11.4963 0.0621647 3.33801 11.2681 0.0645643 
3.48739 12.7717 0.0556393 3.49069 12.3388 0.0577245 3.33968 12.1122 0.0598714 
3.48911 13.6102 0.0515064 3.4878 13.1914 0.0534972 3.33767 12.972 0.0554272 
3.50925 14.4398 0.0474796 3.49367 14.0252 0.0494983 3.34169 13.8057 0.0512627 
3.54139 15.2991 0.0433239 3.52311 14.8664 0.0453797 3.35956 14.6446 0.0471262 
3.59488 16.177 0.0389716 3.56492 15.7478 0.0410583 3.39685 15.5155 0.0428452 
3.66744 16.991 0.0347886 3.62732 16.583 0.036898 3.45405 16.3645 0.0386394 
3.76698 17.8331 0.030477 3.71575 17.4092 0.03266 3.5355 17.1826 0.034545 
3.89946 18.6423 0.0265345 3.83023 18.2374 0.0285302 3.64829 17.9994 0.030572 
4.04747 19.4619 0.0232099 3.97355 19.0491 0.0248532 3.78758 18.8068 0.0271763 
4.18709 20.2891 0.02126 4.11993 19.8719 0.0221467 3.93804 19.6224 0.0247981 
4.30887 21.1139 0.0210969 4.25354 20.7093 0.0210379 4.08282 20.4531 0.0239029 
4.37813 21.9142 0.0230506 4.34447 21.5048 0.0219385 4.18782 21.2655 0.0251032 
4.41419 22.705 0.0259943 4.40339 22.3094 0.0243421 4.248 22.0554 0.0277696 
4.41524 23.5176 0.0299125 4.4203 23.1124 0.0278213 4.27552 22.865 0.0308052 
4.37602 24.3504 0.0345841 4.39674 23.9309 0.0321699 4.25855 23.6945 0.0347303 
4.33436 25.1674 0.0389576 4.35395 24.7607 0.0367777 4.21394 24.5272 0.0389798 
4.28279 26.0205 0.0434185 4.30832 25.596 0.0412104 4.16327 25.3741 0.0430949 
4.22168 26.9108 0.0478831 4.25496 26.468 0.0456054 4.10752 26.2568 0.0472165 
4.17417 27.7526 0.051692 4.19702 27.3292 0.0497431 4.05386 27.1274 0.0510983 
4.11344 28.634 0.0555857 4.14593 28.1818 0.0535617 4.0002 27.9776 0.0547598 
4.05334 29.5081 0.0592935 4.08263 29.0662 0.0574614 3.94049 28.8406 0.0583994 
3.87118 29.6993 0.0620221 -1.38089 1.69788 0.155655 -1.64404 2.17827 0.149586 
-2.9134 28.7816 0.11724 -2.96102 29.4052 0.118722 -2.3255 23.8625 0.104859 
-2.37422 24.9313 0.106716 -2.83361 27.216 0.113955 -2.85065 27.8843 0.115199 
-2.68626 28.3392 0.114831 3.33403 20.4458 0.0518456 3.26569 20.6197 0.071975 
-2.24853 19.5555 0.0997407 -2.23524 20.6352 0.100454 -1.89906 2.79925 0.144846 
-2.13147 3.3745 0.140252 -2.23938 21.674 0.101555 -2.2695 22.7666 0.10301 
-1.97112 23.1972 0.100667 -1.91 21.0728 0.0975302 -2.43492 15.46 0.0996388 
-2.35916 16.4624 0.098998 -1.99394 16.9701 0.0954367 -2.62511 13.6447 0.102055 
-2.53344 14.5186 0.100738 -2.144 14.9962 0.0972216 -2.82392 11.9631 0.105647 
-2.73548 12.8043 0.103588 -2.95642 10.371 0.110372 -2.90588 11.1824 0.107781 
-2.57051 11.5844 0.10601 -2.98252 8.69748 0.116118 -2.97854 9.5637 0.113028 
-2.68104 9.98276 0.111986 -2.9032 7.05189 0.122327 -2.95875 7.85831 0.119186 
-2.68544 8.3109 0.118847 -2.71236 5.55854 0.128504 -2.82093 6.2614 0.12557 
-2.58669 6.64825 0.126056 -2.38574 4.14363 0.135058 -2.57736 4.82694 0.13193 
-2.37841 5.09246 0.133494 -2.00241 3.56943 0.142588 0.185089 12.1084 0.112253 
0.295659 12.4158 0.0960046 -0.462912 12.0337 0.127804 -0.246873 11.8726 0.13062 
-1.20114 1.35045 0.154309 -0.914564 0.950234 0.164047 -0.673498 1.07152 0.170901 
-0.739089 1.07929 0.173613 -0.503946 0.943966 0.165916 -0.572968 0.983792 0.168334 
-0.822106 1.40278 0.165867 -0.390622 0.87679 0.169432 -0.445483 0.902437 0.167394 
-0.624912 1.26007 0.164468 -0.319258 0.902228 0.174207 -0.359258 0.892288 0.172923 
-0.501093 1.22644 0.167267 -0.242873 0.930799 0.172199 -0.286187 0.923078 0.173383 
-0.404433 1.26135 0.169069 -0.172418 0.940743 0.167146 -0.211565 0.939055 0.168589 
-0.307542 1.29514 0.166782 -0.0940149 0.935796 0.168009 -0.13545 0.940243 0.166897 
-0.206466 1.30493 0.16444 -0.0206447 0.929814 0.171222 -0.059172 0.928269 0.170645 
-0.101824 1.29327 0.165406 0.0554808 0.915309 0.168318 0.0148042 0.914984 0.1703 
-0.00219451 1.26806 0.165732 0.128372 0.925967 0.161252 0.0878386 0.918435 0.164153 
0.0944492 1.26179 0.161748 0.205117 0.933582 0.158056 0.16259 0.928031 0.159869 
0.194017 1.27031 0.156975 0.273611 0.919648 0.15727 0.237916 0.935013 0.157003 
0.29197 1.27421 0.153947 0.345132 0.902937 0.159102 0.30598 0.91285 0.158959 
0.388729 1.26674 0.15339 0.424049 0.900056 0.159828 0.380362 0.895566 0.15917 
0.489643 1.25495 0.154133 0.491955 0.871706 0.164505 0.452891 0.883335 0.161873 
0.590023 1.23737 0.156695 0.55934 0.842557 0.173908 0.507485 0.836444 0.168416 
0.675384 1.19008 0.162611 0.72618 0.93679 0.191726 0.625791 0.881979 0.183929 
0.800075 1.19977 0.172729 1.05716 1.39189 0.185104 2.3716 20.7448 0.0748746 
2.29623 20.4923 0.0628001 -0.489277 13.4336 0.0766378 -0.629757 13.0484 0.0885888 
-0.735582 12.4079 0.110146 -0.654427 12.2774 0.126214 2.16362 19.6306 0.0435632 
2.09003 19.3544 0.0422399 1.99521 19.1027 0.0421144 1.89226 18.8476 0.0427866 
1.8754 19.5315 0.0457992 1.79435 18.5907 0.0433264 1.68826 18.3409 0.0443451 
1.69997 19.0075 0.0458349 1.57987 18.0774 0.0454125 1.47311 17.8397 0.0466547 
1.50862 18.4724 0.0471392 1.36898 17.6063 0.0479975 1.26473 17.3633 0.049246 
1.30745 17.9626 0.049306 1.15271 17.1115 0.050581 1.03814 16.8731 0.0518055 
1.10092 17.4651 0.0517952 0.919991 16.6244 0.0529997 0.802246 16.3773 0.0542142 
0.87938 16.9528 0.0541895 0.679193 16.1272 0.0553308 0.558886 15.8849 0.0566578 
0.646096 16.4414 0.056629 0.442993 15.6421 0.0579032 0.325327 15.3948 0.0593176 
0.415023 15.9343 0.0591833 0.210987 15.1426 0.0606727 0.100579 14.8968 0.0619495 
0.192194 15.4225 0.0619991 -0.0137875 14.638 0.0633849 -0.118713 14.3916 0.064177 
-0.0307333 14.89 0.0649331 -0.235562 14.1164 0.066008 -0.354377 13.8008 0.0704596 
-0.26043 14.3295 0.0702445 3.07435 19.5367 0.0270555 3.21072 19.9061 0.0356973 
2.96814 20.8629 0.0850773 2.70683 20.9385 0.0854781 2.84169 18.8953 0.0276108 
2.94782 19.1805 0.0260425 3.09117 19.3154 0.0299435 2.19419 17.4441 0.0387676 
2.29946 17.6738 0.0374915 1.97109 16.9633 0.0419869 2.08536 17.2056 0.040233 
2.22219 17.1643 0.0402411 1.74135 16.46 0.0448921 1.8537 16.703 0.0434745 
2.00483 16.6511 0.0430939 1.51598 15.994 0.0477018 1.62831 16.2193 0.0464281 
1.78435 16.1366 0.0461139 1.28969 15.5 0.0505042 1.40102 15.7519 0.0492352 
1.56686 15.6407 0.0491812 1.05139 14.9951 0.0536718 1.16716 15.2543 0.0522199 
1.34107 15.1387 0.0523328 0.831424 14.4783 0.057678 0.938866 14.7316 0.0557817 
1.11878 14.6154 0.0560058 0.627027 13.9184 0.0634224 0.724311 14.1998 0.0610545 
0.915037 14.0581 0.0606723 0.46353 13.3368 0.070672 0.538595 13.6234 0.0664341 
0.738357 13.4691 0.0663048 0.349408 12.7371 0.0844004 0.398223 13.0289 0.0743975 
0.601482 12.8529 0.0756006 3.08201 30.6191 0.0734587 3.25473 30.6517 0.071781 
3.35738 30.3367 0.0697591 3.03253 30.1982 0.0728139 2.26079 20.2206 0.0550368 
2.21898 19.9385 0.0470607 2.01397 20.1022 0.0495167 2.1045 20.6865 0.0599828 
2.63021 18.3942 0.0317411 2.73604 18.6416 0.0289007 2.85896 18.6864 0.0293527 
2.40537 17.9103 0.0360734 2.51795 18.1482 0.0338486 2.64198 18.1596 0.0336025 
2.42893 17.6561 0.0373387 -1.48389 2.1652 0.154396 -1.92792 19.0207 0.0958387 
-2.36746 13.2118 0.100815 -1.05488 1.5079 0.167107 -0.815066 1.07836 0.176835 
3.34477 21.1763 0.0591062 3.19257 21.0184 0.0696324 3.05837 21.4671 0.0719481 
-2.88133 29.9673 0.11928 -3.09277 30.1374 0.120998 -2.08979 25.3262 0.104904 
-2.43575 25.9725 0.108841 -3.28678 31.5247 0.12496 -3.16933 30.5957 0.122381 
-3.18329 30.9752 0.123215 3.36967 20.3259 0.0414021 3.46226 20.6668 0.0450932 
-2.88113 26.2823 0.112874 0.48321 12.2162 0.0907296 0.04265 11.7376 0.121088 
0.267972 11.5561 0.107758 -0.624845 11.7038 0.118387 -0.14538 11.3309 0.120883 
-0.837368 1.03294 0.177269 -0.989222 1.17169 0.168495 2.47464 20.9977 0.0783544 
2.25325 21.1911 0.0717304 2.57886 21.3889 0.0775952 -0.514443 13.6672 0.0786757 
-0.78455 12.8846 0.092255 -0.766129 12.6375 0.0986348 3.37991 20.0948 0.0349205 
-0.856825 12.211 0.106009 -2.67065 26.511 0.111571 -2.38796 26.9029 0.110014 
-1.75669 24.7423 0.101034 -1.81756 25.7769 0.103348 1.78744 29.6958 0.0839811 
1.98506 29.6805 0.082108 2.60137 29.6959 0.0760638 2.79852 29.7008 0.0740161 
1.41929 29.733 0.0873217 1.59911 29.7169 0.0857025 1.72254 29.2435 0.0836337 
1.05294 29.7726 0.0905017 1.23455 29.7545 0.0889448 1.34873 29.2868 0.0869961 
0.700047 29.836 0.0935068 0.875781 29.7982 0.092023 0.986477 29.3351 0.0900802 
0.315345 29.8673 0.0965877 0.50864 29.8494 0.0950532 0.617814 29.3754 0.0930921 
-0.0557061 29.9017 0.0994911 0.129908 29.8793 0.0980379 0.241169 29.4021 0.0960519 
-0.42883 29.952 0.102369 -0.245478 29.9238 0.100947 -0.133712 29.4372 0.0989213 
-0.777537 30.0118 0.105034 -0.603935 29.982 0.103703 -0.498154 29.4898 0.101721 
-1.15097 30.0835 0.107844 -0.960504 30.0483 0.106423 -0.855867 29.5566 0.104464 
-1.50939 30.1375 0.110455 -1.33746 30.1147 0.10922 -1.22503 29.6244 0.107249 
-1.86976 30.2102 0.113068 -1.68832 30.1709 0.111742 -1.59024 29.6886 0.109952 
-2.21027 30.2943 0.115525 -2.0322 30.2961 0.114342 -1.93149 29.8074 0.112573 
-2.52699 30.0813 0.117169 -2.36114 30.1261 0.116163 -2.24481 29.7248 0.114524 
-1.84102 14.5233 0.0950621 -1.73327 15.464 0.0930878 -1.64334 18.4731 0.0922608 
-1.62008 19.4876 0.0926999 3.52603 30.0511 0.0670431 3.68993 29.9044 0.0647546 
3.72835 29.4782 0.0629654 2.90471 18.4253 0.0315562 3.01634 18.7039 0.0309738 
2.37348 3.97962 0.133593 2.22242 3.55919 0.140866 1.63159 2.30825 0.165369 
1.35094 1.83469 0.175627 1.1745 1.6725 0.173488 -1.3382 2.13102 0.157859 
2.90373 6.44937 0.102228 2.83912 6.03077 0.106644 3.01724 7.27329 0.0944393 
2.96172 6.85635 0.0982434 2.78388 6.59102 0.101575 3.09871 8.1151 0.0872504 
3.06281 7.70115 0.0906082 2.88764 7.43439 0.0939628 3.15073 8.9526 0.0807413 
3.12916 8.5352 0.0838352 2.96323 8.29033 0.0869159 3.17836 9.7938 0.0748306 
3.16894 9.37342 0.0776737 3.01127 9.13796 0.0805107 3.18691 10.6433 0.0693929 
3.18484 10.2208 0.0719883 3.03514 9.99115 0.0746269 3.19328 11.4521 0.0645421 
3.1898 11.047 0.0668849 3.04327 10.8259 0.069304 3.18928 12.3114 0.059766 
3.19123 11.8703 0.0621233 3.04288 11.6506 0.064362 3.18334 13.1766 0.0552645 
3.18344 12.7571 0.0573707 3.03353 12.5164 0.0595356 3.18326 14.0115 0.0510301 
3.17881 13.5982 0.0530928 3.02213 13.3844 0.0549822 3.20254 14.849 0.0468759 
3.1883 14.4259 0.0489483 3.02232 14.2198 0.0507401 3.24868 15.721 0.0425259 
3.22431 15.2775 0.0446546 3.04951 15.0601 0.0465168 3.31313 16.5677 0.038341 
3.27946 16.1676 0.0402753 3.10288 15.9307 0.042173 3.40264 17.3743 0.0344031 
3.35333 16.9625 0.0363511 3.17605 16.7656 0.0380747 3.52569 18.192 0.0306365 
3.46138 17.7931 0.0323644 3.27601 17.5718 0.0342127 3.66904 18.9833 0.0278737 
3.59294 18.5798 0.0291794 3.40363 18.3709 0.0308749 3.83827 19.7848 0.0263621 
3.76238 19.3754 0.0269263 3.56733 19.1459 0.0287949 3.9743 20.6167 0.0270409 
3.90402 20.1959 0.0265634 3.73294 19.947 0.0284729 4.05706 21.4053 0.0296758 
4.02105 21.0128 0.0283798 3.85453 20.7507 0.0308637 4.11293 22.2105 0.0326775 
4.09122 21.8094 0.0313914 3.93602 21.5493 0.0343753 4.12534 23.0101 0.0357868 
4.1234 22.5939 0.0342256 3.97224 22.3424 0.0375764 4.08619 23.8622 0.0397867 
4.10871 23.4393 0.0377606 3.95883 23.1642 0.0408638 4.02972 24.699 0.043592 
4.05421 24.2796 0.0418015 3.90348 24.0224 0.0445559 3.9757 25.5806 0.0473362 
4.00337 25.1441 0.0454684 3.84132 24.8965 0.0480461 3.91381 26.4878 0.0511687 
3.94266 26.0341 0.0492481 3.78022 25.8046 0.0514127 3.87131 27.3513 0.0544948 
3.8965 26.9292 0.0527489 3.72933 26.7069 0.0546406 3.83492 28.195 0.0576473 
3.86359 27.7636 0.0558486 3.70444 27.5655 0.0574655 2.75704 5.59037 0.111469 
2.67229 5.16833 0.116694 2.64525 5.73477 0.110231 -2.45587 27.7913 0.112131 
-2.51853 28.6867 0.114287 -2.21962 27.2511 0.109352 3.59605 20.9415 0.0418598 
3.50843 21.1044 0.0486947 -1.70371 16.4198 0.0924034 -1.65884 17.4492 0.0919393 
-1.38425 15.9413 0.0889702 -2.38347 7.87198 0.12218 -2.4048 8.73954 0.11825 
-2.41485 9.55078 0.114619 -2.39323 10.3759 0.110921 -2.13589 9.13646 0.117098 
-2.36155 11.1575 0.107615 -2.27613 11.9468 0.104272 -2.11671 10.7405 0.109217 
-2.2714 6.17666 0.13015 -2.34765 6.99674 0.126271 -2.09295 7.427 0.125283 
-0.819474 11.4089 0.115311 -0.645111 11.1143 0.119894 2.19452 29.669 0.0800767 
2.39724 29.6681 0.0780825 2.53634 29.2279 0.0756992 2.12148 29.2106 0.0798423 
-0.708015 1.54106 0.163041 -0.798533 1.5932 0.162742 -0.482748 1.65886 0.164112 
-0.546093 1.63725 0.164263 -0.363594 1.70733 0.162509 -0.425273 1.69692 0.163351 
-0.551463 2.08067 0.159883 -0.232548 1.70631 0.161434 -0.299295 1.70763 0.161739 
-0.401909 2.11872 0.158785 -0.0983418 1.68204 0.161354 -0.163124 1.6934 0.161399 
-0.241208 2.10504 0.157959 0.0271602 1.65432 0.159943 -0.0343674 1.66826 0.160876 
-0.0815154 2.07721 0.156978 0.151011 1.64936 0.156396 0.0893579 1.64273 0.158433 
0.0702812 2.0511 0.154893 0.275879 1.65498 0.152552 0.212651 1.65202 0.154461 
0.218665 2.04214 0.151709 0.401678 1.66553 0.150087 0.341448 1.66377 0.151131 
0.370372 2.05442 0.14846 0.528289 1.66691 0.149443 0.465068 1.67464 0.149491 
0.524463 2.07365 0.146218 0.669618 1.6733 0.150264 0.600565 1.67463 0.149592 
0.687097 2.09262 0.145395 0.794168 1.6324 0.153826 0.730989 1.64401 0.151621 
0.85259 2.07485 0.146801 0.889678 1.54617 0.160678 0.835193 1.57526 0.156567 
0.987372 1.9932 0.151004 -1.08596 1.88095 0.161413 -1.43805 2.51204 0.154069 
-0.826257 13.1747 0.088698 -0.950625 12.764 0.0942994 -0.267558 10.908 0.12072 
-0.0055881 10.81 0.117283 1.58982 19.4297 0.0497552 1.50857 19.1595 0.0499493 
1.41459 18.8976 0.0503516 1.32119 18.6198 0.0510877 1.31622 19.3028 0.0529909 
1.22382 18.3575 0.0518864 1.13088 18.1114 0.0528809 1.13695 18.7675 0.0540801 
1.0273 17.8477 0.0539454 0.925623 17.5827 0.0550423 0.947326 18.2295 0.0558341 
0.816005 17.312 0.0561957 0.706923 17.0499 0.0573907 0.744351 17.6822 0.0579299 
0.59451 16.7855 0.058628 0.479912 16.5203 0.0599554 0.531274 17.1334 0.0602826 
0.368223 16.251 0.0613371 0.259941 15.9918 0.0627505 0.314867 16.5849 0.0628595 
0.156897 15.7226 0.0642523 0.049253 15.4503 0.0657942 0.106478 16.0306 0.0656355 
-0.0605396 15.1709 0.067746 -0.172015 14.8859 0.0695976 -0.102126 15.4661 0.0690432 
-0.293329 14.5962 0.0718364 -0.416632 14.2965 0.0753821 -0.332193 14.8818 0.073672 
-0.557537 13.955 0.0787819 -0.68798 13.5883 0.0835997 -0.595284 14.2412 0.0797823 
2.05458 16.3242 0.0446051 2.16229 16.5996 0.042854 2.26972 16.8797 0.0413965 
2.37065 17.1343 0.0396895 2.31954 16.5658 0.0425467 1.64068 15.2834 0.0509017 
1.74437 15.5397 0.0491851 1.41162 14.7725 0.0543987 1.52179 15.0333 0.0525091 
1.7075 14.9331 0.0525864 1.20693 14.2243 0.0584125 1.30461 14.5025 0.0562941 
1.49228 14.3996 0.0564252 1.0185 13.6446 0.0633929 1.10721 13.9381 0.0608646 
1.29743 13.8309 0.0609896 0.865649 13.0296 0.0701459 0.936327 13.3371 0.0665834 
1.12644 13.2272 0.0662111 0.743349 12.3829 0.0793 0.802493 12.6984 0.0737762 
0.988044 12.5815 0.0733486 0.361664 11.0018 0.108571 0.496337 11.3322 0.101265 
-2.13668 12.7037 0.101116 -2.01712 13.547 0.098006 -1.60787 14.0142 0.0939214 
-1.94095 12.2816 0.101761 2.04985 3.1751 0.147383 1.84775 2.73662 0.156278 
1.65682 2.53251 0.157097 2.026 3.33835 0.142946 0.601097 11.6985 0.0933584 
0.68493 12.0316 0.0853385 0.864304 11.8948 0.0830891 0.694109 11.1783 0.0953978 
2.56953 4.73591 0.122193 2.45533 4.32236 0.128243 2.27507 4.06723 0.131403 
2.46109 4.85252 0.12051 -0.596181 1.58494 0.16412 -0.658878 1.57277 0.163505 
-0.811223 1.90798 0.16054 -0.686685 1.99043 0.160597 -1.00593 12.0275 0.102507 
-0.927091 11.749 0.110279 -0.983174 11.2222 0.111765 1.74582 19.9662 0.0507439 
1.6684 19.7015 0.0501079 1.4777 19.8455 0.0530233 1.85182 15.7804 0.0477694 
1.95471 16.0353 0.0461274 2.12081 15.9828 0.0459431 1.9238 15.4384 0.0492687 
2.95881 29.2878 0.0712576 3.01599 29.731 0.0717744 3.19112 29.7863 0.0699885 
3.47076 21.4819 0.0537332 -1.62655 26.2508 0.1027 -1.96228 26.8405 0.106558 
-2.02977 27.7265 0.108818 -1.29136 19.9076 0.089387 -1.58962 20.4642 0.0933512 
2.76428 18.1887 0.0329803 2.92458 18.1804 0.0331022 2.65416 17.9188 0.0350409 
3.77092 29.0575 0.0611605 3.8022 28.624 0.05938 3.66397 28.4094 0.0604735 
3.58842 29.2608 0.0639385 3.07821 21.9965 0.0648597 2.83876 21.9327 0.0722082 
-2.70383 29.9212 0.118016 -2.57261 29.3961 0.11607 -1.59367 21.4934 0.0945169 
-1.33521 17.914 0.0883867 -0.691839 10.4727 0.118148 -0.459627 10.7125 0.119028 
-0.328495 10.2439 0.118588 2.16809 21.7311 0.0725541 2.06726 21.4922 0.0687765 
-1.59706 22.5418 0.0959902 -1.65282 23.6283 0.0981446 -1.37737 24.0777 0.0963494 
-2.17923 5.3806 0.134564 -1.97421 5.73302 0.13378 -2.05245 4.62367 0.138551 
-1.6674 3.11907 0.149066 -1.90516 3.89515 0.143229 -1.75416 4.19422 0.142875 
-1.05603 12.3491 0.0988208 -1.15378 11.9053 0.103308 1.83297 21.7194 0.0668222 
1.91889 21.2159 0.064024 -0.948524 1.77809 0.161667 -0.871504 13.4851 0.087482 
-1.02391 2.06609 0.158949 2.59018 21.8589 0.0742927 2.37606 21.8934 0.0732379 
2.63477 22.3795 0.0715505 -1.40799 2.85945 0.152097 1.01746 1.51925 0.17069 
0.910619 1.4681 0.165384 1.0806 1.86328 0.158142 1.27134 1.94212 0.16448 
-1.11356 12.6572 0.0955198 0.0797617 10.2176 0.115012 0.208569 10.5881 0.112633 
3.35365 19.7748 0.0316892 3.50621 20.1859 0.0342598 1.87732 20.5266 0.0553277 
1.82524 20.2145 0.051803 1.62721 20.3738 0.0549454 1.86175 20.9387 0.0597519 
3.37688 29.9673 0.0684507 -2.34163 28.8474 0.113366 3.12418 19.0551 0.0298456 
3.24771 19.4175 0.0308737 2.52137 17.1219 0.0393151 2.47159 17.3949 0.038331 
2.57088 17.6508 0.0364739 0.43396 10.4137 0.107358 0.518321 9.79055 0.108329 
0.665867 10.1826 0.103373 3.71078 20.8332 0.0358478 3.76825 21.2715 0.0382709 
3.3852 19.4982 0.030624 3.17538 18.7814 0.0309867 1.76571 22.3088 0.070151 
1.61427 22.0186 0.0674366 1.65084 28.7843 0.0833226 1.84016 28.7626 0.081573 
0.539671 28.8892 0.0925584 0.73101 28.8745 0.0910769 0.170691 28.9142 0.0953795 
0.355882 28.9011 0.09398 0.467604 28.401 0.0919526 -0.213992 28.9468 0.0983075 
-0.0246568 28.924 0.0968581 0.0888387 28.4243 0.0948008 -0.568328 28.9825 0.100975 
-0.393665 28.9522 0.099624 -0.285514 28.4404 0.0975714 -0.929023 29.0859 0.103839 
-0.746441 29.0493 0.102424 -0.642562 28.513 0.100364 -1.31431 29.1619 0.106782 
-1.1281 29.1309 0.10538 -1.0191 28.6248 0.103378 -1.68521 29.1952 0.109487 
-1.50646 29.1623 0.108147 -1.40983 28.6697 0.106313 -2.04659 29.3729 0.112405 
-1.88425 29.2875 0.111083 -1.8006 28.7616 0.109333 -1.02009 19.3347 0.0856007 
-0.990565 20.3032 0.0863311 -1.18492 12.9446 0.0938135 -1.28811 12.5294 0.0974786 
2.81929 8.46808 0.0866791 2.78884 8.04072 0.0899598 2.74442 7.60368 0.093582 
2.69866 7.16745 0.0972269 2.60553 7.78214 0.0932062 2.64469 6.72383 0.101127 
2.58647 6.30866 0.10505 2.50821 6.89451 0.10055 2.8626 9.32592 0.0803692 
2.84458 8.89901 0.0834279 2.67453 8.65625 0.086427 2.87846 10.1973 0.0744928 
2.87251 9.76535 0.0773189 2.70906 9.53224 0.0801575 2.88232 11.0065 0.0693475 
2.88001 10.5993 0.0718764 2.71915 10.3783 0.0745145 2.88247 11.8399 0.0643409 
2.88533 11.4192 0.0667729 2.7225 11.1967 0.0692829 2.87403 12.7351 0.0593069 
2.88063 12.2879 0.061719 2.72197 12.0603 0.0640259 2.85386 13.5994 0.0547806 
2.85857 13.1776 0.0569216 2.70295 12.9532 0.0590065 2.84441 14.4363 0.0505335 
2.83859 14.0233 0.052611 2.67134 13.8215 0.0544697 2.88671 15.2833 0.0461901 
2.8633 14.8586 0.0483014 2.67583 14.6675 0.050102 2.96142 16.1519 0.0418062 
2.92875 15.7109 0.0438996 2.73933 15.5135 0.0457531 3.02062 16.9672 0.0379877 
2.97838 16.5801 0.0397163 2.80125 16.364 0.0415716 3.27043 18.5908 0.0308882 
3.20124 18.2118 0.0322498 3.79521 21.6788 0.0400216 3.81663 22.4775 0.0429704 
3.81501 22.0845 0.0417981 3.65454 21.793 0.0459857 3.81041 23.3205 0.0454244 
3.83357 22.8806 0.0436947 3.67417 22.62 0.0477256 3.68204 24.1266 0.0500071 
3.71866 23.6963 0.0483406 3.59147 23.4099 0.0510051 3.64261 25.0982 0.0523841 
3.67057 24.6421 0.0509526 3.48085 24.3206 0.0543057 3.56877 26.0465 0.0555808 
3.60226 25.5845 0.0539602 3.42809 25.3353 0.0565136 3.53288 26.952 0.0582576 
3.54974 26.5046 0.056831 3.36929 26.289 0.0591168 3.52364 27.7963 0.0605614 
3.53083 27.3803 0.0593176 3.34959 27.1811 0.0613645 3.29225 22.1684 0.0595614 
3.10254 22.5919 0.064533 2.52597 5.88558 0.109046 2.44431 5.43655 0.113848 
2.3947 6.0206 0.108334 -1.26714 21.9241 0.0916678 -0.43903 2.57539 0.155026 
-0.530091 2.57613 0.15546 1.27999 28.8139 0.0865532 1.46537 28.7914 0.0849492 
1.58152 28.3087 0.0829885 -1.07485 15.5587 0.0855222 -1.04207 16.5038 0.0846638 
-1.82979 8.78693 0.119485 -1.84337 9.61538 0.1153 2.18627 22.1593 0.0717114 
1.22159 19.6909 0.0559996 1.13878 19.4199 0.0562911 -1.3034 11.8215 0.102688 
-1.22992 11.479 0.10682 -1.79764 6.91835 0.128124 -1.83015 7.81709 0.124041 
-1.55563 8.30293 0.122465 -1.91729 10.3435 0.111681 -1.88819 11.1306 0.107398 
1.32587 20.3268 0.0574246 1.25703 20.048 0.0569471 1.08232 20.1582 0.0595914 
-0.237642 2.53429 0.154076 -0.334462 2.54859 0.154666 -0.446505 3.01449 0.151359 
3.36148 29.5013 0.0672922 -1.17885 11.0596 0.110494 -1.06317 10.6883 0.114374 
-0.628292 2.58323 0.155593 -0.714791 2.54571 0.156095 -0.677261 3.0503 0.151942 
-0.0566078 2.50945 0.152547 -0.14668 2.52414 0.153454 -0.225419 2.97636 0.150162 
0.12372 2.46449 0.150328 0.0358184 2.47675 0.151625 -0.0159935 2.93223 0.148375 
0.297065 2.45832 0.147364 0.210928 2.45517 0.148874 0.187919 2.88911 0.146007 
0.480175 2.48449 0.144271 0.388974 2.4745 0.145747 0.390594 2.896 0.143017 
0.660849 2.5216 0.142174 0.572279 2.51068 0.143105 0.598208 2.93953 0.140155 
0.86273 2.54797 0.14152 0.761017 2.53644 0.141665 0.815189 2.98254 0.138115 
1.0588 2.50709 0.143338 0.965665 2.5314 0.141949 1.04614 2.98375 0.137626 
1.21982 2.39531 0.148121 1.14777 2.44602 0.145341 1.26983 2.91116 0.139848 
3.37707 18.9522 0.0299525 -0.971599 13.839 0.0873103 -1.10059 13.4271 0.090538 
-0.112426 9.83895 0.116812 0.0896785 9.64631 0.114761 -1.01006 2.29469 0.157436 
-1.16704 2.4877 0.15573 -0.934977 2.32245 0.157329 1.0308 19.2027 0.0571698 
0.945494 18.9293 0.0577285 0.943738 19.5797 0.0594283 0.842683 18.6562 0.058632 
0.750201 18.38 0.0593704 0.742496 19.0788 0.0609526 0.66123 18.0796 0.0600582 
0.561549 17.7954 0.0611068 0.560594 18.494 0.0625495 0.465787 17.475 0.0621695 
0.361285 17.1968 0.0632875 0.385062 17.8621 0.0641495 0.241281 16.9331 0.0650233 
0.136429 16.6486 0.0664906 0.175264 17.2673 0.0666671 0.0129782 16.3739 0.068333 
-0.0845976 16.0878 0.0697541 -0.0636044 16.7161 0.0698738 -0.145259 15.7717 0.0706294 
-0.252901 15.4763 0.072545 -0.242211 16.1096 0.0725946 -0.364389 15.2129 0.0744205 
-0.48709 14.9119 0.077218 -0.411597 15.5218 0.0757476 -0.659001 14.6676 0.0804154 
-0.798128 14.3265 0.0834532 -1.03841 14.2844 0.0871823 -0.695858 15.0128 0.0806681 
1.59525 14.0112 0.0583913 1.69038 14.294 0.0562625 1.77792 14.5911 0.0543196 
1.88674 14.8551 0.0523054 1.87397 14.2187 0.0560227 1.23894 12.8342 0.068753 
1.31258 13.149 0.0656886 1.11379 12.1607 0.0759241 1.17667 12.4965 0.0719006 
1.35461 12.4282 0.0710989 3.65674 20.4426 0.0334831 3.46762 21.9121 0.0537781 
-1.08844 17.4065 0.0853122 -1.07283 18.4229 0.0855109 1.40587 13.4354 0.0630681 
1.49342 13.7327 0.0606576 1.50662 13.0581 0.0651859 2.37648 16.2773 0.0437395 
2.47677 16.572 0.0418687 0.919848 28.8775 0.0895986 1.09723 28.8507 0.0881488 
1.21225 28.3544 0.086121 0.840195 28.3901 0.0891061 1.69231 21.0331 0.0598892 
3.01769 18.0104 0.0334564 3.15296 17.7855 0.0339913 3.09281 17.3755 0.0357685 
2.8737 17.77 0.0348597 1.98006 28.2641 0.079307 2.05157 28.7263 0.0795159 
2.26247 28.7152 0.0774369 2.70046 17.6677 0.0360831 1.66451 2.76757 0.149785 
1.47194 2.34909 0.156991 1.31012 2.1896 0.156478 -0.65386 20.6873 0.0828303 
-0.936921 21.2705 0.0870532 2.02607 3.64265 0.136456 1.86995 3.26408 0.142001 
1.69021 3.08497 0.142981 -1.28811 13.3106 0.0929986 -1.26716 25.7499 0.0987051 
-1.41075 26.8112 0.102166 -1.4932 12.4016 0.0990323 -1.41027 12.1036 0.10068 
-1.35757 3.08447 0.150992 1.00155 11.4107 0.0854206 1.07386 11.7676 0.0803098 
1.25029 11.6955 0.0786111 -0.942432 22.3104 0.0887815 2.89459 17.1892 0.0374701 
3.47398 19.3405 0.0295956 3.64552 20.1088 0.030943 3.57289 19.7008 0.0296936 
3.15072 23.1034 0.0611384 2.9254 22.976 0.0658489 3.53208 28.1983 0.061533 
3.35719 28.0149 0.0633068 3.49935 28.6295 0.0631822 2.23648 5.1038 0.117478 
2.34269 4.94889 0.119141 2.2395 4.50864 0.124476 -0.763972 17.0106 0.0809444 
-0.75835 18.8171 0.0817983 1.36947 22.3226 0.0689065 1.4375 21.7567 0.0656205 
-1.14589 14.8759 0.0875882 -1.31151 14.3892 0.090359 -1.88532 28.0832 0.108498 
-2.14372 28.4963 0.111234 -1.63363 10.0211 0.11372 -0.916214 10.2034 0.11712 
-1.13172 10.0592 0.116236 2.16273 22.7662 0.0725313 1.9643 22.6008 0.0716808 
1.74223 22.8837 0.0716297 -1.33203 10.9736 0.109705 -0.95295 23.4704 0.0911168 
-1.05748 24.5788 0.0944055 -0.839896 25.1321 0.0937676 1.25919 2.25918 0.152291 
-1.43277 3.65109 0.147296 -1.56082 4.38417 0.142706 2.46606 28.7022 0.0752927 
2.67148 28.7315 0.0731388 2.39742 28.2153 0.0750431 1.25686 21.5805 0.064995 
1.50678 21.277 0.0621967 1.50922 20.8726 0.0592172 2.22272 15.6418 0.047317 
2.31281 15.9448 0.0453766 2.47525 15.9502 0.0448209 -0.85794 2.88977 0.153418 
-0.764857 2.37911 0.157292 -0.84118 2.32791 0.157661 -1.49777 11.684 0.103792 
-1.66432 11.3632 0.105792 -1.8428 11.7469 0.104141 2.66016 22.9342 0.0692498 
2.42644 22.8828 0.0716679 2.72018 23.44 0.0677917 2.11242 3.99367 0.131287 
1.43383 2.72224 0.145648 -1.70165 12.5059 0.0999336 -1.21471 3.2806 0.150235 
-1.50224 13.4159 0.0944775 2.81312 28.2837 0.0705989 2.88126 28.8106 0.0709831 
3.09936 28.8428 0.0685502 -0.304244 9.67767 0.118861 1.69404 13.6325 0.0604397 
0.145218 9.00915 0.115674 0.333813 9.36377 0.11246 0.815421 10.6192 0.0972813 
0.924081 10.9874 0.0912104 1.12577 10.8786 0.0879795 1.43446 20.6176 0.0578929 
-1.66816 5.21487 0.137297 -1.74806 6.02603 0.133166 -1.37799 4.67866 0.141067 
-1.51362 6.41448 0.131402 1.22057 20.8121 0.0610515 0.56061 9.1621 0.109227 
2.11406 14.6905 0.0525014 2.04526 15.0195 0.0509975 2.14242 15.2755 0.0492267 
-2.19752 29.2047 0.113088 0.894992 10.0198 0.0990583 0.406181 27.7484 0.0908045 
0.589685 27.7343 0.0894523 -0.723668 27.9452 0.0995585 -0.546383 27.8784 0.0980832 
-1.10949 28.1799 0.102985 -0.911029 28.1352 0.101405 -0.814965 27.5021 0.0991692 
2.55034 9.74387 0.0800088 2.54093 9.29903 0.0830523 2.46257 7.9779 0.0928368 
2.41867 7.53467 0.0963672 -0.377947 20.0078 0.0783501 -0.325598 20.9656 0.0793715 
1.61797 3.21025 0.139142 1.07178 21.3238 0.0648898 0.967041 21.0242 0.0644537 
0.653885 8.4706 0.110957 0.834281 8.88721 0.106427 3.40423 29.0791 0.0655811 
2.52656 8.85866 0.0861759 2.50163 8.42194 0.0894174 2.31957 8.18292 0.0925432 
2.37186 9.07245 0.0859906 2.35948 7.06441 0.100161 2.30648 6.61405 0.103959 
2.22333 7.26343 0.0996831 2.54446 10.5748 0.0745805 2.54361 10.1686 0.0772216 
2.37825 9.94278 0.0800938 2.5468 11.3985 0.0692748 2.54486 10.9825 0.0719071 
2.37021 10.78 0.0745642 2.5571 12.2637 0.0638991 2.56016 11.8131 0.0665673 
2.38174 11.6056 0.0690764 2.53186 13.1709 0.0588004 2.54827 12.7259 0.0611859 
2.38372 12.4853 0.0635729 2.46369 14.0538 0.0542738 2.47855 13.628 0.0564864 
2.31895 13.4095 0.0584712 2.48462 14.9715 0.0495064 2.46203 14.5518 0.0516547 
2.67964 16.5334 0.0413475 2.65971 16.1106 0.0432563 -1.2087 27.007 0.101029 
-1.02606 26.998 0.0995972 -1.18491 27.7008 0.102424 3.50459 22.8891 0.0532152 
3.49844 22.4664 0.0528232 2.0113 4.09605 0.129173 3.29452 24.601 0.0582015 
3.30654 24.0701 0.0574295 3.19739 25.5614 0.060574 3.23719 25.064 0.0593239 
3.05924 24.8261 0.0620993 3.14477 26.5583 0.0629221 3.16194 26.0935 0.0617252 
2.96863 25.8321 0.064085 3.14942 27.4782 0.0646984 3.1497 27.0458 0.0637184 
2.9417 26.8574 0.066169 1.33079 22.8721 0.0718003 1.15196 22.5949 0.0707293 
1.52195 27.8032 0.0824458 1.70894 27.7947 0.0808584 -0.206391 3.50227 0.145762 
-0.323703 3.51331 0.14671 0.989662 9.41861 0.101177 1.13899 9.85611 0.095562 
1.07494 8.74539 0.103246 2.79358 17.4859 0.0366581 -0.440926 3.46854 0.147689 
-0.572548 3.49731 0.148166 -0.434958 4.00468 0.14359 -1.28332 7.66068 0.125314 
-1.28671 8.66028 0.1215 -0.752236 9.80681 0.118582 0.85862 20.5388 0.0638774 
0.825608 20.1806 0.0629506 0.719951 21.037 0.0672373 0.0298084 3.42464 0.143989 
-0.0894927 3.45904 0.145033 -0.173732 4.00608 0.141751 1.01 21.7915 0.0677157 
-0.732895 3.6851 0.147238 -0.860856 3.69457 0.147403 -0.731848 4.14964 0.143963 
2.6213 16.8141 0.0403344 -1.54028 11.0681 0.108018 2.24803 6.16501 0.107719 
2.18889 5.73562 0.111666 2.10819 6.33852 0.107129 0.262333 3.36721 0.141548 
0.150186 3.37713 0.142987 0.0894801 3.9131 0.139898 0.48965 3.36243 0.138759 
0.373531 3.3455 0.140424 0.345355 3.84196 0.137486 0.724378 3.41256 0.135916 
0.609443 3.38467 0.137389 0.597943 3.84174 0.134696 0.978015 3.49916 0.133548 
0.851959 3.48156 0.134625 0.865328 3.93415 0.131551 1.257 3.51045 0.133188 
1.12446 3.52256 0.133066 1.16217 4.02826 0.129041 1.53226 3.43366 0.135164 
1.40955 3.48711 0.133579 1.48912 4.03102 0.128252 -0.0593697 8.57378 0.118502 
0.172654 8.31309 0.117127 -0.514145 9.3404 0.1195 -0.312331 8.95469 0.119473 
-0.268262 8.26275 0.121131 -0.751071 9.10477 0.120679 -1.09246 4.09306 0.144929 
-1.17543 4.92557 0.139645 -0.349503 27.866 0.0965981 -0.170501 27.8598 0.0952723 
-0.432024 27.3 0.095791 0.00748828 27.9393 0.0941667 0.202277 27.9282 0.0927361 
-0.0580615 27.3657 0.0932122 2.71696 17.0919 0.0385219 0.422582 18.9306 0.06546 
0.342838 18.6198 0.0660022 0.302239 18.2375 0.0660299 0.214464 17.9065 0.0667877 
0.169374 18.6639 0.068711 0.114788 17.6153 0.0681444 -0.000373823 17.34 0.0695069 
0.0341202 17.9844 0.0698908 -0.158707 17.1242 0.0719769 -0.278412 16.8365 0.073765 
-0.220989 17.4702 0.0733448 2.0326 13.8846 0.0572853 2.11153 14.1907 0.055103 
-1.48353 10.6366 0.110746 -1.24474 5.87356 0.133914 -1.27959 6.7817 0.129854 
-1.02449 7.12492 0.12802 1.46065 12.0762 0.0729571 1.52324 12.4173 0.0696924 
-0.550109 16.6862 0.0777926 -0.597333 17.5786 0.0787617 1.60582 12.6836 0.0672586 
1.69329 12.9779 0.0646113 1.70599 12.3423 0.0689616 -0.616198 22.8051 0.0863891 
-1.02331 2.71822 0.154428 1.76879 3.79089 0.131877 -1.40793 9.91015 0.115522 
-1.57591 12.9287 0.0969397 0.322978 27.264 0.0902185 -1.48457 28.1891 0.105768 
-1.2928 28.1891 0.104359 0.0492638 21.1767 0.0754616 -0.23888 21.8714 0.0803718 
-0.252757 23.0236 0.083263 -0.839822 26.8099 0.0976933 0.456418 8.00655 0.115334 
0.718645 7.75405 0.112789 -1.01609 3.44996 0.149229 3.27064 28.8683 0.0666081 
2.60215 15.7696 0.0451428 2.55614 15.3478 0.0472538 3.40544 23.2748 0.0557567 
3.24115 23.6361 0.059124 1.89864 27.8441 0.0792662 2.11205 27.8073 0.0771568 
1.83907 27.3347 0.0788758 1.88974 4.30885 0.125865 0.880253 23.0102 0.073901 
0.918414 22.472 0.0713789 0.735037 22.201 0.0715058 3.18545 27.987 0.0654329 
2.98564 27.8563 0.067592 1.4967 23.2266 0.0729032 1.27774 23.4948 0.0741481 
1.691 23.5266 0.0735931 3.19522 28.3913 0.0662652 2.14765 5.30129 0.115588 
2.04939 4.80935 0.12072 2.01231 5.44882 0.114661 2.7744 27.774 0.069949 
1.38603 9.78683 0.0920145 1.2897 10.3637 0.0894698 2.19772 23.2931 0.0721583 
-0.721266 26.1006 0.0950791 -0.509373 26.6003 0.0946264 -0.313648 26.5873 0.0930762 
2.33417 27.6361 0.074624 2.54042 27.6244 0.0723499 2.25317 27.2115 0.074664 
-0.978378 5.28314 0.137359 1.37503 10.7904 0.0846514 2.34084 15.2405 0.0487092 
-0.455366 16.2808 0.0763763 0.255236 7.58903 0.119098 0.703472 27.2841 0.0875544 
0.766751 27.9382 0.0886317 0.955854 27.9394 0.0872296 -1.26484 9.41431 0.118013 
2.71403 27.192 0.0695858 1.40657 11.2882 0.080056 1.45503 11.6822 0.0762128 
1.61692 11.6811 0.0746337 1.57407 10.7932 0.0820148 0.727309 19.9533 0.0636104 
0.547022 19.2362 0.0641848 0.325862 19.3618 0.0677265 0.640806 19.5191 0.0635827 
1.89227 13.5674 0.0597333 2.12986 13.5456 0.0587749 2.18613 13.0807 0.0611791 
1.79864 13.2792 0.0620697 -0.511149 15.9513 0.0772603 -0.621619 15.6805 0.0791802 
0.529906 20.1096 0.0666365 -0.999316 8.78638 0.121313 1.89018 12.9172 0.0638625 
-0.553621 18.2863 0.0786566 -0.499693 19.1882 0.078807 -1.09352 3.28181 0.150401 
3.04819 23.9233 0.0622892 2.87704 24.4156 0.0647625 2.80457 23.9823 0.0663079 
2.54799 23.9562 0.0693552 -0.158655 19.4641 0.0746093 -0.793374 15.4439 0.0819937 
1.14262 27.8566 0.0855851 1.32609 27.8177 0.0840857 1.06769 27.4028 0.0851752 
1.4512 27.3021 0.0820541 0.83391 6.91666 0.115526 1.03218 7.3747 0.11073 
2.17743 10.9837 0.0747905 2.17859 10.5717 0.0775622 -1.68675 27.992 0.106835 
2.18764 10.1396 0.0804432 2.19511 9.70898 0.0832574 1.99751 10.3485 0.0807696 
2.26339 14.3706 0.0535014 2.70552 26.7018 0.068728 2.82131 24.8911 0.0654697 
1.81821 4.51303 0.123712 2.19997 24.0796 0.0723642 1.94887 23.9626 0.0734663 
0.436915 4.38501 0.133092 0.301819 4.40837 0.134573 1.3851 26.7112 0.0812734 
1.58276 26.6932 0.0798041 1.91238 6.53077 0.107011 1.85848 6.07635 0.110665 
0.701111 4.29057 0.130932 0.560844 4.26817 0.132578 0.525901 4.84091 0.129658 
0.996804 4.53406 0.126688 0.849698 4.46317 0.128626 0.810618 4.89541 0.126434 
1.33329 4.62413 0.123826 1.16293 4.59922 0.12521 1.14177 5.13327 0.121911 
1.67593 4.53924 0.123476 1.49709 4.55986 0.123787 1.49286 5.13058 0.119403 
1.8163 5.03696 0.118826 -0.0547586 26.7409 0.0915743 0.122851 26.8183 0.0905182 
0.324913 26.6372 0.088583 -0.134117 26.0436 0.0902772 -0.771747 8.32181 0.122627 
1.19706 7.98476 0.105726 1.35706 8.51504 0.100517 1.29863 7.16609 0.10902 
2.05189 12.8487 0.0633125 2.24284 12.7112 0.0630998 2.25347 12.2456 0.0658878 
1.951 12.54 0.0659398 0.0672708 7.05065 0.122945 0.330225 6.76143 0.121503 
0.281925 20.4208 0.0705972 0.199979 19.9788 0.0706372 2.08456 7.50668 0.0990919 
2.02795 7.03156 0.102789 1.78207 6.7805 0.106481 -0.328116 17.9473 0.0751867 
-0.126223 4.58768 0.137574 -0.268263 4.63276 0.138149 0.165041 4.36668 0.136083 
0.0198855 4.41647 0.137098 -0.058904 5.05143 0.134002 0.241218 4.9193 0.132012 
1.80989 11.8877 0.0714139 1.89074 12.1604 0.0688875 2.0502 12.0953 0.0682446 
0.367846 21.3161 0.0719495 2.18153 11.4464 0.0715982 1.98945 11.249 0.0744451 
-1.57013 27.5127 0.104915 2.23288 9.29452 0.0857387 2.2192 8.849 0.0888142 
2.04561 9.49374 0.086155 0.37849 25.8646 0.0861858 0.58044 26.3059 0.0860226 
-0.752691 6.54569 0.129905 -0.740016 7.44149 0.126056 2.19286 11.8636 0.0687851 
-0.257313 7.36842 0.124049 -0.154736 6.54577 0.12681 -0.76961 4.73008 0.140422 
-0.809608 5.6816 0.134302 2.71078 26.0348 0.0678001 2.74213 25.4952 0.0666217 
2.55723 25.0996 0.0686961 2.48013 26.3766 0.071014 1.69658 24.2853 0.0749649 
0.971208 23.6641 0.0759956 0.737094 23.5278 0.0766655 1.12623 26.8401 0.0835032 
1.2542 26.2318 0.0812809 0.939724 26.9263 0.0849974 1.13433 24.025 0.0765638 
1.85758 5.47655 0.115048 1.45407 9.18387 0.0952765 1.61047 9.69984 0.0895925 
2.15186 8.42882 0.0923285 2.11443 7.97941 0.0956568 1.9232 7.7572 0.0987904 
2.0171 8.6553 0.0920964 0.406628 6.0868 0.124192 0.597601 6.61123 0.119499 
-0.449943 4.58326 0.139575 -0.591913 4.53701 0.140843 -0.511425 24.9256 0.0905074 
1.79896 11.4974 0.074327 0.0838177 19.663 0.0716274 1.57756 8.44356 0.098265 
1.67778 5.67111 0.114572 -0.0431647 18.8561 0.0720619 -0.495525 7.73579 0.123911 
-0.123437 25.1143 0.0877239 0.13443 25.2625 0.0862463 0.386519 24.9318 0.0834835 
-0.244245 24.1557 0.0861729 0.887896 6.24931 0.11811 1.76107 10.5353 0.0818403 
1.79853 11.0297 0.077794 -0.079394 18.4683 0.0722027 -0.173282 18.1681 0.0731289 
-0.416083 5.17501 0.135653 -0.553206 5.98057 0.132072 0.13719 23.2036 0.0800921 
1.77158 10.0952 0.0849291 -0.340097 6.03369 0.13028 1.84273 9.51105 0.0881347 
0.484955 24.2656 0.0808189 0.731057 24.858 0.0811308 2.25083 26.6496 0.0738108 
2.24982 25.9819 0.0727266 0.395001 23.6091 0.0792841 0.389252 22.4804 0.075514 
1.83358 26.7759 0.0778986 2.02628 26.825 0.076254 1.4937 5.7384 0.115422 
0.8139 25.9454 0.0835649 0.761109 26.7249 0.0857776 1.76677 26.1776 0.0775309 
1.87924 9.08732 0.0906159 0.663419 5.32793 0.12543 0.518895 5.4499 0.126244 
0.278662 5.59033 0.127789 1.73181 25.4205 0.0763751 1.98873 25.4993 0.0746179 
1.39803 6.40992 0.112137 1.23581 5.87098 0.116608 1.02032 24.637 0.078936 
0.92238 25.3158 0.0812126 1.10686 25.7321 0.0810239 1.33109 24.4796 0.0767822 
2.21947 25.2122 0.0723633 1.36523 25.5947 0.079167 1.57876 24.9117 0.0765148 
0.822272 5.5018 0.122982 1.05268 5.80931 0.118856 2.29096 24.5996 0.0711052 
1.57993 7.01909 0.106676 0.120716 5.54891 0.129578 0.474287 21.811 0.0724852 
1.709 8.00069 0.0993585 1.81552 8.66576 0.0940788 -0.0450764 5.72643 0.130032 
1.68278 7.52019 0.102618 -3.64731 32.2058 -0.00478366 -0.66603 0.56473 -0.0590376 
-1.0869 1.19364 -0.0680936 -3.62992 31.8225 -0.00568175 -3.61242 31.4391 -0.00657586 
-3.58871 30.9223 -0.00778239 -3.56565 30.4219 -0.00893321 -3.54029 29.871 -0.0101944 
-3.51352 29.2864 -0.0114996 -3.48403 28.6343 -0.0129345 -3.45584 27.9983 -0.0142841 
-3.42276 27.2275 -0.0158808 -3.39317 26.5059 -0.0172771 -3.3968 5.61558 -0.00136439 
-3.24408 5.07025 -0.00238484 -3.04639 4.49307 -0.00302092 -2.8478 3.9957 -0.00386798 
-2.63245 3.53492 -0.00690108 -2.38815 3.06504 -0.0134187 -2.12589 2.62846 -0.0203684 
-1.82703 2.17105 -0.0312937 -1.47779 1.70258 -0.0479894 -3.53764 6.23177 -0.00186537 
-3.65553 6.9058 -0.00228508 -3.36033 25.6487 -0.0188456 -3.33282 24.8572 -0.0200919 
-3.63306 13.4945 -0.0190792 -3.70242 12.6453 -0.0177749 -3.76614 11.765 -0.015572 
-3.81288 10.9301 -0.0136278 -3.74526 7.61065 -0.00387639 -3.30629 23.9798 -0.0213639 
-3.55393 14.439 -0.0207935 -3.28249 22.9822 -0.0224565 -3.26608 21.8806 -0.0235943 
-3.26246 20.6927 -0.0243058 -3.27312 19.6742 -0.0247349 -3.30365 18.4887 -0.0245597 
-3.3509 17.3768 -0.0239778 -3.41096 16.3412 -0.0231054 -3.48112 15.3505 -0.0218526 
-3.84139 9.95987 -0.0104749 -3.83844 9.13519 -0.00804204 -3.80731 8.37741 -0.00561843 
0.664271 0.568042 0.062348 4.44956 31.2615 -0.0728298 4.46585 30.8947 -0.0741328 
1.09002 1.19098 0.0974108 1.43118 1.6481 0.0778697 1.77791 2.10983 0.0616445 
2.02209 2.47452 0.0521048 2.2881 2.90144 0.0423285 2.46904 3.22483 0.0346926 
2.66895 3.61763 0.027027 2.82609 3.95955 0.0202263 2.99521 4.3712 0.0129784 
3.11355 4.69214 0.00722968 3.24668 5.09883 0.000847705 3.42292 5.73549 -0.00849176 
3.50714 6.097 -0.0132832 3.69275 7.12688 -0.0258638 3.74742 7.53531 -0.030393 
3.78247 7.84269 -0.0337075 3.81813 8.21007 -0.0374449 3.86478 8.83095 -0.0435107 
3.88639 9.21788 -0.047033 3.90083 9.54704 -0.0499071 3.91445 9.95315 -0.0532553 
3.93293 10.9874 -0.0611987 3.93604 11.4029 -0.0641213 3.93853 12.0544 -0.0685354 
3.93981 12.4609 -0.07108 3.94125 12.791 -0.0731325 3.94429 13.2175 -0.07564 
3.94795 13.5506 -0.0775834 3.95468 13.9648 -0.0798585 3.96294 14.3324 -0.0818587 
3.97675 14.7813 -0.0842218 4.00677 15.4725 -0.0877717 4.0318 15.9071 -0.0899316 
4.05612 16.2612 -0.0916724 4.09086 16.6953 -0.0937417 4.12329 17.0484 -0.0953845 
4.16646 17.4644 -0.0972577 4.20499 17.7992 -0.0987136 4.26147 18.2431 -0.100568 
4.35987 18.9334 -0.103083 4.42439 19.3515 -0.104467 4.47574 19.6732 -0.105299 
4.53898 20.0672 -0.106329 4.59092 20.3968 -0.106775 4.65276 20.8117 -0.107351 
4.69671 21.1347 -0.107411 4.74136 21.5141 -0.107373 4.79841 22.1691 -0.106316 
4.82082 22.5931 -0.105193 4.83075 22.9465 -0.104148 4.83414 23.3181 -0.102817 
4.83181 23.6332 -0.101744 4.82356 24.0276 -0.100194 4.81208 24.3804 -0.0988908 
4.79538 24.7836 -0.097235 4.77958 25.1125 -0.0959448 4.75886 25.5074 -0.094301 
4.73921 25.8579 -0.0928879 4.7151 26.2753 -0.0912009 4.67377 26.9719 -0.0885533 
4.64762 27.4129 -0.0868732 4.6275 27.7574 -0.0855774 4.60198 28.2021 -0.083918 
4.58167 28.5657 -0.0825762 4.55747 29.0131 -0.0809293 4.53834 29.3786 -0.079563 
4.51744 29.7946 -0.0780617 4.49963 30.1611 -0.076723 4.481 30.5612 -0.0753063 
3.56687 6.38649 -0.0170143 3.63804 6.778 -0.0217404 3.92193 10.2556 -0.0556981 
3.92919 10.6662 -0.0588132 3.34377 5.43165 -0.00420985 3.84345 8.51985 -0.040532 
3.93748 11.7278 -0.0663514 3.98989 15.1186 -0.0859354 4.3115 18.6053 -0.101902 
4.77419 21.8488 -0.107061 4.69593 26.5983 -0.0899238 4.29018 31.6275 -0.0698158 
-3.53188 32.5576 -0.0047804 -3.39587 32.5422 -0.00566721 4.13035 31.645 -0.0678683 
3.96251 31.6629 -0.0658056 3.67827 31.6917 -0.0623877 3.49733 31.7089 -0.0602571 
3.34792 31.7226 -0.0585066 3.15714 31.7396 -0.0563448 3.01841 31.7518 -0.0547803 
2.83798 31.7677 -0.0528266 2.54898 31.7936 -0.0497716 2.35796 31.8115 -0.0478469 
2.20796 31.8263 -0.0463356 2.01587 31.846 -0.0445032 1.86948 31.8617 -0.0431349 
1.68956 31.8821 -0.0415049 1.54734 31.8989 -0.0402869 1.38022 31.9195 -0.0388489 
1.07606 31.959 -0.0363215 0.889368 31.9845 -0.0348322 0.752941 32.0036 -0.0337636 
0.571685 32.0296 -0.0323643 0.419897 32.0517 -0.0312364 0.22386 32.0805 -0.0297826 
0.0774651 32.1022 -0.0287326 -0.104764 32.1292 -0.0274308 -0.398734 32.1724 -0.0253895 
-0.591068 32.2002 -0.0240674 -0.722906 32.219 -0.0231885 -0.890322 32.2425 -0.0220532 
-1.0375 32.2627 -0.0210625 -1.2202 32.2872 -0.0198435 -1.37888 32.3079 -0.0187772 
-1.55331 32.3301 -0.0176296 -1.83471 32.3648 -0.0157919 -2.01712 32.3866 -0.0146016 
-2.15602 32.4029 -0.0137 -2.33475 32.4234 -0.0125459 -2.4779 32.4397 -0.0116131 
-2.65307 32.4593 -0.0104846 -2.78859 32.4745 -0.00960143 -2.95618 32.4931 -0.00851819 
-3.09599 32.5087 -0.0076127 -3.24789 32.5256 -0.00662797 3.82254 31.6774 -0.0641039 
2.6979 31.7801 -0.0513305 1.23839 31.9375 -0.0376579 -0.245955 32.15 -0.0264433 
-1.68806 32.347 -0.0167478 2.93933 19.2199 -0.122051 2.83919 19.0543 -0.119144 
2.72535 18.8825 -0.122147 2.58042 18.6568 -0.120958 2.44632 18.4479 -0.122052 
2.31233 18.2326 -0.121051 2.18068 18.0167 -0.120684 2.04188 17.7848 -0.119956 
1.90807 17.5572 -0.119265 1.76389 17.3085 -0.118378 1.6446 17.0991 -0.117928 
1.51531 16.8723 -0.116855 1.38604 16.6454 -0.115716 1.25043 16.4054 -0.114139 
1.11972 16.1749 -0.113166 0.984893 15.9382 -0.11158 0.86357 15.7271 -0.110675 
0.728792 15.495 -0.109307 0.605242 15.2831 -0.107616 0.461056 15.0403 -0.104967 
0.332023 14.8265 -0.103766 0.187003 14.5928 -0.100794 -0.0641376 14.1983 -0.0956857 
-0.199212 13.9955 -0.0936165 -0.315969 13.8018 -0.0963218 0.0654209 14.4025 -0.0982877 
2.94399 19.2069 -0.0437037 2.83847 19.0487 -0.0371078 2.59313 18.6757 -0.0263553 
2.72555 18.8754 -0.0303193 2.31762 18.2379 -0.0194572 2.45851 18.4636 -0.0226736 
2.06266 17.8147 -0.0141081 2.19294 18.0331 -0.0166024 1.82381 17.4069 -0.0103139 
1.94081 17.6082 -0.0123778 1.57566 16.975 -0.00705809 1.69613 17.1854 -0.00917204 
1.33973 16.5589 -0.0043228 1.45721 16.7668 -0.00547369 1.08956 16.1171 -0.00238619 
1.22178 16.3504 -0.00396406 0.832141 15.6669 -0.000725913 0.96204 15.8932 -0.00203295 
0.567379 15.213 7.45945e-05 0.692712 15.4268 -0.000281181 0.298662 14.7692 0.000112711 
0.43644 14.994 -0.000590934 0.0529893 14.3795 -0.00103097 0.175919 14.5715 -0.000261167 
-0.209468 13.9798 -0.00673664 -0.0849179 14.1686 -0.00204321 -0.331217 13.8153 -0.0156894 
3.01452 19.3313 -0.0939203 2.89972 19.3067 -0.0772468 -0.327093 13.8937 -0.0594296 
2.78898 19.1679 -0.0791038 2.55305 18.8377 -0.0726637 2.67653 19.0147 -0.0751297 
2.28656 18.4234 -0.0696866 2.42188 18.6371 -0.0713349 2.03232 18.0048 -0.0669023 
2.15615 18.2103 -0.0677315 1.91248 17.8001 -0.0655132 1.65287 17.3499 -0.0633002 
1.77916 17.571 -0.0645092 1.41413 16.9314 -0.0603339 1.53242 17.1393 -0.0622438 
1.16887 16.4958 -0.0587746 1.2863 16.7044 -0.0594961 0.910517 16.0407 -0.0570586 
1.03785 16.2648 -0.0580226 0.649026 15.5866 -0.055907 0.788994 15.8289 -0.0567743 
0.395599 15.1547 -0.0535385 0.524909 15.3742 -0.0543075 0.142872 14.7368 -0.0512123 
0.265068 14.9386 -0.0527157 -0.225791 14.1108 -0.0498458 -0.098331 14.3306 -0.0495849 
0.0248141 14.5409 -0.049513 -0.395369 13.6734 -0.0653833 -0.278705 13.7075 -0.0523271 
0.336157 14.8313 -0.0511533 -0.200866 13.9914 -0.049015 -0.077825 14.1777 -0.0497155 
2.9365 19.2009 -0.0825458 2.83178 19.0433 -0.0779601 0.19184 14.5982 -0.0507128 
0.0692488 14.4052 -0.0497807 0.886537 15.7638 -0.0558637 1.06042 16.0681 -0.0574835 
1.8104 17.3871 -0.0644655 1.52071 16.8804 -0.0615788 1.40302 16.6723 -0.0610039 
1.64901 17.1065 -0.0624364 1.92061 17.5768 -0.0657392 -0.320717 13.8098 -0.0561197 
0.686119 15.4177 -0.0544385 0.559812 15.203 -0.0538657 1.32357 16.5322 -0.0599181 
2.43807 18.4347 -0.0716302 2.18042 18.015 -0.0688197 2.06167 17.8166 -0.0673398 
2.30444 18.219 -0.070271 2.71839 18.8713 -0.0752275 2.57232 18.6461 -0.0736419 
1.14882 16.2238 -0.0582236 0.809943 15.6307 -0.0549413 -0.321292 30.6164 -0.0295764 
-0.436527 31.0799 -0.0277075 -0.179163 30.5778 -0.030637 -0.294563 31.0418 -0.0287592 
-0.235828 31.3854 -0.0283385 -0.0440496 31.3597 -0.0296981 -0.158063 31.8027 -0.0278596 
2.05231 17.7556 -0.0644077 3.73506 30.3134 -0.0671078 3.65292 30.7507 -0.0648786 
3.90619 30.2471 -0.0693296 3.82412 30.6844 -0.0670915 2.64184 17.9213 -0.0751872 
2.7698 17.9466 -0.0779531 2.75181 18.1904 -0.077472 2.16921 17.9676 -0.0667683 
0.0229978 1.48542 -0.00323746 -0.00645617 1.8897 -0.00548003 -0.032365 1.49902 -0.00242221 
0.00956848 0.830385 0.00418013 0.0118393 0.529747 0.0117731 -0.00150777 0.52574 0.00842517 
0.287158 8.05042 -0.030132 0.362169 7.33171 -0.0283563 0.0885437 7.62733 -0.0275254 
3.8312 17.9394 -0.0939623 3.98237 18.1359 -0.0964379 3.93567 17.786 -0.0950473 
2.45841 19.9723 -0.082505 2.42688 19.6942 -0.0793806 2.24267 20.2001 -0.0786664 
3.18038 30.6725 -0.0596847 3.05605 31.0391 -0.0572727 3.22888 31.0712 -0.0590929 
-0.12862 0.197209 -0.00017314 -0.251003 0.520408 -0.000119041 -0.129607 0.221652 0.000739296 
2.90978 31.0514 -0.0556458 2.78459 31.4486 -0.0531964 2.7193 31.0473 -0.0536308 
0.00714265 0.194949 0.00413014 -0.010046 0.197359 0.00269071 -3.1505 29.2577 -0.0138581 
-2.93894 29.0879 -0.0155387 -3.10308 28.6336 -0.0153545 0.372908 1.17754 -0.0115486 
0.327402 1.18556 -0.011835 0.256547 0.836269 -0.00779998 1.01235 16.1079 -0.0572387 
0.0211757 0.199633 -0.00107247 -2.54512 32.0134 -0.0120953 3.5253 29.3879 -0.0672027 
3.56821 28.9665 -0.06885 3.66845 29.4654 -0.0686959 3.71107 29.0445 -0.0703781 
0.517621 0.566464 0.0454784 0.489324 0.562859 0.0253329 0.23226 0.196229 0.00509996 
0.228012 0.210052 0.0134115 -0.0365191 2.28333 -0.00722809 0.0211702 2.18683 -0.00760048 
0.00311514 2.70139 -0.00978504 0.0681799 2.6028 -0.0101725 4.06948 27.4813 -0.079109 
3.91855 27.674 -0.0766464 3.92546 27.329 -0.0776571 3.03327 25.8805 -0.0699354 
3.06765 25.3446 -0.0714836 2.80585 26.0613 -0.0668489 2.83813 25.5231 -0.068543 
-2.70083 3.97325 -0.00100053 -2.33271 3.52461 3.2693e-05 -2.4879 3.43783 -0.00404956 
-2.09946 2.95648 -0.00125203 2.53679 6.70101 -0.0309068 2.72937 6.97698 -0.0319723 
2.48119 6.34892 -0.0286135 2.67741 6.62815 -0.0294682 1.64509 15.8944 -0.0628531 
1.75819 16.1411 -0.0642017 1.80555 15.8187 -0.0643119 0.51114 1.94232 -0.0144885 
0.573849 1.93752 -0.01453 0.634346 2.32997 -0.0157957 -0.0155592 0.828676 0.00443173 
-0.0477944 0.826156 0.00500603 -0.0424548 1.18074 0.000611003 1.90971 16.0715 -0.0655019 
1.98039 15.7208 -0.0658741 1.867 16.3869 -0.0652934 -0.214797 23.9358 -0.0448997 
-0.343243 23.1145 -0.0449617 0.166625 22.9835 -0.0499008 0.0371939 22.1706 -0.0497123 
-1.67066 29.592 -0.0228255 -1.82163 29.5273 -0.021959 -1.76353 29.9687 -0.0214153 
1.42119 25.2427 -0.0555924 1.78978 25.0645 -0.0589463 1.29618 24.7536 -0.0555334 
1.66109 24.5643 -0.0590702 2.17861 16.271 -0.0684885 2.24185 15.941 -0.0688551 
2.08225 15.977 -0.0671751 2.15072 15.64 -0.0675325 -1.59889 32.0155 -0.0180387 
-1.67443 31.6085 -0.0184603 -1.74586 32.0303 -0.0170865 -1.82167 31.623 -0.0174904 
2.96649 28.6322 -0.0626548 3.09414 28.2536 -0.065051 2.93339 28.1753 -0.0633694 
1.95106 15.1387 -0.0647873 1.7772 15.2086 -0.0632814 1.87622 15.475 -0.0645745 
-0.789746 1.87456 0.000439581 -0.901164 2.27632 -0.000291205 -0.729941 1.89387 0.00030224 
2.01651 16.3199 -0.0667814 2.26829 12.6111 -0.0608861 2.28386 12.9903 -0.0622907 
2.44284 12.7893 -0.0626274 1.98558 29.458 -0.0504522 2.09205 29.0238 -0.0525212 
1.9396 28.9739 -0.0512251 3.34252 21.7811 -0.0833113 3.18794 21.5616 -0.0819682 
3.3398 21.2937 -0.0863543 0.502579 29.6246 -0.0377959 0.595825 29.1891 -0.0395358 
0.693898 29.6109 -0.0392528 0.787435 29.175 -0.0410314 2.35639 27.3734 -0.058965 
2.13356 27.5447 -0.0564163 2.21455 27.9673 -0.0562484 3.3725 10.6001 -0.0563683 
3.36958 10.1805 -0.0536623 3.23586 10.7438 -0.0568179 3.23438 10.322 -0.0542459 
4.5717 22.8801 -0.0999677 4.56281 22.4886 -0.101135 4.43901 22.6841 -0.0984517 
4.42727 22.2897 -0.0995705 4.57379 23.2352 -0.0988459 4.43008 23.4061 -0.095978 
4.56877 23.6359 -0.0974493 3.99259 17.2221 -0.0942328 -1.28273 31.9764 -0.0201261 
2.68958 19.7287 -0.0808624 2.46319 20.2471 -0.0822991 2.72087 19.9533 -0.0622852 
2.53006 20.5099 -0.0796041 2.36282 21.9306 -0.0718065 2.1562 21.7694 -0.0709473 
2.27409 22.5479 -0.0690846 2.07165 22.3776 -0.0678912 0.853463 30.878 -0.0373498 
0.962721 30.4149 -0.0393505 1.03559 30.8562 -0.0388179 -1.42411 31.9935 -0.0191982 
3.51069 21.2139 -0.0891741 3.3889 20.9106 -0.0882356 -0.142383 12.9647 -0.044031 
-0.295983 12.6139 -0.0362839 -0.0257821 12.3349 -0.0465395 3.53815 21.6686 -0.0882699 
3.08553 10.1917 -0.0530974 3.07904 9.7632 -0.050482 3.22951 9.99401 -0.0521748 
3.2772 16.9557 -0.0840927 3.4132 16.76 -0.0854143 3.31332 17.283 -0.0853513 
3.44646 17.0904 -0.086717 0.304227 30.5061 -0.0342075 0.497672 30.4889 -0.0356493 
0.382998 30.9386 -0.0337157 -1.08933 1.13575 -0.0549223 -0.546568 0.490167 -0.0115767 
-1.09972 1.16149 -0.0314224 0.953894 13.3683 -0.0545118 1.144 13.2591 -0.055422 
1.07014 12.9466 -0.0547985 0.35812 29.6409 -0.0366852 0.439285 30.1008 -0.0361721 
0.584078 30.0849 -0.0372792 3.64351 7.63489 -0.0322212 0.116711 1.87282 -0.00790715 
0.174436 1.9006 -0.00930988 0.163545 2.27372 -0.0103583 3.75368 15.8348 -0.0864617 
3.72961 15.4833 -0.0847786 3.86587 15.6712 -0.0870421 1.29439 13.8768 -0.0572234 
1.10436 13.9846 -0.0558282 1.37588 14.161 -0.0582717 1.18968 14.2647 -0.0568403 
-0.802275 1.2964 0.00418951 -1.00854 1.60529 0.00495676 -0.961287 1.64461 0.00347081 
-1.13723 1.98391 0.00315673 -1.07687 2.02352 0.00216599 -1.18384 15.7519 -0.0386503 
-1.5119 15.3847 -0.0359679 -1.15614 16.7006 -0.0392902 -1.47924 16.3378 -0.0368692 
2.37481 4.9634 -0.0167569 2.15893 4.62613 -0.0163197 2.2713 4.52371 -0.0130818 
-1.34141 2.44454 0.0020287 3.64278 9.86345 -0.0519626 3.64973 10.2749 -0.0549807 
3.49809 10.0557 -0.053085 1.83564 30.7706 -0.0457948 1.76492 30.3321 -0.0462606 
1.68733 30.7698 -0.0444516 1.61672 30.3319 -0.0449566 2.04252 27.9333 -0.054638 
1.96063 27.512 -0.0548099 -0.637997 0.784505 0.0155897 -0.449622 0.510286 0.0200452 
-0.745718 0.873078 0.0102261 -0.298839 0.841786 0.00794688 -0.186992 0.524282 0.010922 
-0.203723 0.526314 0.0151283 -0.787955 18.1017 -0.04307 -1.10853 17.7976 -0.0402205 
-1.04269 18.6146 -0.0410082 -1.35915 18.3069 -0.0384478 3.65837 11.0134 -0.0601162 
3.78684 11.1944 -0.0619138 3.65869 11.3495 -0.0623155 4.44652 23.0321 -0.0974501 
4.30342 23.1975 -0.0946539 -0.627948 13.0064 -0.0425819 -0.48633 13.2265 -0.0480827 
-0.630243 12.8385 -0.0407412 -2.06151 31.2994 -0.0166628 -1.95101 30.8624 -0.0182999 
-1.88097 31.2792 -0.0178563 1.801 31.4566 -0.0436537 3.59779 22.9642 -0.0842658 
3.41528 22.8189 -0.0814794 3.50185 23.3453 -0.0814427 1.76554 17.5173 -0.0660338 
3.48418 18.439 -0.090068 3.53496 18.778 -0.0911917 3.37958 18.5981 -0.0887995 
-0.035041 13.5185 -0.0548316 0.190386 13.2554 -0.0539489 0.153113 12.9694 -0.0571896 
1.16705 29.5589 -0.0430922 1.01893 29.5801 -0.0418453 1.11151 29.1312 -0.0436836 
3.9992 19.0159 -0.0979433 4.10049 18.8754 -0.0992641 3.94727 18.6898 -0.0968559 
2.4233 5.92361 -0.0256105 2.29044 6.12562 -0.0281659 2.22964 5.69702 -0.0253745 
3.27453 8.04966 -0.0379838 3.23667 7.64124 -0.0346369 3.15044 8.18076 -0.0394581 
3.1155 7.76832 -0.0362889 4.55605 26.8208 -0.0874034 4.5735 26.4565 -0.088711 
-2.65747 11.1534 -0.021326 -2.6956 10.3126 -0.0185987 -2.41179 10.7935 -0.0219433 
2.6408 16.1868 -0.0739583 2.49362 16.2314 -0.0723098 2.62339 16.5253 -0.0743485 
3.85026 29.2612 -0.0714607 3.84797 28.9094 -0.0724183 3.7092 28.6921 -0.0712936 
1.57324 16.5367 -0.0628077 1.43816 16.6289 -0.0611107 1.45655 16.3189 -0.0611373 
4.4125 28.8032 -0.0797225 -3.31177 28.9211 -0.0134754 -2.80097 29.396 -0.0158274 
-2.72731 28.7184 -0.0176243 -3.35224 29.6223 -0.0118631 3.03132 27.3004 -0.0666101 
3.23182 27.4337 -0.068654 3.23254 27.002 -0.0696838 -2.89144 28.2639 -0.0174129 
-2.66461 27.822 -0.0197181 -3.04964 27.9132 -0.0170297 -2.82284 27.471 -0.0193105 
3.26908 30.3575 -0.0615625 3.13077 30.3517 -0.0600237 2.04457 17.475 -0.0675793 
2.16915 17.7142 -0.0697773 3.31652 30.7561 -0.0609844 3.43139 7.04086 -0.0272041 
3.37529 6.63974 -0.0230487 3.25339 6.77393 -0.0259487 1.89675 5.43366 -0.0259122 
1.81261 4.99411 -0.023452 2.05171 5.40861 -0.0246154 1.96243 4.9697 -0.0220236 
-3.54791 10.5908 -0.0140121 2.9368 14.514 -0.072784 2.93042 14.101 -0.071217 
3.08544 14.3401 -0.0735458 3.08112 13.926 -0.0718639 -0.858027 1.2989 0.00602009 
-1.13785 1.68108 0.0050719 0.847151 20.4296 -0.0591584 1.06993 20.0494 -0.06175 
1.10172 20.407 -0.0622456 -3.27506 8.52127 -0.00903757 -3.56281 8.87113 -0.00863696 
-3.51888 8.02656 -0.00608 0.461035 0.843775 -0.00493084 0.283597 0.51193 -0.00468209 
0.298342 0.496799 -0.00301134 0.754444 20.1261 -0.0582706 0.972875 19.7508 -0.060322 
-0.0962138 2.73448 -0.0086935 -0.174081 2.76802 -0.00798403 -0.13872 3.23478 -0.010454 
-2.9294 4.6958 -0.000274174 -2.78792 4.88272 -0.000309317 -2.59085 4.21278 0.000145759 
1.94051 13.3373 -0.0609261 1.83873 13.6842 -0.0608901 2.06545 13.5358 -0.0623035 
1.96744 13.8773 -0.0624173 -3.27528 28.3461 -0.0147883 0.541789 20.129 -0.0559244 
0.653072 19.5383 -0.0570142 0.4571 19.6915 -0.0550399 -2.19115 26.959 -0.0244754 
-2.42696 27.4986 -0.0218995 -2.34497 26.5437 -0.0241241 -2.58054 27.0829 -0.02159 
-2.62807 26.1511 -0.0228268 4.11101 26.6992 -0.0817749 3.95055 26.9076 -0.0790806 
3.96167 26.5212 -0.080252 -3.45333 7.3144 -0.00418295 2.38862 18.6944 -0.0726805 
-0.117989 29.7208 -0.0330906 -0.230359 30.2076 -0.0311623 -0.307497 29.7428 -0.0317181 
-2.00104 27.4345 -0.0249162 -2.25902 27.8462 -0.0223898 3.11868 14.9989 -0.0763442 
3.29295 15.2177 -0.0789763 3.14263 15.4258 -0.0780565 -1.96745 4.36318 -0.00144209 
-2.10361 4.07718 3.52652e-05 -2.27321 4.7375 -0.00129793 1.72028 17.8797 -0.0655154 
1.84179 18.1411 -0.0670071 1.89191 17.751 -0.0667286 2.59733 9.13456 -0.0462789 
2.44081 9.34748 -0.0472422 2.60882 9.57871 -0.0487368 -1.72904 31.2605 -0.0188752 
1.00702 1.44639 0.0129724 1.18372 1.63364 0.01741 0.882869 1.19453 0.017536 
2.00694 17.9797 -0.0684294 -2.79024 26.8554 -0.0205986 4.69671 23.099 -0.101344 
-0.329879 21.9615 -0.0463875 -0.298352 21.1099 -0.0471811 0.0753063 21.3194 -0.0507884 
1.4943 15.0618 -0.0606049 1.56643 14.703 -0.0607128 1.38333 14.8023 -0.0593357 
2.07248 18.6338 -0.0694102 1.86898 18.7883 -0.0680805 1.95533 18.3818 -0.0681835 
-0.523606 1.90814 -0.000378564 -0.397637 1.52844 0.00112777 -0.457916 1.94631 -0.00127315 
-0.629835 0.879045 0.00898913 -0.948168 1.30329 0.00782088 2.38717 14.8581 -0.0684252 
2.58025 14.5492 -0.0694745 2.60203 14.9693 -0.0709101 1.65264 18.2874 -0.0653543 
-0.185265 0.184665 0.00395588 -0.416372 0.501886 0.0285723 -0.195792 0.191134 0.00875762 
3.47044 30.764 -0.0627238 3.55241 31.0541 -0.0628272 3.57176 30.4608 -0.06476 
3.71013 31.0399 -0.0647013 2.88163 4.9177 -0.0059155 3.06812 5.19405 -0.00642596 
2.98487 5.32188 -0.0106404 3.16424 5.58912 -0.0113536 0.155845 1.18137 -0.00834998 
0.117658 1.16923 -0.00578661 0.170831 1.51351 -0.00830288 -0.407465 2.27993 -0.00350177 
-0.325713 1.93978 -0.0027196 -0.489907 2.28041 -0.00276414 -0.3974 1.93969 -0.00184117 
-0.341615 1.53846 -7.56283e-05 0.168016 31.749 -0.0302115 0.0239795 31.7755 -0.0291605 
-3.48249 11.4168 -0.0165888 -0.696977 31.4606 -0.0250984 -0.522112 31.4328 -0.0263154 
-0.611675 31.1081 -0.0264746 1.09968 24.2963 -0.0550983 1.41147 24.1334 -0.0580107 
0.722435 1.50488 -0.00807883 0.772738 1.48648 -0.00535768 0.589635 1.15094 -0.00636795 
-1.20506 12.0705 -0.0359434 -1.14058 11.7364 -0.0353304 -1.05126 12.1831 -0.037601 
0.0997221 31.333 -0.0307551 0.232418 30.9706 -0.0325646 0.154016 30.5383 -0.0330563 
3.80461 10.8103 -0.0593434 3.08862 12.3566 -0.0648656 2.93731 12.1749 -0.0631028 
3.09037 12.0133 -0.0631696 1.74353 13.3978 -0.0596598 1.71803 13.0772 -0.0588418 
1.91485 13.0173 -0.0598591 0.124585 0.222699 -0.00209048 0.345156 31.6367 -0.0317288 
0.287887 31.3052 -0.0321404 -1.784 3.63192 7.67227e-05 -1.66846 3.93625 -0.00157678 
-1.53767 3.39527 -0.000671066 2.19525 29.4464 -0.0525011 2.3023 29.0132 -0.0546285 
0.0876746 0.233425 -0.00344931 0.0837473 0.200047 -0.00656223 0.182851 0.527704 -0.00807554 
1.15483 25.3841 -0.0529994 2.63777 4.12177 0.00416196 2.72225 4.08367 0.00883012 
2.51689 3.78252 0.00875625 -0.878715 27.5831 -0.0325117 -0.787583 28.0265 -0.0322182 
-0.691952 27.3933 -0.0342622 3.17755 18.4351 -0.0856325 3.04468 18.5068 -0.0837456 
3.04307 18.2222 -0.0830554 -1.22844 31.1922 -0.0222423 -1.17447 31.5463 -0.021797 
-1.08797 31.1864 -0.0231612 1.78387 28.9905 -0.0497466 1.59498 29.0124 -0.0480191 
1.71191 28.5306 -0.0501986 0.668863 1.11659 -0.00017865 0.473466 0.797301 -0.000543019 
0.633107 1.1498 -0.00412623 2.27829 17.9337 -0.0689201 2.69965 7.9102 -0.0387412 
2.65332 7.47124 -0.0359203 2.51719 7.88419 -0.0389061 2.47136 7.44175 -0.0362544 
0.749382 13.4963 -0.053057 0.874045 13.0582 -0.0539431 -0.265946 0.837648 0.00794159 
1.05154 3.24674 -0.018331 1.17661 3.23351 -0.0171329 1.25215 3.77572 -0.0196624 
1.39742 2.51597 -0.00297306 1.46983 2.46254 0.0012901 1.62301 2.85201 -0.00215194 
-1.18394 2.35601 0.0012009 -1.56385 3.04738 0.000755192 -1.39121 2.95226 0.000250744 
-1.53437 8.79883 -0.0207393 -1.53389 7.8138 -0.0171692 -1.81521 8.30496 -0.017103 
-2.93304 22.4058 -0.0253557 -2.72868 5.80744 -0.00262827 -2.51134 6.18461 -0.00497894 
-2.40293 5.48696 -0.00310583 1.93736 24.4039 -0.0616066 0.516825 0.810829 0.000673042 
0.348098 0.497805 0.00217102 0.711322 1.11016 0.00379639 0.548851 0.793182 0.00921479 
-2.59216 6.99352 -0.00740467 -2.35441 7.37861 -0.0102447 -2.28388 6.52832 -0.00753004 
-2.05593 6.92683 -0.0105021 -2.2263 24.7904 -0.0277032 -2.28711 25.8299 -0.0256891 
-2.57124 25.4354 -0.024326 3.634 9.53871 -0.0494648 3.77065 9.35631 -0.0481397 
3.61939 9.13417 -0.0462479 3.11249 16.7263 -0.081328 3.15594 17.1158 -0.0828416 
2.95744 16.9289 -0.0796338 -0.26385 28.8335 -0.0341293 -0.44333 28.8387 -0.0328505 
-0.372685 29.3457 -0.0321851 1.50633 5.24071 -0.0264346 1.31113 4.9364 -0.0250892 
1.68321 5.17885 -0.025406 1.48097 4.86873 -0.0246024 0.121679 14.69 -0.0475773 
0.117273 14.9462 -0.0479465 -0.00638753 14.6693 -0.0463526 -0.0232034 14.9232 -0.046228 
3.46851 15.8566 -0.0832399 3.31615 15.6624 -0.0808193 3.44319 15.4099 -0.0813416 
0.2644 6.07061 -0.024061 0.173491 6.79795 -0.0254633 -0.0594257 6.22472 -0.0218657 
-3.27955 9.36944 -0.0118869 -3.55607 9.63675 -0.0111549 3.65409 10.5867 -0.0572053 
2.8119 27.1754 -0.0643277 2.80422 26.6855 -0.0653928 2.57599 27.0233 -0.0621451 
0.236957 14.9236 -0.0490499 3.3607 9.85702 -0.051452 1.02518 5.98139 -0.0284652 
1.29897 6.30255 -0.0306179 1.03628 6.7622 -0.0311744 0.122402 1.48663 -0.0064053 
3.53116 11.1717 -0.0605878 3.52824 10.7428 -0.0578135 0.0320003 15.8461 -0.0479568 
-0.128844 15.8327 -0.0466178 -0.0967746 15.5002 -0.0464405 2.34215 24.2708 -0.0654821 
2.1851 23.7442 -0.0646489 2.09164 24.9156 -0.0617412 4.26475 20.489 -0.10162 
4.40045 20.6984 -0.103337 4.15893 20.6525 -0.0997158 4.29253 20.8613 -0.101453 
1.04443 28.6729 -0.0442494 0.934146 29.1574 -0.0422079 1.50526 20.6801 -0.0671117 
1.31836 20.9153 -0.0646741 1.42813 20.4258 -0.0661064 -3.06176 6.24087 -0.00262056 
-2.83603 6.59751 -0.00471602 -3.16164 6.95086 -0.00441367 4.22733 19.6151 -0.101562 
4.37157 19.8129 -0.103713 4.33152 19.4696 -0.103083 2.26359 11.7474 -0.0577041 
2.06236 11.5935 -0.0561973 2.25156 11.3306 -0.0559657 0.710433 10.1369 -0.0419189 
0.627129 10.7523 -0.0444863 0.859069 10.572 -0.0458863 0.739004 11.1262 -0.0481019 
0.564933 9.7162 -0.0386215 0.482899 10.3353 -0.0403852 2.82248 17.6847 -0.0786974 
2.89794 17.9789 -0.0803548 0.626732 11.6817 -0.0512797 0.5215 11.3166 -0.0474733 
1.0904 10.4669 -0.0469548 0.982531 9.98675 -0.0436216 -0.0423515 28.2983 -0.0369569 
0.0707949 27.8031 -0.0389384 -0.107339 27.724 -0.037823 0.309404 20.5621 -0.05364 
0.588944 20.6782 -0.0563454 0.347996 21.4461 -0.0535319 -3.53715 31.9182 -0.00606696 
-3.399 31.624 -0.00753822 -3.49175 31.5282 -0.00715145 0.755796 17.1905 -0.0558356 
0.574414 17.329 -0.0544148 0.816732 16.8351 -0.0559538 0.641492 16.9769 -0.0545892 
-0.611656 21.4319 -0.0441984 -0.0150829 20.4198 -0.0503318 -0.329982 20.7485 -0.0470722 
-3.1618 30.6789 -0.0109572 -3.27619 30.323 -0.010955 -3.00562 30.7823 -0.0117351 
-3.1199 30.4264 -0.0117325 -1.06548 1.17313 -0.010012 -0.898092 1.0178 -0.00287836 
-1.32658 1.56191 -0.00641617 1.51459 22.4297 -0.0639289 1.61071 22.8652 -0.0631822 
1.71917 22.3013 -0.0659002 3.15543 23.5982 -0.07616 3.01119 23.1642 -0.0752101 
2.916 23.925 -0.0721649 1.18351 30.8325 -0.040042 1.36617 30.8069 -0.0416109 
1.24044 31.1759 -0.0396367 1.4235 31.1509 -0.0412101 2.59249 3.74875 0.0140854 
1.83747 14.247 -0.0621798 1.74178 14.621 -0.0620681 1.92259 14.5471 -0.0635127 
2.25637 18.4531 -0.0705994 2.3078 23.0834 -0.0672751 2.48091 23.4795 -0.0681631 
-2.57495 19.5949 -0.0293595 -2.25336 19.0478 -0.0318177 -2.61083 18.5297 -0.0292688 
-3.32873 30.8377 -0.00958442 0.0971416 15.2239 -0.047759 3.69869 16.759 -0.0890561 
3.81169 16.6078 -0.0899987 3.7409 17.1678 -0.0908206 3.85122 17.0198 -0.0918211 
1.85144 14.8835 -0.0634787 -2.99819 9.88992 -0.015204 -2.99081 8.97083 -0.0121666 
-2.71584 9.4959 -0.0156519 3.38703 19.8468 -0.0902049 3.25536 19.7527 -0.0887133 
3.41223 20.1672 -0.0909382 -0.457945 8.31045 -0.0255764 -0.259193 8.79918 -0.0288169 
-0.511209 9.06826 -0.027623 1.12913 16.6575 -0.0583761 1.09173 16.9932 -0.0586507 
1.24766 16.8899 -0.0594642 0.24617 30.1184 -0.0347217 3.22213 24.0343 -0.0760278 
2.98618 24.3592 -0.0720158 3.77877 10.4466 -0.0566296 2.04951 22.9735 -0.06597 
1.50272 11.6846 -0.0541342 1.50933 12.0776 -0.0553057 1.67043 11.2722 -0.0533439 
1.6807 11.6643 -0.0547545 2.85495 6.82005 -0.0298033 -1.39395 13.4537 -0.0357934 
-1.21519 14.2487 -0.0372012 -1.15853 13.6668 -0.0377462 0.374819 27.0815 -0.0428786 
0.429014 27.606 -0.0420691 0.171916 27.2622 -0.0409539 0.225181 27.7862 -0.0401122 
0.0753768 3.03908 -0.0120744 0.138944 2.70384 -0.0116426 0.823207 14.4974 -0.0537123 
0.644267 14.631 -0.0523477 0.74935 14.8697 -0.0540126 0.710074 27.015 -0.0455844 
0.88814 27.2172 -0.0464972 0.59409 27.5826 -0.0433669 0.771219 27.7861 -0.044234 
0.18384 15.8138 -0.0492756 0.132332 16.1241 -0.0491637 2.96179 31.3705 -0.0553026 
3.11124 31.4204 -0.0567801 0.688759 16.579 -0.0546424 2.18511 18.8777 -0.0714546 
2.2839 19.1323 -0.0732359 3.0054 30.7182 -0.0576195 3.67651 29.7855 -0.067902 
3.65667 30.154 -0.0666296 3.81997 30.0066 -0.0689989 0.533433 27.1712 -0.0438778 
-3.02578 31.722 -0.00968203 -3.20013 31.8109 -0.00840301 -3.13372 32.1662 -0.00808896 
-1.1115 31.857 -0.0214934 -0.432175 0.56284 0.0170526 -0.636999 0.835403 0.0140212 
0.261389 0.515578 -0.00810232 0.238965 0.513933 -0.00499464 0.11974 0.193072 -0.00140186 
-0.306963 31.827 -0.0268141 0.628086 17.9335 -0.0556158 0.497852 17.7168 -0.0540757 
0.708062 17.5391 -0.0557632 2.77794 5.55306 -0.0176622 2.85504 5.92589 -0.0210588 
2.96257 5.81317 -0.0181493 2.08766 5.84547 -0.0274809 3.31997 7.15578 -0.0294722 
3.47494 7.37513 -0.0305555 3.36153 7.49226 -0.0325177 0.831462 9.54632 -0.0401274 
0.691963 9.01095 -0.0367002 0.921226 8.86259 -0.0379484 0.779612 8.32711 -0.0350958 
3.79024 21.3126 -0.0930955 3.65591 21.4288 -0.0909017 3.81705 21.7204 -0.0918304 
-3.41778 32.2695 -0.00609366 -3.55377 32.2849 -0.00520595 3.78925 13.0111 -0.073192 
3.66268 12.837 -0.0712399 3.81485 12.6201 -0.0711171 0.424894 23.3873 -0.0516002 
0.173574 24.1142 -0.047894 0.0706698 0.244678 -0.00285572 2.44733 11.9591 -0.059464 
2.27917 12.1456 -0.0592893 4.02132 22.714 -0.0917538 3.86353 22.516 -0.0897736 
4.01689 22.3262 -0.0928851 3.86046 22.1247 -0.09131 1.60245 4.15469 -0.019187 
1.43144 4.17483 -0.0210361 1.60936 4.68172 -0.0227347 -2.3947 24.2434 -0.0272049 
-2.73856 24.8872 -0.0239681 2.39058 13.6297 -0.0651249 2.20336 13.8583 -0.0642243 
2.22738 13.453 -0.0632729 2.09008 31.0884 -0.0472744 2.18231 30.7369 -0.0490953 
2.23479 31.0828 -0.0486638 4.13859 22.1953 -0.0952327 4.11559 21.7951 -0.0962333 
3.98524 21.9439 -0.0937857 -3.00242 32.1624 -0.00891471 -1.01402 14.1028 -0.0388925 
4.16854 22.5753 -0.0944858 -1.90097 21.5818 -0.0334047 -1.59526 22.1266 -0.0353962 
-1.95375 22.9138 -0.0318709 1.29543 22.7078 -0.0611231 1.33568 22.1603 -0.0628857 
1.07338 22.73 -0.0590724 1.11343 22.189 -0.0605451 -0.523102 18.4751 -0.04538 
-0.222509 18.5509 -0.0479746 -0.334276 18.0126 -0.0468058 4.71103 23.4613 -0.100337 
3.87058 15.2847 -0.0854132 3.8534 14.9322 -0.0836814 3.70954 15.0474 -0.0827306 
3.69441 14.6975 -0.0809879 3.09904 14.6709 -0.074918 2.95675 14.8374 -0.0740805 
0.467439 13.3544 -0.051915 0.403258 13.0479 -0.0531091 0.24922 13.5622 -0.0514302 
3.39183 14.3083 -0.0762965 3.38167 13.9684 -0.0746896 3.24558 14.1328 -0.0741796 
1.52199 3.6992 -0.0164393 1.36162 3.71831 -0.0184953 1.27365 3.17737 -0.0154381 
4.02909 19.903 -0.0985559 3.95585 19.4935 -0.0975698 3.86669 19.759 -0.0963534 
3.79151 19.3497 -0.0952112 3.61068 15.6426 -0.0840834 0.46685 17.0562 -0.0531506 
3.09477 19.5802 -0.086717 3.11119 19.3878 -0.0858235 3.25724 14.465 -0.0756735 
0.100164 2.17472 -0.00886906 0.520287 16.6612 -0.0532786 0.233025 2.69439 -0.0128497 
-0.746137 2.35166 -0.00126755 -0.838465 2.8615 -0.0029215 -0.897592 2.69436 -0.00188609 
-1.55159 2.33864 0.00211898 -1.39223 2.23864 0.00276045 -0.352096 13.7867 -0.0455569 
-0.340455 13.6042 -0.0480021 -0.232037 14.1012 -0.0438284 -0.222951 13.9124 -0.0460502 
4.40717 26.7001 -0.0857908 4.43952 26.2602 -0.0874945 1.13385 4.73872 -0.0244637 
1.12194 5.30157 -0.0264343 0.0633868 15.5174 -0.0478318 0.194769 8.84807 -0.0321363 
0.142407 9.482 -0.0339614 -0.0448483 9.11522 -0.0315251 -1.68316 13.0761 -0.0327158 
-1.59732 12.5444 -0.0328161 -1.46983 12.9675 -0.0346415 0.0473979 1.88469 -0.00646197 
-0.668657 1.94546 3.58062e-05 -0.576954 1.54124 0.00162695 0.381419 9.29198 -0.035278 
0.332276 9.93001 -0.0373281 4.38853 29.9785 -0.0759618 1.93341 23.633 -0.063194 
4.1211 29.6453 -0.0736804 4.08776 30.0548 -0.0720905 3.93931 29.8373 -0.0709235 
4.37802 30.3035 -0.0748313 4.17781 30.6211 -0.0714855 4.22428 30.1175 -0.0735487 
4.01585 25.6862 -0.0831608 3.99033 26.0685 -0.0818032 4.16275 25.8734 -0.0847225 
4.66234 21.9791 -0.104573 4.54197 22.1602 -0.101902 4.63829 21.6455 -0.105274 
4.52304 21.8217 -0.102613 2.64044 10.2571 -0.0523879 2.64095 10.6619 -0.054428 
2.77718 10.1044 -0.0519293 2.77918 10.5077 -0.0540869 -2.97349 8.17238 -0.00950768 
-2.66756 7.77558 -0.00981536 -2.69345 8.63042 -0.0127971 4.67741 22.3527 -0.103582 
-3.26372 10.2605 -0.014732 -2.39727 8.19697 -0.0129633 0.242089 16.4589 -0.0506061 
0.349885 16.7369 -0.0517939 0.405828 16.3995 -0.0519785 -0.641385 1.21109 0.000144108 
-0.83447 1.54602 0.00167151 -0.688156 1.20313 0.00154929 -0.0961912 0.199537 0.00634931 
2.34591 21.4842 -0.0720453 4.62074 25.6823 -0.0917717 4.46251 25.9028 -0.0888632 
4.58144 26.0839 -0.0899652 -0.507969 0.883908 -0.000278916 -0.445906 0.852552 -0.000681889 
-0.353102 0.570843 -0.00575309 -0.310682 0.53731 -0.00412063 -0.0701385 13.2558 -0.0508968 
0.09588 12.6926 -0.0556512 -0.75216 12.5794 -0.0398609 -0.886951 12.4027 -0.0397284 
-0.832451 12.1473 -0.0394168 0.759428 12.3814 -0.053676 0.619145 12.8496 -0.0533229 
0.810481 12.7274 -0.053673 0.67705 13.1923 -0.0526879 -2.42818 4.38091 -4.74616e-05 
-2.25359 3.87006 -5.74418e-07 2.68339 22.9956 -0.0716891 2.74255 23.5006 -0.0705089 
-2.6148 5.20817 -0.00134716 0.121707 0.542119 -0.00886106 0.0497574 0.194688 -0.00278555 
2.96486 19.5131 -0.0817098 2.95853 19.4124 -0.0831744 2.85996 19.2404 -0.078708 
0.144919 0.540702 -0.0131666 0.197343 0.849487 -0.00806397 1.34363 12.0868 -0.0546597 
1.30356 11.7003 -0.0534142 1.1433 12.1637 -0.0541351 1.51137 30.7814 -0.0429017 
2.14429 19.5909 -0.0741693 2.36545 19.3982 -0.0763928 2.07136 19.3039 -0.0716245 
1.9391 19.74 -0.0716206 0.929933 21.9248 -0.0592391 0.893378 21.4251 -0.0594324 
1.07882 21.6879 -0.0612153 0.454607 1.17907 -0.0107281 0.505151 1.175 -0.00953116 
0.549488 1.52829 -0.0122962 0.613167 1.52603 -0.0111972 -0.195911 11.9506 -0.0402868 
-0.0962175 11.3984 -0.0370947 -0.368937 11.4713 -0.0381584 3.65097 17.7018 -0.0909646 
3.7789 17.5149 -0.092267 4.06007 27.8182 -0.0780858 4.20539 28.0217 -0.0793506 
4.2143 27.6854 -0.0804351 0.20295 1.18343 -0.0101159 0.219079 1.52959 -0.00999276 
0.278872 1.5324 -0.0112748 1.25508 12.8674 -0.0556901 1.19221 12.53 -0.0549183 
0.411953 1.17557 -0.0105757 0.282375 0.8301 -0.00706385 -0.972641 30.7173 -0.024978 
-0.905868 31.1516 -0.0244337 -0.488053 13.3898 -0.0457303 -0.109361 14.2017 -0.0463018 
-0.256063 14.3121 -0.0448045 -0.114172 14.4036 -0.0458311 -0.534538 13.1886 -0.0466596 
-0.455117 13.2201 -0.0461249 -0.242421 13.7652 -0.0480786 -0.337317 13.5213 -0.057855 
4.21423 25.0802 -0.0876701 4.1879 25.5113 -0.0860762 4.04353 25.2506 -0.0846944 
1.40459 12.4273 -0.0556595 -1.57712 20.9706 -0.0362955 -1.26735 21.5107 -0.0385046 
-2.98288 26.4711 -0.0199586 -2.82137 25.7655 -0.0221382 -3.15098 26.0699 -0.0195033 
1.21071 14.8926 -0.0580005 1.28828 14.5421 -0.0581174 1.03628 15.0038 -0.056457 
1.15305 15.263 -0.0578279 -1.72047 10.4137 -0.0257522 -1.67686 11.2064 -0.0288088 
-1.50653 10.7807 -0.0289305 0.931111 14.7507 -0.0552137 0.865576 15.1123 -0.056028 
-2.16072 10.3736 -0.0223713 -2.12938 11.1581 -0.0251813 4.2353 29.7928 -0.0746307 
2.88218 5.39906 -0.0138453 3.06778 5.67936 -0.0146657 1.00223 28.1967 -0.0450588 
1.11476 27.6604 -0.0472337 1.14245 28.2477 -0.0460447 1.25576 27.7109 -0.0482696 
-1.62952 11.8216 -0.0311171 -1.85796 11.5902 -0.0283599 -1.84051 12.1752 -0.0298514 
-2.07717 11.9539 -0.0276363 2.59176 9.92172 -0.0505223 0.439683 31.2794 -0.0332842 
-0.0329714 3.07278 -0.0109719 0.0124716 3.56793 -0.0134022 1.71455 26.9058 -0.0540042 
1.77011 27.4625 -0.0531983 1.90631 26.9533 -0.0555659 3.49417 9.3481 -0.0479268 
3.33863 9.11962 -0.046238 3.50535 9.66642 -0.0503128 3.35142 9.44036 -0.0485603 
-0.986095 12.964 -0.0392051 -1.09432 12.5493 -0.037842 -0.935424 12.6618 -0.0392733 
3.88936 19.1781 -0.0964889 3.72995 19.0056 -0.0940858 -1.93581 10.0128 -0.0226718 
-1.93699 10.7626 -0.02532 1.31457 29.5307 -0.0443693 1.49957 29.5095 -0.0459836 
1.38474 29.9766 -0.0438551 2.43235 15.8955 -0.0709542 2.5822 15.8468 -0.0727 
3.0827 12.8027 -0.0669536 2.92949 12.9853 -0.0667112 3.07956 13.165 -0.0685927 
1.96219 30.317 -0.0480838 2.05887 29.9155 -0.0500384 1.90301 29.928 -0.0485274 
-2.80555 31.3924 -0.0117511 -2.6375 31.372 -0.0128552 -2.69895 30.8855 -0.013473 
-0.546222 13.881 -0.0429047 -0.379283 14.0116 -0.0438036 -0.415669 14.2956 -0.0432753 
2.52043 15.5513 -0.0713507 4.27529 23.957 -0.0918549 4.40075 24.1574 -0.0931775 
4.43432 23.7755 -0.094884 4.55939 23.9701 -0.0962528 2.76601 16.0133 -0.0752506 
-3.46325 31.1279 -0.00814807 3.21501 6.42787 -0.022385 3.02985 6.15292 -0.0213877 
3.31488 6.32507 -0.0197528 3.12906 6.04784 -0.018767 -0.499858 31.8552 -0.0254719 
3.39786 29.7228 -0.0647843 3.22812 30.008 -0.0620521 3.21235 29.5414 -0.0631236 
-0.686572 1.50815 0.000722217 -0.525454 1.17747 0.000649004 -0.637892 1.52803 0.000993775 
-1.49181 29.5588 -0.0240834 -1.58465 29.9357 -0.0226651 2.70416 15.7149 -0.0738815 
2.97935 15.2631 -0.0757432 3.01922 15.5967 -0.0771982 2.12491 16.5939 -0.0679972 
2.23459 16.8515 -0.0693725 2.2842 16.5363 -0.0699023 -1.68286 30.4181 -0.0209852 
-1.61758 30.8042 -0.0205734 -1.52746 30.3967 -0.0220502 1.27074 1.87229 0.0112414 
1.45946 2.07625 0.0150905 3.66867 16.4083 -0.0875098 3.78411 16.2678 -0.0884606 
-1.0265 31.5238 -0.0228022 -0.169959 0.52125 0.0158834 2.87466 15.8218 -0.0761207 
2.83067 15.3958 -0.0744967 2.66013 15.2911 -0.0722725 1.15363 17.6067 -0.0597767 
1.26209 17.8921 -0.0611997 1.07758 17.9935 -0.059643 -3.21804 11.0607 -0.0173438 
-1.48924 31.572 -0.0197184 -1.40174 31.2008 -0.0211016 -1.54368 31.2242 -0.0201379 
2.5764 5.24983 -0.0170663 2.65943 5.62754 -0.0202168 0.0306724 13.8074 -0.0513407 
3.84484 20.2073 -0.0958048 3.88237 20.4945 -0.0961883 3.71783 20.2465 -0.0941538 
3.46877 6.52695 -0.0204246 -2.94692 5.55638 -0.00131775 3.67229 13.9528 -0.0772285 
3.79445 13.764 -0.0773347 3.66282 13.6005 -0.0753557 3.37762 13.5541 -0.0727389 
3.5125 13.3822 -0.0729695 3.5285 13.7732 -0.075044 3.81643 13.3898 -0.0755284 
-2.89452 31.7183 -0.0105167 -2.83475 32.1438 -0.0100059 2.27857 18.1779 -0.0699981 
2.42731 8.90564 -0.0448511 -1.36204 26.6447 -0.0308709 -1.72318 27.1479 -0.0273843 
-1.521 27.3459 -0.0284299 -0.967784 24.3625 -0.0378479 -1.28809 23.8631 -0.0360037 
-0.678744 23.495 -0.0414969 -1.00143 23.0006 -0.0394045 1.14515 8.29117 -0.0373727 
-0.775046 29.8398 -0.0282876 -0.626879 29.8306 -0.0293151 -0.880117 30.332 -0.0264601 
-0.732007 30.3232 -0.0274788 1.86189 11.4842 -0.054921 2.90652 16.1748 -0.077407 
0.861752 25.6004 -0.0501039 1.04541 26.018 -0.0505826 2.93386 9.89665 -0.0510577 
2.91736 9.56532 -0.0490899 2.76252 9.77152 -0.0500359 -0.023067 0.191606 -0.00378718 
2.45192 12.3263 -0.0609358 -2.81806 12.3251 -0.0230013 -2.4964 12.8013 -0.0263279 
-3.07727 12.7481 -0.0217951 -2.75391 13.2317 -0.0248749 3.95965 21.5366 -0.094697 
3.75245 27.8898 -0.0739491 3.74176 28.2623 -0.0728526 3.8898 28.1048 -0.0751271 
3.87948 28.4765 -0.0739796 4.30124 22.7858 -0.0959019 4.17223 22.9896 -0.093221 
0.524481 0.469749 0.0366971 0.487555 0.400902 0.0359863 2.60718 13.7436 -0.0672178 
2.39831 13.9789 -0.0661814 2.60151 13.3943 -0.06588 3.53912 29.7504 -0.0663706 
0.656422 28.2363 -0.0422868 0.557513 28.7074 -0.0404035 0.708594 28.6881 -0.0416045 
2.59348 14.1679 -0.0684328 0.765956 31.2347 -0.035795 0.948066 31.2129 -0.0372328 
-2.22276 21.1467 -0.0312873 -2.25691 22.157 -0.0303098 -2.57638 21.7192 -0.0282986 
-2.69066 23.8131 -0.0256319 -2.30674 23.5777 -0.0286082 -2.60642 22.8178 -0.0272734 
3.10329 20.9782 -0.0799084 3.14549 20.372 -0.0881091 2.95862 20.5856 -0.0833489 
0.624985 15.6895 -0.0535318 0.60183 15.9893 -0.0537936 0.749609 15.9248 -0.0546079 
0.241463 14.3217 -0.0512241 0.350132 14.5412 -0.0533398 0.431175 14.1099 -0.0494069 
2.44427 13.1712 -0.0639668 3.44236 31.4113 -0.0605103 3.36911 31.0791 -0.060656 
3.27347 31.3904 -0.0586642 -0.135444 14.6472 -0.0455083 3.14232 6.88965 -0.0281747 
1.97766 16.6371 -0.0665627 -1.60772 2.71118 0.0017386 0.183046 0.210752 0.000342913 
-0.541302 0.878423 0.00648389 -0.380325 0.562957 0.00102232 -0.575712 0.869274 0.00782095 
-0.900624 10.5084 -0.0310156 -1.1125 10.3551 -0.0291182 -0.963093 9.86132 -0.0277928 
0.244106 2.27659 -0.0117966 0.244001 1.90334 -0.0110015 -0.0318815 30.5604 -0.0317028 
-0.0926729 30.1697 -0.0322096 0.0929148 30.1475 -0.0335638 -2.98726 13.6578 -0.0237875 
-3.33491 13.136 -0.0206305 1.29207 30.3735 -0.0421006 1.38631 3.12038 -0.0130382 
1.26906 2.68957 -0.0101682 1.47539 3.04582 -0.00997866 0.131424 0.841934 -0.00515101 
0.103357 0.827096 -0.00531941 0.0679854 0.826833 -0.000375384 0.100493 0.53664 -0.00821774 
0.170125 0.87461 -0.00964712 1.27371 16.5774 -0.0599161 1.3981 16.8049 -0.0602144 
1.80682 23.1633 -0.0632769 1.55883 23.5011 -0.0608517 -0.536379 26.8769 -0.036524 
-0.418431 26.1659 -0.038953 -0.340397 26.8642 -0.0380406 -0.556503 24.3388 -0.0411822 
-0.168609 24.529 -0.0442485 0.999964 16.4217 -0.0568676 0.973278 16.7583 -0.0569114 
0.848854 16.5024 -0.0562119 -1.89709 20.5484 -0.0340035 2.85222 18.7091 -0.0800034 
2.73098 18.6658 -0.0763353 2.7454 18.4477 -0.0771986 1.4747 18.4165 -0.0640364 
1.54764 18.0161 -0.0644514 4.25134 29.4448 -0.0758631 4.42554 29.2148 -0.078654 
4.40931 29.5627 -0.0774403 2.14332 18.2272 -0.0690255 -1.86477 3.30097 0.00134273 
1.20794 17.2495 -0.059425 1.04654 17.3485 -0.0584269 -0.529325 13.1337 -0.0619567 
-0.119556 2.29766 -0.00628398 -0.187933 2.33031 -0.00570949 1.00255 23.7703 -0.0556969 
1.14592 23.2439 -0.0582466 1.31022 23.6017 -0.0585921 0.305258 12.413 -0.0556057 
0.212976 12.108 -0.0513529 0.4257 11.8606 -0.0510799 1.89414 31.1104 -0.0453955 
1.98667 30.7583 -0.0471814 2.78281 16.4392 -0.0763265 2.76722 16.7758 -0.076685 
2.92427 16.6017 -0.0785041 -0.212872 7.94017 -0.0263224 -0.00906187 8.4167 -0.0290894 
1.5254 8.74213 -0.0413673 1.30269 8.82001 -0.040537 1.56126 9.30959 -0.0442644 
1.33712 9.39368 -0.0434576 1.96923 3.4114 -0.00250048 1.81625 3.34572 -0.00578314 
2.08821 3.78621 -0.00593729 1.93118 3.72128 -0.00900855 2.86347 30.7187 -0.0560706 
2.67286 30.7145 -0.0540672 3.97727 23.8415 -0.0875466 4.12744 24.0978 -0.0890746 
4.00141 23.5006 -0.0889639 4.15173 23.7597 -0.0904915 1.44635 2.2201 0.00802524 
1.67777 2.52493 0.00942951 -1.48625 6.87943 -0.0139109 -1.4457 5.97673 -0.0110108 
-1.22141 6.33993 -0.0139875 1.57451 18.6882 -0.0654765 1.76859 18.5508 -0.0672146 
0.461791 18.2802 -0.0542133 0.373019 17.9528 -0.0531115 0.288747 18.3287 -0.0527388 
0.129609 14.0704 -0.0530012 0.333126 13.8393 -0.0490148 1.0144 13.6916 -0.0549502 
0.823785 13.8001 -0.0536629 0.917472 14.088 -0.0543947 -2.95613 23.3921 -0.0242964 
3.16946 5.15225 -0.00282391 3.04142 4.73451 0.00313315 2.97194 4.84496 -0.00188569 
2.14418 5.25931 -0.0226302 2.04448 4.76744 -0.0193727 3.03063 7.01743 -0.0303053 
2.97701 6.67828 -0.0276254 -0.0732349 5.5411 -0.0196167 -0.242676 5.71766 -0.0190784 
2.27776 17.6631 -0.0688997 2.17108 17.4346 -0.0680314 2.30296 17.398 -0.0698808 
0.870058 19.5282 -0.0591441 -1.55431 28.4966 -0.0258804 -1.58693 29.0658 -0.0244807 
-1.43675 28.9575 -0.0257263 -1.36241 28.4969 -0.0271997 -1.43733 28.0165 -0.0276704 
1.1441 30.3971 -0.0408231 -0.232409 16.9565 -0.0467418 -0.138649 16.5508 -0.0472211 
-0.0170494 16.8328 -0.0485726 1.86587 20.4692 -0.0720371 1.68285 20.5899 -0.0693124 
2.00048 20.0452 -0.0735224 1.80632 20.1796 -0.0707416 1.62716 10.8411 -0.0514538 
1.45893 11.2966 -0.0526338 1.58848 10.3436 -0.0491027 1.42674 10.7998 -0.0504513 
2.49121 17.1052 -0.0729582 2.56602 16.8063 -0.0738452 2.38841 16.8231 -0.0713899 
1.22701 28.6354 -0.0458035 1.38069 28.5978 -0.0471858 1.26462 29.0937 -0.0450061 
1.81419 10.586 -0.0511608 1.86064 11.0175 -0.0531396 3.52927 16.5937 -0.0864022 
3.38147 16.4148 -0.0839975 -2.24551 2.94104 -0.00752015 -2.14517 31.6594 -0.0153639 
-2.07144 32.0683 -0.0149449 -1.96477 31.6393 -0.01655 -1.64831 14.5327 -0.0343832 
-1.53614 13.9292 -0.0346701 -1.82861 13.5571 -0.0322084 -1.85417 9.14581 -0.0200883 
-2.14041 8.67087 -0.0162778 4.70531 22.7341 -0.102743 3.71462 20.8945 -0.0935067 
3.59727 21.0029 -0.0910411 -0.384599 31.4098 -0.027279 0.928159 27.7438 -0.0455575 
0.0333274 0.194762 -0.00116767 1.07438 27.1319 -0.048192 1.28643 27.1062 -0.049944 
0.0488875 0.239992 -0.00285681 0.077421 0.535541 -0.00792773 1.78558 12.3477 -0.0573473 
1.81242 12.712 -0.0584331 1.62903 12.7177 -0.0574743 -0.133069 1.93021 -0.00417685 
-0.104021 0.530724 -0.00558625 -0.0503471 0.193645 -0.000779478 -0.12274 0.526597 -0.00170174 
1.97473 12.6411 -0.0592446 3.80798 11.5619 -0.0644958 3.37799 10.9432 -0.0585347 
2.90522 7.16219 -0.0324104 1.53195 20.0376 -0.0670915 1.60814 20.3379 -0.0683862 
1.73136 19.9135 -0.0693938 -0.312081 4.9232 -0.015506 -0.0806121 4.86188 -0.0171848 
2.65319 19.4733 -0.0822663 -0.548172 3.09651 -0.00608616 -0.654338 3.58006 -0.00721114 
-0.550706 3.55194 -0.00793997 -0.650461 4.04331 -0.00919712 -0.34947 4.33566 -0.0130549 
-0.501109 4.87311 -0.0139714 2.92712 4.3985 0.00818449 0.413792 2.74113 -0.0152526 
0.499926 3.1722 -0.0170947 0.496456 2.74356 -0.0160482 -0.217796 0.191581 0.00574154 
3.07531 19.8606 -0.0721513 3.16364 19.8784 -0.0854021 4.02535 21.0087 -0.097342 
3.85831 20.7471 -0.0953654 3.90104 21.1426 -0.0951241 4.05538 20.7534 -0.0981627 
3.98863 20.333 -0.0977511 1.43703 30.3474 -0.0433718 1.1438 16.332 -0.0578292 
3.08287 16.3946 -0.0801605 2.33313 16.2247 -0.0702495 2.34605 15.6049 -0.069572 
1.67782 13.7115 -0.0598014 1.58123 13.4283 -0.0586043 -0.974422 2.24757 0.000191114 
-1.0954 2.66926 -0.000526533 3.56256 19.9969 -0.0923807 3.57798 20.3271 -0.0925118 
-0.0597368 16.1844 -0.0476266 -0.226286 16.1716 -0.0461467 -1.9141 19.5336 -0.0342274 
-1.54087 19.9937 -0.0369814 1.69613 16.7789 -0.0637323 1.81304 17.0146 -0.0651917 
1.67952 17.0777 -0.0637012 -1.92856 32.0522 -0.0158834 -0.535494 27.4493 -0.0352922 
-0.338971 27.4367 -0.0367749 3.286 28.7083 -0.0661573 3.11468 28.6825 -0.0642058 
3.26609 28.2805 -0.067004 -2.37315 31.3317 -0.0146135 -2.50954 31.3442 -0.0137224 
-2.45757 31.6822 -0.0133442 2.79195 15.0637 -0.073086 3.41875 30.4411 -0.0630488 
4.32914 28.182 -0.0805087 4.29719 28.6338 -0.0787947 4.15623 28.4107 -0.0776355 
3.65585 7.98384 -0.0358012 3.51658 7.77358 -0.0343746 1.27402 21.7561 -0.0632386 
3.30325 8.39495 -0.0407224 3.43146 8.23756 -0.0390176 3.39994 7.89613 -0.0361183 
-2.42798 9.09186 -0.0160997 -2.43493 9.88417 -0.018876 -2.15433 9.49045 -0.0195148 
3.0831 7.43234 -0.0336368 3.35036 16.0128 -0.0823755 3.1748 15.7744 -0.0795589 
-1.80239 7.31136 -0.0136282 -1.73254 6.48218 -0.0109801 -0.456858 1.55189 0.00159134 
-0.595397 1.9333 -0.000133186 -0.515579 1.53006 0.00172288 -2.57438 11.9384 -0.0239218 
-2.91428 11.533 -0.0205465 -3.1612 11.9135 -0.0197939 0.495526 1.52381 -0.01271 
-0.340191 1.19663 0.00345597 -0.384687 1.17374 0.00388126 1.95385 4.33244 -0.0162183 
1.71987 4.03535 -0.0167936 1.83089 3.81483 -0.0125673 0.160359 0.210267 -0.001573 
0.322515 0.496814 -0.00171638 0.864173 1.42952 0.00186746 1.02932 1.82289 -0.00186079 
1.06275 1.74752 0.00262002 -3.19966 29.8645 -0.0123534 -3.38766 30.1127 -0.0106707 
0.384306 0.823278 -0.00660723 0.345969 0.825542 -0.00605785 2.61272 11.7532 -0.0594408 
2.4346 11.5442 -0.0576784 2.61824 11.3992 -0.0578816 2.4404 11.1882 -0.0561689 
0.886269 2.8015 -0.0169459 0.97199 2.79154 -0.0163076 0.859135 1.91864 -0.0103058 
0.786064 1.94555 -0.0122597 0.664349 1.51798 -0.0100316 1.6014 6.79113 -0.0332203 
1.80089 6.65079 -0.0327962 1.56606 6.16782 -0.030666 0.302999 1.92008 -0.012164 
0.887777 2.34241 -0.0141134 1.08461 2.77795 -0.0148362 0.722833 1.95252 -0.013399 
1.96249 31.5157 -0.0449416 -0.723401 8.70777 -0.0252702 -2.20112 31.3283 -0.0157096 
-2.0907 30.8915 -0.0173436 -0.593603 14.2406 -0.042108 -0.454432 14.5783 -0.0430272 
0.682073 21.8997 -0.0566137 -0.843344 14.5888 -0.0402379 -0.635854 14.4928 -0.0418099 
-0.776115 14.1506 -0.0407003 -0.129246 14.0118 -0.0471863 -0.0172078 14.221 -0.0475562 
2.59019 7.1469 -0.0338669 1.73749 7.7723 -0.0381148 1.66124 8.29484 -0.0401075 
1.49704 7.54123 -0.0361355 1.42166 8.0724 -0.0381402 -0.564363 1.16317 -0.000142002 
-0.407293 0.849176 -0.00100466 -0.284522 0.540926 -0.00443833 0.301206 11.4993 -0.0456288 
0.158653 11.1412 -0.0404043 0.392611 10.9497 -0.042783 0.207315 15.4871 -0.0489907 
0.33445 15.7933 -0.0507088 0.357831 15.4726 -0.0509557 2.86449 4.50087 0.00277007 
0.897316 28.6908 -0.0430428 -0.00217386 14.428 -0.0466078 2.09358 13.1267 -0.0613895 
1.20327 13.584 -0.0562302 2.46389 5.3721 -0.0200327 2.25448 5.03754 -0.0193064 
2.34997 5.52692 -0.0228869 1.4424 12.7998 -0.0565474 1.33704 13.1805 -0.0566823 
1.00712 14.3613 -0.0554394 1.48394 16.0016 -0.0609771 1.3361 16.0831 -0.0601004 
1.37392 15.7593 -0.0600092 -2.49196 30.5244 -0.0155388 -2.57088 30.8578 -0.0143459 
-2.32619 30.569 -0.0165051 -2.40512 30.9024 -0.015309 0.930451 17.0901 -0.0571506 
1.36042 18.132 -0.0625653 1.27933 18.5344 -0.062341 4.25815 24.3156 -0.0905216 
-2.76301 31.7182 -0.0113429 -2.87631 30.9319 -0.0122483 -2.80705 30.4625 -0.0136471 
0.107381 14.445 -0.0478107 4.03179 28.2483 -0.0765277 -1.9104 30.0059 -0.0203772 
1.43023 15.3968 -0.0604525 1.59598 15.3049 -0.0618246 2.28207 20.4699 -0.0789519 
1.53479 15.6472 -0.0617298 1.52348 21.0476 -0.0672142 1.3403 21.2818 -0.0646264 
0.878333 16.1806 -0.0556602 -3.23026 27.5644 -0.0164953 0.812935 28.1947 -0.0435835 
2.85859 29.498 -0.0592492 2.70796 29.4917 -0.0576574 2.91643 29.9411 -0.0587533 
2.76628 29.935 -0.0571281 -0.000225162 26.6997 -0.0409275 -0.0032945 27.3246 -0.0395065 
-0.180837 27.2458 -0.0383652 0.899346 11.8831 -0.0528045 0.959383 12.2477 -0.0537516 
-1.06461 26.515 -0.0333084 -1.22269 27.2165 -0.030782 -0.945536 28.4184 -0.0302545 
-0.741351 28.534 -0.0314437 -0.89715 28.9158 -0.0295149 1.74395 31.1189 -0.044035 
1.37095 17.1499 -0.0608338 -2.41738 29.2398 -0.0186306 -2.31534 29.5686 -0.0186303 
-2.49841 29.8911 -0.0167885 -1.02612 30.3162 -0.0255247 -1.10385 29.8603 -0.0260188 
-0.957952 29.8763 -0.0269679 -0.00751837 1.18106 -0.000374533 2.37106 3.44087 0.0133256 
2.29922 3.48907 0.00816288 2.76091 13.5603 -0.0677942 2.75937 13.2022 -0.0663837 
0.410583 0.814827 -0.00411245 -1.26891 8.16396 -0.0199636 4.62522 25.3131 -0.0929948 
0.805706 0.951509 0.0347624 0.704672 0.882328 0.0246146 0.975465 1.84714 -0.00494552 
0.823078 1.45538 -0.0021223 3.38236 11.3464 -0.0609907 2.94314 11.3999 -0.0593188 
3.093 11.2731 -0.0592967 2.9475 11.0793 -0.05767 3.23777 11.0892 -0.0588527 
3.09213 10.9263 -0.0573823 1.81301 4.47064 -0.0194674 2.7878 11.2684 -0.0579912 
2.78449 10.8546 -0.0558957 -2.7552 30.0816 -0.0147517 -2.62397 29.5565 -0.0166588 
3.08884 10.5215 -0.0550587 3.68728 14.3693 -0.0793862 3.81775 14.5475 -0.0814828 
-1.16163 12.8256 -0.0373852 -1.05474 13.3029 -0.0386036 -0.915464 11.0977 -0.0332984 
-1.02768 11.4549 -0.0339219 -0.870339 11.6376 -0.0366326 1.72144 21.3483 -0.0690775 
1.72738 20.9397 -0.0698653 1.52234 21.4525 -0.0665085 -1.73785 29.0012 -0.0236119 
3.34067 29.2063 -0.0654985 3.43553 28.7562 -0.0678212 3.19089 29.1592 -0.0638845 
2.57631 31.0631 -0.0521161 2.42451 31.071 -0.0505531 2.52204 30.713 -0.0524996 
2.77493 12.7592 -0.0646829 2.777 12.3948 -0.0631459 2.93053 12.6218 -0.0651226 
-0.736832 11.9519 -0.0378631 -0.609151 12.2802 -0.0414188 -0.720928 12.4055 -0.0396157 
-0.608043 12.7681 -0.0352913 0.727386 14.2305 -0.0525501 0.539114 14.381 -0.0493481 
3.57858 24.0677 -0.0809176 3.41036 23.7562 -0.07914 3.39504 24.1945 -0.0779378 
0.0576466 0.527698 -0.00295122 -0.817013 30.7006 -0.026052 0.0368002 1.16806 -0.00113804 
3.20536 9.24627 -0.0471769 1.82943 29.4712 -0.0489895 3.32237 23.2313 -0.0788043 
3.18438 22.7883 -0.0782555 2.47926 4.81442 -0.013103 3.36685 22.3526 -0.0823845 
2.01896 3.32101 0.00132452 2.21499 3.54184 0.00313922 2.18013 3.70203 -0.001715 
1.66432 9.75153 -0.046758 1.8249 10.1473 -0.049221 -1.93517 12.7118 -0.0301824 
-1.3254 14.8464 -0.036986 0.606407 25.8391 -0.0475434 0.36013 25.6478 -0.0460868 
0.351644 26.1722 -0.0448127 0.107129 25.9771 -0.0434115 0.945907 26.6562 -0.0483166 
-1.21655 30.3511 -0.0241849 -1.16313 30.7525 -0.023647 1.23713 30.004 -0.0425576 
1.05555 30.0218 -0.0410518 -0.988845 2.67125 -0.00122321 -1.0834 3.14902 -0.00261015 
-3.28562 32.1832 -0.00709653 -1.26397 1.71065 0.00440152 -0.821278 2.29992 -0.00074789 
0.687057 23.0951 -0.0545832 0.594872 22.5728 -0.0546781 0.633166 13.9339 -0.0520332 
2.75132 14.32 -0.0703626 2.74527 13.9845 -0.0691712 0.439509 1.93289 -0.0141054 
0.550592 2.31919 -0.0155607 0.474363 2.31824 -0.0149873 0.683758 2.77213 -0.0171923 
0.595239 2.77001 -0.0168329 0.723102 3.62443 -0.0196874 0.600128 3.14793 -0.0177931 
0.611293 3.64832 -0.0191798 1.282 2.0577 0.00443334 1.2244 2.11494 -0.000360103 
2.52883 22.2716 -0.071049 3.27171 14.8886 -0.0775414 3.5273 12.656 -0.0692684 
3.53077 12.2234 -0.0668844 3.37859 12.4374 -0.0670919 2.63495 18.186 -0.0748017 
2.62522 18.4193 -0.0744071 0.199684 0.204164 0.00947117 0.18134 0.199883 -0.0018725 
0.452965 0.551854 0.0246624 2.73208 21.8087 -0.0760882 2.76835 22.336 -0.0734334 
2.89919 18.2604 -0.080631 2.88175 18.5008 -0.0807071 1.66447 28.0345 -0.0509326 
1.60453 27.5279 -0.0516138 1.82961 27.9708 -0.0525626 1.52601 28.5375 -0.0485587 
1.44973 29.0716 -0.046625 1.64092 29.4921 -0.0472545 -0.0611521 1.91637 -0.00488494 
0.445014 29.2079 -0.0383655 2.7826 11.5901 -0.0595185 -2.09154 7.8149 -0.0134595 
2.61604 10.9839 -0.0559136 3.36997 30.0357 -0.0636078 1.82052 8.59393 -0.0420168 
1.95204 8.16176 -0.0402788 2.07993 28.4766 -0.0537012 1.86808 28.5129 -0.0516509 
0.710015 3.17581 -0.0183836 4.4867 25.4819 -0.0904779 4.50552 25.1396 -0.0917865 
2.04759 20.3562 -0.074762 2.20754 19.8812 -0.0759896 4.66036 24.9455 -0.0946882 
0.788443 20.9378 -0.0585571 1.03698 20.9207 -0.0613152 1.2125 20.6213 -0.0635523 
-2.26869 30.8898 -0.016205 -0.960958 7.60927 -0.0197753 -1.22522 7.25621 -0.0169966 
0.794532 18.532 -0.057564 0.896132 18.1087 -0.0580955 0.993903 18.3788 -0.0593989 
-0.516841 12.7144 -0.0420282 -0.146939 0.530071 0.00308571 -0.0668559 0.235384 -0.000963561 
-2.62967 30.4162 -0.0148696 0.152507 28.2879 -0.0384067 -0.0619892 0.196298 -0.00248174 
0.0698292 10.1641 -0.035953 0.241325 10.541 -0.0383988 0.0270838 28.736 -0.0364436 
0.2225 28.7259 -0.0378839 -0.229322 0.842378 0.00696483 2.64166 31.4645 -0.0516515 
-1.15682 2.5825 0.000116077 -1.47556 30.7811 -0.0215474 -1.30365 30.7579 -0.0227145 
-1.68077 5.63965 -0.00808918 -1.36675 5.13442 -0.00834509 -0.347561 2.74112 -0.00621539 
-0.34278 2.30742 -0.00416943 -0.457834 2.76825 -0.00533595 -0.0734934 0.834956 0.0028998 
-0.079179 1.18677 7.74817e-05 2.3542 6.54281 -0.0307667 2.33133 7.63958 -0.0376929 
4.07485 24.8802 -0.0861287 3.95109 20.0444 -0.0974976 4.09124 20.2319 -0.099319 
0.83998 22.6036 -0.057086 0.919944 23.2296 -0.0564336 -1.03993 27.2074 -0.0321123 
-0.853489 27.0192 -0.0338606 3.25668 27.8765 -0.0678954 3.05736 27.7452 -0.0658431 
2.69113 8.2215 -0.0407922 3.25828 5.49165 -0.00762016 2.43339 16.5182 -0.0717914 
2.57525 26.4003 -0.0635071 -0.212684 4.29105 -0.0140202 -0.226846 3.77707 -0.011783 
-0.103261 3.73333 -0.0129483 -1.90324 2.91092 0.000279243 1.32566 28.2098 -0.0476465 
-0.710648 8.0078 -0.02314 -0.970782 8.39777 -0.0224054 0.485447 3.62621 -0.0181872 
1.15681 26.6274 -0.0500453 1.30312 25.8828 -0.0530185 1.41617 26.4974 -0.0524471 
0.066937 0.194349 -0.00206226 -1.14417 28.463 -0.0287741 -1.03616 27.974 -0.0305694 
-1.21937 27.9836 -0.0292541 1.31898 16.4012 -0.0595206 -0.850606 1.84493 0.000676478 
-3.03274 27.244 -0.0183304 0.718171 4.05782 -0.0208881 0.582389 4.03484 -0.0200633 
0.386445 1.53707 -0.013025 2.98176 7.93225 -0.0381004 3.01476 8.35515 -0.041099 
3.23522 5.91799 -0.015222 3.4135 6.18336 -0.0162807 3.44811 25.8799 -0.0749987 
3.66148 25.638 -0.0783594 3.48951 25.4754 -0.0764208 3.70259 25.2378 -0.0798862 
2.6862 4.62876 -0.0055052 2.47593 4.32827 -0.00546533 2.79289 5.03468 -0.010066 
2.59064 4.74114 -0.00974369 3.32927 5.8312 -0.0121661 2.24838 2.88383 0.034774 
1.96527 2.47838 0.0347295 2.2228 2.95017 0.0267509 -1.66662 24.5273 -0.0321204 
-2.01167 24.0051 -0.0302788 -1.63427 23.3457 -0.0339166 2.39566 14.4777 -0.0675635 
-0.107258 18.0677 -0.048758 -0.226232 17.535 -0.0472959 2.60984 12.2035 -0.0613578 
2.61547 12.5692 -0.062884 -0.504644 30.6441 -0.0282665 -0.750215 31.1346 -0.0254867 
-0.643373 30.671 -0.0272746 2.04676 14.1826 -0.0637522 2.09821 14.5003 -0.0648546 
2.25012 14.1793 -0.0654653 -0.822936 4.23471 -0.00878412 3.37808 13.2071 -0.0710352 
2.60242 28.5457 -0.0588505 2.46722 29.043 -0.0562299 2.67193 29.0718 -0.058308 
2.92641 13.7648 -0.0698574 3.07486 13.5865 -0.0703949 -3.27598 31.4904 -0.00858443 
-3.34259 31.2171 -0.00872571 -3.3323 31.8972 -0.00739475 -2.93272 30.1278 -0.0135288 
-1.63948 27.8197 -0.0266621 3.88218 23.2921 -0.0876722 4.02156 23.0671 -0.0905897 
3.90255 22.8557 -0.0894329 0.145968 0.223458 -0.00209952 3.75564 9.0421 -0.0454557 
3.60269 8.81718 -0.0436263 0.13684 0.189098 -0.00131872 4.48834 20.5585 -0.105007 
4.34825 20.3618 -0.103013 4.17347 20.1031 -0.100612 4.28309 19.9462 -0.102286 
0.22704 15.2047 -0.048775 0.369149 15.1855 -0.0506098 3.59346 27.7551 -0.0723172 
3.4189 27.5701 -0.070599 3.60081 27.3399 -0.0734236 3.75983 27.4763 -0.0751242 
1.70763 7.2925 -0.0357367 1.92629 7.6862 -0.0379938 2.02208 8.58446 -0.0425144 
2.15634 8.35864 -0.0416088 0.22928 20.1204 -0.0528193 0.258862 19.5405 -0.0529673 
0.0166341 19.8396 -0.0506126 2.23643 9.88653 -0.0494376 2.42539 9.6933 -0.0490058 
2.01931 9.58213 -0.0473523 2.2073 9.38125 -0.0469401 -1.47424 1.64866 -0.0321388 
-1.37965 1.55995 -0.017383 1.01894 12.5824 -0.0543642 0.945706 3.23358 -0.018629 
0.946404 5.23994 -0.0256385 0.833317 4.659 -0.0232117 0.966116 4.67452 -0.0237085 
0.840211 4.07279 -0.0215166 0.116538 25.0467 -0.0455337 3.52972 24.9857 -0.0780677 
3.26105 25.6116 -0.073278 3.30095 25.1161 -0.0747086 -0.198137 28.3788 -0.0356563 
-0.262486 27.8045 -0.036493 0.373722 28.7196 -0.039015 0.514554 24.0425 -0.0510097 
2.81289 28.6245 -0.0609563 2.82547 29.0782 -0.0599636 2.23304 28.5277 -0.0550925 
2.56433 28.1137 -0.0594675 2.43702 28.5145 -0.0571826 2.35965 28.1253 -0.0572947 
-1.86429 30.4576 -0.0197238 -1.35554 30.3738 -0.0232208 -0.758583 29.0091 -0.0302608 
-0.580521 28.9424 -0.0316585 -0.685051 29.4794 -0.0297149 2.54504 8.77557 -0.0442049 
2.37285 8.54453 -0.0428075 -0.568253 11.6863 -0.0378206 -0.516809 11.1088 -0.034829 
-1.93684 29.0932 -0.0220853 3.06424 9.43278 -0.0483669 2.90288 9.22965 -0.0470201 
3.04707 9.00991 -0.0455949 2.88352 8.80348 -0.0443249 -0.782077 31.8017 -0.0237495 
2.79706 6.41016 -0.0266161 4.23711 27.2625 -0.081904 4.3891 27.0665 -0.0844849 
4.36878 27.4134 -0.0832224 -1.89606 5.34874 -0.00555635 -1.56644 4.83237 -0.00575075 
0.922943 1.90183 -0.00807629 3.55369 14.5291 -0.0788364 3.53734 14.1141 -0.0767714 
4.50716 27.2215 -0.0855832 4.50957 27.6082 -0.0844777 4.52366 24.7372 -0.0932931 
-3.36321 6.53219 -0.00238971 4.36186 24.9227 -0.0902866 1.65086 19.6183 -0.0678226 
1.46022 19.7622 -0.0659049 4.6591 24.5825 -0.0958313 0.825537 15.4647 -0.055722 
1.82826 22.5832 -0.0658858 -2.90019 14.5296 -0.0252387 -2.80488 15.4926 -0.0268113 
-2.55424 14.9894 -0.0281737 0.0271436 17.6087 -0.0496194 0.12618 17.9022 -0.0508184 
0.204816 17.5331 -0.0512077 0.559512 19.2557 -0.0559619 -3.04111 24.3989 -0.0225652 
-3.0303 25.3435 -0.0213997 -2.421 15.9829 -0.0298696 -2.16603 15.4702 -0.0314957 
3.9821 16.8438 -0.092886 -2.91118 21.1931 -0.0263522 -2.56226 20.6807 -0.0290852 
-0.123145 28.78 -0.0352513 3.20696 24.4774 -0.0748849 3.38294 24.7209 -0.0767143 
3.14989 24.9434 -0.0730832 -0.451887 29.8007 -0.030586 -0.413842 30.2358 -0.0298354 
-0.558255 30.2932 -0.0287187 -2.61622 14.0785 -0.0268386 -2.26751 14.5286 -0.029872 
1.14204 21.2187 -0.0624908 -2.18919 30.4931 -0.0175464 -2.07283 30.0916 -0.0191378 
-2.20982 30.1675 -0.0180904 0.265678 0.214356 0.00399904 0.6885 0.720416 0.0577824 
-2.1644 29.7369 -0.0192788 -2.36071 29.9993 -0.0174587 2.73652 8.99218 -0.045531 
2.75295 9.33032 -0.04753 1.93998 22.003 -0.0684716 1.36244 22.9769 -0.0609695 
2.77441 4.54744 -0.00125823 2.57095 4.25065 -0.00120519 1.66219 14.9529 -0.0619066 
3.2368 16.5624 -0.0825723 -0.41165 0.563939 0.0159994 -0.112218 0.202063 -0.00157455 
0.0722824 1.16415 -0.00309876 3.72209 22.6596 -0.0872231 3.70647 22.252 -0.0883425 
4.24786 19.0785 -0.101578 4.21266 18.7248 -0.1007 3.6636 20.5036 -0.093294 
2.4514 31.4819 -0.0496876 2.29901 31.4903 -0.0481858 3.91363 24.6318 -0.0844369 
3.94389 24.2624 -0.0858907 3.76621 24.3914 -0.0828027 -1.39395 24.9743 -0.0335641 
-1.73352 25.5125 -0.0301807 -1.57802 26.0847 -0.0303774 2.69641 20.684 -0.0799409 
-3.0124 29.5658 -0.0141322 0.841913 29.6061 -0.0404031 0.0436895 0.827112 0.00259338 
-1.26354 12.4105 -0.0358609 -1.34073 12.7034 -0.0357313 -1.46555 12.279 -0.0337297 
0.0664371 1.4805 -0.00442897 -0.164724 0.184882 0.000518715 -0.155747 0.190608 -0.00523408 
2.46683 10.8642 -0.0547954 2.46595 10.4554 -0.0528566 2.15085 12.7553 -0.060634 
0.0311157 0.234044 -0.000838015 0.033182 0.530396 -0.00184416 2.2595 10.4339 -0.052085 
2.06796 10.6409 -0.0523002 2.0781 10.2072 -0.0504009 1.05871 1.09489 0.0833432 
0.136711 3.5201 -0.0145959 0.13923 4.18137 -0.0168507 -0.00176323 4.23075 -0.0157135 
3.66201 12.0686 -0.0667927 3.53136 11.8946 -0.0649983 0.446067 16.0446 -0.0520143 
0.570131 16.3213 -0.0534265 1.16984 2.74727 -0.0130789 1.44786 1.73418 0.0401539 
1.00805 1.13064 0.0466431 1.17983 1.43969 0.0337826 1.10228 11.7712 -0.0529993 
0.97433 2.31653 -0.0124181 0.21515 0.512758 -0.00837385 0.100994 0.196579 -0.00320706 
0.202755 0.507287 -0.00127165 0.160652 0.525268 -0.00866903 -2.01116 30.4947 -0.0186922 
-2.0483 2.55452 -0.012011 -1.90979 2.47358 -0.00346807 -1.65501 2.00362 -0.00914313 
2.95931 21.4531 -0.0784204 2.78815 21.1306 -0.0780116 1.56438 29.9604 -0.0454277 
1.70564 29.9438 -0.0467102 2.45846 3.90708 0.00300604 3.20672 16.2193 -0.0812383 
2.06539 4.23768 -0.0133946 1.56769 31.13 -0.042477 3.58723 15.2903 -0.0824552 
-0.66006 20.4694 -0.0442778 3.04942 16.0399 -0.0788237 -0.669368 14.834 -0.0416606 
2.45807 15.2338 -0.0700077 -1.34762 31.5551 -0.020666 2.51885 8.33903 -0.0416535 
2.71287 8.55944 -0.0428817 0.293407 29.2136 -0.0372419 1.88786 11.8965 -0.056486 
1.94701 12.2772 -0.057968 3.31877 8.70684 -0.0431317 3.16827 8.51129 -0.0419031 
3.19032 8.92758 -0.0449452 2.15102 3.12693 0.0129397 -0.510097 13.6522 -0.0436632 
3.41823 18.053 -0.088473 3.31094 18.2154 -0.0871883 3.61004 17.3576 -0.0896026 
3.49721 17.5036 -0.0884386 3.56207 16.9413 -0.0878334 -0.0604657 0.524185 -0.000994528 
-0.0313638 0.234758 -0.000515732 -0.0357588 0.521962 0.00136505 0.383639 0.508521 0.0108542 
4.25348 26.9013 -0.0831701 4.28655 26.4589 -0.0848223 3.62806 26.0985 -0.0768489 
2.28964 9.12472 -0.0458252 2.23774 8.76354 -0.0438501 4.35895 25.3024 -0.0891287 
4.13467 26.3226 -0.0831159 4.30964 26.0852 -0.0861937 0.402085 17.3954 -0.0528814 
0.289208 16.1052 -0.0506498 -1.1766 25.5328 -0.0343114 2.84496 18.9171 -0.0803878 
2.98758 19.0332 -0.0834345 3.46595 20.7241 -0.0909549 3.33956 20.4874 -0.0887118 
3.53168 20.5692 -0.0919332 3.3855 20.3651 -0.0899439 3.85419 25.4552 -0.0814698 
-2.91463 20.1825 -0.0268485 -3.28678 14.04 -0.0220556 1.58091 21.8562 -0.0661846 
1.78648 21.7145 -0.0686498 3.47782 8.9405 -0.0447659 3.46441 8.63164 -0.0422716 
4.30628 31.2608 -0.0711159 4.10273 31.3475 -0.0684152 4.26224 30.9819 -0.0714194 
-2.70334 32.1436 -0.0108307 4.29113 22.4356 -0.0969091 -1.27293 22.5547 -0.0376144 
3.41995 19.5489 -0.0905363 3.64817 19.8385 -0.0933751 3.50839 19.3906 -0.0913507 
-1.93728 18.5157 -0.0341369 -2.30053 18.0043 -0.0314368 2.93875 10.3274 -0.0535389 
-0.777193 12.8335 -0.0413337 -0.643446 13.2455 -0.0429071 3.93459 31.3653 -0.0663894 
3.78117 31.3798 -0.064506 -3.22527 7.73727 -0.00665451 0.316054 0.820922 -0.0061607 
-0.138661 0.837636 0.00163943 -0.167234 1.19799 -0.00204371 -0.109662 0.832501 -0.000823539 
-0.127015 1.19617 -0.000955397 3.60615 18.26 -0.091484 3.65428 18.6015 -0.0926293 
3.76232 18.4475 -0.093927 0.655053 1.94575 -0.0141262 1.24502 19.939 -0.0635912 
1.31058 20.2424 -0.0646099 0.993237 19.1127 -0.060169 1.09678 18.6799 -0.0607137 
0.807379 19.1723 -0.0582937 0.910001 18.7467 -0.0589887 2.0907 16.9031 -0.0676139 
4.18596 20.9829 -0.0995464 2.66183 17.0819 -0.0754996 2.58995 17.3735 -0.0745401 
2.84407 17.1035 -0.0782923 2.91943 17.5038 -0.0800662 2.74294 17.4021 -0.077095 
2.6876 17.6702 -0.0762659 0.841992 31.6478 -0.0353364 3.27125 21.1371 -0.0853685 
3.2748 20.6079 -0.0895467 1.09383 31.1949 -0.0384193 -3.23881 5.92246 -0.0013885 
2.41046 20.9921 -0.075806 2.55856 21.1507 -0.0741797 0.365796 12.7323 -0.055196 
1.73586 2.16708 0.0344609 1.46791 1.85382 0.0309228 0.508641 12.1955 -0.0537772 
0.566671 12.5358 -0.0537578 1.03578 11.4023 -0.0514071 0.829659 11.5275 -0.0510755 
0.54994 13.651 -0.0514024 0.699224 12.0311 -0.0531198 3.59355 28.1541 -0.0712948 
3.41918 27.9709 -0.0696202 3.42819 28.3736 -0.0687002 -3.44474 12.2809 -0.0185849 
1.44063 1.61382 0.0658921 0.963127 1.01755 0.0600476 1.75412 2.06364 0.0512379 
1.31757 1.48016 0.0547636 2.29562 4.07204 -0.00557803 1.26136 15.5074 -0.0587961 
1.10483 15.6061 -0.0583542 -1.71672 2.35039 -0.000430101 -1.41924 1.77903 -0.00168334 
-1.76964 30.8231 -0.0195561 -1.11383 1.38261 0.00310717 3.49633 16.1897 -0.0847182 
1.31614 4.3636 -0.0225053 2.6166 6.21383 -0.0264508 3.88697 25.0803 -0.0828678 
3.71179 23.3234 -0.084847 3.61725 23.7032 -0.0823667 3.23802 12.5978 -0.0670114 
3.23919 12.255 -0.0652764 2.92999 24.8323 -0.0706702 1.10378 14.6235 -0.0568148 
3.42178 15.0596 -0.0797421 2.81335 30.2975 -0.0566822 3.82109 25.9114 -0.0798749 
3.79514 26.2973 -0.078565 -0.859092 13.4061 -0.0403981 -0.677493 13.5139 -0.0420442 
-0.812455 13.0726 -0.0409122 -2.95668 10.6838 -0.0179577 -1.20197 3.14809 -0.00165073 
-1.25887 3.7178 -0.00375366 -1.42207 3.51815 -0.00157639 -0.980489 11.9549 -0.0380179 
3.81028 11.8786 -0.0665303 3.79036 12.248 -0.0687082 0.465227 4.19925 -0.0197266 
0.367599 3.64305 -0.0172266 0.334125 4.22207 -0.018681 0.248983 3.66528 -0.0162467 
2.3664 26.1205 -0.0618849 2.57837 25.7303 -0.06497 2.3655 26.7876 -0.0604047 
0.78107 24.4361 -0.0522636 0.436884 24.5138 -0.0492631 -0.56361 28.4672 -0.0328425 
-1.42924 29.9141 -0.0237302 0.377162 1.9292 -0.0133632 2.54806 5.82048 -0.0235042 
1.15002 4.33771 -0.0228598 0.790736 2.78716 -0.0172677 0.708807 18.8945 -0.0571299 
1.85778 19.4803 -0.069819 1.76562 19.2116 -0.0682199 -0.383897 17.312 -0.0458579 
-0.603031 17.6443 -0.0442683 -1.80204 28.5647 -0.0240632 1.59746 16.2264 -0.0622903 
1.71502 16.4653 -0.0634485 -0.245956 19.9973 -0.0481968 -2.00094 28.6561 -0.0225494 
-1.88697 27.8864 -0.0248377 -2.14517 28.2992 -0.0222843 -1.29032 29.8917 -0.0247038 
-1.34145 29.4499 -0.0253222 3.54139 17.8598 -0.0898025 1.65486 14.3735 -0.0608739 
1.75614 13.9939 -0.0610147 -2.39067 32.1084 -0.0128614 -2.22995 31.9939 -0.0141113 
-2.28561 31.6789 -0.0144349 -2.11714 29.2169 -0.0206436 -2.21923 28.8884 -0.0206302 
2.92282 6.34339 -0.0247539 2.73867 6.07109 -0.0239511 -0.739477 10.8478 -0.0333521 
-0.563679 10.4507 -0.0318877 -0.737716 10.1179 -0.0305354 0.510951 8.58954 -0.0339221 
1.6811 23.9615 -0.0604788 2.41642 29.9204 -0.0535216 2.56927 29.9305 -0.0550608 
2.5551 29.4807 -0.0560658 -2.27644 12.3769 -0.0270373 0.495037 15.1486 -0.0521869 
0.491831 15.4241 -0.052052 3.83266 14.1559 -0.0797013 1.32376 6.93338 -0.0331279 
1.20573 7.37314 -0.0341432 0.0445459 30.9986 -0.0311773 -0.102982 31.016 -0.0301195 
0.820544 30.4342 -0.0381991 0.907713 30.0429 -0.0398434 0.644796 30.4714 -0.0367857 
0.731836 30.0803 -0.0383971 1.85379 9.17709 -0.0449492 2.0562 9.16324 -0.0454836 
1.91267 7.15155 -0.0352833 2.51633 17.9076 -0.0725722 2.39199 17.9165 -0.0694001 
2.41435 17.6621 -0.0712829 1.13413 3.75903 -0.020324 2.19808 17.153 -0.0688761 
2.44213 17.3789 -0.0720528 2.33581 17.105 -0.0706281 3.23526 13.3794 -0.0707152 
3.2402 13.7194 -0.0723389 -2.02234 17.4496 -0.0333603 0.682914 25.1088 -0.0498725 
-2.36348 28.5308 -0.0203774 -3.10382 5.22827 -0.000747004 -1.24466 28.9568 -0.0270313 
-1.98398 29.6129 -0.0207097 3.66533 12.4039 -0.0687947 3.66128 13.1806 -0.0731368 
3.52739 13.0066 -0.0711241 2.77907 11.9463 -0.0611538 3.23728 13.0172 -0.0690544 
3.69167 19.5115 -0.093938 3.97754 29.4116 -0.0725946 3.76691 27.1298 -0.0760885 
2.55734 22.8264 -0.0710169 3.0919 29.9959 -0.0605489 3.59516 26.9537 -0.0743494 
3.77782 26.7408 -0.0772301 0.787306 26.2559 -0.0479766 1.27705 19.2408 -0.063229 
1.46811 19.0995 -0.0649997 1.36322 19.5083 -0.0644896 -0.83926 16.3125 -0.04148 
-0.678638 15.7273 -0.0419869 -0.604575 16.2587 -0.0432368 1.56447 16.8466 -0.0624798 
1.57123 19.3672 -0.0665268 -0.14679 0.196144 -0.00182059 -0.360538 3.2252 -0.00821146 
-0.352116 3.7564 -0.0106072 -0.475462 3.71136 -0.0093934 -0.166076 0.833882 -0.00051095 
-0.200944 0.838551 0.0040756 -0.254913 1.19888 0.000179614 1.91843 17.5249 -0.0651205 
1.9258 17.2407 -0.0654635 -0.663749 16.8829 -0.0433233 -0.427942 16.8208 -0.0451004 
-0.291868 14.595 -0.0438858 -0.33064 14.8802 -0.0441242 -0.582291 19.7195 -0.0450602 
-0.367249 19.1811 -0.0468868 1.94343 16.9503 -0.0657021 -0.205816 15.2094 -0.0451391 
-0.0549424 15.2044 -0.0463778 -0.164575 14.9218 -0.0451828 -0.497993 15.8213 -0.0435628 
-0.388715 16.0886 -0.044722 3.80395 24.0322 -0.084384 -1.51252 11.528 -0.0315512 
-1.35282 11.1158 -0.0304789 -0.0423996 29.2702 -0.0346919 -0.231883 29.2927 -0.0332939 
2.9555 30.2972 -0.0582204 0.529952 30.9213 -0.0348253 2.98377 21.9923 -0.0780423 
2.95948 22.6508 -0.0750766 -3.22523 26.9062 -0.0176699 3.57923 7.27789 -0.0286804 
3.5448 6.89139 -0.0243295 1.25699 11.306 -0.0518385 3.58121 8.49677 -0.0408754 
3.73246 8.65184 -0.0419723 3.70829 8.33579 -0.0390865 -0.730806 2.79698 -0.00336215 
-0.649917 2.28931 -0.00162523 -1.79627 4.67041 -0.003475 -1.48583 4.12704 -0.00360965 
-1.27733 4.30052 -0.00581938 -1.50075 10.3019 -0.027199 -1.29273 10.6871 -0.0296926 
-1.28524 10.0826 -0.0269069 -0.486382 4.28964 -0.0116634 -0.684082 4.62204 -0.0112733 
-0.95203 9.17023 -0.0252326 -1.13987 9.58706 -0.0259849 -0.394878 15.585 -0.0440731 
-0.359158 15.2486 -0.0440319 -0.578799 15.2961 -0.0425549 2.39807 3.31457 0.0205222 
2.1689 2.98246 0.0205214 2.43998 3.27037 0.0266009 3.51915 30.1194 -0.0651141 
-2.24047 20.0859 -0.0316527 2.99332 18.7782 -0.0831451 3.15041 18.8597 -0.0855325 
-0.485177 14.9102 -0.0427856 3.37996 11.9971 -0.0647038 -0.729927 19.0073 -0.0437077 
-0.880393 17.2087 -0.0417925 0.981578 4.14395 -0.0221084 0.716582 2.3417 -0.0157197 
-0.299175 1.18927 0.00219652 1.17557 10.8945 -0.0496521 1.33937 10.3836 -0.0481437 
2.13714 12.3745 -0.0593141 2.07662 11.9935 -0.057681 0.707138 18.231 -0.0565266 
1.47809 28.0429 -0.0493029 1.40789 27.5424 -0.04991 0.777222 23.7488 -0.0538821 
1.32187 17.5118 -0.061391 3.09325 6.56438 -0.0252549 3.77819 19.7971 -0.0951608 
4.04903 18.5438 -0.0981116 1.39451 5.62811 -0.0279881 4.3466 27.836 -0.0817151 
3.6121 26.5074 -0.0756372 3.19837 7.3004 -0.0317368 3.98675 29.0526 -0.0737351 
4.01773 28.6201 -0.0753239 -0.764865 25.5107 -0.0374746 -0.436226 25.3018 -0.0404424 
-0.748202 26.3765 -0.0359228 -0.941714 21.0518 -0.0415025 -0.939885 21.8984 -0.0409578 
2.33268 30.7243 -0.0505832 2.46571 30.2918 -0.053067 0.753877 15.6264 -0.0550578 
-0.377474 28.3846 -0.0343507 -0.675072 6.18789 -0.0172507 -0.367243 6.53481 -0.0208087 
-0.688159 7.02886 -0.020133 -0.437823 7.41939 -0.0227428 -0.966348 6.71818 -0.016686 
1.48276 27.0889 -0.0515883 -1.1514 5.52107 -0.0114913 -0.933916 5.88777 -0.0144326 
0.436914 1.53142 -0.0129792 -0.485289 0.395734 -0.0332409 4.35949 30.7034 -0.0734436 
4.08036 30.8992 -0.0694987 3.92698 30.9142 -0.067637 2.48935 18.9447 -0.0753579 
4.04092 30.5583 -0.0700334 0.799087 1.15338 0.0108714 1.18708 18.9483 -0.0619606 
1.63264 31.5445 -0.0419612 0.812587 2.35257 -0.0151974 2.7369 27.6828 -0.0623959 
2.89549 27.6656 -0.0641766 2.72261 28.0943 -0.0612448 0.169574 16.8038 -0.0501035 
0.289566 17.0694 -0.0515784 -3.12007 15.9131 -0.0247794 -3.16854 14.9518 -0.0236764 
0.31609 2.30645 -0.0129817 2.53785 18.629 -0.0709093 -1.9798 6.15471 -0.00798439 
2.17366 14.9788 -0.0666314 2.25168 14.6775 -0.0667501 3.40439 14.7336 -0.0782534 
2.14306 31.4189 -0.0468869 -0.216215 1.19882 -0.00169418 -0.292295 1.53236 -0.00118097 
3.83775 23.6073 -0.086032 0.229143 5.39128 -0.021486 0.0699121 4.68912 -0.0180507 
0.364233 14.9078 -0.0504068 -1.24065 9.03414 -0.0235802 0.887833 15.8545 -0.0552044 
-0.747426 9.53886 -0.0282381 3.0759 29.5288 -0.0616111 1.47694 13.8135 -0.0584973 
1.55821 14.0922 -0.0595497 1.46331 14.4282 -0.0593881 4.45033 20.1948 -0.104773 
2.37105 4.41851 -0.00959952 2.62565 3.6465 0.0208014 -1.8246 15.8603 -0.0340214 
-1.92584 14.9174 -0.0326304 4.14988 29.2033 -0.0753134 4.15931 28.8449 -0.0764344 
-0.771828 11.3891 -0.0356258 -1.64488 9.68524 -0.0233969 3.6608 11.6664 -0.0643354 
3.53041 11.4922 -0.0625691 0.546235 18.5866 -0.0553024 -0.844441 31.4887 -0.0240733 
-0.951948 31.9294 -0.0223595 1.3832 18.8394 -0.0638205 1.51611 17.0451 -0.0619049 
1.18465 19.627 -0.0626123 0.38827 3.15517 -0.0160645 0.282308 3.17189 -0.0149661 
-2.38353 16.9407 -0.0306027 -2.06613 16.4177 -0.032708 2.54139 17.6333 -0.0735481 
-0.665858 22.3382 -0.0430488 4.15463 19.2026 -0.100348 3.52131 10.4017 -0.0555291 
3.88638 17.3582 -0.0932723 4.06035 17.5976 -0.0962032 2.74489 24.4248 -0.0693478 
0.385053 5.43276 -0.0229051 0.517102 5.92653 -0.0250938 4.69334 24.1904 -0.0976327 
0.724038 16.2615 -0.0544609 4.54014 24.3849 -0.0946315 2.51363 21.8164 -0.0736994 
-2.05972 14.066 -0.0312552 -2.38285 13.6434 -0.0282067 2.50242 27.5337 -0.0601431 
4.28037 29.0031 -0.077508 2.95241 7.59307 -0.0356238 2.8394 7.73398 -0.0371138 
2.79567 7.30015 -0.0340855 0.887297 17.4418 -0.057206 0.813 17.8159 -0.0569779 
0.975842 17.7276 -0.0583823 0.088493 17.2614 -0.0499541 -2.91348 7.32889 -0.006823 
-0.225119 0.517751 0.00296833 3.24417 20.1433 -0.0901732 2.16998 4.13668 -0.00980534 
2.07494 3.17258 0.00789107 1.80339 3.032 0.000498863 2.11315 30.3053 -0.0495537 
2.21402 29.9213 -0.0515056 2.35668 25.4036 -0.0633891 2.1249 25.6851 -0.0605561 
0.287586 1.18735 -0.0121494 1.06311 19.3724 -0.0610755 -0.0773655 0.202017 0.00540458 
3.23901 20.2165 -0.084316 2.92353 13.4073 -0.0684422 0.79427 5.67427 -0.0261128 
0.798653 6.45662 -0.0288441 0.108312 29.2263 -0.0358644 3.37781 12.7877 -0.0689305 
-1.11569 10.9301 -0.0318976 3.59652 19.1206 -0.0923633 0.987863 31.6297 -0.0364854 
1.17432 31.6044 -0.0380013 3.53763 22.0935 -0.0862448 2.83943 19.1101 -0.0810478 
2.96842 19.2496 -0.0831467 1.65452 2.2826 0.0187927 1.36646 1.80442 0.0233296 
-1.2166 20.4103 -0.0394254 3.28253 19.4699 -0.0885207 3.31947 19.191 -0.0886282 
-0.0341739 0.192229 -0.00124811 -0.0496591 0.236466 -0.00149034 0.157034 0.189311 -0.000526815 
0.24281 1.18553 -0.0111502 3.20272 17.435 -0.0841031 3.07925 17.65 -0.082805 
3.02937 17.3354 -0.0814025 -3.17574 31.0583 -0.010099 2.3155 30.3037 -0.0515263 
-0.242124 0.203449 0.00168513 0.212554 4.73088 -0.0192222 -0.080305 0.528678 -0.00474003 
3.28254 18.7934 -0.0877244 1.04391 1.34089 0.0245454 -0.636977 31.8779 -0.0245134 
2.24116 21.2325 -0.073253 3.04346 29.1097 -0.0623063 0.387618 2.30829 -0.0140418 
0.982586 3.73626 -0.0205996 -0.248745 3.24554 -0.00939059 -0.27202 2.77836 -0.00706499 
1.93644 2.68567 0.0188584 1.98267 2.63092 0.0253271 1.76837 2.34345 0.0242433 
1.73849 2.09823 0.041824 -2.93481 31.2429 -0.0112415 -3.45416 30.6318 -0.00921166 
2.79034 4.0503 0.013596 3.24104 11.8143 -0.0629392 3.09286 11.5944 -0.0610167 
2.94539 10.6729 -0.0554772 -1.0223 2.16054 0.000753141 4.16349 18.3906 -0.0994045 
3.9198 16.0702 -0.0892844 3.92055 16.4578 -0.0907709 -0.453416 28.0158 -0.0346311 
2.59839 13.0139 -0.0644905 1.67833 18.9468 -0.0667901 2.74101 18.8622 -0.076975 
2.50463 18.1535 -0.0716868 2.60136 19.2164 -0.0789191 -0.509493 9.78521 -0.0298587 
-0.302727 9.39939 -0.030414 3.85792 29.5806 -0.0706653 2.76161 19.0366 -0.0775717 
2.6578 18.8336 -0.0739056 -0.335461 10.1899 -0.0329331 -0.120714 9.78648 -0.0325187 
3.56919 14.8569 -0.0804558 1.19966 16.1856 -0.0592744 1.21909 15.8391 -0.05882 
3.63898 16.0731 -0.0860164 3.41244 27.1824 -0.0714689 1.70439 12.0771 -0.0561865 
1.54615 12.4512 -0.0563663 3.56075 28.5848 -0.0697773 4.39813 24.5488 -0.0919515 
1.48794 31.5649 -0.0406687 1.32152 31.586 -0.0392456 4.40006 21.9411 -0.100235 
4.26953 22.0827 -0.0977123 4.24024 21.6864 -0.0984826 -2.59506 31.6977 -0.0124443 
4.29577 23.5399 -0.0933963 3.6063 31.3516 -0.0625653 -2.49661 28.17 -0.0201909 
-2.59427 29.0793 -0.0177983 0.314243 2.72475 -0.0140664 4.46657 28.3985 -0.0816031 
-0.333226 0.831143 0.00723118 -0.368173 0.843515 0.00392217 2.94048 11.8201 -0.0614161 
4.36708 21.5322 -0.100934 4.48546 21.4167 -0.103195 4.3468 21.2224 -0.10153 
0.138758 19.227 -0.0517921 -0.106826 19.0303 -0.0493652 -2.73301 16.4967 -0.0278871 
0.225132 0.845318 -0.00981767 -2.15021 13.1343 -0.029468 -1.30237 3.01821 -0.00048829 
1.18078 18.2841 -0.0610732 -0.161412 0.239784 -0.00191331 0.555437 5.25814 -0.0234536 
-0.189782 1.93498 -0.0037092 1.47978 17.3866 -0.0625124 0.636803 0.863773 0.015103 
1.87085 2.73373 0.0124828 2.40342 18.1784 -0.0678866 2.51683 18.4018 -0.0709872 
1.07074 15.9261 -0.0575439 1.89828 20.8411 -0.0725916 1.80231 17.2922 -0.0638404 
0.620995 31.2554 -0.0346642 0.71138 30.8972 -0.0362336 0.678167 31.5906 -0.0342546 
2.69142 5.1321 -0.0135645 2.36698 3.96227 -0.00125489 3.81347 18.7729 -0.0950716 
-0.979667 1.27279 0.00719517 0.307459 28.2714 -0.0395791 0.490767 28.2584 -0.0409874 
-0.477955 1.19217 0.00246624 4.09991 24.4617 -0.0876797 1.38794 13.5172 -0.0574114 
0.584424 15.0088 -0.0535583 0.701552 15.2414 -0.0544173 4.56409 20.9476 -0.105597 
1.87486 2.94936 0.00552878 -0.568934 0.629587 0.0145267 -1.72435 2.0224 -0.020502 
2.2093 6.71553 -0.0324677 2.40925 6.99227 -0.0335231 2.83365 8.04213 -0.0393077 
1.0759 9.39156 -0.0418477 2.01752 14.8076 -0.0648672 -0.077587 1.52494 -0.00197458 
2.86424 8.46846 -0.0421358 2.15465 6.26502 -0.0298612 1.82877 16.7082 -0.0647224 
3.58883 22.5474 -0.0854819 2.99285 17.8042 -0.0815737 3.17584 18.0019 -0.0849157 
2.76913 14.7423 -0.0718805 0.338171 19.3818 -0.0536961 0.327892 18.7117 -0.0533071 
0.475906 15.7493 -0.051897 3.26322 17.8482 -0.0858143 -2.65549 17.4882 -0.0288112 
3.4117 19.0019 -0.0897086 1.54078 2.91436 -0.00619409 -1.91328 26.6742 -0.0269205 
3.38086 11.6681 -0.0628525 -1.42896 11.9484 -0.0333497 0.175226 3.18162 -0.0138097 
1.70076 15.5597 -0.0630429 1.17718 2.18845 -0.00426806 -0.728542 5.32927 -0.013804 
-0.889155 4.93411 -0.0108104 3.54558 8.10705 -0.037444 -0.449984 5.6656 -0.0171373 
-0.218266 10.979 -0.0367954 0.0293141 10.7632 -0.0369841 -1.20051 11.2001 -0.032535 
0.0708523 11.7491 -0.0438849 2.33623 8.09881 -0.0403089 1.11301 2.23165 -0.00754106 
2.43018 24.7935 -0.0655283 -0.751304 15.0565 -0.0411373 2.57062 24.015 -0.0680893 
1.11231 1.71673 0.00720571 0.172633 29.6531 -0.0353166 1.04715 2.28518 -0.0102655 
2.04748 6.90425 -0.0338724 2.02872 6.48462 -0.0316211 0.699253 21.1681 -0.0574919 
1.6895 5.7815 -0.028499 2.05062 15.3909 -0.0660901 -0.415306 12.1279 -0.0382862 
2.14092 26.9602 -0.0577886 -1.62484 18.9837 -0.0364754 -1.24587 19.4388 -0.0394181 
1.7873 5.62393 -0.0274138 1.97182 6.03176 -0.029237 2.41883 10.12 -0.0510802 
2.13684 26.3974 -0.0591306 -0.427416 3.06837 -0.00700031 -0.940932 19.8344 -0.0418509 
-0.267422 1.94819 -0.00333698 -0.183765 1.53981 -0.00205749 -0.867936 29.5163 -0.0283834 
2.25967 10.8452 -0.053948 2.27495 7.16819 -0.0350058 3.41416 26.7521 -0.0725184 
3.21714 26.5534 -0.070592 4.2354 24.7289 -0.0889679 0.553461 26.615 -0.0453448 
-0.533705 2.74078 -0.00448194 -0.628497 3.10159 -0.00553002 -0.625406 2.78862 -0.0040778 
3.67511 21.8365 -0.0894831 2.11786 7.90918 -0.0392345 4.09418 27.0614 -0.0805873 
2.10664 7.37918 -0.0364389 -2.08694 5.02512 -0.00315857 -2.1976 5.79425 -0.00532282 
-0.429986 1.18008 0.00400517 -0.57152 2.32698 -0.00223852 3.01448 26.8511 -0.0674534 
2.40897 18.4093 -0.0707865 3.73057 24.7838 -0.0813396 -0.918038 1.83179 0.00135441 
2.08875 20.6613 -0.0751635 3.12452 19.8419 -0.0831959 3.09711 19.7699 -0.0914923 
0.85445 3.69347 -0.020377 0.227196 14.6654 -0.0491443 -1.37762 17.2868 -0.0380344 
1.4918 9.90697 -0.0465722 -0.153698 7.04271 -0.0237789 -0.140931 10.361 -0.0350791 
4.06156 21.4008 -0.0966088 3.75688 23.0064 -0.0864712 -0.151666 25.827 -0.04177 
-0.160423 26.3203 -0.0406011 2.30849 20.7534 -0.0769713 -1.28926 11.6484 -0.0338798 
0.174352 26.6365 -0.0423954 -0.333023 16.4155 -0.0454499 0.465885 14.7779 -0.0544851 
-0.54762 29.376 -0.0308991 1.86574 21.6247 -0.0697404 1.95568 21.1181 -0.0723179 
0.957616 15.7278 -0.0574847 0.329711 1.53531 -0.0124183 3.02996 8.68857 -0.0434337 
1.1894 9.87675 -0.0447853 3.21631 9.6657 -0.0500105 2.14309 20.9391 -0.0745334 
-0.941392 3.9338 -0.00683435 -1.08818 4.54616 -0.00822778 -2.93558 19.0913 -0.0269145 
0.424041 4.77146 -0.0210606 -1.048 14.7354 -0.0384847 -0.72422 13.8178 -0.0413129 
-1.42077 9.44911 -0.0241375 0.630101 15.3885 -0.0534122 2.05985 11.1299 -0.0543542 
-0.644996 27.8997 -0.0335101 2.26838 15.2354 -0.0680525 3.56683 24.5876 -0.0794287 
1.72041 3.40511 -0.0092637 1.62572 3.62469 -0.0141782 1.34678 2.64848 -0.0073445 
0.683092 4.48617 -0.0218547 0.449699 6.59704 -0.0269647 0.582039 7.86658 -0.0317879 
0.787511 5.06497 -0.0242625 0.556629 4.65262 -0.021648 1.53076 13.0909 -0.057591 
1.90026 26.3923 -0.0568602 -0.284787 15.8492 -0.0452659 0.335107 22.1767 -0.0526483 
1.57226 25.7479 -0.0554956 1.78099 6.22735 -0.0307273 -2.06812 26.0994 -0.0268105 
0.825461 3.21603 -0.0187482 -0.741801 3.10985 -0.004737 -0.803212 3.74589 -0.00683614 
1.42585 17.7717 -0.0623966 1.60783 17.6496 -0.0642838 1.64901 2.64005 0.00423789 
4.68975 23.8149 -0.0988126 0.982296 15.3558 -0.0567482 1.31284 15.1453 -0.0593147 
2.6167 30.2931 -0.0546017 -0.0144967 0.523418 0.0131184 3.24122 11.4938 -0.0611884 
-0.775555 1.55922 0.000948741 3.00846 26.3612 -0.0685012 1.63624 17.2693 -0.0635415 
1.82568 25.8249 -0.0572956 2.62918 18.6298 -0.0736285 2.35063 29.4531 -0.0540313 
3.7643 9.73284 -0.0511836 4.17154 23.3399 -0.0921051 3.15856 22.2046 -0.0794871 
4.46479 27.9881 -0.0827862 4.08061 17.9839 -0.0974403 3.71301 18.1046 -0.0926747 
0.545107 1.16602 -0.00871528 4.13804 19.7439 -0.100266 4.07248 19.4288 -0.0992426 
0.95766 10.9797 -0.0489068 2.05931 17.1928 -0.0670374 -1.09615 28.9609 -0.0280371 
2.00121 2.4678 0.0409776 0.972185 24.8905 -0.0526653 4.2242 21.3745 -0.0991719 
-2.00599 25.0621 -0.0288436 -1.15515 29.4189 -0.0266415 -1.00644 29.4225 -0.0276427 
-0.277859 2.3441 -0.00498465 -2.98221 17.9366 -0.0266291 2.0496 21.4651 -0.0716614 
4.58778 21.2847 -0.105306 -3.02674 16.9426 -0.0259148 3.37102 17.7001 -0.0870786 
-0.973285 15.4151 -0.0397173 0.0197417 29.6824 -0.0341503 0.51586 31.6944 -0.032808 
-0.872792 3.2937 -0.00441636 -1.67888 17.8425 -0.0359705 -0.0735774 17.1751 -0.0484429 
-0.0125319 18.3662 -0.0496591 -0.379548 10.6464 -0.0339758 2.65507 25.1256 -0.0673013 
1.6479 26.31 -0.0547883 1.97015 19.0718 -0.0701499 0.0250971 18.7527 -0.0504929 
-3.10921 31.3317 -0.009958 -0.136697 1.53558 -0.00191994 4.45591 21.1001 -0.103488 
3.1415 19.1283 -0.0860817 3.24671 19.9785 -0.0897347 3.23469 26.0898 -0.0718474 
-0.230884 1.53123 -0.00205106 -1.10637 3.68943 -0.00447325 3.79311 10.0875 -0.0539946 
-1.72699 16.8977 -0.0352712 -1.24028 13.1822 -0.0369799 -2.36839 11.5125 -0.0243662 
-0.271639 0.220751 -0.00307383 -0.629165 0.665699 0.00330536 -0.77651 0.807471 -0.0191787 
-0.947008 3.12381 -0.00327128 -0.247635 15.5119 -0.0452016 -0.201504 0.268566 -0.00133018 
3.87801 18.2846 -0.0952885 4.33504 25.661 -0.0877623 3.42949 26.3407 -0.0736998 
0.736859 7.12944 -0.0305706 0.934023 7.5883 -0.0334925 0.0604466 16.4887 -0.0489493 
-0.924655 13.7148 -0.0396639 0.915423 1.42223 0.00581251 
Displacement%20Magnitude 1 8918 double
0 0 0 0 32.777507767 32.778871351 31.920305825 31.922544023 19.712245194 
19.666545254 13.696408492 13.684778535 13.553921601 13.545326612 19.542025772 19.560042545 0 0 
0 0 0 0 0 0 0 0 0 
0 0 0 0 0 0 0 0 0 
0 0 0 0 0 0 0 0 0 
0 0 0 0 0 0 0 0 0 
0 0 0 0 0 0 0 0 0 
0 31.91235872 31.906772159 31.901359533 31.896657138 31.89381798 31.893708645 31.897352759 31.905894865 
31.919599043 31.938102404 31.961581023 31.994331985 32.026267715 32.066000884 32.10772408 32.150442729 32.198716457 
32.241792784 32.290948819 32.34516676 32.39192544 32.444042126 32.494483311 32.548113138 32.600676666 32.657037513 
32.719408154 1.6392905595 2.7043849955 3.5609195671 4.2896581798 5.0288644339 5.6974258441 6.3699142494 6.9686795965 
7.5302634008 8.1983218021 8.7811345849 9.3649080008 9.9516260317 10.571495291 11.140953549 11.74612603 12.359756039 
12.982383196 13.614188056 14.2549999 14.966188257 15.62311757 16.31738041 17.016213909 17.71748495 18.386595787 
19.115664114 19.774300179 20.42277497 21.08803095 21.738941084 22.408287995 23.044276134 23.741084906 24.358605564 
25.046461212 25.685647787 26.366213453 26.99357872 27.723728017 28.397208356 29.10846364 29.824229805 30.543282082 
31.198746976 32.011887049 30.979585099 29.879733051 28.578090358 27.040104451 25.331308605 23.585301068 21.401541061 
19.395847725 17.226611804 15.319765269 13.530732173 11.887091105 10.088192577 8.6744814282 7.3336695103 6.1212062949 
4.9246195252 3.8978554608 2.8496067937 1.6019351359 19.162505893 18.652772471 18.182892983 17.686166712 17.159215379 
16.682414977 16.181094069 15.690430077 15.215029469 14.720272835 14.260636973 13.864266758 19.381629317 19.018169429 
18.576538864 18.11979217 17.638932969 17.197789422 16.725348144 16.246800349 15.809413936 15.375323528 14.934011178 
14.535514718 14.115598894 31.915270101 31.908504688 31.90182872 31.89666875 31.895625432 31.900720881 31.914152579 
31.935137476 31.961908804 31.999784019 32.043633971 32.097487939 32.152109405 32.213249175 32.26842736 32.330287513 
32.390671214 32.455451144 32.520916615 32.587832966 32.654997698 32.718947829 1.6091572787 2.8232829879 3.8337241185 
4.7028609983 5.568455382 6.3903725828 7.1019037119 7.8577289318 8.6358553775 9.3309494427 10.058281411 10.821637703 
11.59630962 12.384555762 13.157598681 13.975168109 14.775804493 15.650703567 16.504015384 17.363304176 18.192355359 
19.081406404 19.927658849 20.725537835 21.562417367 22.322094323 23.161184196 23.889077179 24.658185097 25.443093618 
26.212800717 27.027254706 27.885741301 28.75440025 29.630902806 30.447263357 31.233594191 32.046390284 31.28059522 
30.281006794 29.113421519 27.843940079 26.404740184 24.828533312 22.846063893 20.496312079 18.17171937 16.166537022 
14.427037312 12.827119553 11.269319182 9.7321293129 8.2925247961 7.0006046159 5.9206951978 4.8937522682 3.8780010561 
2.8325726974 1.6440236345 19.173026621 18.716808508 18.224792212 17.754578109 17.32598142 16.883641856 16.445901854 
15.959307264 15.490313577 15.051702675 14.594161986 14.207403561 13.850038044 19.36723103 19.000713391 18.551336717 
18.117463363 17.681326118 17.215977648 16.780866497 16.348065959 15.885870886 15.390377379 14.947243742 14.5431212 
14.101822114 31.315245227 31.305805201 31.297667084 31.252391017 31.248917136 31.255431289 31.248080897 31.239820001 
31.238948586 31.266081041 31.291528482 31.319012618 31.35414556 31.40207048 31.454699011 31.505776577 31.555979909 
31.619441698 31.674569149 31.720827345 31.765724284 31.815555951 31.874198015 31.926884924 31.950113094 31.982616181 
32.181673053 1.527081322 2.6388095002 3.4995148137 4.2931952311 4.9972739333 5.7002073695 6.3905270548 7.0305872197 
7.6433873216 8.2821080557 8.9131581705 9.5199625478 10.119832301 10.733212758 11.323370704 11.960389054 12.566535193 
13.211440174 13.871992046 14.557182021 15.196151598 15.884160788 16.580277363 17.256095374 17.932413407 18.636899176 
19.307791825 19.968880042 20.638565646 21.318228745 21.949948557 22.620542029 23.271754852 23.969125412 24.621810573 
25.307591067 25.973487277 26.668370039 27.383039942 28.062240811 28.740796949 29.465779715 30.149736061 30.789955625 
30.326102604 29.109082471 27.665240792 26.118302421 24.353170042 20.291941899 18.191512523 16.25801631 14.4020157 
12.67237753 11.062783744 9.3841778198 7.8886851919 6.5125478379 5.166252144 2.6790720754 1.5990574395 0.76613569879 
0.66126989619 0.61700778183 0.60981776593 0.61039686302 0.59435312369 0.56605934338 0.56108907045 0.53922629496 0.53609096319 
0.52646395041 0.50980336098 0.52364773586 0.5263224546 0.53344631611 0.54359196385 0.55043504574 0.55893137307 0.5669938235 
0.57865325988 0.58829875844 0.60862512747 0.65353694883 0.70863038123 0.72995879529 20.118148999 19.512748931 18.979441064 
18.450800474 17.905414696 17.35825231 16.820821141 16.333476582 15.809485121 15.269935408 14.74136519 14.215762291 
13.604027609 12.753224343 19.676868487 19.075086917 18.586105893 18.070302793 17.572685169 17.100486482 16.595644862 
16.106362523 15.625587299 15.126524885 14.640027459 14.125719602 13.571429067 12.949338268 20.610970814 31.360613565 
22.356526149 3.7108831711 20.671897016 12.854732487 12.347209133 20.454986625 21.054356944 30.718059801 30.644241689 
30.603952657 30.577695048 30.54865185 30.550360666 30.553966167 30.536284795 30.574186314 30.610800828 30.641460517 
30.670837311 30.732521304 30.767916807 30.847659574 30.906640111 30.949138207 30.971238459 31.031482375 31.086227941 
31.162676105 31.208327533 31.285023573 29.69408173 2.7475486313 3.4999375497 4.2720642387 4.9816698016 5.7409779629 
6.4608333779 7.1247163006 7.7533543857 8.4077355823 9.0683386841 9.6589848069 10.269409858 10.886487357 11.542527827 
12.156773326 12.789115516 13.465085696 14.137238511 14.802664489 15.445611354 16.139873609 16.804090922 17.499268927 
18.191160141 18.883522792 19.541806282 20.185673676 20.854199564 21.512414714 22.130204421 22.829310109 23.520860393 
24.190498102 24.888835354 25.572418798 26.276826099 27.011197662 27.72215848 28.385800576 29.117596608 29.825705538 
30.628804194 1.7268862303 28.331068479 26.843728366 25.409840969 20.102637779 11.966399708 17.02574153 15.175351154 
13.468747703 11.812519338 10.201356143 8.5300258787 7.0030475271 5.6294699485 21.141954737 21.02411967 11.563337031 
1.2984030368 1.3412619961 1.2894538324 1.2631194483 1.256637484 1.2032855882 1.1669739549 1.1318624473 1.1172923331 
1.1059822297 1.0937738135 1.0953009947 1.0883230885 1.1197341369 1.136733697 1.1528125315 1.1710483539 1.2048842283 
1.2189035949 1.2543459362 1.2838216128 1.4372104021 19.786429071 20.406333782 18.698010333 18.11107077 17.526140957 
16.996171395 16.472079235 15.909559781 15.290756267 14.683382364 13.999441657 13.208694581 31.011008087 11.850376225 
18.67504942 18.085248161 17.53432383 17.014149528 16.493844695 15.981919562 15.466282906 14.947912975 14.413352021 
13.853446832 13.234346811 12.543276553 23.805474576 4.2958443939 19.125463786 1.6162161378 19.232769105 19.339525486 
21.296075014 20.934512071 2.319470821 12.363405187 21.647908894 3.0369945456 21.758995616 11.097022401 29.940742634 
29.8877665 29.846864845 29.80045628 29.764795288 29.770981384 29.789677108 29.831758839 29.863891209 29.865983561 
29.893971589 29.950963893 30.028368382 30.147833147 30.173082735 30.150994425 30.208388552 30.267489488 30.360090078 
30.531279268 30.027911437 13.757426401 30.130084595 3.5040116399 4.2792027989 5.0296440019 5.8240988383 6.5715731515 
7.2355242642 7.9039703708 8.5563197016 9.1931255989 9.8095035973 10.445815358 11.077659941 11.744339003 12.363884216 
13.027756162 13.730513071 14.395250353 15.047900861 15.698614667 16.396331593 17.083318909 17.742122702 18.455735871 
19.142291189 19.839894677 20.432675328 21.011566987 21.498450826 22.295548276 23.058745704 23.752830379 24.41422121 
25.130394167 25.858468432 26.611795589 27.377138795 28.060613971 28.795498171 29.493994809 18.829450575 19.53393196 
29.026157426 27.644437841 25.911122789 2.5249048006 22.07913607 14.199722953 22.178526846 9.2837562458 7.6013208425 
6.0792542326 11.376154398 11.548806108 20.014502708 10.859399169 12.557556662 2.0170719893 2.0337587502 1.9958003768 
1.9852662326 1.9158697089 1.8333509126 1.7975278981 1.79857283 1.7805059751 1.7253024137 1.7177621469 1.780984205 
1.8290938976 1.8593388115 1.8797924436 1.9296608767 1.9613747312 1.9819084161 1.9876156709 1.9851553699 17.691245417 
18.897376505 17.261189352 16.614858984 15.941444258 15.246447419 14.583974237 12.893023551 10.725419815 22.377093569 
17.543487885 16.956930813 16.404833186 15.874655989 15.325603773 14.81056447 14.264370018 13.682138186 13.022757473 
12.287450626 4.7362778589 19.493591804 15.862005213 11.011059434 18.283826682 21.78710443 10.311457885 18.159255753 
30.338074183 21.329727185 17.734995491 19.976098193 22.858683276 11.959427671 22.234055883 20.625027966 9.864913274 
24.793557341 20.464515981 29.046530138 29.004074698 28.915987508 28.792213555 28.807110785 28.910712471 28.972993136 
28.999018166 29.030399699 29.038935426 29.126818032 29.235613654 29.447901057 29.269065473 29.272865313 29.504835831 
29.393318747 29.665496627 8.449120386 27.03375972 16.983802139 3.5752293379 4.3476044843 5.1323618356 5.9546255884 
6.7395256643 7.4335019806 8.0850489501 8.6666212274 9.3200222452 9.9748848828 10.622139324 11.294016519 11.914833898 
12.60485721 13.314311541 14.015096147 14.675273372 15.31660744 15.985341487 16.693471905 17.35420766 17.996735927 
18.733273184 23.298487862 23.908390076 24.610196003 25.38290694 26.169789659 26.980205862 27.750397102 28.544064342 
20.768229038 2.7473857411 23.201169009 13.5841142 17.529911912 21.223905346 12.166115434 6.5972386483 10.210976164 
13.207167127 28.529878271 10.547073463 8.9579691536 2.7205688516 2.8303319902 2.809820345 2.6284525257 2.496940404 
2.5276358004 2.5853225239 2.511261558 2.3166587998 2.5220535891 2.5975169543 2.6268588356 2.6662735803 2.7406109574 
2.7780030232 2.7844538098 2.7737653972 16.669871791 15.914587876 15.354039537 14.754918095 9.5625199627 9.5262807683 
23.045335934 23.670734584 14.432804399 11.387688967 16.361574605 15.76507885 15.236078681 14.696548873 14.176764027 
13.59828023 12.915555891 29.176450012 29.304528759 22.608216956 8.47070494 22.316602088 10.911314673 20.32962819 
18.268328316 19.0055281 19.718976287 18.379096645 21.502079333 16.535702098 4.9230820375 12.650626321 8.0027778516 
24.152380597 18.308383134 23.03978102 19.72187923 11.781381582 3.6428165052 10.231104475 17.652685306 28.130051222 
28.137540966 27.795766655 27.70416712 27.812421852 28.131209065 28.018323837 28.092624312 28.131570524 28.162821687 
28.325282163 28.49667556 28.277840363 28.364602275 8.4866576606 11.390345055 4.4321697924 5.3040801119 6.184681377 
7.0171330225 7.9143451879 8.7932129806 9.5163858944 10.176054074 10.850175989 11.467589694 12.158731115 12.878824686 
13.628188078 14.316911147 15.063382264 23.163436868 23.949224529 24.818394737 25.587923958 26.536341577 27.433692655 
20.5640536 16.403974411 5.6013763431 8.8304453534 7.2580967976 26.746452074 24.448107789 17.382237405 3.7982018259 
3.6603417346 3.2386057781 3.1975935249 3.4905526939 3.5129844604 3.1841527115 3.4813754367 3.473337736 3.4631972511 
3.6008897014 3.693154365 3.6607747266 3.6020932617 18.451731792 9.6261574544 24.531858174 10.52273611 25.202616965 
14.012412304 13.584627502 28.320748341 7.3752954981 16.322698045 7.0363262859 23.38020219 9.706369841 15.714961025 
19.405215503 21.346905659 4.1954082574 22.264666559 24.720277462 12.214305632 25.447224076 19.718488537 20.818273161 
14.659188775 12.943150802 5.9241711927 26.629928797 26.925975994 26.962742726 27.266220514 27.081882432 27.205930351 
27.59066051 5.5565742507 6.4651637516 7.2855460896 7.4688331515 8.3252225598 9.4728000154 11.672634482 25.894582482 
27.138323087 4.6424818846 6.2229217431 22.349311279 4.5043178043 4.6081944936 4.3121530789 4.3904128809 4.8534022691 
4.5669718015 13.217218246 25.694837896 27.485489444 10.719424568 12.463161514 24.698749365 26.582974246 26.155135328 
25.761351795 23.327434745 26.446692018 22.278126657 6.2343353094 5.4902404348 23.894832647 31.020625649 31.216605984 
31.22557271 31.126686762 31.084713448 31.078648147 31.097153768 31.101275232 31.137017773 31.169924857 31.21163355 
31.265372332 31.319124775 31.3814365 31.462413343 31.493969833 31.585906204 31.64898749 31.68125263 31.750651241 
31.960778004 1.3202471701 2.8196011477 3.8897815801 4.8217725303 5.6711906147 6.4583639408 7.2547236892 8.0253273952 
8.7861028563 9.5321943544 10.297978111 11.077756344 11.890986948 12.659463682 13.489439335 14.300479958 15.114767094 
15.969303518 16.824855097 17.644748478 18.500071931 19.32424127 20.162823285 21.004088254 21.814027541 22.623074052 
23.39522589 24.180126101 24.989004322 25.775891844 26.598736813 27.458409038 28.285821113 29.169635734 30.035922082 
31.43104953 30.673464819 29.745120021 28.493949822 27.159940907 23.577549604 21.387802492 19.237234968 17.189497474 
15.235730363 13.562907062 11.981571387 10.473215447 8.8756137043 7.3862848892 6.0699663856 4.72829578 2.5268517399 
1.6172707117 1.1122615276 0.75910522934 0.85271085975 0.80879188512 0.70533419183 0.6397655639 0.63959791157 0.63750408132 
0.62585756146 0.6188696738 0.61791909241 0.61962870449 0.63124040753 0.6492710385 0.63651593924 0.6352010922 0.6563683233 
0.65080690993 0.68708916215 0.84985023106 20.142298952 19.581959035 19.035933772 18.527471422 18.026061133 17.546927238 
17.057538211 16.577169566 16.081968114 15.600603063 15.11660627 14.646319284 14.195574737 13.609997797 12.690982528 
19.588398365 19.03878238 18.555227636 18.077543891 17.610811503 17.11699938 16.623145061 16.166652382 15.660310947 
15.143409626 14.644795697 14.099694435 13.549625765 12.980957952 20.63444467 25.722068211 3.5508821803 12.32198076 
20.678717307 12.848117339 20.365147207 30.621634959 30.368400556 30.278866181 30.235687221 30.208117054 30.214059065 
30.228187469 30.249989709 30.315786149 30.345538588 30.38943701 30.449588358 30.517061711 30.600610314 30.662486067 
30.762597038 30.784074023 30.721853085 30.84695574 18.110473013 4.0889206435 3.1272452147 2.0024133553 4.9574485212 
5.7774120195 6.59187629 7.3925678931 8.1911254043 8.9768971635 9.7668215056 10.56220395 11.364579555 12.141074024 
12.98915326 13.801549479 14.6084661 15.44258248 16.324157719 17.126341299 17.959250316 18.77217669 19.596556835 
20.429326805 21.281613131 22.065645133 22.856977497 23.668013574 24.483175983 25.292110922 26.136525372 27.017535939 
27.840933281 28.684703374 29.533717193 1.9402013073 29.364847834 24.374112392 27.568303838 21.074563681 20.131185208 
3.2822440185 22.190502694 16.071355752 14.236218843 12.617820295 11.119487421 9.5521023985 7.912052406 6.3496459606 
4.8822071433 11.887477719 11.39795163 1.7859617619 1.4983967013 1.342268737 1.3308248809 1.3430800642 1.3410179448 
1.322994581 1.2938158185 1.266457819 1.2856084896 1.3052661342 1.328557921 1.3413340149 1.3739818949 1.3887795577 
1.3707606883 1.5490855766 21.075839479 13.312686372 11.984706711 19.888175228 19.355469227 18.813159689 18.256835936 
17.764656982 17.236308941 16.71581014 16.192885648 15.686347404 15.159754313 14.614055271 14.03336492 19.941358609 
21.565954353 19.194236118 17.565210263 17.04993164 16.492213391 15.977171351 15.460076142 14.935344484 14.379121968 
13.794382136 13.182032888 12.550445291 30.422443787 20.51796746 18.627065954 18.080943498 21.832388982 26.452480372 
20.810325166 11.19208902 21.57455691 12.504996067 25.234086933 29.285558848 29.38516862 29.305899614 29.332639132 
29.372901035 29.392751372 29.414615052 29.46124219 29.527449026 29.61120809 29.688864785 29.774313205 29.966363409 
29.653563233 15.058885487 18.98243357 29.893356734 18.681134385 4.3170634025 2.5602407809 6.7526342908 7.5553966564 
8.3942659692 9.2130043424 10.029520374 10.854879163 11.636826757 12.447065734 13.311702067 14.131942708 14.943249681 
15.788242395 16.671380447 17.456043801 18.29360023 19.074823686 19.877162764 20.707520305 21.502817338 22.311929473 
23.077028621 23.927321149 24.750810686 25.632698927 26.528365408 27.403961765 28.222774705 5.8754861245 28.231794851 
21.692383013 16.950331356 8.5783181895 10.179835232 11.70929682 6.8521618433 10.88977393 29.293329878 2.0784010934 
2.141867016 2.1785633757 2.1494704191 2.103393846 2.0688847242 2.0501269909 2.0715806494 2.1177100157 2.1740888575 
2.2465576608 2.255882546 2.208634146 2.5613867247 13.110821342 10.417196382 19.620665452 19.075724633 18.52952699 
17.980005444 17.416626878 16.86670991 16.308534421 15.75224462 15.176342272 14.586835074 13.916420168 16.428373734 
17.027099994 15.299296896 14.762057516 14.190639931 13.59147463 12.957604546 12.282074933 10.818443086 13.163498228 
3.4914828669 11.566604883 5.0031585472 2.0853869207 11.62613333 20.181182825 15.816661525 29.490779394 27.372144737 
20.919133391 18.15948363 29.067523027 22.640637397 10.07525138 22.099621112 23.004168769 5.2744839735 3.81768796 
12.301949577 21.507644699 22.464905258 2.1162269635 10.009922831 20.161281313 20.696108318 19.420318976 17.587968432 
9.605812644 22.647730726 28.357181963 28.395824082 28.415175584 28.43466003 28.449667309 28.59124973 28.695146185 
28.714214708 28.92251669 19.737892635 12.898545811 8.6375407944 7.774333816 6.8973894109 9.4815792282 10.337456835 
11.119893623 11.926233739 12.801633563 13.66342953 14.491035996 15.32692037 16.178725429 17.022440791 22.508987009 
23.325262567 24.051116842 25.084407675 26.048103196 26.959051723 27.813462987 22.98317918 6.0604995967 3.0987058032 
28.351703889 16.135640902 9.4134588495 19.829009046 11.482206946 7.4805975688 10.878353639 20.546417341 3.0089602448 
10.619338929 3.1633857157 2.9720569026 2.9038563278 2.8976071904 2.9583112804 3.0528176529 3.1441351571 3.1950720808 
3.1741933267 13.849622436 9.2763658357 2.9478417665 19.375566406 18.81140201 18.194912342 17.53865665 16.996034073 
16.433805172 15.789943511 15.261684513 14.795628474 14.03099759 14.651364699 12.845773329 12.157146001 17.930254503 
13.443731825 16.483019532 28.411397671 17.839998514 28.314133461 2.994319781 21.658715533 4.0412192897 26.327269403 
12.08603396 11.365204147 23.671180762 28.616770717 5.0816863277 22.085175674 23.270141835 23.971012647 4.0569828682 
28.323949735 21.148475325 15.797756822 2.8776317928 23.549765433 28.525610306 8.7441998706 10.501940831 5.7077335565 
15.039128191 27.087463014 27.319298492 27.709401081 9.8091734664 8.0644256754 20.277083933 21.541712119 8.2628863228 
8.9447664419 7.1261746685 10.63735829 11.437407661 12.257089022 13.164865413 14.053997456 24.555302936 25.471964181 
26.529642048 27.504048584 23.165754742 27.337167361 4.0641619947 9.3527982088 4.0022822591 8.0836514629 9.6093883719 
20.55671231 3.9647036328 4.4391883044 6.2333960697 3.8734727406 3.8508916062 3.9356506098 4.13218824 4.2684333381 
4.3471224938 7.8856394084 8.6464891636 27.287678519 27.444417091 19.051314314 18.280092533 17.688157993 17.251530395 
6.3264314473 12.181810851 12.738066925 27.743241561 22.077408548 7.3110190144 27.460355694 22.884999422 23.901305117 
5.3854036595 10.408883019 25.89302923 27.155242672 27.5014635 11.402341954 19.676945209 13.372200303 18.654008096 
24.628666114 27.347751585 6.6529958419 10.964775481 10.113757971 24.809048459 4.9778639999 26.14375942 6.4972910541 
4.7698355079 5.163602713 5.3662198684 5.3375700904 26.194449346 7.9115526738 12.653224737 6.2348350519 7.523290117 
5.2318917123 4.8803194078 11.881499513 9.3114404466 25.538377907 6.8727641361 5.16234947 25.8258245 24.199137542 
26.38357158 9.261486515 8.4606628507 5.9803067639 24.336069037 26.340032365 25.125959304 0 0 
0 0 0 0 0 0 0 0 0 
0 0 0 0 0 0 0 0 0 
0 0 0 0 0 0 0 0 0 
0 0 0 0 0 0 0 0 0 
0 0 0 0 0 0 0 0 0 
0 0 0 0 0 31.916021531 31.909413782 31.903957568 31.898837643 
31.895012424 31.893379616 31.894951018 31.901029878 31.912112355 31.928180181 31.949268734 31.977235525 32.009953104 
32.045719384 32.086525933 32.128873216 32.174372264 32.220139657 32.266241593 32.317875627 32.368469859 32.417806159 
32.469118001 32.521034782 32.574163849 32.628510564 32.687845446 32.748201379 0.85103356862 2.2044393586 3.146159195 
3.9324756504 4.6652292747 5.3668391971 6.0363442277 6.6706908874 7.25021681 7.8648149411 8.4897635389 9.0727877646 
9.6578244608 10.260823112 10.855427022 11.442553723 12.051963655 12.669969593 13.297184642 13.933597373 14.609478111 
15.293866799 15.969607454 16.666421929 17.366744755 18.052227268 18.751902594 19.446053921 20.099932724 20.757170199 
21.415037262 22.074532799 22.726330422 23.391733584 24.048677881 24.700976787 25.364798051 26.024642179 26.679052991 
27.357645467 28.059765687 28.752258524 29.465866506 30.183476384 30.870921522 31.559495083 32.394689766 31.495772191 
30.429779625 29.22914082 27.809489329 26.18619453 24.458683058 22.492977924 20.396323348 18.30432976 16.26364971 
14.414020614 12.699608049 10.98077878 9.3807766541 8.0072458846 6.7339252707 5.5336983591 4.4243206228 3.3922979789 
2.2629800664 0.92423313149 19.365850735 18.910953002 18.41911652 17.937205024 17.42510216 16.921378798 16.433684527 
15.937119599 15.452812331 14.966436506 14.486582369 14.05355303 13.703342412 13.662816405 19.53019992 19.20882965 
18.8025763 18.349288805 17.877740097 17.416818389 16.960115058 16.483422536 16.025932003 15.591103064 15.152022043 
14.733536065 14.323189859 13.894423893 19.592489396 31.918620495 31.911747633 31.905041381 31.898928979 31.895575733 
31.897279412 31.906368177 31.923684329 31.947676924 31.979935427 32.021034009 32.069905526 32.124433941 32.182360229 
32.240661371 32.299201138 32.360317031 32.422804204 32.487845475 32.554055466 32.621038679 32.686626901 32.74863723 
0.92995293053 2.2484691718 3.3438086467 4.2775400751 5.1424338161 5.9837019803 6.747972218 7.4809369495 8.2471130773 
8.9831440611 9.6939268311 10.438774665 11.207472362 11.988738043 12.769375626 13.564625372 14.37401917 15.211835033 
16.076444468 16.933220931 17.777905013 18.637730877 19.506375563 20.328920076 21.146746705 21.943756972 22.741628867 
23.52400847 24.271828289 25.048704758 25.82623962 26.618462287 27.455154126 28.319035052 29.191806824 30.038667323 
30.840198787 31.578050251 32.412624165 31.663586261 30.780981225 29.697417192 28.478943579 27.124676713 25.616986622 
23.837572913 21.669873787 19.32873086 17.160818957 15.287425313 13.617884833 12.040677794 10.496621513 9.0124157229 
7.6501777563 6.4660338518 5.4161252077 4.3986717299 3.3738932162 2.2759071848 0.86166668996 19.36945051 18.947867767 
18.472986708 17.992044562 17.542793948 17.106363211 16.666226847 16.204336088 15.726419259 15.269912903 14.821439308 
14.397403895 14.016852777 13.709019977 13.672117714 19.525621814 19.192378435 18.780335056 18.335636472 17.898594028 
17.447123984 16.998032876 16.562578851 16.114486783 15.635989519 15.166009724 14.742934361 14.31833003 13.890231247 
19.575543068 32.777917285 31.921146956 19.538708868 19.685993342 13.699038006 13.560303865 0 0 
0 0 0 0 0 0 0 0 0 
0 0 0 0 0 0 0 0 0 
0 0 0 0 0 0 0 0 0 
0 0 0 0 0 0 0 0 0 
0 0 0 0 0 0 0 0 0 
0 0 31.554857372 31.613793531 31.610660638 31.606370039 31.603331978 31.310512951 31.599626278 
31.596757644 31.301712338 31.574572764 31.572763182 31.274846542 31.571462286 31.570920884 31.250234363 31.574514265 
31.575905793 31.25161293 31.572562994 31.5766292 31.251049777 31.572718502 31.579316768 31.243270911 31.579040438 
31.588225445 31.238622519 31.601908242 31.613699595 31.251875041 31.626314669 31.642759305 31.278152251 31.656556428 
31.672554718 31.304724245 31.690073224 31.709971763 31.336087933 31.733893994 31.754867212 31.377686542 31.781115276 
31.802603174 31.428104496 31.827989788 31.852226718 31.479987411 31.87729743 31.898937995 31.530782969 31.930529849 
31.955206943 31.587623552 31.982763534 32.009865628 31.646866456 32.032932723 32.0563996 31.697587632 32.078879645 
32.104918417 31.743188939 32.129759703 32.155070235 31.790472372 32.184345518 32.211057191 31.844672558 32.237415511 
32.26369035 31.900299082 32.275315346 32.303475326 31.938275963 32.319758531 32.350883507 31.966045787 32.45050442 
32.479498824 32.096616127 32.08185975 0.6168692022 1.5488114964 2.1156811379 2.6542767828 3.1019217269 2.1081436118 
3.5194191325 3.8985051285 3.0822715398 4.283952864 4.6659510245 3.9047311473 5.0079288666 5.3526687293 4.6502075456 
5.6945999901 6.0403804194 5.352422848 6.3766471982 6.6835765706 6.047934348 6.9963062158 7.2836660687 6.7120396327 
7.5840962165 7.9248125747 7.3381878286 8.2384027009 8.5349478103 7.9633247375 8.8454402956 9.1419792545 8.5977342311 
9.4410110164 9.7384882581 9.2164867903 10.034667887 10.348138143 9.8195920112 10.651707491 10.939099388 10.426035437 
11.231715047 11.536479411 11.027715642 11.853062467 12.161475862 11.641084734 12.463311804 12.775434329 12.2627359 
13.097145655 13.413173747 12.888117008 13.743400674 14.06340365 13.54079033 14.406402682 14.761014442 14.213741711 
15.081511226 15.40838675 14.876032401 15.754085716 16.099127462 15.53952784 16.449116151 16.796229469 16.231735632 
17.136222005 17.484338561 16.918027793 17.824501126 18.156790658 17.59426668 18.510841021 18.873325744 18.284885681 
19.210190365 19.538484365 18.972822787 19.869475897 20.193816486 19.639075645 20.527932072 20.862564848 20.30480612 
21.200382609 21.529374911 20.97964128 21.842061761 22.181789256 21.634711397 22.512560755 22.835952619 22.285391546 
23.157289055 23.510932609 22.946097186 23.85544086 24.168062281 23.619677454 24.490960688 24.838011977 24.294539729 
25.178046541 25.49975145 24.96357951 25.830620197 26.172226015 25.63950316 26.518190346 26.832815299 26.319963781 
27.188905222 27.554589289 27.02485416 27.893511213 28.230533109 27.721920629 28.569391257 28.925057615 28.40094912 
29.287278284 29.645193974 29.102851185 29.987074013 30.346417879 29.807388113 30.666637785 30.994285834 30.469555142 
30.652316764 30.102228226 29.493576772 28.842841157 29.717727964 28.120310667 27.351796841 28.387306233 26.577195158 
25.724080816 26.891798748 24.838751398 23.968436084 25.235211687 20.841126057 19.845383175 18.789756399 17.71187908 
19.238113294 16.74362426 15.79091025 17.219242586 14.866940808 13.965365933 15.32259001 13.111323141 12.274167574 
13.530206224 11.486821013 10.559353892 11.863616172 9.745732036 9.0114921989 10.222561707 8.2901144873 7.5901333698 
8.6394708862 6.9280617951 6.2931019754 7.2060443222 5.6449359842 5.0159637574 5.849116421 3.2918143355 2.7363340378 
2.2278873275 1.5702945122 2.1660791157 0.69735199116 0.3843718128 0.35534530511 0.32572653749 0.30679124519 0.70808976866 
0.30419195924 0.28823849735 0.63597490699 0.29718420847 0.29078710275 0.61168868662 0.30326142529 0.29688158577 0.59568503999 
0.29894595913 0.29138449204 0.58534133377 0.28857197834 0.27066586544 0.56376405215 0.26648470552 0.25599471752 0.5626737232 
0.25745689706 0.26331304998 0.54789818067 0.26297535426 0.26323095066 0.52043767286 0.26201254422 0.25891952597 0.51233868008 
0.25607020178 0.24570024869 0.50132067298 0.24112756684 0.24697548547 0.51559193552 0.24988995582 0.26072794528 0.52447053211 
0.26137561675 0.26510033771 0.51232170647 0.26665426575 0.26759842157 0.51905627762 0.26746523154 0.26778333843 0.52760782396 
0.2705837766 0.26797968333 0.53655473544 0.26964678214 0.28647571029 0.56105297978 0.28489220773 0.29323794152 0.5556348879 
0.28875999441 0.29629135446 0.56690110428 0.29650879964 0.30219787316 0.58039639975 0.31332437778 0.31665247294 0.61309460454 
0.32198469127 0.34209641934 0.67735652786 0.34025541517 0.35954039642 0.71626955278 19.647190997 19.905253317 19.074827785 
19.363282104 19.812675098 18.570906745 18.823513059 19.241864973 18.058684591 18.319708946 18.710943037 17.523959967 
17.796395531 18.173750863 17.013415219 17.257985106 17.627583989 16.4957653 16.751896438 17.085607017 16.006858842 
16.257977718 16.573425442 15.508190296 15.751515669 16.067306244 14.991797801 15.246012861 15.535621909 14.497435933 
14.73787024 15.001488889 14.031184646 14.254012905 14.475246349 13.524293659 13.778935314 13.923316666 13.237656929 
13.200263615 19.747659948 19.481182362 19.244612489 19.033749563 19.352679696 18.809592942 18.579583196 18.832315181 
18.331723087 18.092514335 18.329592025 17.848609067 17.602275125 17.824947234 17.371196158 17.145676067 17.339521292 
16.899099014 16.657101061 16.850622286 16.418694882 16.172811296 16.353715975 15.938884373 15.712979242 15.868537253 
15.471700926 15.244484304 15.378549748 15.011008812 14.778683536 14.886325828 14.539255508 14.317643045 14.383927642 
14.063804077 13.816412686 13.850104029 13.531981343 13.241570981 13.263844208 20.095765819 20.144616015 31.256518997 
0.68202060128 31.686001284 31.169649338 0.81051959823 22.964944949 21.879126208 4.4569818664 4.3055990274 3.7653790605 
21.322465843 20.38832109 20.179546235 12.810680335 13.131486322 13.228916517 12.967412145 12.655242032 20.539479971 
20.151486633 12.675106231 20.350541961 20.758712674 20.82167242 20.065054558 30.843463044 1.080740693 31.01204898 
31.007441363 30.971062873 30.947898667 30.681063939 30.92823249 30.926043098 30.62386405 30.913369224 30.916132595 
30.590417338 30.902053503 30.898000545 30.562521005 30.899192085 30.894821094 30.548743315 30.896813294 30.896212343 
30.55139051 30.887542946 30.901063985 30.544365297 30.920008693 30.932696906 30.55453213 30.951035276 30.9647633 
30.591827737 30.980057849 30.997758261 30.625644214 31.012302691 31.03640124 30.655740944 31.067151053 31.093533841 
30.701308269 31.111197605 31.136773243 30.749965846 31.17656262 31.201815694 30.807614385 31.23119488 31.263023061 
30.876993183 31.284198333 31.311865261 30.927703666 31.322819902 31.345952889 30.960072949 31.376115382 31.398620841 
31.001291922 31.425969685 31.450887721 31.058689851 31.48906601 31.518338177 31.124247402 31.541217306 31.567562079 
31.185306778 31.605928774 31.617517653 31.246471812 30.009484428 29.401234449 31.052393115 2.6849216531 3.1202839943 
3.4908356987 3.8960369215 3.1308193611 4.2751910655 4.6355758542 3.8919008377 4.9828682098 5.34312741 4.6308746814 
5.7148428429 6.0682770337 5.3651057788 6.4209862975 6.7477569856 6.1034023666 7.0739382172 7.3860841961 6.7944118263 
7.6950467066 8.0202409153 7.4400515263 8.3421445697 8.6628180429 8.0812262144 8.9884839825 9.2961140713 8.7384356137 
9.587618243 9.8913612445 9.3636099174 10.193121795 10.503024341 9.9640677836 10.808709271 11.106262653 10.577740812 
11.431883156 11.752405561 11.214147558 12.057854542 12.362336875 11.849149186 12.677243339 13.000461612 12.472375758 
13.337748929 13.668300782 13.126417402 14.004125 14.346505256 13.800626087 14.679681305 14.998315753 14.469449889 
15.32061811 15.663300485 15.123809255 16.011865575 16.358179695 15.792394078 16.691931197 17.027920502 16.471779397 
17.377363953 17.713633658 17.151537451 18.061271764 18.411789154 17.84520542 18.759334551 19.093810945 18.537399177 
19.423560303 19.753806793 19.21286501 20.076044715 20.411572608 19.864166181 20.745349143 21.086698105 20.520699207 
21.414510179 21.732565116 21.183987703 22.03952638 22.377780687 21.821396172 22.724561896 23.053797407 22.479564272 
23.395909981 23.748533305 23.174427104 24.079977707 24.409738021 23.85477664 24.75531862 25.101438727 24.538734674 
25.440128121 25.775657895 25.229808696 26.125389887 26.474831331 25.923821961 26.839864259 27.198864781 26.643307811 
27.552775241 27.893389023 27.366216578 28.224059395 28.564066659 28.053685306 28.929133324 29.292111657 28.751221973 
29.64568278 29.987867917 29.471292969 30.388927397 30.709521197 30.226768318 1.2351054302 1.6187943011 2.1569357993 
23.353451858 28.719091361 27.99780821 27.252907257 26.480695759 27.587090359 25.762228485 24.881857026 26.126446015 
20.291363047 19.909038121 3.2079087288 12.320341525 12.430230312 17.6076983 16.640745969 15.717782066 14.785301336 
16.09596877 13.937828741 13.064377341 14.316776188 12.245973018 11.427991321 10.636504277 9.7768500287 11.007351506 
8.9603182269 8.1898207677 9.3696162576 7.4452173331 6.7344926634 7.7712556277 6.0637930798 5.3726274143 6.3207626175 
21.745477252 20.71751231 20.581086544 20.858999716 11.97922842 12.152859001 11.797016306 0.98171563639 0.94586255356 
0.97831075493 0.9601915056 1.3179163756 0.94235489537 0.93185806347 1.3120890611 0.93082802809 0.9136316122 1.2731676326 
0.91700689335 0.89927064905 1.2588207776 0.88121084731 0.86984345329 1.2278432118 0.85706273594 0.84473218996 1.1831935895 
0.8261663357 0.82204437212 1.1484974535 0.81510346843 0.80819829049 1.122868341 0.8064534367 0.79697996367 1.1099798923 
0.79583653945 0.79974712313 1.098557676 0.80016781691 0.80439351066 1.0931480196 0.79737859754 0.80173792127 1.0907993607 
0.81383216696 0.82087453725 1.1024695499 0.82757713994 0.83262138988 1.1282194012 0.83918896559 0.84591588663 1.1435361516 
0.85425409552 0.86193395103 1.1609243184 0.87232286076 0.88636982476 1.1859515887 0.88496778689 0.89634331645 1.2104492936 
0.90581284754 0.92568995066 1.2353689043 0.92868102479 0.9670686568 1.2669139067 1.027627808 1.0748871585 1.3545913233 
1.1869063607 19.38580478 19.660699247 19.967917522 20.273781647 20.712849041 20.096540033 18.300397241 18.580526243 
17.732921001 18.012844048 18.403617595 17.171636344 17.44574022 17.81767663 16.662780404 16.911772771 17.260783857 
16.138473396 16.406735343 16.734168028 15.586575416 15.864584052 16.190855481 15.011239115 15.287169433 15.600576799 
14.439507946 14.721441433 14.98933436 13.784445751 14.118337826 14.349458134 13.012980781 13.389862667 31.185350113 
30.66828308 12.388118955 12.089032775 18.884611147 18.619614998 18.339543334 18.070700698 18.376807759 17.804441761 
17.547565755 17.809559696 17.293651094 17.051497091 17.274425544 16.79753117 16.539274147 16.754209669 16.289163608 
16.038682612 16.238098349 15.786450375 15.539552811 15.724705027 15.286771464 15.029072118 15.207922543 14.769094262 
14.516296776 14.681748549 14.24413257 13.976349705 14.134779585 13.674307218 13.38468651 13.544974979 13.04314237 
12.729025929 12.889213355 24.076262495 23.08207516 24.605289224 4.7129916471 3.9836218828 4.9688881256 19.706153664 
18.658578935 18.072129461 20.131986135 2.1404253418 1.5912511722 18.841977314 19.114711452 18.964667355 19.521346952 
19.197079886 18.994219793 20.982484409 20.869370304 30.971984646 30.966818171 30.673344464 31.771198901 29.012451538 
30.352544528 31.48050312 31.496793521 31.671431479 2.2426193513 19.716991601 20.708300223 20.519544686 3.0134416925 
2.4684274361 1.5647681774 12.637525262 22.471688803 12.165912633 12.592310686 21.322332861 21.166670259 1.1974807835 
1.1159881114 1.4425106375 19.509049217 3.6700230378 3.3353325172 2.6800922747 13.609138388 12.787584806 21.402549787 
21.183886118 21.509573293 11.49061893 11.703620104 21.337206788 12.202218752 11.353987421 21.118633932 30.292655374 
30.271875788 30.246029319 30.232293324 29.91392667 30.212506388 30.197389459 29.866716539 30.174788503 30.175165007 
29.822891666 30.157715275 30.159175613 29.781733005 30.162507522 30.153583977 29.766976448 30.163020044 30.181935873 
29.779586208 30.202855193 30.221200004 29.809940586 30.237272858 30.252727793 29.847199185 30.253532877 30.268374024 
29.864415801 30.282260477 30.313200502 29.87962416 30.341482912 30.359319536 29.922174565 30.397992188 30.437938898 
29.989451898 30.497583988 30.52718466 30.088009751 30.539768663 30.560999364 30.160347534 30.549883053 30.561029256 
30.161985466 30.5897282 30.619802345 30.179577944 30.649357898 30.676793383 30.237797546 30.723090084 30.76128942 
30.313595615 30.846969364 30.869760237 30.445450884 30.373043001 30.335592433 29.984190277 13.473377013 13.872279007 
30.379574904 30.423701352 30.07903313 29.977676479 3.4936690086 3.88431267 4.2682108173 4.6285027013 3.8962525951 
4.9987065704 5.384902407 4.6578717347 5.776618482 6.1427759991 5.4299537562 6.5111757168 6.8486558563 6.1999993907 
7.1758518238 7.4952620826 6.9048526576 7.8250279437 8.1570503115 7.5709125354 8.4788417498 8.8137287747 8.2307328863 
9.1278778105 9.4271648039 8.87496224 9.7318549023 10.04045626 9.5015348384 10.355618441 10.66691721 10.127801378 
10.98032678 11.310785925 10.761674546 11.64180758 11.950773137 11.410752429 12.258903324 12.576450944 12.053781848 
12.90714323 13.245998675 12.695472435 13.59651546 13.933061391 13.378758612 14.265185609 14.597721567 14.0626152 
14.924342018 15.245094382 14.721364008 15.571324348 15.917226475 15.373159561 16.267571902 16.598063244 16.047331802 
16.943213913 17.289083804 16.739769538 17.6203612 17.964568839 17.41272165 18.323259424 18.668078107 18.098844049 
19.012850701 19.34112699 18.79881462 19.690854696 20.012397602 19.491059903 20.309138823 20.643773952 20.136544664 
20.933038425 21.263013807 20.722693433 21.507631326 21.817137894 21.255726807 22.21382122 22.565864561 21.896293942 
22.943977448 23.292990302 22.676376243 23.636296948 23.974677039 23.404880971 24.301790486 24.654807905 24.082340256 
25.009027732 25.354326252 24.771345716 25.71467596 26.070184544 25.493669032 26.443516184 26.813500859 26.234727703 
27.193504434 27.550985685 26.994372308 27.891033857 28.224134345 27.718795376 28.590154097 28.957125809 28.427849313 
29.305459305 29.66021453 29.811930473 29.14466672 19.089066818 18.747340269 19.824573743 19.443731897 19.17773714 
29.35942445 28.678373854 27.986705839 27.243995949 1.1423830626 26.375651367 25.660293252 1.9774224625 1.974056383 
2.137798307 2.6246354505 21.55781376 21.864818374 14.68595175 13.828017717 22.9887003 21.66153157 9.7418307416 
8.8902493473 8.0634778279 7.284473088 8.4473009386 6.5353891981 5.836944332 6.8423573713 11.653247061 11.880381265 
12.037266806 11.686550946 19.626450132 19.9075182 11.204404896 11.421217578 11.128788264 1.8076676377 13.01109417 
12.176924115 13.375173592 1.6801531352 1.6438316032 1.6615928445 1.6397870676 2.0223075349 1.6287243453 1.6190567045 
2.0116743301 1.6195255625 1.5865621194 1.98847816 1.5573951841 1.5349661859 1.9484907216 1.4974135202 1.4775382862 
1.8730911803 1.4617011725 1.4525595939 1.8144987243 1.4542553225 1.4474988003 1.7970262118 1.4396720316 1.4320393166 
1.7887687232 1.4055809335 1.4065071311 1.7521737137 1.4025107573 1.3997309576 1.7209565445 1.4299988115 1.4468291297 
1.7485521558 1.4692009464 1.4796157724 1.8039975204 1.4927599914 1.5031476241 1.8429439505 1.5104198953 1.522900138 
1.8682583985 1.5431474796 1.5655177161 1.9030426496 1.5760994414 1.5890656528 1.9436518735 1.5919298675 1.6180285555 
1.969094336 1.6124380479 1.6373690195 1.9821324128 1.6261512044 1.7153351416 2.2411816995 1.9827628424 17.34201224 
17.612790755 18.504090302 18.803606022 16.863613047 17.133475182 17.477503818 16.258640484 16.548175128 16.937939035 
15.611006998 15.930177293 16.278311192 14.958077428 15.273295634 15.596493873 14.282003396 14.635403047 14.918969971 
12.619413988 13.039733024 11.278265219 10.909701596 11.143762902 21.9957064 21.733952159 17.817647403 17.532019319 
17.247166848 16.978987754 17.24950243 16.710339952 16.442932388 16.680364815 16.184543061 15.921354566 16.139558061 
15.653394767 15.388843105 15.600454072 15.13748339 14.87154866 15.068389412 14.604242702 14.330026128 14.538268075 
14.044059933 13.757852038 13.974256802 13.431229937 13.11748232 13.35371168 12.751080938 12.403160128 11.919779601 
24.857906716 5.1727546354 4.5024271337 3.955170261 4.1906737742 5.4088390345 19.097417417 19.370410838 19.753953009 
19.194733156 3.0059524266 16.441963529 15.514430127 11.409814565 10.59397358 10.153039989 11.785006932 17.904349168 
18.20260072 18.589816102 17.986630672 21.554026697 21.358896127 1.8090100098 10.711626194 10.929918614 18.42232969 
18.116115439 17.850044749 18.48834158 30.773151969 30.811489321 31.147735537 28.334925105 13.324947522 30.67397614 
26.776791596 21.184364223 21.698886641 20.873098788 30.015767339 15.027101694 21.646258708 21.222009977 18.427993944 
17.378928328 16.796021387 21.075664976 20.557076473 22.458191886 22.262186923 11.665986263 12.150603893 12.427676343 
10.600800609 22.044210929 21.7611017 22.006073899 22.003289488 20.210244612 20.521869945 20.976353206 29.681943663 
3.0228198426 14.174013299 10.303911819 10.47034291 22.605537869 12.655715819 25.350402071 24.300786005 23.484567435 
19.55159841 30.434422694 20.704590254 20.290435126 2.1552092924 10.094564389 19.998941027 20.31964741 29.467573792 
29.446045773 29.425911889 29.401797242 29.02448015 29.358628007 29.340243963 28.958948536 29.278920888 29.281644427 
28.853126082 29.289361051 29.298642191 28.798629272 29.350197194 29.371406551 28.858120165 29.402263503 29.418605743 
28.941029576 29.43123416 29.432576282 28.985373516 29.447904206 29.462194955 29.014308254 29.466142135 29.494863766 
29.034370178 29.538573054 29.577451363 29.082686855 29.631706401 29.691580283 29.181129868 29.797691899 29.8104276 
29.341695549 29.720851732 29.709858502 29.358446046 29.711792281 29.740392025 29.270889157 29.856499774 29.886020601 
29.38874221 29.830327442 29.876541507 29.448971556 30.012710725 30.098381348 29.529056073 8.8614885895 8.0049735998 
27.338112009 26.472693586 17.265305361 16.963425057 29.760351434 3.5331198038 3.9217986502 4.3066262867 4.6849285904 
3.9640035512 5.0747786857 5.4760331123 4.7421226986 5.8834119666 6.2616536925 5.5456519545 6.6499079276 6.9861311567 
6.3487401828 7.3294827063 7.6678029331 7.0876892802 7.9910983952 8.3210689837 7.760582435 8.6074455248 8.9301697156 
8.3755197551 9.2530962597 9.5649027455 8.9938187931 9.889032485 10.210351953 9.6478512054 10.531176134 10.849874038 
10.298844054 11.183341642 11.518900124 10.958192213 11.827308125 12.138818368 11.604325352 12.481909824 12.815411701 
12.259650385 13.168699341 13.521170969 12.95944326 13.870672194 14.20343585 13.664668202 14.533145038 14.859355982 
14.345226275 15.180452735 15.505071428 14.996182814 15.840783361 16.18818774 15.651083973 16.54411226 16.885779136 
16.339722911 17.218331611 17.545496665 17.024159327 17.869604515 18.223990762 17.675407066 18.595665463 18.936853621 
18.364931253 19.341716502 19.688550328 20.154388247 20.450485085 20.739434536 22.047515179 23.177918977 23.52838519 
23.829439841 24.164470394 23.601513893 24.510526298 24.873386053 24.258087287 25.254617687 25.622964154 24.995954352 
26.012035348 26.392488159 25.775985127 26.794250828 27.179852104 26.575242476 27.562514978 27.906183767 27.36564747 
28.30127327 28.670169694 28.147452358 20.393343239 20.700400604 19.134083414 18.784100789 2.6321740601 3.1173015796 
3.1645989194 2.3679753755 22.644795132 23.027486343 13.231248988 13.662698339 17.068445583 17.399087342 21.700945238 
20.602278906 12.586592919 12.217449359 7.0942574563 6.3217668024 7.5233101437 10.524495662 10.801010939 13.699090149 
12.876832369 28.777410504 28.087155013 11.039890827 10.627394863 9.4158067893 9.6270226299 2.3781386654 2.3516829201 
2.4122707558 2.400941178 2.7728806908 2.3959871815 2.3561612843 2.8170062636 2.2703491047 2.2254682324 2.7161708808 
2.1629397653 2.1432176871 2.5607531947 2.1595720708 2.1588343276 2.5111042389 2.188151334 2.1779608143 2.5553867512 
2.1421951324 2.1136681468 2.5471964162 2.0182930697 2.014498413 2.412896272 2.11506502 2.1479124941 2.4181857428 
2.1842894787 2.2098631101 2.5584627136 2.2230086955 2.2401576605 2.6107008634 2.257462996 2.2705573897 2.6446460915 
2.3037248703 2.333411945 2.7009233422 2.347259746 2.3688553739 2.7568030235 2.3656043073 2.3835269857 2.778048794 
2.3702472542 2.381907182 2.7755034928 16.301436779 16.645898579 17.099625321 17.815591023 18.037282896 17.955576233 
15.576141213 15.930668668 16.292399379 14.960631476 15.297080949 15.637701505 15.303789986 14.471000855 13.978078729 
10.134814525 9.709521028 10.060002851 9.9161556883 10.191702246 22.706001753 22.40744398 23.256668502 23.030863201 
23.340573949 14.08964764 14.505403519 14.893950392 11.828965917 11.456041288 11.777947248 16.660470538 16.377419115 
16.670228834 16.084935679 15.812968349 16.063282431 15.554650313 15.273992657 15.500246861 15.00969189 14.746447373 
14.966292032 14.491254613 14.213176664 14.436986064 13.927839776 13.632664982 13.888089831 13.292723695 12.961230924 
12.541479896 13.257848607 20.982289935 2.5283365516 29.558756185 29.5314293 29.111083528 18.853958959 29.666213435 
29.621855894 29.240382035 29.399497638 22.196256901 22.452054254 22.838412518 22.428053168 2.5221225467 25.911211943 
10.970047979 29.345691204 29.097322528 9.0205451886 9.1570586442 22.20090408 22.75354602 21.826848274 11.131338045 
11.440347076 10.565083442 22.95373211 20.177793744 20.549587416 19.913732355 29.049201126 18.498382596 18.551139447 
18.210617446 18.133485099 30.001371027 14.008147089 18.644606996 18.955565001 20.470241959 19.848916594 18.338288424 
18.693568048 14.02652481 14.233571495 21.134744547 21.067608971 21.421210543 17.131461332 16.196667317 5.7575025908 
5.4918007302 28.924381294 12.301683265 12.765492507 9.8783080696 22.621869866 27.780884881 9.2479662115 8.4771850033 
8.760388465 23.670853903 23.511763836 2.3571724235 19.139409495 18.02246663 17.420571017 19.014129465 22.610900327 
22.130726033 23.914679761 19.311368545 19.613287827 20.025807425 19.362879338 15.644088213 23.901779933 2.8674365385 
12.16185598 11.386270824 3.3362865849 3.1811186298 3.2282205491 4.8147922826 10.617533367 9.7463504691 9.3507885309 
11.011879314 17.908888815 17.592987785 17.317841578 17.959636166 8.712050721 13.116614734 2.7557122663 28.588985435 
28.566402399 28.571419944 28.526227364 28.132621132 28.35684386 28.293879474 27.965783832 28.2489305 28.256110617 
27.748300493 28.309939717 28.362140336 27.757007532 28.520903025 28.552321708 27.971134571 28.495513291 28.508927065 
28.074016088 28.545550426 28.561663083 28.054968542 28.580475334 28.585267342 28.111703141 28.600447713 28.64465702 
28.146968905 28.725694168 28.780279828 28.244025579 28.865865892 28.972030608 28.410980431 28.882748472 14.422861188 
14.655373113 28.773122133 28.775077113 28.387204748 28.818541836 28.934404494 28.321093636 9.0087641065 8.4665619212 
12.923795285 13.389931482 11.770381135 11.380198145 4.3837737494 4.7777183261 5.2116962033 5.6254508556 4.8694778785 
6.0635089979 6.4592860621 5.7456951762 6.8724451256 7.2225060061 6.6021154734 7.668180016 7.995388793 7.4673002999 
8.2913130808 14.88277581 15.131267075 8.7243769462 9.0551832025 8.3539326975 9.4145118946 9.7449321547 9.1559976688 
10.070760701 10.397311568 9.8461210221 10.733081594 11.071304575 10.513908536 11.377050148 11.689720786 11.158629527 
12.032862888 12.380020872 11.81320437 12.738288043 13.094703418 12.518911024 13.467884591 13.819468726 13.253691245 
14.16289847 14.493645366 13.972912961 14.865484935 15.185514417 14.690707782 16.836549199 17.163558189 17.50357493 
17.820952773 23.231545663 23.539903931 23.925787451 24.283627777 23.551766766 24.711005852 25.102495037 24.384665875 
25.481386785 25.880119092 25.202056142 26.349669917 26.758515519 26.062981833 27.204683147 27.591949508 26.985995135 
3.1665630435 20.896200005 20.143699607 28.859134685 16.156610451 16.539483711 6.0932507265 5.2502041692 11.857867668 
12.214275904 9.1709515558 9.5211324638 7.8549957955 6.9137932652 6.4240158176 12.493612564 26.890015141 25.769612014 
23.097194775 22.701562401 23.828822966 24.297343414 17.023647293 17.460327756 16.891820902 3.3134490435 3.2976758288 
3.714392471 3.2332901237 3.1386558343 3.7238880634 2.9320989791 2.8640949895 3.4458617672 2.84502091 2.859365416 
3.2167544587 3.0043974933 3.0326138294 3.3426446102 3.0443550313 3.0062769385 3.4996437589 2.8443726788 2.7458603891 
3.3461957176 2.8497210008 15.351083698 15.589389348 2.9965553671 3.034933434 3.3307037931 3.0309437641 3.0466893594 
3.4751541108 3.0406219342 3.0623366208 3.4658902239 3.1280214516 3.1689268222 3.5287165257 3.2113878373 3.2346238242 
3.6436985087 3.213372896 3.2230277178 3.672946923 3.1865631022 3.1894826386 3.5830705603 3.6266772097 17.988904407 
18.421879107 17.916996291 10.07840292 9.58714903 9.0585083179 28.446791924 27.698943532 24.099990285 23.791091802 
23.503096567 24.230683435 10.946904461 10.523492317 10.076981206 10.958059065 24.673497405 24.442096119 15.412227691 
15.141246923 14.350463672 14.085774512 13.878868835 13.586543128 13.79698755 3.9691680368 28.749109789 28.682670219 
28.224803157 28.432378485 7.9239022633 8.1580870421 28.961540818 16.505273614 16.654581175 16.338134871 16.152895262 
11.34211954 7.7647180035 7.7415736929 7.1943471915 27.554262515 14.164093672 14.587285303 24.856632811 22.851708135 
23.291411048 23.910270622 9.9491581312 10.315206818 9.2732233026 15.513698931 15.846342676 10.559738908 7.687440438 
15.052255936 15.936717085 27.878104503 28.033986882 22.880156692 19.983519066 19.564269454 21.060818381 21.427626273 
4.8929106819 4.5487568927 22.654033175 21.747620776 21.413432376 24.758445966 23.880003889 25.731517196 12.558097268 
12.183314312 11.803138754 16.01891201 18.928518663 19.083290891 4.3578059391 4.2873358738 24.94412169 24.803536107 
18.383017189 8.6258091354 8.0411925736 19.363954485 19.724152218 8.4201580465 21.907245754 25.318449503 17.84316032 
20.838679569 20.579831217 21.084968048 18.892257047 16.037928829 15.7344431 4.0186117793 14.946503345 14.671798445 
13.264487763 13.265559088 12.923239396 14.336476847 6.4765848363 6.6419064002 27.214431224 27.166806584 27.367998336 
27.52930975 27.472901996 15.823536314 16.069080051 27.49009093 27.528173623 26.942883248 27.678878303 27.699074458 
27.114263992 27.606036317 27.62230904 27.173642056 27.683775433 27.76529302 27.143891161 27.95760413 28.043428863 
27.398299955 28.878430526 15.389458677 5.4237751333 5.8655535366 6.3200224243 6.7387643633 6.0115962201 7.1439704767 
7.5964843629 6.8752391241 16.312362581 16.563255957 7.8055389601 7.3684575184 7.8960813536 8.1081047247 8.5552710836 
9.1239107307 9.4864548389 8.9009870168 9.8221382078 16.782125536 17.020364495 10.441962429 10.779336016 10.099183546 
11.56431524 11.912796611 14.484166212 14.859094242 9.9650943569 7.973624764 7.2454820386 25.736376922 26.214688951 
26.834107055 27.284323865 26.518698753 5.1158370163 4.4134891501 6.7937691383 7.105400542 20.143818071 19.564268074 
21.847207831 21.928661185 22.336102007 3.9229470145 19.045640004 27.780543645 6.7363925147 5.9016887941 14.159911775 
27.635535132 13.814080962 25.544451935 25.215641845 9.5341801154 8.9747486186 17.241569795 17.505253498 3.8360301223 
3.9859611164 17.719685569 17.968145741 4.0391125833 4.0351011611 4.5515523798 3.8892514975 3.88472211 4.4570256165 
3.9231303025 3.9935355665 4.3485141935 4.2225194892 4.2715000879 4.6173359078 4.0410994456 4.1140383856 4.493473079 
15.878705598 9.0717874035 7.6221021409 20.695316933 20.267568935 13.420146705 13.614816429 13.396185066 13.043742272 
16.468426869 25.894090674 26.014690147 4.9304465489 25.073821925 25.568828321 18.202883018 18.437828692 22.862122204 
5.0619188907 11.092203665 12.306170103 12.668133215 16.961950447 25.063340329 23.49016196 27.638372938 24.671674149 
5.4236463955 27.538126132 27.990765522 6.0663419 21.545360204 12.57928703 18.682833749 18.93759231 25.919338485 
26.259234155 12.068399265 19.161588308 19.363311696 26.30809559 26.189339714 3.7136618883 3.6917000398 3.8372470432 
4.0610427603 4.0709928099 4.00314204 13.858074274 4.5682350913 4.1257498391 20.27266292 4.2600305879 11.044941034 
10.611454776 13.076081479 4.7044747334 11.196544076 24.574100579 25.193068814 24.043248887 27.464292257 27.144078495 
27.199084405 26.710368475 26.619016844 26.420140663 26.483072729 25.957742641 22.840063995 23.355189298 24.011261514 
27.881429519 12.840655302 5.2004363242 26.752654074 26.602780702 27.511456652 26.597034202 25.582156015 9.986324108 
21.815558981 22.317455521 22.801947884 6.8506655284 6.6177992587 11.526007101 5.2062773422 5.2596795182 26.881834016 
12.69754723 12.333775371 11.936766361 6.2580868725 5.6964196532 5.8547265217 5.0429928649 26.965796596 27.116015789 
5.3517201328 5.8886042041 6.3426539488 26.329620255 25.925295824 26.557122891 6.7579141198 25.42672258 22.275652036 
21.547486227 5.5423151765 23.079311771 23.086592655 5.1604038759 26.104777523 25.24116499 8.3904766404 4.8973676526 
4.9362705795 24.309831127 24.826063146 26.825866955 27.018070539 25.232973204 24.296146381 23.613956966 31.573922522 
31.463891811 31.467838456 31.558850183 31.562719602 31.118443813 31.560555299 31.563787634 31.220881175 31.510508677 
31.511803114 31.175758629 31.492008679 31.490140547 31.104905571 31.495778566 31.48956977 31.080569314 31.515681824 
31.505448993 31.086584861 31.531285325 31.51787215 31.098110314 31.568195667 31.549150002 31.118046918 31.606688692 
31.584547184 31.152577399 31.654474187 31.627364602 31.190144594 31.708738859 31.681210344 31.238034018 31.76624712 
31.735505581 31.291865301 31.824932591 31.79725515 31.350049031 31.896418942 31.865433946 31.421807976 31.942306527 
31.912105329 31.478120101 32.020589161 31.988178043 31.539757922 32.084934204 32.052158485 31.617139287 32.134483037 
32.101086513 31.664852208 32.202770157 32.169158081 31.715564511 32.339834973 32.30783772 31.85528235 32.382293276 
0.71098534777 2.0281627597 1.4009833143 3.3279581827 2.7962651743 2.0958492373 4.2997980868 3.8492678368 3.3720392014 
5.2005389353 4.7542428046 4.3657892576 6.0362891679 5.6134534305 5.2520459177 6.785104807 6.4197235533 6.0679411713 
7.5609101093 7.1739936447 6.8587085542 8.335392946 7.9378674156 7.6409576524 9.0625569797 8.7083251757 8.4060936163 
9.7986660779 9.4293819731 9.1593553332 10.562955393 10.176431177 9.9145813612 11.33968122 10.948622048 10.686977273 
12.139606438 11.742945752 11.483269683 12.909611539 12.522042597 12.274120021 13.732539301 13.323741965 13.073156157 
14.537517615 14.138370702 13.893787075 15.380998845 14.945898111 14.706712493 16.234012351 15.810479841 15.541297796 
17.090744747 16.664748294 16.39651725 17.914765719 17.503722841 17.234540995 18.786540247 18.345237148 18.072498439 
19.622699761 19.200634577 18.912538406 20.442410687 20.042091519 19.744561641 21.283601137 20.860904336 20.585045047 
22.070532213 21.684739787 21.410477081 22.897352001 22.47037125 22.219122838 23.647747576 23.278062666 23.008655241 
24.424383745 24.035076243 23.78651001 25.220651866 24.824663671 24.582960809 25.997777176 25.610710813 25.381215825 
26.815460001 26.406793143 26.186091024 27.673714209 27.243652732 27.027299478 28.52097216 28.086375154 27.871294655 
29.4006077 28.96246616 28.726848348 30.241656823 29.833501607 29.602165253 0.7088373583 31.35550343 31.738500924 
30.476885377 30.97681923 31.052249171 29.428582212 30.012394219 30.209379978 28.168100173 28.802652816 29.119608182 
26.781862767 27.500723229 27.82713433 23.210662244 24.197502022 20.942675081 22.109827179 22.481374196 18.706937882 
19.861261908 20.309871029 16.68080776 17.68005246 18.208545782 14.833810742 15.706470879 16.205836096 13.193944114 
14.005098336 14.393069 11.617838917 12.416618564 12.766759823 10.087313094 10.883222512 11.224313564 8.5659053235 
9.3152450022 9.6737338454 7.1747336262 7.849373191 8.1332055739 5.9764902628 6.5424774937 6.7331480164 4.7902987216 
5.3324632011 5.4105066276 2.6469080687 3.2082324531 1.6052800952 2.2305821584 2.0930157581 0.65307377428 0.55609863027 
0.60174022822 0.3932282493 0.41916197037 0.91883466278 0.4333985712 0.45627283035 0.8054426664 0.3845823766 0.39684376976 
0.8205012322 0.34119459622 0.34535257328 0.73633624099 0.31321756539 0.31384479612 0.64930398811 0.34429819569 0.34833483446 
0.62911395413 0.30854762097 0.31567259641 0.62758503378 0.30538672032 0.30623821098 0.61341358767 0.30329261913 0.3014641865 
0.60372305654 0.33493934327 0.33581449458 0.60804130207 0.30068903367 0.30434167976 0.6062455768 0.30783459326 0.3066513703 
0.60520060692 0.31749646902 0.31317856281 0.61673211216 0.3151426784 0.30732478274 0.6260391623 0.30869780301 0.30946419758 
0.62059030487 0.32270130635 0.31786452026 0.62859975613 0.32669845959 0.31642537616 0.63218969282 0.34957596198 0.33340006865 
0.6460110495 0.45696213586 0.43045695737 0.75094105714 19.936949658 19.680905361 19.41160198 19.148911374 19.860970529 
18.889505117 18.6245625 19.30484443 18.381719511 18.135339069 18.777629797 17.892853301 17.671077128 18.272762424 
17.43748288 17.209794731 17.782940521 16.970266885 16.746450682 17.298615799 16.511484726 16.262826996 16.813850907 
16.020618233 15.780833396 16.325923361 15.545713499 15.320417227 15.837485758 15.085870129 14.84898908 15.354857187 
14.62436362 14.419426648 14.877399624 14.213784162 14.00223638 14.418835933 13.772736807 13.525672237 13.921965579 
13.128562286 13.153817596 19.435814365 19.669567949 19.004054756 19.209662252 19.303606906 18.541348105 18.777175571 
18.796947589 18.096380863 18.315487321 18.316681024 17.645015802 17.871179536 17.844914805 17.166039759 17.406320443 
17.366640502 16.702652069 16.927235095 16.872381785 16.256793078 16.481156916 16.397053724 15.771700084 16.012533125 
15.916074156 15.264050482 15.524202313 15.40460831 14.788006747 15.027038399 14.896783893 14.303641995 14.525962598 
14.376039671 13.784719542 14.050385051 13.827827279 13.228157604 13.518991704 13.268167323 20.1419389 20.098176034 
31.127006148 32.00284711 30.733623572 24.649453613 25.273875179 26.059869196 4.2325777998 4.1528952924 0.75182712367 
3.6871059901 12.586998468 12.967858155 20.146782122 20.381292335 0.62821235831 13.233851537 13.127752515 12.764104003 
19.970113698 20.092081567 20.53832386 12.705072198 20.48051124 3.0546984899 30.527672745 1.0490604689 30.923172024 
30.919261597 30.79199165 30.694743577 30.201986064 30.494759757 30.680950811 30.702876254 30.656554375 30.660362781 
30.256174207 30.65214334 30.643344409 30.220491472 30.657460765 30.655523055 30.209588839 30.682458028 30.664541173 
30.219979634 30.709830347 30.693309663 30.238081606 30.763627106 30.742661081 30.282215919 30.805407168 30.778350089 
30.330040156 30.854176443 30.827205862 30.367069617 30.915451951 30.884209456 30.419313923 30.989668451 30.949040271 
30.483237903 31.047186191 31.031365026 30.558654591 31.124127386 31.078174843 30.631374758 31.205691634 31.174099534 
30.712271216 31.232592546 31.216470434 30.77301948 31.236152367 31.201488455 30.752595464 31.403892616 31.298648593 
30.783916987 17.649386978 18.672160834 4.4539639154 3.9810900085 3.5016213484 2.9666795911 3.6171278066 2.3858612328 
1.6711195709 1.4062592603 2.5723749695 5.3157691744 4.8818046508 4.5294649528 6.1202266986 5.7179818747 5.3712470324 
6.9264002409 6.5194349874 6.1871355243 7.7121262129 7.3186696237 6.9939497586 8.4915015365 8.1044347789 7.7932133868 
9.2570780654 8.8783710864 8.5846511051 10.034600923 9.6466172421 9.3719906875 10.821822817 10.427731842 10.164260814 
11.629131162 11.219269177 10.96289954 12.401007833 12.014818315 11.752300069 13.23938464 12.823191266 12.564331893 
14.050412291 13.644802848 13.394621951 14.860178798 14.453871979 14.204466636 15.703686857 15.278226741 15.025084806 
16.571662862 16.14631677 15.883046493 17.382330321 16.975120054 16.725095356 18.226643212 17.801351336 17.542596626 
19.045782779 18.635295398 18.365439143 19.878332518 19.459134824 19.18442668 20.716654012 20.294499829 20.013679216 
21.549096941 21.14162131 20.856636596 22.347275343 21.939264434 21.673946497 23.130126979 22.739827712 22.460786814 
23.928492405 23.531316578 23.261325096 24.740507821 24.331467945 24.074172562 25.537936821 25.140614505 24.886589754 
26.370638893 25.956088602 25.71341333 27.239971209 26.807868033 26.576182875 28.064803117 27.649640574 27.42867519 
28.928004328 28.485179579 28.262177914 29.785248807 29.351578356 29.108608354 29.950597687 2.194056099 2.733149042 
28.92891535 29.554145587 23.975776357 25.044321285 27.363351172 28.029870901 28.466461592 20.715916143 20.876827816 
19.684598437 20.756152531 3.3857362286 3.9937557805 21.789617073 22.879670384 23.281012344 21.159407175 15.650890176 
16.630876413 17.087106218 13.895303373 14.738324611 15.149000049 12.292332857 13.093650362 10.784722629 11.554298987 
11.866637398 9.1953829333 10.017426493 10.337118243 7.6271021173 8.3977046222 8.734802311 6.1863379296 6.8686639057 
7.1348499167 4.7832693409 5.4735308402 5.6220817877 4.0952176585 12.110334811 12.419690848 12.043278502 11.875884751 
1.8139084237 1.3290159454 1.277091155 1.3195684627 1.0828487887 1.1508585334 1.6343689502 0.97470685522 1.0202295788 
1.4161006799 0.97277392718 0.97731599262 1.3353754219 0.97725460763 0.98185419373 1.3353479699 0.97090841179 0.97724423415 
1.3415610075 0.95539519526 0.96449894254 1.3313568371 0.94567290937 0.94567667729 1.3077746613 0.93230876526 0.93081522044 
1.2788463846 0.94862872768 0.93711508166 1.2756163495 0.96882920763 0.95563337228 1.2945930801 0.97229073642 0.97749847838 
1.3162664182 0.97965543422 0.97580061825 1.3338924076 1.0077020131 0.9859253523 1.3558785903 1.0143731895 1.0057802187 
1.3797699013 1.0261615498 0.9927454555 1.3779972029 1.2006963628 1.0969645433 1.4523785202 1.7576144425 20.880057945 
20.620644397 13.442725702 13.063888564 12.430172784 12.295477031 19.749521655 19.466967123 19.206659883 18.942399646 
19.621384125 18.677143668 18.41849074 19.083423568 18.146361681 17.900478369 18.533961211 17.659507629 17.40936972 
18.010187543 17.150356586 16.905085687 17.499840731 16.649920954 16.39702696 16.975678883 16.141590519 15.894829715 
16.454187335 15.648478776 15.398351317 15.939813777 15.144191344 14.897268344 15.423822116 14.638143726 14.392232698 
14.890173298 14.118519592 13.805528902 14.332038526 19.777133433 20.163402848 21.073150918 21.112911154 19.107807998 
19.405718261 19.56120921 17.581598263 17.822797994 17.077485341 17.331561279 17.307597818 16.551915754 16.805603313 
16.771414121 16.065755719 16.300896954 16.23502051 15.553644299 15.814159312 15.719063762 15.032010032 15.298975713 
15.198073732 14.50226753 14.761592716 14.658264648 13.932661046 14.218392107 14.087978899 13.345039859 13.634204253 
13.489485616 12.742171157 13.035196652 12.867188289 30.773908862 30.82409987 30.521995899 30.35017007 20.346667168 
20.061651707 20.202895137 20.793359527 18.581324113 18.841337551 18.903863595 18.071135886 18.322073605 18.350810871 
17.822428632 2.6294217419 19.118396614 13.422618588 1.8478254717 1.3632547419 21.438905326 21.259597608 21.683984551 
30.105736323 30.295919619 25.412489715 26.086691639 31.695823824 30.759656829 31.138585906 20.603363824 20.954853852 
26.439987593 12.226089571 11.738302053 11.559708819 11.721065702 11.332477348 1.3414822061 1.5426626937 21.143164092 
21.310678075 21.543945394 13.677104858 12.908793392 12.661085606 20.377094937 12.24148308 26.645411247 27.008896395 
24.804789395 25.841106377 29.749664405 29.7469206 29.809719697 29.83244397 29.766983357 29.760017529 29.294307141 
29.791350825 29.780233295 29.317968811 29.844358015 29.81120903 29.351820102 29.86912086 29.853884674 29.382043589 
29.901917406 29.879743239 29.403245958 29.955244592 29.924977129 29.437669883 30.022054146 29.9882613 29.494182623 
30.105702691 30.063835861 29.569173553 30.175476214 30.144583002 29.649911909 30.268217174 30.218307655 29.73136261 
30.375043243 30.364396687 29.870125896 30.187481126 30.218709058 29.809663244 14.639830407 15.561111343 18.546280005 
19.555045544 30.257329584 30.131261439 29.713108784 18.652882246 18.945583696 4.6355829994 4.1984315336 2.8315103561 
2.2851632596 2.0510496303 2.5212982656 7.0736462927 6.6664954894 7.8748589462 7.4693354756 7.1555467978 8.6870285084 
8.2883488262 7.976054692 9.4911888323 9.0911115759 8.8044226339 10.296897122 9.8949086112 9.6216704344 11.110402586 
10.705752696 10.442256572 11.889146195 11.49850019 11.245728351 12.71792628 12.291941682 12.041583846 13.555791946 
13.148428881 12.878902038 14.368642265 13.96490942 13.721459694 15.190499031 14.774107203 14.537527464 16.05321062 
15.614101808 15.365815535 16.895768219 16.496901823 16.230121544 17.704390502 17.290822703 17.063823916 18.530523268 
18.126682172 17.874606772 19.334640166 18.924033326 18.683565432 20.15369253 19.737334001 19.475424496 20.996288019 
20.569794714 20.293310739 21.786405958 21.394097606 21.105684177 22.58812899 22.189839902 21.905838619 23.377006071 
22.967105089 22.6927949 24.209566715 23.796716333 23.500088648 25.025609774 24.615794569 24.337519247 25.8877486 
25.460848445 25.191144476 26.77543792 26.330996108 26.080070699 27.623968261 27.209691423 26.966078607 28.454664989 
28.031195688 27.813359528 6.2342546978 5.8194833381 6.3164139659 27.899824847 28.797270908 27.341564001 21.248052854 
21.394091511 16.508210024 17.528114092 16.001534597 8.2258085508 9.0651313015 9.8520067319 10.648903892 9.3835302187 
11.405187664 12.162140875 10.94763581 6.5823495606 7.3811771091 7.7172834944 11.438873785 11.133652018 29.750157837 
29.764895668 29.337840571 29.287645937 1.70374104 1.7895323832 1.7354523559 1.7337206985 1.7531644249 1.7570082983 
2.1584396362 1.7296338701 1.7411884499 2.1623408517 1.6926206854 1.7088775956 2.1246942713 1.6622557271 1.6763512857 
2.0847273771 1.6636262923 1.6527697065 2.0581405439 1.6847374085 1.6727966788 2.0594090858 1.7198434534 1.7051562769 
2.0928108673 1.7549961327 1.7444354196 2.1439369077 1.8085630831 1.7853407861 2.207328806 1.8218383601 1.8055754556 
2.2479908283 1.7910851549 1.7898336907 2.2294734612 2.1779201502 2.8986324398 13.200882094 12.799698288 10.911948708 
10.810637656 19.494697877 19.218863614 18.950537879 18.66668436 19.347695753 18.398321495 18.146748908 18.801984901 
17.877322246 17.607133409 18.254183472 17.331311725 17.064645435 17.697954998 16.796127221 16.527377961 17.141740916 
16.255286876 15.994035582 16.588007733 15.723514104 15.450518594 16.031087984 15.17117205 14.887056519 15.466591282 
14.599323848 14.302768156 14.88568947 13.966355254 13.605962012 14.253859326 16.453048174 16.739894106 17.031665058 
17.297566105 16.727456641 15.371295892 15.637375802 14.839891728 15.110218758 15.030495574 14.275531603 14.561170369 
14.476828505 13.682706972 13.982140397 13.891754358 13.05851235 13.37009267 13.275242778 12.40544512 12.723945949 
12.620449802 11.008278328 11.343516292 12.882531566 13.696699868 14.106447774 12.434441715 3.7821775185 3.3057059609 
3.0304024287 3.9076451069 11.714304744 12.051382092 11.926449272 11.200235664 5.3894581433 4.9727143137 4.662142225 
5.4422823336 1.7012942023 1.7130264379 2.0794815526 2.1116674148 12.069927883 11.786036661 11.265739894 20.042445082 
19.772080609 19.900509516 15.88875525 16.154066516 16.122960078 15.557879946 29.43696423 29.883669591 29.956832492 
21.760539742 26.301344316 26.912345451 27.800910234 19.949640058 20.526058751 18.397585149 18.414157817 18.114336494 
29.301226672 28.875484876 28.644761154 29.480082477 22.21093415 22.115765907 30.043349245 29.508684987 21.552609148 
17.963908092 10.49619195 10.723016408 10.249851672 21.839106794 21.591501915 22.59850796 23.686240884 24.117256656 
5.8067208666 6.0648924585 5.0606394508 3.5399210581 4.3384723918 4.5485131614 12.394564765 11.961523687 21.796710316 
21.302597276 2.0217413399 13.513515247 2.311359851 22.011952686 22.022079567 22.534177435 3.1909283351 1.8364314554 
1.7354816163 2.1597494324 2.3270558997 12.706449219 10.21855858 10.590752987 20.057185435 20.488173201 20.612343367 
20.296802577 20.438751376 21.021390083 30.157040195 28.942504551 19.309537215 19.687251705 17.306597354 17.569654874 
17.837082019 10.423290973 9.8048590573 10.204871758 21.161129353 21.602728646 19.7899045 19.047965358 22.378677584 
22.077797927 28.831721105 28.821519768 28.894388529 28.883895528 28.914861132 28.903443834 28.404997972 28.947757896 
28.924172684 28.424596919 28.9882476 28.955047607 28.442000467 29.100918286 29.059069072 28.520415983 29.191697874 
29.152925228 28.643121807 29.244001491 29.201384536 28.704540079 29.444327466 29.348260489 28.818114939 19.361780269 
20.32753311 12.999057871 12.59581652 8.9254853233 8.5111044777 8.0843396929 7.6592792329 8.2072636704 7.2259602639 
6.8190947756 7.3372676009 9.7557020155 9.3429639072 9.0604218671 10.596037393 10.179359142 9.9100469588 11.37785656 
10.983841965 10.728860146 12.185893692 11.778273068 11.523146153 13.055509862 12.621185556 12.363820449 13.895725896 
13.484205734 13.232339578 14.713938275 14.307805702 14.077389197 15.553600453 15.132045925 14.909665746 16.42119453 
15.981610762 15.753561643 17.234020543 16.845534744 16.602084982 18.876294952 18.49104207 22.008534484 22.799265718 
22.411630655 22.097344327 23.629790689 23.19956949 22.916505033 24.405998173 23.986358679 23.683848427 25.361210439 
24.914027629 24.568493039 26.289910057 25.836908272 25.566235955 27.182622005 26.741310832 26.504096493 28.018815111 
27.607084365 27.386779949 22.411613422 22.804031761 6.4056590143 5.9618527863 6.4802738141 21.960879026 2.617138524 
2.6346935413 28.842446135 28.828791851 28.352964365 15.596017513 16.536882786 8.9762211946 9.7911612994 22.267004638 
19.728835771 19.453341733 11.893580564 11.545196175 7.1492301719 8.0294290744 8.4482914816 10.520288296 11.290130742 
20.370076757 20.087450595 20.18732263 2.5500664576 2.5750917244 3.051135235 29.692267979 11.122798587 10.741655773 
2.6630879167 2.6487603189 3.1282741126 2.5147195336 2.5330507086 2.988658763 2.4721683005 2.4816453536 2.9360251541 
2.4805848071 2.4687069121 2.8988943042 2.5345754501 2.509122 2.9257193193 2.6106323769 2.5790495066 3.0030539216 
2.6937858275 2.6519320731 3.0950207932 2.7252712691 2.7130507498 3.1648244624 2.6921015321 2.7058295991 3.1791316798 
19.250750213 13.873339494 13.472435188 9.8402856539 9.6474094417 2.5120926523 2.752250985 2.508527139 19.230431725 
18.952986308 19.60252089 18.675313941 18.395399598 19.093339807 18.091787315 17.804362737 18.502600198 17.481317101 
17.200711102 17.866365168 16.93494376 16.649291752 17.268318136 16.374047729 16.088173645 16.716367042 15.772527051 
15.478536216 16.111584289 15.217445389 14.920052979 15.527441033 14.682616889 14.348957279 14.322359423 15.02913469 
14.101842346 14.39371342 14.6991207 14.974529031 14.341768782 12.894044708 13.214514075 12.211835125 12.551981287 
12.502006981 20.767107726 22.184846336 17.440705893 18.454309002 13.508901554 13.813798606 13.14488983 16.449926007 
16.756113112 28.89228538 28.871691575 28.380432806 28.40266969 21.101156259 18.261491736 18.062843697 17.648647351 
18.00089628 28.333483302 28.799575933 28.804296173 17.872923921 3.2330284241 2.7765945627 2.5564131002 20.697796381 
21.291302672 4.1704291035 3.764451558 3.5205529837 13.373105416 25.781248751 26.848484108 12.4915626 12.185898855 
3.3733885145 11.454888632 11.816769217 11.76240303 22.330472641 17.43125503 19.650047155 20.43659979 20.022186327 
23.317329735 23.161581924 28.418717394 28.215409876 28.842637062 5.5735462958 5.4766689918 5.0357411743 17.027939323 
18.832552618 22.364674533 21.804235992 14.920225749 14.449127997 28.146621921 28.577036623 10.154020112 10.245122583 
10.123329769 22.868811169 22.686114107 22.950037514 11.054692943 23.48991469 24.601719163 25.146305257 2.590877511 
3.9249183651 4.6559070721 28.808044115 28.855523681 28.317069202 21.617166828 21.33037701 20.927175692 15.799007258 
16.111728528 16.14118185 3.0183387449 2.5039791125 2.4802430831 11.780065524 11.484923476 11.89102253 23.08806567 
23.011199082 23.597406106 4.519840108 3.0802065558 12.621534544 3.5014892973 13.500074956 28.423341008 28.954401568 
29.00892696 9.6831807263 13.737484512 9.0110627822 9.3703931072 10.650905299 11.026568088 10.9370488 20.667521788 
5.4769039948 6.2758652398 4.8794073138 6.5919546161 20.847950135 9.1798851038 14.841926975 15.158201393 15.425086287 
29.287478299 10.060179684 27.751521238 27.740712439 27.954745756 27.883926217 28.201920821 28.150128523 27.514350926 
10.072419675 9.6402895128 8.3498358119 7.9139435944 20.011522768 20.968278357 3.5976231709 21.3508166 21.046527225 
8.496525255 8.9269173334 29.277758445 9.2123172283 8.7860811225 8.5058302919 9.3777642989 7.4486956405 7.0054489411 
7.5967459069 10.876866919 10.482191611 10.223568956 11.679759907 11.273721182 11.037746838 12.52761674 12.087521749 
11.847675229 13.412172805 12.978673065 12.710974732 14.268216725 13.851670831 13.608660413 15.176350012 14.758697204 
16.749193882 16.328728081 27.034222969 27.017674266 27.726320041 23.15590382 22.737216225 4.56504534 24.820685938 
24.296218202 25.760670449 25.272257802 25.013957042 26.743912138 26.284451998 26.002197241 27.658172526 27.228660778 
27.018103412 22.910895131 22.624356797 27.844946747 27.847304395 3.5113728025 3.5312398124 9.4710021641 9.9221638088 
8.8118103697 17.707685672 3.4995710465 3.5469623077 4.0307900531 7.7684381882 8.7561883575 9.8363328058 20.55683862 
20.197579254 21.049423253 3.427795283 3.4632356599 4.0123500745 21.814998457 3.7601563956 3.7963993707 4.216140293 
17.017250053 11.175283798 6.5629711689 6.1401177116 6.680776713 3.3803783255 3.3834905281 3.9166222372 3.4007273762 
3.3692157185 3.8599001435 3.4912408109 3.4418436217 3.8903271162 3.6357212646 3.5868116848 4.0303392457 3.7310919643 
3.7000737568 4.1945404178 3.7624607653 3.7635901349 4.2991916903 8.5748044277 8.3157076359 9.3553031747 8.9609317288 
8.2679909762 9.1364931906 4.2388221749 5.0658045991 27.868359111 27.860484623 27.303586223 27.939459693 27.929086473 
27.365920342 17.30654215 18.935429145 18.623072953 18.240123755 17.907908802 18.664794989 17.615805801 17.340139312 
17.98456817 17.125086693 16.838963352 17.47175159 14.03270685 14.347040175 10.740129678 6.0054989552 6.902584119 
7.199337045 12.164432893 12.510573785 16.695446746 17.588922311 12.785026029 13.088059216 12.459836551 22.81358694 
2.908561729 4.1853143967 10.010328928 13.024752333 27.266062242 28.228363285 28.218922401 21.176891752 21.872852151 
23.02513791 26.823228422 8.0203779353 7.7880975467 3.5995738892 29.053059521 15.982912959 15.559275351 23.522679385 
23.85736306 27.908869948 27.887499738 27.396609716 4.7067130344 23.027149427 22.490872887 22.213279665 28.167774888 
28.015925196 23.274887182 23.529635452 23.587407753 28.570609682 5.7209646715 5.2291892405 5.809662475 27.912313846 
9.8849171609 10.444022627 23.396659754 26.110736968 26.60534486 26.589312882 27.734598276 27.741060608 27.304726368 
5.3747241106 10.8779872 15.419297803 16.287346014 7.5942548081 27.293307814 27.948860118 27.955881997 9.4996305228 
27.327196436 11.37577722 11.772710713 11.792713754 10.907684861 19.966652337 19.24408333 19.364660394 19.529719401 
13.698853842 13.712149265 13.262262995 13.400601148 15.959674625 15.693016279 20.116690905 8.8438579147 13.054919176 
18.294847656 19.194867097 3.4624678088 24.116791352 24.584610566 24.145822059 24.091421328 19.46488959 15.464482289 
27.880155466 27.849416841 27.423724484 27.340764048 6.9677067749 7.4474060434 11.197698903 10.794123919 28.042977789 
10.373221681 9.9543825699 10.539830273 14.547850049 26.838604383 25.050567571 4.8670968805 24.179996707 24.041832092 
4.4087323459 4.4207387005 26.747211309 26.740202395 6.805850822 6.3551730091 4.3494471773 4.306901214 4.8711182173 
4.6440680602 4.5451532194 4.9636807075 4.8141015111 4.7456199108 5.2601294583 4.8403189425 4.800929588 5.3446926191 
5.3557475062 26.741112863 26.818734139 26.639328806 26.044101795 8.3584180614 8.0746840736 8.6230865537 7.2836234887 
13.011662182 12.907707709 12.451392998 12.6910342 7.052042701 6.7705795302 20.422868024 19.979925692 7.7913704969 
7.3188785216 7.0115826985 17.950456552 4.591477609 4.6425763754 4.3719162088 4.418642162 5.0535503621 4.926979377 
12.02489971 12.306704327 12.268017748 21.319395081 11.652650875 11.423810852 27.557666386 9.5593517693 9.1234608347 
9.7120050527 25.867512749 26.312443545 6.5901044473 7.4792571299 12.064757409 7.3739549382 6.5488265284 4.7943377746 
5.7405644932 26.175632487 25.642327087 25.229626723 26.493038998 24.344605142 23.684143411 23.539468091 26.863848101 
26.261891696 26.942827198 24.051885406 5.7841541647 9.2987561186 9.8330329229 8.6996570394 8.2553587685 7.992659734 
8.8877101802 6.1016312756 6.6392596785 4.607407309 4.5776257482 24.931010458 11.637525009 19.663309103 8.5902303251 
5.9151974695 18.856287103 7.7526347706 25.114756552 25.263004891 24.934935686 24.157088481 6.313175489 10.681788777 
11.175645134 18.468611792 18.169073507 5.1934820015 6.0075533636 23.204143785 10.24981813 6.0446715266 9.6883173813 
24.270580059 24.868879962 26.744585693 26.079227496 23.612537233 22.48389654 26.838720249 26.901528773 5.9307416474 
25.958297276 26.735873367 26.237267941 9.2800398168 5.3705395948 5.4760021529 5.598729503 25.479537266 25.576843342 
6.561565133 6.0007691126 24.658245128 25.332728041 25.756022099 24.515882857 25.309806644 25.631207316 24.961793496 
5.5642662638 5.9051117354 24.706150526 7.1954974117 5.5517353142 21.816276567 8.1817842545 8.8543977813 5.7280835144 
7.7068499803 32.411671459 0.8752150433 1.6157861238 32.028859763 31.645957567 31.129849619 30.630147557 30.08006646 
29.496409612 28.845480908 28.210775194 27.44179831 26.722212408 6.5630016637 6.0192604028 5.4284601116 4.9066891374 
4.4074369007 3.8856030015 3.3806249623 2.8376884993 2.2549822445 7.1658814937 7.8136405371 25.867894861 25.079642834 
13.975014105 13.176184649 12.353108029 11.576066932 8.4822745132 24.206668875 14.86995534 23.215442312 22.123030796 
20.948319009 19.94462514 18.781553029 17.696956913 16.693411857 15.740283487 10.674989334 9.9088537503 9.2019910514 
0.87625050545 31.576657053 31.215890184 1.6174256783 2.1841642549 2.7597366978 3.1960619688 3.6953413084 4.0616364469 
4.4956947603 4.8646921787 5.2989471429 5.6312009066 6.0447497144 6.6792438926 7.0337483907 8.026798243 8.4157576716 
8.7072384791 9.0545440649 9.6397144943 10.003776838 10.313337877 10.695370487 11.670246031 12.063276952 12.681690543 
13.0690927 13.384636003 13.793674321 14.114215839 14.514183075 14.870416405 15.307137667 15.983121283 16.410342146 
16.759687907 17.189443421 17.540198436 17.954779736 18.289428802 18.734485264 19.429172089 19.851113129 20.176177405 
20.574405487 20.907352716 21.325725234 21.650546553 22.030626918 22.682703464 23.101937985 23.449709052 23.814140095 
24.122290147 24.507189387 24.850951641 25.243453665 25.563474854 25.947699242 26.28877578 26.695165774 27.373990526 
27.804226388 28.140617166 28.575228898 28.930913143 29.368981153 29.727176088 30.135221037 30.494991552 30.888055579 
7.3150601914 7.6926647975 10.980071428 11.367049551 6.3783726183 9.3467424683 12.371315375 15.63645334 19.098602157 
22.364579443 27.009802068 31.917225364 32.748610916 32.718905025 31.913483392 31.909952245 31.904504561 31.901242723 
31.898829792 31.896283731 31.894993385 31.89425786 31.895654519 31.898805572 31.90283069 31.909770109 31.91652774 
31.926863862 31.936432257 31.94935049 31.977130975 31.996881551 32.012473711 32.034717844 32.054465556 32.08129487 
32.102306323 32.129382512 32.174880811 32.205633368 32.227117336 32.254797563 32.279384461 32.310254806 32.337316912 
32.36739793 32.416765557 32.449358173 32.474552165 32.507354284 32.534201379 32.567545914 32.594009827 32.627298699 
32.65579256 32.68735977 31.907265507 31.894451794 31.961522713 32.150951667 32.391020917 19.443742266 19.265034224 
19.078554944 18.834791861 18.609792923 18.379043123 18.148592474 17.90203269 17.660980355 17.398548604 17.178411946 
16.940611759 16.703407983 16.453381174 16.214005348 15.968991313 15.751180162 15.512514651 15.295458303 15.047731218 
14.830580194 14.594346213 14.19876728 13.997230788 13.805752335 14.402983948 19.431263334 19.259056587 18.85488765 
19.071189455 18.384578795 18.626575382 17.933719676 18.165955992 17.502187203 17.714841346 17.047972878 17.268900204 
16.61300889 16.830005145 16.153886811 16.395985553 15.688983867 15.922290392 15.223576713 15.442344648 14.772219456 
15.000350537 14.379597671 14.572561882 13.981370829 14.168854618 13.819278742 19.565155546 19.523396427 13.897676835 
19.369900807 19.010057486 19.202298649 18.56488299 18.793937528 18.11926112 18.337627886 17.902665493 17.428568965 
17.660962962 16.990459376 17.207782827 16.537264864 16.753957349 16.066622339 16.297982031 15.600207047 15.848653257 
15.159957026 15.383254025 14.73758153 14.941044473 14.112694386 14.331023132 14.54100547 13.67927115 13.71043292 
14.835197265 13.992927627 14.178000764 19.424325133 19.252852532 14.599548541 14.405452459 15.788808031 16.103155981 
17.481217073 16.948871792 16.731341067 17.185909186 17.681542994 13.81363764 15.433055307 15.213398699 16.585206196 
18.595361795 18.146602782 17.935614107 18.364295323 19.066233688 18.82283981 16.264527777 15.651766951 30.618100076 
31.082977778 30.578340224 31.043210879 31.38629878 31.359745 31.803104996 17.873932305 30.54271429 30.966975704 
30.49836365 30.921849854 18.115130841 18.159248891 18.397530061 18.098192722 1.485601547 1.8897189746 1.4993713085 
0.83045064725 0.53001005549 0.52580966562 8.055596181 7.3407044613 7.6278935863 18.344181495 18.568237393 18.216485071 
20.123204369 19.843325363 20.324364618 30.837001078 31.189236133 31.238575951 0.23544537383 0.57777764464 0.25676473689 
31.187487203 31.571683726 31.16620455 0.19512352013 0.1976328336 29.426838967 29.235997267 28.801256747 1.2352304231 
1.2299937603 0.87477028028 16.139782254 0.20075580976 32.114413612 29.598664205 29.185526981 29.692962831 29.280709928 
0.7686880042 0.74625061922 0.30409955217 0.31030820676 2.2836334598 2.1869456769 2.7014095179 2.6037126989 27.781086649 
27.950155362 27.609590867 26.057741616 25.529675587 26.211993833 25.680504544 4.804289672 4.2266312351 4.2436232064 
3.6260871266 7.1651792549 7.4919111544 6.8165906225 7.1485498603 15.979431247 16.236701116 15.921539389 2.0085021779 
2.0207665739 2.4148301292 0.8288339049 0.82755247649 1.1815031659 16.184696322 15.845183388 16.493042286 23.936805872 
23.117092109 22.984158158 22.170686933 29.639131057 29.583445765 30.0205509 25.282736696 25.128389271 24.787575103 
24.620470015 16.416347743 16.098015823 16.112256408 15.787329006 32.055405392 31.652824974 32.077849635 31.675430802 
28.785532223 28.422593952 28.327660028 15.264045015 15.312215984 15.588457151 2.0341273636 2.4482094237 2.0296693159 
16.444145108 12.813613458 13.189685012 13.020659889 29.524885052 29.099147722 29.038793938 22.03623602 21.796152752 
21.554196362 29.628886907 29.195207301 29.619055252 29.185653367 27.474698875 27.627264779 28.054897342 11.123805718 
10.723783347 11.220662042 10.817016252 23.332582593 22.94703888 23.114560245 22.725346203 23.681297357 23.82184581 
24.073614695 17.679094523 32.002124278 19.911353118 20.396547172 20.138053379 20.665515683 22.057635659 21.876037308 
22.66239291 22.473391482 30.889815119 30.430158103 30.873597651 32.025185403 21.502614946 21.183616809 12.965556592 
12.617424288 12.335014741 21.955740091 10.648664874 10.237339009 10.502984953 17.269709723 17.104234266 17.597939177 
17.434660264 30.507636117 30.492982332 30.940988901 1.5746696068 0.73425764313 1.5998220106 13.402400165 13.308476262 
12.990868102 29.643086016 30.104026979 30.090592298 8.4597723751 1.8764697527 1.9086107387 2.2796177091 16.273858799 
15.926385561 16.141221658 13.937155313 14.02824882 14.227802443 14.314336709 1.5245706568 1.8958200034 1.904947977 
2.2867446132 2.2922231302 15.796370615 15.458852784 16.740616589 16.404670651 5.5023034167 5.1051272124 5.0619094211 
2.7883975175 10.514760679 10.903995688 10.646903501 30.825338534 30.383439125 30.816061567 30.374989091 28.00792963 
27.581827679 1.0113017877 0.68040690379 1.1482443567 0.89329254481 0.55673774227 0.56456917449 18.118892654 17.832134539 
18.643825178 18.357324276 11.605268828 11.81772321 11.924808006 23.457592951 23.593481924 13.021619441 13.235525341 
12.854024597 31.367220812 30.924011846 31.335709975 31.508144823 23.244476231 23.073209001 23.606622343 17.606171965 
18.765509413 19.108049145 18.902877293 13.518656613 13.25687695 12.970429854 29.581961258 29.597673648 29.152430022 
19.432129228 19.315915634 19.102328276 6.4001714211 6.5398875446 6.1178407363 8.6902828266 8.2985409044 8.7665080456 
8.3698538074 27.205156563 26.849044008 11.465641419 10.659095836 11.059695057 16.400969139 16.421988776 16.73240099 
29.513512738 29.164456551 28.930949688 16.611486261 16.691086062 16.3838876 29.139334964 29.110101809 29.529146609 
28.847617389 29.811378885 27.468257644 27.623491263 27.194892437 28.411419741 27.949315184 28.079304272 27.615659318 
30.53307191 30.512800863 17.594330293 17.846651289 30.934458315 7.8325530279 7.4484401786 7.5147420097 5.755257857 
5.3129313661 5.784736984 5.3431764554 11.169284057 14.808318195 14.402452369 14.668463348 14.262956947 1.5567234129 
2.0299651014 20.447242374 20.078022901 20.43681263 9.1289726746 9.559845039 8.7640298296 0.96152682492 0.58525336844 
0.57950518853 20.140319819 19.774838183 2.7361859481 2.7735000739 3.2377699382 5.5346112849 5.6225841586 4.9457071357 
13.477865645 13.807315643 13.692620168 14.01621102 28.53469928 20.136367693 19.54929463 19.696881531 27.047909686 
27.605499749 26.647091323 27.205571584 26.28283288 27.013966221 27.196176878 26.815579781 8.0886310922 18.846521677 
29.721052623 30.208494403 29.744406403 27.507391228 27.937690082 15.319888857 15.570104375 15.742856214 4.7862512778 
4.5878722504 5.2546542835 17.962386468 18.234478045 17.851660347 9.4967600401 9.6610127643 9.9277390343 31.308286377 
1.7624703106 2.0174924526 1.4854854773 18.091492554 26.999969865 23.571872145 21.964026366 21.11206096 21.319593497 
15.135865508 14.786331458 14.866916557 18.748826458 18.881152986 18.485630518 1.9786767412 1.5793179823 1.9994527501 
1.0814310166 1.6117222299 15.048800558 14.776391217 15.193930724 18.362039345 0.26161026631 0.65274158417 0.27375793893 
30.959192239 31.256690338 30.669561457 31.260912381 5.699789447 6.0325415067 6.1018004613 6.4226790404 1.1916343664 
1.1751492172 1.5231430296 2.3160571654 1.9669374172 2.3324421273 1.9799816782 1.575931466 31.749458942 31.775522428 
11.93613564 31.468329464 31.437146965 31.11412433 24.321236104 24.174710099 1.6693236388 1.6753434012 1.2932025625 
12.130557769 11.791745245 12.228429459 31.333173784 30.971489195 30.538706268 11.460417313 12.736928382 12.524374715 
12.404586008 13.510903041 13.189702395 13.157520014 0.2551874545 31.638598677 31.306540195 4.0464180323 4.2752573397 
3.7272359534 29.528162013 29.104455738 0.24937113676 0.21696883493 0.5585438337 25.410410742 4.8935504317 4.9078593809 
4.5433764421 27.597112216 28.037582407 27.402059345 18.707139518 18.755765403 18.474732639 31.21638833 31.568162737 
31.205380307 29.045374109 29.056249255 28.581957458 1.3015955488 0.92728594976 1.3125858217 18.077968663 8.3582818236 
7.9284818489 8.2763646087 7.8414652772 13.517192834 13.087530392 0.87888822706 3.4128277168 3.4409724713 3.9779803608 
2.878002178 2.8678398046 3.2814824594 2.6367590876 3.42522295 3.2636336244 8.9316365121 7.9629506939 8.5010376107 
22.596974138 6.4165458624 6.6750471337 5.9900594549 24.480757634 0.96153637521 0.6074427948 1.3185024178 0.96460355467 
7.4584629975 7.7451427962 6.9162942808 7.2255056784 24.890181022 25.930971175 25.565043322 10.207614375 10.087648669 
9.8252320293 17.0136216 17.404523253 17.185472007 28.834727394 28.842126106 29.348084068 5.4529597615 5.1076155205 
5.4455788206 5.0890479691 14.690580975 14.946736977 14.669374624 14.92328964 16.231736015 16.009814376 15.790097905 
6.0764127628 6.8002111518 6.2250420562 9.9268320936 10.27193793 11.199726026 27.320565236 26.832514535 27.145871314 
14.92556168 10.41430723 6.0686761845 6.4350910653 6.8412131177 1.4916742387 11.716639566 11.307500685 15.84620488 
15.833292876 15.50057167 24.383635643 23.844619417 25.003317644 20.928390769 21.161247631 21.067330116 21.298590193 
28.691949854 29.1723908 20.734918559 20.956908883 20.475771805 6.9514631209 7.1812412995 7.6361274027 20.065711594 
20.28971136 19.945877162 11.963635577 11.775641348 11.552279037 10.161850907 10.770665026 10.606945324 11.150819124 
9.732686338 10.346653976 17.908690648 18.211132813 11.698612631 11.328709173 10.523648252 10.035060816 28.298355824 
27.803217399 27.724233592 20.564497672 20.686662009 21.448990002 32.113594601 31.806141448 31.720967268 17.207197199 
17.338602983 16.854992554 16.989103142 21.440671962 20.419867601 20.751177224 30.84140082 30.499473273 30.928690282 
30.585940081 1.5847971061 1.3573851205 2.0492482797 22.480869909 22.921949082 22.367562898 23.808351099 23.359218382 
24.102155272 30.855232223 30.837205443 31.200592996 31.183435047 4.5578865016 14.365137358 14.724513269 14.673735195 
18.590672109 23.198573713 23.610304549 19.763383706 19.180649845 18.712751589 31.016838597 15.224284831 17.162526612 
17.039838651 17.570883246 17.450327179 14.998347638 10.334403323 9.456261596 9.8766466322 20.13394098 20.019350541 
20.454034789 8.3230971986 8.8030437973 9.0826998794 16.69582728 17.028334051 16.936024134 30.119426021 24.249442848 
24.541660129 11.10917464 23.064833525 11.780958156 12.171670285 11.395423415 11.78489054 7.3935586656 13.525768794 
14.300472802 13.715868138 27.084127642 27.609365419 27.262772808 27.787141377 3.0400386016 2.7074326826 14.520852645 
14.645271635 14.888667532 27.024368781 27.231726543 27.589031269 27.796835946 15.814945326 16.124717971 31.510054405 
31.57411241 16.593390725 19.00387773 19.268276155 30.864924435 30.011620195 30.374979687 30.248850808 27.176471174 
31.865980643 31.971460108 32.318488345 31.876391628 0.7098273645 1.0506486056 0.57810944552 0.56679480074 0.22719249546 
31.828491549 17.944581561 17.723876073 17.553475159 6.2091656413 6.5778316463 6.5245762967 6.207140968 7.8884888806 
8.1528328916 8.2118756231 9.5825447981 9.0375538505 8.9104208056 8.3635989585 21.647205473 21.738615653 22.053436913 
32.449990563 32.479902653 13.551844739 13.349489462 13.18427329 23.391216274 24.114872245 0.25469530709 12.207089453 
12.357739699 23.067406211 22.84524413 22.68486807 22.459159357 4.4530509922 4.4134644578 4.950662444 24.361399216 
25.03743216 13.837912996 14.032512211 13.636291069 31.158614922 30.814313377 31.163072864 22.578049928 22.180480741 
22.303041963 32.302237989 14.139261545 22.957130121 21.665384697 22.184060379 22.996964697 22.74480283 22.200605662 
22.755406702 22.217000542 18.482559754 18.552296425 18.015762265 23.929823837 15.767394808 15.421617651 15.498121761 
15.1549243 14.994831391 15.129319127 13.362679138 13.054238086 13.564587149 14.705025699 14.372107329 14.500873353 
4.0001005551 3.959820748 3.4231714497 20.306961577 19.89107366 20.134017397 19.717898046 16.054127657 17.062670727 
19.823454624 19.636029582 14.82739235 2.1770435378 16.669406786 2.704478367 2.4671900586 2.9818139347 2.8399385144 
2.8065411217 2.6362513239 13.791270569 13.608544061 14.103177072 13.914262522 27.061519682 26.632970115 4.872543641 
5.4190490495 15.517603182 8.8502717715 9.4831301336 9.1153848438 13.184024011 12.645729692 13.050580696 1.885296983 
2.0571623165 1.6456911322 9.2998718976 9.935637842 30.298109314 23.712038223 29.930464515 30.331600385 30.096306496 
30.618209796 30.90486971 30.412394795 25.998362206 26.372260379 26.206268201 22.468404184 22.621103853 22.13712915 
22.285758034 10.591636715 10.984247399 10.479233024 10.869154804 8.6965239056 8.2204389804 9.0409615664 22.837077108 
10.767076926 8.540338909 16.460758101 16.740636897 16.404602963 1.3704428945 1.7568496849 1.3860313407 0.22160341844 
21.612018274 26.094830781 26.284538041 26.483344302 1.0194733617 0.96212137411 0.67124947009 0.62067891926 13.256083265 
12.693084132 12.601929928 12.434437169 12.175854206 12.404784479 12.864618301 12.753292555 13.209767296 5.0088352481 
4.478396174 23.151745951 23.660193414 5.8277110089 0.55568347321 0.20096511013 19.737227336 19.636728126 19.451955128 
0.5599406475 0.87214531497 12.161375888 11.772813676 12.217432758 30.818511739 19.708040072 19.542040651 19.414845287 
19.8351415 21.944592493 21.443800187 21.714801549 1.2637201753 1.2790204751 1.624117786 1.6446478979 11.952273612 
11.398866452 11.477294728 18.074611469 17.918156167 28.113031089 28.335618441 28.004431211 1.2007487659 1.5452317081 
1.5576092172 12.928584994 12.58671048 1.2457054004 0.87684180363 30.732705278 31.164777817 13.398769758 14.202196541 
14.314460595 14.404125405 13.199510519 13.228012058 13.767418441 13.525630619 25.431945513 25.852898159 25.572448228 
12.506548538 21.029852335 21.54803641 26.638639354 25.919521775 26.259640922 14.941844515 14.599168312 15.039650198 
15.306601104 10.55489592 11.331199864 10.885493195 14.780161255 15.137171871 10.596262943 11.359493338 30.092428743 
6.1202125885 6.4549685685 28.214542104 27.682894521 28.270830681 27.739380706 11.933420728 11.73820922 12.313564196 
12.133059144 10.25476963 31.282507785 3.0729764764 3.5679769681 26.960427886 27.519538981 27.020686266 9.9799045375 
9.7116454411 10.282494134 10.017722847 13.001508235 12.596979748 12.696367185 19.568749345 19.368381721 10.198237015 
10.935544345 29.559978102 29.547612677 30.008598363 16.080680373 16.055968123 13.168775545 13.31181348 13.520562849 
30.380470547 29.986306704 29.988480888 31.517519361 31.48267707 31.003203429 13.891809108 14.016800951 14.30170734 
15.7543832 24.335660889 24.555147268 24.18566925 24.400061389 16.250607707 31.31996688 7.1870928146 6.8584891181 
7.1411014621 6.8093859745 31.859131719 29.916458504 30.181197345 29.715610225 1.6570751508 1.2893944037 1.6558329844 
29.596431111 29.97762105 15.946034673 15.551349943 15.886431313 16.729536256 16.999154604 16.693462003 30.464623184 
30.846648537 30.435061872 2.262824863 2.5379253884 16.81365833 16.702354044 31.54051662 0.5484887479 16.081008044 
15.654037819 15.520929551 17.644554977 17.936662426 18.025836408 11.519338815 31.607110096 31.23227883 31.262341869 
5.8479777058 6.2243218984 13.807529519 20.570049744 20.8592085 20.585234686 7.3914720306 6.2894910706 14.428177498 
14.277658332 14.085294782 13.968795031 13.835687827 14.218191942 13.923274993 31.850100652 32.268557236 18.320284643 
9.2306158661 26.679507943 27.20254719 27.388181686 24.381744084 23.897866301 23.50483866 23.02242418 8.3699620794 
29.849877061 29.837200489 30.344777641 30.332046544 11.634281255 16.434050182 25.614948898 26.039043083 10.322491105 
10.000437285 10.154635565 0.19302665219 12.567947189 12.643183192 13.042468624 13.114271588 13.515270028 21.897783797 
28.141202773 28.509010447 28.372803372 28.739639704 23.188414011 23.365314068 0.70504689171 0.63223991128 13.988868673 
14.183297079 13.644759688 29.960241581 28.243960694 28.712841516 28.696879935 14.403479162 31.244110709 31.227317237 
21.263220871 22.271668335 21.871492481 23.96464145 23.690289258 22.966196156 21.206642106 20.613593926 20.79729085 
15.702034332 16.000712721 15.942526485 14.323826974 14.545512538 14.116572917 13.396232942 31.599418848 31.26123859 
31.56067584 14.647896911 7.5724663036 16.754362598 3.1520253193 0.27914577054 1.0318317997 0.6793885005 1.0426613838 
10.546969049 10.41472996 9.9082769798 2.2896700477 1.9189478046 30.560433074 30.169859526 30.147661865 13.980693437 
13.552732061 30.400998661 3.4144980239 2.9739541793 3.3843603086 0.85214532859 0.83354589483 0.8296233877 0.54603009432 
0.89105456323 16.62636815 16.863065362 23.2337485 23.552820534 26.882276504 26.169274439 26.866383434 24.345196179 
24.5296194 16.452215438 16.786635394 16.524312955 20.635814723 18.925432156 18.86468045 18.651027212 18.475559883 
18.082566266 29.750225109 29.548200111 29.889818383 18.352912711 3.7912757611 17.291844917 17.380135555 13.144508332 
2.300776956 2.3378828257 23.791497867 23.272202571 23.638112284 12.416877363 12.109981829 11.868347063 31.168041569 
30.822428565 16.673246651 17.00267193 16.857460094 7.9430665984 8.4167551468 8.8743108662 8.9157849281 9.4397011654 
9.4884668098 3.9389748673 3.806919992 4.3238920453 4.1925484117 30.851922696 30.830627858 24.171128714 24.448878503 
23.838989008 24.119875514 2.6496861582 3.0315462381 7.0381595393 6.1491032859 6.4565277389 18.754524472 18.635037135 
18.286112273 17.956753377 18.331050158 14.071096751 13.843395533 13.729236594 13.824769851 14.117948068 23.578160176 
6.0490631282 5.6272400316 5.6838427425 5.6796445025 5.18736522 7.6439492681 7.3118243593 5.5416186602 5.7228394615 
17.809492957 17.56939082 17.54989778 19.547662116 28.538969164 29.109099536 28.993132267 28.529462148 28.053359076 
30.418650853 16.958157063 16.551448094 16.832878715 20.554192002 20.658673005 20.144909253 20.260406029 10.962652342 
11.390540752 10.464976863 10.893751071 17.285812599 17.00122441 16.991947871 28.66171287 28.631149055 29.121206517 
10.740451517 11.173634649 16.96508449 16.759685378 3.7002821506 31.731996451 32.135135785 31.70025078 14.625918 
14.01369119 13.679905421 9.3318910455 8.9311593028 23.216153883 21.222329643 21.308928841 31.412166378 27.759358657 
0.19759634533 27.153206302 27.136755056 0.24493735747 0.54116635411 12.476268671 12.840686301 12.82173683 1.9347959709 
0.54085075465 0.20008454235 0.54071471584 12.79454875 12.173019469 11.452854185 7.7290568169 20.096188341 20.401494243 
19.988744463 4.9331058398 4.8625786125 19.653386421 3.1446627423 3.6393735481 3.5943869999 4.0953070527 4.3497410667 
4.8988270537 5.2834553779 2.7722283705 3.2113970596 2.788162043 0.29012297816 20.097416992 20.12875302 21.391082109 
21.103028433 21.499690613 21.146142779 20.720753209 30.381435501 16.372105749 16.68212883 16.391745504 15.780421252 
13.813901998 13.521204224 2.4497079776 2.8852816821 20.31197621 20.639803626 16.18458032 16.173248945 19.627187248 
20.053021909 16.864530945 17.111048395 17.160206367 32.11017161 27.454545523 27.438818499 28.895824295 28.851189926 
28.468553066 31.421449352 31.444504336 31.777375996 15.320423756 30.632538189 28.51268242 28.954560141 28.713205143 
8.7811287483 8.5320608604 21.793462627 9.0215466733 8.9237791803 8.5970788941 9.4104869343 10.179688453 9.7319144971 
8.0465094867 16.359751272 16.090909857 7.5302576642 6.7097297238 1.6177405035 2.0229054588 1.6145922944 12.212837475 
11.895526011 12.325788392 1.6024058403 1.2440519351 1.2351780195 4.7526654847 4.3866028387 4.2314588569 0.26444223282 
0.59232003324 1.6704268591 2.0934256798 2.0453045195 30.035418042 30.302657564 0.90858209448 0.89512615886 12.040247059 
11.798269263 11.69616568 11.451398445 2.9383944858 2.9559644906 2.1022365726 2.0983831192 1.6570224824 6.9774660318 
6.8903764779 6.3636065151 1.9438784847 2.5050412767 2.9822148091 2.0820666247 31.576775219 8.7378032687 31.405533858 
30.962172074 14.253028659 14.58544448 21.910392255 14.613210928 14.506802205 14.17192617 14.012475524 14.221089927 
7.6018689026 7.9642307556 8.4596511497 7.6884708785 8.1967196848 1.2928534584 0.94180065628 0.61120651562 11.503334627 
11.142402825 10.956819971 15.488565008 15.796922266 15.476821065 5.3350858841 28.704860796 14.428075444 13.292746096 
13.637304592 5.910212657 5.5190453938 6.0058078139 12.880939229 13.248262871 14.396676766 16.070376433 16.13861459 
15.81919068 30.625954703 30.964712991 30.657383994 30.99585718 17.115505346 18.183071275 18.578604765 24.685794274 
31.838319116 31.065346398 30.591561291 14.445478239 28.534674345 30.066660576 15.463203504 15.388012817 20.596865851 
15.722412625 21.102771733 21.324061337 16.204517373 27.753035854 28.206450874 29.636245566 29.615819094 30.082860321 
30.062597919 26.699731369 27.324628758 27.246427134 11.917200894 12.285335171 26.536385001 27.243967968 28.434141665 
28.543646333 28.929729326 31.167759591 17.20471664 29.339563344 29.659117525 29.995336197 30.333571438 29.880707453 
29.891666079 1.1810839893 4.1787186376 4.1785270977 13.838676099 13.487646734 0.9124353961 8.2620078683 25.732359777 
1.247293053 1.1294561548 2.0888950677 1.6720026443 11.839969257 11.773840146 11.689865213 11.464814459 11.552357978 
11.355553371 4.8243140703 11.608274221 11.206196949 30.207515674 29.672751614 10.965670351 14.835063817 15.040332801 
12.878151935 13.344703635 11.135444688 11.500956955 11.670157055 21.417703898 21.010943789 21.506550135 29.053231861 
29.396808089 28.960775275 29.333339477 31.169797415 31.165491258 30.816421125 13.057626317 12.702235372 12.957703588 
11.974651086 12.295368742 12.426493344 12.782618643 14.249174789 14.391186196 24.33242622 23.999872019 24.431663905 
0.53084557019 30.711480415 1.1686401129 9.7862182329 29.527967142 23.467800328 23.009846084 5.4153062492 22.604893118 
3.8865548569 4.1774179992 4.2962769789 9.8926480132 10.310207564 12.858291222 14.905490468 25.846258504 25.650369636 
26.174600561 25.977357171 26.673021445 30.375481067 30.774497345 30.029524102 30.040378598 2.8484017436 3.3301785738 
32.350482398 2.1269609674 2.442156858 23.105381855 22.580703316 13.948375384 14.582081903 14.251579992 1.9822792123 
2.3837021504 2.3663223729 2.85526274 2.8332928217 3.6959108378 3.2046736957 3.6992277328 2.4243912524 2.4437935046 
22.414820894 15.244031913 13.138530336 12.723298231 12.888300527 18.376048346 18.605588648 0.28573824003 0.26989056216 
0.71437270561 21.979295854 22.507022242 18.489294529 18.724064659 28.083914342 27.574670604 28.030624114 28.578312944 
29.107762152 29.537752349 1.917351668 29.211315133 11.919598283 8.0899556698 11.291273215 30.224228993 8.7847419613 
8.3920443779 28.552508474 28.574076662 3.2542631137 25.874038934 25.54031369 20.459058937 20.003527707 25.377271158 
20.952721545 20.94647406 20.657013551 30.973003745 7.6697341071 7.3589426208 18.549113691 18.130952632 18.405750755 
12.724969876 0.55006895601 0.24469627556 30.529667667 28.28833717 0.20586822182 10.164403453 10.543831999 28.736035873 
28.726786668 0.87306230214 31.575240232 2.8297594908 30.816454352 30.785523086 5.8847859222 5.313223498 2.7630736751 
2.3327457146 2.8058596733 0.83818924511 1.1894084046 6.9535290987 7.9874716212 25.211826049 20.430335027 20.641654164 
22.619274042 23.247877277 27.227285953 27.032697954 28.066168721 27.913221035 8.6508327305 6.3855043926 16.696630562 
26.525681628 4.2963404372 3.7838942548 3.734780232 3.4778984778 28.240971312 8.0393045022 8.4537246623 3.6586047242 
26.652563567 25.915637529 26.535268887 0.20556349065 28.486002211 27.993199853 28.010169367 16.454258184 2.0315751844 
27.412285273 4.1209354582 4.0767037308 1.58495854 8.474251259 8.8825108223 6.7445893721 7.0630155175 26.108701833 
25.898255153 25.713391945 25.508079178 5.3517398932 4.9863995455 5.7574593858 5.4027695721 6.7146913694 3.6568972264 
3.16320403 3.6939218291 24.583878848 24.089262318 23.402856605 14.674724834 18.068084152 17.536523111 12.479601029 
12.838591292 30.648267967 31.143647655 30.677759268 14.329669696 14.651463798 14.356875503 4.3139389895 13.632459826 
28.66414209 29.147661747 29.194385847 14.072614348 13.93028003 31.660344452 31.395546125 32.070791163 30.270205854 
27.867980078 23.613575129 23.415214151 23.18665386 0.26691673378 9.7911424482 9.5249116344 0.23342017528 21.043007026 
20.821162047 20.531989778 20.401132734 15.206473235 15.190070526 27.986849779 27.781365615 27.576101169 27.732454398 
7.489848702 7.9239956545 8.8194993334 8.6324038447 20.121775651 19.542286338 19.839671532 10.136446057 9.9922461494 
9.792704961 9.6375426445 2.2118987942 2.0825898045 12.623707219 3.3690868933 5.3247825371 4.7329945072 4.773371916 
4.1586098486 25.047012503 25.233910167 25.818479261 25.3321995 28.379514074 27.805762908 28.722057978 24.048059673 
28.762441935 29.215211647 28.615016514 28.230470283 28.618508811 28.224169268 30.514609026 30.404041743 29.019032491 
28.948238714 29.487373606 9.1372759343 8.867989768 11.700168783 11.120869662 29.157608324 9.9181270744 9.6755032069 
9.5113191876 9.2637957878 31.811323949 6.993883348 27.589920545 27.42018889 27.759460806 5.6748651071 5.0799180271 
2.1139646063 14.957595883 14.55082427 27.592243077 27.974203569 25.14758969 7.3471554639 25.301678791 19.68775339 
19.816183657 25.020305807 15.486818988 22.657179829 14.816241601 15.74448238 15.20549401 17.608790832 17.902716798 
17.53437103 19.263908427 24.587703846 25.524031192 16.165247465 15.621132033 17.3083606 21.392128249 20.838842932 
28.780285046 24.68670312 24.951414087 25.141605989 29.804141623 30.238646745 30.298357045 14.319549212 14.704513317 
21.249503292 30.571588254 30.162914001 30.248333639 0.34139315567 0.99818348454 29.815570104 30.092046408 9.3994635982 
9.7280966332 22.088463499 23.017338978 5.3269656452 4.9676765975 15.045129658 16.875923269 0.69838306038 0.23113808579 
1.1663959749 22.963428185 22.558750592 19.545940625 19.193091981 20.828544877 31.577236396 31.574147066 24.940914189 
24.581002813 24.680591322 25.013194191 25.571344484 26.132406012 20.859167611 29.718870825 29.61809594 0.82826913414 
12.474707595 12.774005058 12.366196485 1.4819965432 0.24761990866 0.24620303261 11.14087494 10.742396957 12.93551353 
0.23610481357 0.53143613244 10.675875716 10.840108241 10.416715975 1.5253186766 3.5227839769 4.1837213119 4.2307795482 
12.612132431 12.407910275 16.050883789 16.331342181 2.9859988507 2.2594891431 1.5154824944 1.8616786482 11.822816059 
2.5131224401 0.55612985033 0.22102799938 0.54630697185 0.54935479338 30.560952898 3.2743319295 3.1250452618 2.598775635 
21.65638855 21.313895059 30.001248584 29.992374832 4.6162006818 16.533461383 4.71422815 31.169477959 15.705677063 
20.480087307 16.327387039 14.84915301 15.430997105 31.583869978 8.7112434059 8.9791712085 29.215097118 12.045493693 
12.430762168 9.3180017945 9.0819462742 9.4806036954 3.7953584417 13.661796012 18.373974333 18.514068236 17.729260988 
17.849770646 17.311952607 0.52766182749 0.23684440566 0.52318723664 0.6370952075 27.235619161 26.804012665 26.349581161 
9.4077131311 9.0448347951 25.675276723 26.645481325 26.438950155 17.400126722 16.107876139 25.559918636 19.130000837 
19.266429296 21.012125143 20.757988572 20.870390604 20.644781378 25.745458336 20.391887974 14.41960503 21.913400815 
21.787972229 9.5932151122 9.3010285789 31.556088502 31.614914682 31.273789635 32.257079617 22.842489694 22.590623226 
19.846000757 20.171364493 19.705646747 18.616803314 18.150709216 10.737518742 12.857078194 13.261189012 31.611191849 
31.606854567 8.3825865882 0.87968233768 0.84903688327 1.2096079644 0.83969300787 1.2028950045 18.612906467 18.957271554 
18.827483377 2.053104246 19.977933818 20.284884819 19.138585145 18.71216921 19.189381082 18.768866305 17.032040035 
21.396594659 17.288214099 17.565645433 17.33852866 17.745774048 17.617115198 17.873583253 31.659018368 21.388907423 
20.866669022 31.214094991 6.7502166332 21.13017573 21.305019183 12.737673124 2.7768026973 2.364818086 12.206220869 
12.54871657 11.449363659 11.557430468 13.662169565 12.051518706 28.382600856 28.179192424 28.580034698 12.754884707 
2.1642947022 1.4023649079 2.7089061162 1.9823883026 4.6745493965 15.558725552 15.645268031 2.9105774162 2.2757839863 
30.87386438 1.7754541209 16.563148455 4.5578214037 6.7423273781 25.379851279 23.617061028 23.977759947 13.007452821 
12.676026107 25.004658745 14.665207481 15.44365531 30.427892752 26.191749822 26.569855991 13.433658782 13.530937059 
13.097886383 11.085389553 3.3697485446 3.9251502655 3.7946890508 11.995100585 12.47492677 12.821273484 4.2249882678 
3.6615896934 4.2353115092 3.6737629167 26.227546568 25.859244982 26.891908685 24.448635648 24.517742248 28.472797732 
29.948233152 1.9657676336 6.3538295257 4.4876270584 2.8972094265 18.907876704 19.568809604 19.292683652 17.316316694 
17.654657418 28.621495651 16.30496291 16.554498585 19.998870582 28.725882694 27.950180279 28.380397664 29.919546535 
29.480446729 18.207744607 14.468578697 14.10379338 32.197279684 32.071521843 31.761248821 29.293513848 28.973523465 
6.9844173844 6.6602568128 10.873026416 10.465939104 10.144804469 8.6047904707 24.020475373 30.017866119 30.040622668 
29.591271549 12.58453669 15.156776275 15.432027344 14.665781254 7.0586964958 7.4711541311 30.998647685 31.016185589 
30.445283399 30.056636053 30.478243601 30.089225752 9.3625604758 9.3912190101 7.4029871567 18.083675543 18.075602474 
17.82649555 3.9264450159 17.293400724 17.549796459 17.263893584 13.765182609 14.097023279 17.5664314 25.118134808 
28.628534744 6.0801732166 28.983550084 29.679293319 12.934299824 13.679858793 13.476616133 12.265441433 13.41388259 
19.857892234 29.679425685 27.390170654 22.969317975 30.154892283 27.192510861 27.006448731 26.267745189 19.283237261 
19.155951352 19.555978538 16.334127898 15.741990907 16.269994039 16.919202158 19.430945046 0.24499609667 3.2452996961 
3.7728820748 3.7417035424 0.85025918917 0.86230092268 1.2256810043 17.629711692 17.348046795 16.895998108 16.826303249 
14.597984035 14.883938383 19.728146732 19.184672721 17.061474351 15.21085948 15.204570001 14.922775937 15.829195445 
16.093357306 24.331539062 11.626843778 11.197859642 29.270251268 29.293636707 30.44106926 30.925860629 22.193923342 
22.843443239 27.098819517 8.1104496059 7.7496745155 11.375778966 9.2207286206 9.4227042144 9.1235046667 2.8908797682 
2.3797762551 5.0039312102 4.386361018 4.486209766 10.41067404 10.765042448 10.164221003 4.3171419729 4.6724029184 
9.2195507514 9.6546205661 15.590064018 15.252892684 15.30710601 4.0911532812 3.6877657178 4.0803835537 30.324361707 
20.210494465 19.015458789 19.121210293 14.918153082 12.464297998 19.021360548 17.231256313 4.2586741779 2.4489376802 
1.2263252579 10.957853823 10.469736328 12.557831652 12.172087741 18.24479653 28.081869974 27.578405375 23.761575679 
17.561726806 7.2567153835 20.154625863 18.980958571 5.7983673259 28.173436157 26.752481047 7.9703461682 29.324958298 
28.900829608 25.522191076 25.305592503 26.387134155 21.072893274 21.918599041 30.812766269 30.392033317 15.644671261 
28.387130601 6.2246286993 6.5451540974 7.0624953838 7.432331679 6.7873447969 27.129499475 5.6398641788 5.9613960586 
1.5925795175 0.62706919053 31.011438512 31.167526826 31.162694176 19.107700027 30.824400043 1.4031905235 18.985549003 
31.586749664 2.4889986337 27.817834759 27.816782782 28.225981801 16.804730291 17.071933844 16.216109349 15.283865007 
2.3280448911 18.801206125 6.4653017698 15.135841139 14.849361086 15.122002639 31.491938361 1.2181630387 1.55998876 
23.917364818 5.3961901561 4.6896758847 14.912334068 9.118961234 15.879435293 9.5681394803 29.688633956 13.892356026 
14.178210938 14.502336306 20.679612219 5.014499065 4.4934878292 15.964944056 15.041234896 29.496777909 29.143334708 
11.415278642 9.8239529461 12.227448002 12.022411177 18.594707058 31.500029965 31.943595435 18.890217247 17.112505829 
19.662818845 3.1790107565 3.1844635283 17.107585109 16.547230472 17.815648777 22.34816322 19.647159258 10.98171528 
17.788191489 18.060211044 24.578651006 5.4464366033 5.9490992611 24.641680638 16.277701904 24.804136235 21.96085327 
14.216039511 13.849950661 27.647248665 29.317356368 8.1469445738 8.2388115912 7.8172324126 17.464448337 17.834531345 
17.754534009 17.261699116 7.8867636516 0.56458256539 20.403070972 4.6712986168 3.7908708932 3.5277811356 30.378924711 
30.003145353 25.512758607 25.77291658 1.2217419277 19.401644643 0.21639200162 20.474500414 13.722514539 5.7296497925 
6.5058912088 29.226522705 13.226474326 10.986940777 19.456125808 31.645143807 31.626232323 22.375097909 19.320063496 
19.4773081 2.8192290357 2.2635566567 20.446564895 19.74486883 19.476170492 0.19524702728 0.24162867479 0.24596465073 
1.2101910609 17.726920594 17.916783674 17.59828975 31.220240637 30.392078391 0.31625680489 4.7356915303 0.53476330146 
19.078119613 1.6995106816 31.884272753 21.350578924 29.268432909 2.3406511082 3.8633584326 3.255071758 2.7916534678 
3.3110389399 3.2944440862 2.9358947694 2.7251909768 31.380440349 30.825938386 4.9184461222 12.250958579 11.999984057 
11.072000469 2.3901947512 18.856264174 16.541587946 16.918573595 28.019490271 13.270922456 19.021106244 19.060473494 
18.325607021 19.391836711 9.7985105706 9.4043128946 29.831199048 19.236024712 19.02035362 10.195473539 9.7872784841 
15.279825523 16.230106128 15.886054546 16.480112799 27.39585232 12.196903156 12.546957337 28.80580845 24.939839294 
31.599976763 31.613657671 22.378168921 22.491866828 22.097268588 31.803752555 23.928837305 31.558392492 28.28042378 
29.194798203 2.742846895 28.747725282 0.8954834133 0.92037182517 12.18051553 21.97082639 21.881614189 21.663223221 
19.227570445 19.030663856 16.721579837 0.87483902816 13.309173825 3.2872115021 18.322289272 0.28905684762 5.287447077 
1.9442681312 17.44957066 1.0732427297 3.3126296587 18.336718977 18.573252695 15.962157018 20.927498315 17.385987972 
31.261587701 30.905409595 31.597896959 5.7950302866 4.6154284144 19.156548918 1.6061735851 28.273099503 28.262691004 
1.2844128516 24.803058614 13.588390977 15.02026955 15.257634496 21.439310017 3.4948326135 0.84869117583 2.6578007853 
7.0696820171 7.3957723811 8.5268383563 9.4530794598 14.944551263 1.5269137648 8.9398244376 6.6252459512 16.808109232 
22.831387489 18.054177994 18.280086816 15.000288566 19.384824326 18.714648586 15.756574193 18.144261134 17.688685549 
19.305956286 3.2965945436 26.742743141 12.148198319 12.033590547 3.1864715099 15.652502135 2.4849717043 5.3788551504 
5.0135970092 8.8485478635 5.6834674845 10.981231031 10.76330346 11.264303032 11.749395591 8.4291351179 2.4938143175 
24.912400748 15.075289126 24.152286607 2.0455921762 29.65362354 2.5136977017 7.2015269042 6.7946303267 21.179724212 
6.0233682183 15.527047791 12.135069152 27.045133795 19.053144128 19.478724067 5.901167804 6.3459481255 10.405178891 
26.483812195 3.098003857 19.856750184 1.9664612729 1.5507380967 29.529071848 11.078239117 7.5206097349 26.969178739 
26.747673255 25.089141549 26.62079263 2.7922636199 3.164632615 2.8578927198 22.143784071 8.1879178427 27.369475226 
7.6740834863 5.4412461399 6.1969998511 1.2559828056 2.3961377343 27.019866966 18.566380199 25.063130513 2.0489632032 
20.766748513 20.086576174 20.011232026 3.7910711765 14.667242084 17.341647492 10.01876693 7.0444270637 10.36201781 
21.783017319 23.311286227 25.827479093 26.320820201 20.88153879 11.719580272 26.637104352 16.418940595 14.785342264 
29.381120102 21.705149149 21.208584624 15.757030994 1.570363128 9.2018363783 9.9482093185 10.186898819 21.048617503 
4.0448792375 4.6745881267 19.315695432 4.7903115609 14.772670653 13.836827606 9.5553571259 15.401487343 11.319037521 
27.907174756 15.403492855 24.845093257 3.815058387 3.9725991663 2.971248327 4.5379305391 6.612404483 7.8881468524 
5.1258836648 4.6858486258 13.180220245 26.460682539 15.851823027 22.179294205 25.795918973 6.4770948402 26.181224561 
3.3203292485 3.1971015288 3.8310426964 17.828916469 17.722799719 3.1127344799 24.272473731 15.387290841 15.202209681 
30.405953493 0.52378301753 11.942222973 1.7414515401 26.532402632 17.346758814 25.889415796 18.814554384 29.546801526 
10.435552152 23.709938029 22.428265217 28.342105513 18.441299623 18.48165504 1.2871752942 20.173126072 19.851277336 
11.021493394 17.315820036 28.981650397 3.1775080594 24.909534471 21.78813785 25.142268876 29.441582133 29.439721328 
2.3605158929 18.182846454 21.562850311 21.773774794 17.210854754 18.018459938 15.44584634 29.68242621 31.698614785 
3.4073809692 17.921348671 17.175325917 18.36627141 10.653217542 25.26558334 26.361613687 19.173418247 18.752784772 
31.485595292 1.5416535578 21.565715006 19.384743826 20.240791496 26.289656625 1.5485402614 3.8517487342 10.777209989 
16.985758853 13.240470491 11.753617365 0.35004028161 0.91597744581 1.1204218038 3.2642033897 15.513942371 0.33575784094 
18.691565976 26.024741978 26.563119354 7.1674828539 7.6456404311 16.488883453 13.745992112 1.6913814552 
Tresca%20Stress 1 8918 double
0.30735481966 0.29558518689 0.29084606562 0.31038004101 0.16665612408 0.16666819384 0.16668775584 0.16667793922 0.17619706931 
0.162307772 0.36740741593 0.38293402122 0.17598747567 0.18485606592 0.34353289179 0.38841878085 0.16529923851 0.12962472425 
0.12135778263 0.1068900189 0.097996750784 0.095816339738 0.098368253753 0.098555238783 0.088678409729 0.088082846552 0.095701533549 
0.09210996019 0.087607954741 0.08750515591 0.088718678631 0.091339446523 0.093714572227 0.098821970184 0.10583714577 0.11724132872 
0.12682577861 0.17153048234 0.16498564313 0.13563533409 0.12216665618 0.1143829285 0.10507578298 0.10234640437 0.1001703549 
0.09725561421 0.092237172811 0.092734139777 0.09339644861 0.093520767622 0.090644580063 0.091529229493 0.092512453716 0.093523095617 
0.092799614125 0.091890582773 0.097638356914 0.099128727991 0.10276361381 0.10491368035 0.107288511 0.11720033858 0.13295844517 
0.15043332649 0.1666634971 0.16671901532 0.16709494726 0.16765658836 0.16823830649 0.16879054569 0.16928223546 0.16956562061 
0.16967950031 0.16964701261 0.16940395304 0.16902399489 0.16858442455 0.16807179856 0.16756737035 0.16712705202 0.16670601012 
0.16667236768 0.16667226101 0.16666709401 0.16667035355 0.16666721536 0.16666808938 0.16666493709 0.16666419938 0.16666296342 
0.16666719978 0.32413992501 0.16988642716 0.15853937906 0.15153994178 0.14749201412 0.14542676581 0.14472626256 0.14468358193 
0.14506098394 0.14582867174 0.14677517052 0.14785336913 0.14906494892 0.15053630569 0.15197036155 0.15354317307 0.15506073322 
0.1565454358 0.15794358929 0.15914524608 0.16015367902 0.16071309269 0.16091853946 0.16071150924 0.16000195181 0.15875543136 
0.15673776759 0.15428155046 0.15129057584 0.14834610433 0.14624132884 0.1455902745 0.14667296433 0.14912537547 0.15189288622 
0.15502502648 0.15770390851 0.16011220519 0.1619179584 0.16354154042 0.16473573289 0.16566145041 0.1663281794 0.1666836369 
0.16672459551 0.16666803613 0.16679201767 0.16701990947 0.16735390665 0.16781367794 0.16842841075 0.16911840326 0.16966698237 
0.16930399207 0.1670096445 0.16275916119 0.15712391915 0.15164683225 0.14706361922 0.14476627299 0.14386575928 0.14468810766 
0.14926196019 0.15644080059 0.172211921 0.22117104224 0.37766629557 0.35235726387 0.35529278372 0.33445060891 0.33922656285 
0.37105632882 0.34093735982 0.33642215324 0.29189310752 0.31376063287 0.31651851858 0.19792507411 0.16370887481 0.23708007562 
0.30898569084 0.29370509243 0.33147116421 0.29832804151 0.3416962672 0.34205500935 0.34141291261 0.36397290087 0.34066170493 
0.30737682858 0.3832352842 0.16665016535 0.16675386674 0.1672803052 0.16804908513 0.16878378447 0.1693607471 0.16967415029 
0.16966725045 0.16944420552 0.16897696873 0.16839804287 0.16772357775 0.16714141273 0.1666707512 0.1666765635 0.16667157613 
0.16667300519 0.16667007517 0.16666726147 0.16666390065 0.16666291339 0.16666312254 0.21787161594 0.17566120233 0.15607182632 
0.14932880655 0.14614201317 0.14489293855 0.14492925042 0.1455053458 0.14659457472 0.14789105297 0.1494334873 0.15125005048 
0.15318301844 0.1551848009 0.15704056409 0.15868673288 0.15992188414 0.16073912762 0.16094559709 0.16045887926 0.15924180881 
0.15690773013 0.15362146967 0.15003939529 0.14690416098 0.14579007461 0.14709445592 0.14983663683 0.15330641664 0.15671851184 
0.1595656657 0.16196614342 0.16387137431 0.16523255409 0.16614103846 0.1666178652 0.16674013107 0.16667314456 0.16674762659 
0.1669333923 0.16721479704 0.16757476675 0.16805339071 0.1686718844 0.16942597903 0.1697128023 0.16835881545 0.16495934933 
0.16010190605 0.15476796374 0.14988688994 0.14632444884 0.14429997744 0.14377947128 0.14497493539 0.14721683441 0.15562117174 
0.16968464423 0.32334687883 0.33719459764 0.29454167078 0.29473786873 0.33423100786 0.33856120712 0.30284933227 0.34126942546 
0.33970452409 0.3623273723 0.32473849235 0.27309170301 0.27067831105 0.15216729314 0.18515850239 0.27973292512 0.29753413903 
0.37266181057 0.32925508958 0.36560782904 0.34003511931 0.34099926855 0.33994487571 0.30064559984 0.32969315062 0.30586119045 
0.32588520345 0.1667200169 0.16701594586 0.16747210195 0.16793925339 0.16841825548 0.16880445723 0.16912610012 0.16927297628 
0.1692833903 0.16915703295 0.16890580353 0.1685891557 0.16820751169 0.1677916696 0.16740594647 0.16705654493 0.16676846278 
0.16663261642 0.16663627505 0.16663831988 0.16664280371 0.16664883872 0.16665719912 0.1666673781 0.1666749744 0.16668652174 
0.16667986587 0.23472818161 0.18092296395 0.16765473643 0.160060639 0.15562757825 0.15316252365 0.15161465388 0.15102114057 
0.15049583006 0.15056567794 0.15102932218 0.15161073621 0.15233360898 0.15320399514 0.15408368988 0.15507947161 0.15599497637 
0.15689801536 0.15765143434 0.15828231484 0.15854144088 0.15865639379 0.1584782136 0.1579620535 0.15714748625 0.15600617344 
0.15456041837 0.15287643656 0.15114692901 0.14987388367 0.1496177442 0.15051062089 0.15180790991 0.15394905682 0.1561868009 
0.15841899029 0.16031411337 0.16198464447 0.16329482819 0.16435395175 0.16515491007 0.16584059084 0.16626518042 0.16655769957 
0.16685221981 0.16699399968 0.1671670183 0.16735565416 0.16735277563 0.16685024256 0.16592025064 0.16401890507 0.16100600672 
0.15775711939 0.15558986268 0.15445876794 0.15499001254 0.15690523438 0.16113466598 0.18106851339 0.20509633414 0.23591622144 
0.21790732725 0.20739092051 0.18835852649 0.1806036247 0.17750295664 0.17950676122 0.19400837353 0.17847872805 0.17463794292 
0.17401613918 0.1764244176 0.19131833889 0.17674757327 0.17436033009 0.17238185726 0.17511314049 0.17662048542 0.18065122054 
0.17846858688 0.17938393525 0.18355228652 0.19268681588 0.22061334374 0.23594747657 0.20345986976 0.20231627046 0.19117315076 
0.18039884693 0.17133403925 0.16377709097 0.15747373064 0.15179806471 0.14559522815 0.1398882304 0.13401587942 0.12540721825 
0.13693485322 0.26024484349 0.13825544845 0.11973409488 0.13035639664 0.13525514107 0.13962565947 0.14497131364 0.15063925883 
0.15687071887 0.16336349369 0.17076031969 0.18065870997 0.19225648842 0.20504223871 0.20170721291 0.21420156673 0.16674314338 
0.16713131092 0.16993285081 0.20167700243 0.15461897664 0.22986447378 0.14790830671 0.23175442567 0.16717289893 0.16770810519 
0.1681995673 0.16864800732 0.16900601641 0.16922748309 0.16928176148 0.1691974175 0.16897656951 0.16867664227 0.16832696803 
0.16793942415 0.16755377663 0.16720902125 0.16692335768 0.16670032234 0.16653166362 0.16653537226 0.16655688318 0.16658468928 
0.16661650737 0.16664710762 0.16668052012 0.16677657479 0.17852075109 0.17088301666 0.16505979056 0.16164954461 0.15868833704 
0.15686425151 0.15571317451 0.15500242464 0.15466616595 0.15454188834 0.15471664637 0.15497823338 0.15525458645 0.15568307214 
0.1561885928 0.1566724347 0.15711510361 0.15733225765 0.15739193469 0.15723918185 0.15693614842 0.15651640475 0.15591268701 
0.15524780282 0.15449631759 0.1535423216 0.15232064563 0.15162599076 0.15171792756 0.15281283445 0.15441394153 0.15630038256 
0.15822618098 0.16040455285 0.16201600927 0.16330288075 0.16422863439 0.16490411314 0.16540628457 0.1658962478 0.16629409929 
0.1666772033 0.1894943739 0.16676816188 0.16664997556 0.16650852835 0.14850576088 0.1795672611 0.16511070024 0.16343339856 
0.16073339279 0.15967583848 0.1599287711 0.16150901407 0.16372315544 0.16610324877 0.16563112322 0.18050838693 0.21116348873 
0.17954442898 0.17369024353 0.17069542211 0.16659058614 0.16487203296 0.16321263261 0.16204280004 0.16079497047 0.16143674745 
0.16020927087 0.16019886106 0.16030421529 0.15965510363 0.1607713553 0.1610067935 0.16072609643 0.16204910826 0.16299029978 
0.16573262646 0.16860953904 0.17289736805 0.17968562877 0.18466398825 0.18194827865 0.17446835625 0.16804257161 0.16215073665 
0.15679903935 0.15158875421 0.14607937255 0.14012890607 0.13849614377 0.14494473469 0.1540015603 0.16673544981 0.18531029583 
0.13221583546 0.13407198602 0.13865562852 0.14448912694 0.1501357662 0.15581327903 0.16175882723 0.1681968326 0.17510230959 
0.18179869978 0.18469594007 0.18022491563 0.16564641421 0.16925068533 0.16567223317 0.18843501442 0.18039441778 0.14090063001 
0.16619948907 0.15194739372 0.17775269756 0.15946654609 0.19737604184 0.17198115178 0.19237426737 0.20019846703 0.16798428133 
0.16856976559 0.16910231071 0.16947860906 0.16962805017 0.16955937508 0.16933206529 0.16896986985 0.16854409156 0.16809303436 
0.16765893237 0.16724664089 0.1669417276 0.16670107403 0.16650593656 0.16637000141 0.16638964572 0.16644464954 0.16651703387 
0.16659413052 0.16734586495 0.15547071615 0.16679552627 0.17145801988 0.16766021518 0.16484596119 0.16242923834 0.16062834228 
0.15941532664 0.1583962087 0.15782681495 0.15750926392 0.15719202686 0.15695639674 0.15689005108 0.15693230535 0.15710454452 
0.15725420348 0.1572653695 0.15704938166 0.15660004455 0.15601175035 0.15535748156 0.15465298755 0.15407047001 0.15362580537 
0.15324732268 0.15216068324 0.15216134918 0.15222930581 0.15353212673 0.15637461503 0.15878630223 0.1607107945 0.16308018562 
0.16494112103 0.16599248881 0.16641022357 0.16642648629 0.16645356543 0.16657544238 0.16667732249 0.14452166077 0.15031577105 
0.16656154735 0.1663091125 0.16578584214 0.1776285889 0.17804246766 0.16258203297 0.16453990666 0.16501002242 0.16761336628 
0.16911024944 0.17054097019 0.17250766821 0.17504535812 0.18767336513 0.16116647555 0.17344269347 0.17051263868 0.16826087482 
0.16656785552 0.16518089164 0.16436645698 0.16406176602 0.1639055378 0.16339019845 0.1628569015 0.16288451211 0.16345654476 
0.16382976639 0.16416738486 0.16468361209 0.16576302709 0.1671991098 0.16929777049 0.17196339334 0.17536983368 0.16104453288 
0.16948032581 0.15775113728 0.15372557158 0.14999733412 0.14892203438 0.15232089347 0.15848662774 0.18040925892 0.19775034992 
0.14232379425 0.14555976541 0.14956782231 0.15398414745 0.1588876775 0.16376750575 0.16867932096 0.17273176608 0.17403770445 
0.17205655649 0.16991257848 0.17279334316 0.16472087076 0.16214407055 0.1650833099 0.15879767746 0.19456854994 0.14053263244 
0.16666731398 0.17226201926 0.16524916038 0.16494701631 0.18615564487 0.16169785346 0.17243272644 0.17422898395 0.18590188056 
0.16453315659 0.15165846065 0.16927930758 0.16993283464 0.17034270486 0.17045915091 0.17015894051 0.16961916275 0.16901062233 
0.16840099554 0.16779754559 0.16724891145 0.16682387481 0.16653993311 0.16639384673 0.1661815747 0.16611745326 0.16624601802 
0.16631705803 0.16649971256 0.17139237776 0.16565568334 0.14921821052 0.17084154995 0.16860617922 0.16680818281 0.16496783405 
0.16347044932 0.16223635212 0.16078479457 0.16064682658 0.1598959089 0.15923119378 0.1586101545 0.1580839749 0.15801692277 
0.15802403736 0.15788338628 0.15747127804 0.15675820438 0.15572188719 0.15456963407 0.15328482507 0.1521382615 0.15152339651 
0.15109645629 0.16361571562 0.16679910532 0.16896073307 0.16970642407 0.16971575833 0.16901447259 0.16823283749 0.1677490109 
0.16983635708 0.17346084283 0.17491617897 0.15943078992 0.15988646108 0.16405256489 0.16690123861 0.17227652633 0.17696915156 
0.16096240183 0.16623485237 0.17103271893 0.18458375933 0.1703170133 0.16932354325 0.16841283212 0.16742605771 0.16674730255 
0.16668543574 0.166713489 0.16629611522 0.16546130413 0.16624269895 0.1665706645 0.16676637649 0.1670891349 0.167711997 
0.1684800824 0.16961495339 0.1711692651 0.15729067639 0.15548918794 0.159349007 0.16290067973 0.17607606696 0.1843519561 
0.18567122134 0.18604748 0.15915805394 0.16638970284 0.15070967845 0.15367353283 0.15679131942 0.16039277498 0.16372746894 
0.16666513623 0.16768973551 0.16840160373 0.16746767623 0.16287028464 0.17873906371 0.16971571677 0.16689116074 0.16895287633 
0.14763554871 0.16616309811 0.1642836817 0.16292370635 0.16800728071 0.16376515121 0.17149409121 0.16052531246 0.18064545256 
0.17853764565 0.16431687411 0.16369551827 0.16785606417 0.16206877727 0.17043175956 0.16590209618 0.14776153404 0.17049790263 
0.17116069635 0.17189014434 0.17172746302 0.17087033636 0.16980958259 0.1690230187 0.16811645984 0.16727666077 0.16665035226 
0.16626360819 0.16599772599 0.16574258581 0.16591129382 0.17120615124 0.16314388981 0.16917164976 0.16811730299 0.1668043283 
0.16552720251 0.16400320144 0.16316854325 0.16161856892 0.16102278827 0.15973529092 0.1592972604 0.15930800679 0.15915567098 
0.15869570305 0.15781396826 0.15621319672 0.17038794768 0.17553658101 0.17429280351 0.17419150814 0.17232875059 0.17054250824 
0.16417537377 0.16011444332 0.17393545068 0.17758848774 0.17622373194 0.1651027999 0.17161794674 0.16192039421 0.17018789086 
0.17006241073 0.16904779704 0.16887763603 0.16976463393 0.16983210823 0.16864930454 0.16947151935 0.16925438501 0.16909191799 
0.16934610375 0.16951020606 0.1696668637 0.17013850753 0.1630543309 0.16919156964 0.17999796669 0.16555731699 0.1778313319 
0.16019840815 0.16293128242 0.16919262599 0.17923858233 0.15247720466 0.17450878173 0.16805681836 0.17190367001 0.15419415335 
0.1640974889 0.16610466157 0.17141653248 0.16331108653 0.16378017375 0.16350604059 0.1737425823 0.16529711387 0.16511937835 
0.15813475665 0.1635550952 0.17549332426 0.17418154982 0.17069905097 0.16877636808 0.16753022653 0.16648447759 0.16581984947 
0.16567916263 0.16929676655 0.16820931401 0.16771832836 0.1704145675 0.16671820311 0.16465310241 0.16101009792 0.1757167835 
0.17272073591 0.17291644867 0.17683205336 0.16563901388 0.17266862548 0.17232442041 0.17110439129 0.17068320583 0.17045886891 
0.16964801798 0.16074157654 0.16960262808 0.16539914194 0.16188513644 0.16100470686 0.16638429062 0.17306084926 0.16705186152 
0.16508499651 0.16485771279 0.16489025051 0.16393194322 0.17068940438 0.17264638178 0.16366998731 0.16666318456 0.16715616526 
0.16771673395 0.16829922165 0.16884719272 0.16917503067 0.16928873551 0.16917455017 0.16888244627 0.16845257583 0.16797574564 
0.16747920727 0.16702835033 0.16670916557 0.16661504561 0.16661582686 0.16663006657 0.16664662507 0.16666150808 0.16668084835 
0.16669434016 0.20189933072 0.1793368472 0.16465081801 0.15741763 0.15392021026 0.15230603906 0.15142892625 0.15143343968 
0.15175517977 0.15215133724 0.15302584409 0.1541035564 0.15520135851 0.15623798832 0.15721541107 0.15791919961 0.15832352032 
0.15828356888 0.15787384108 0.15711989227 0.15594305134 0.15450976289 0.15250266734 0.15081431663 0.15013015734 0.15083702683 
0.15270405863 0.15510510618 0.15786216033 0.16006672011 0.16197637016 0.16359752023 0.16470094915 0.16563162826 0.16625194608 
0.16674350457 0.16683032926 0.16692234931 0.16707446404 0.16732842602 0.16716775863 0.16707516114 0.16653126394 0.16509821991 
0.1626078231 0.15963615861 0.15708678056 0.1553215846 0.1544579456 0.15484123836 0.15670781731 0.1617882632 0.1818180247 
0.23224681474 0.200510957 0.18261935256 0.17460401636 0.18620743068 0.18429058552 0.17804042428 0.16072676263 0.17686548538 
0.17526359775 0.1757513312 0.15908710435 0.17585550979 0.17622783029 0.17722305714 0.17742342739 0.17755468695 0.18028592609 
0.18371351774 0.1893223261 0.18383887478 0.19086928211 0.20293963385 0.19233182547 0.18120252712 0.17232457121 0.16564927769 
0.16025080451 0.15488304159 0.14954699291 0.14351306773 0.1385533673 0.13284577917 0.1243940005 0.13822521038 0.21160940065 
0.12935349012 0.12115920335 0.12536629941 0.13413233518 0.13986932641 0.14580866064 0.15166818747 0.15754042819 0.16410522504 
0.17228690426 0.18159456994 0.19427808719 0.20376827545 0.19209632865 0.22666782719 0.16706419357 0.17016756247 0.24890226203 
0.23631824966 0.15429975386 0.14454392377 0.16742086096 0.16681789705 0.16864348212 0.16917771408 0.16942387029 0.16934606772 
0.16906993259 0.16863802432 0.16816287945 0.16763102775 0.1671725933 0.16681669065 0.16657317983 0.16646358555 0.16649711569 
0.16655394623 0.16661121326 0.16667384464 0.1667538728 0.1655397749 0.16702250325 0.17457141967 0.18328646932 0.16205858981 
0.1592971663 0.15761324048 0.15656058716 0.15574375451 0.1554424562 0.1554700377 0.1557134944 0.15604762054 0.15648268352 
0.15696615973 0.15723865871 0.15723858142 0.15690607623 0.15623698413 0.1555323425 0.15491338872 0.15438839072 0.15342214739 
0.15234584082 0.15213378484 0.15322517991 0.15527162949 0.15761252212 0.16019203233 0.16225621834 0.16370888521 0.16471127484 
0.16537275614 0.16592865163 0.16642240635 0.18160623316 0.16675385355 0.16577339531 0.16674233529 0.16262003328 0.1657498182 
0.17238981166 0.16567771071 0.1645918716 0.16235906566 0.16045827508 0.15998987273 0.16073647057 0.16213615939 0.16409105352 
0.16690257296 0.19009412136 0.20147459791 0.17341112367 0.16887135766 0.16569760872 0.1639129058 0.16299831443 0.16246841734 
0.16188772889 0.16132807614 0.16134426746 0.1616418229 0.16223820781 0.16276738885 0.1633741661 0.16537831922 0.16760780093 
0.17118191739 0.17786308536 0.18334373824 0.15478356522 0.17294594794 0.18519151334 0.18173708576 0.17636872439 0.17020674085 
0.16482442609 0.15932420273 0.15413057173 0.14880975346 0.14363261547 0.13855782946 0.13828160655 0.14622990778 0.1474139207 
0.21396323078 0.13913574702 0.13870193129 0.14400630327 0.14974181923 0.15523335424 0.16111862121 0.16771652377 0.17473191091 
0.18122370924 0.18502337847 0.18157182688 0.16798260027 0.18080341064 0.13382533613 0.13448173643 0.17957342501 0.16612329067 
0.15219561149 0.20256990405 0.19923382295 0.15875690342 0.16493460476 0.17001393947 0.1693746566 0.16967495539 0.16912297953 
0.1684856654 0.16779828303 0.16720630897 0.16673753015 0.16644915132 0.16627914332 0.16626001473 0.16636195302 0.1664882589 
0.16657480922 0.16388225407 0.16527935463 0.16732775603 0.14709955004 0.16754406701 0.17598710124 0.16127445377 0.16001112638 
0.15900837664 0.15829138959 0.15781364969 0.15749589408 0.15731047676 0.15745939114 0.15749605771 0.15722154472 0.15651446666 
0.15539856398 0.15405418122 0.15304726083 0.15263887668 0.15258478523 0.15200498833 0.1522430534 0.15386153834 0.1572646072 
0.16043818047 0.16323405228 0.16598662801 0.16698204812 0.16732644086 0.16716323357 0.16698973336 0.16308159132 0.16642416249 
0.15901764461 0.16506325164 0.16633378616 0.16371165864 0.16169103238 0.16805163831 0.17761933898 0.16995754913 0.16842533802 
0.16626091434 0.16572436267 0.16525004797 0.16485921042 0.16464742654 0.1645142141 0.1647137778 0.16518013198 0.16586376822 
0.16696572848 0.16850492048 0.17051467735 0.17081486822 0.15897297704 0.19649305189 0.17393359412 0.17091483845 0.16714499271 
0.16304901429 0.15885402429 0.15500566654 0.15170430731 0.14911328596 0.14876494569 0.15274519668 0.15631275542 0.14947241047 
0.14556128429 0.15825639471 0.16329031453 0.16827034056 0.1725458881 0.1744122668 0.1732080186 0.18321651894 0.16135468542 
0.17151300364 0.17452245524 0.16545884664 0.16707548026 0.16535120156 0.17499275688 0.15396617216 0.1683520794 0.16584410691 
0.16489925819 0.14110890015 0.16712660926 0.19268474736 0.18625677282 0.18141821645 0.16446479943 0.16920095709 0.17025736699 
0.16081444545 0.17132792899 0.19365125421 0.17320839723 0.18856223968 0.15093601656 0.17443841223 0.14940778852 0.14304294959 
0.17884506107 0.17163010679 0.17077580054 0.16813852169 0.16728153447 0.16657751133 0.16614514444 0.16596985447 0.16592903354 
0.16605713995 0.16630408158 0.16456485036 0.16075032711 0.16145325318 0.16274519523 0.16408896557 0.16042102005 0.15953999083 
0.15881764107 0.15849738939 0.15842074055 0.15813417552 0.15724403698 0.15548011222 0.1532294919 0.15027617989 0.16508284017 
0.16657919019 0.17214583308 0.17163688161 0.17107473298 0.16996662045 0.16894189369 0.17659287323 0.16538378909 0.16863878696 
0.17005098463 0.16200400491 0.1696447432 0.1692685398 0.16354773633 0.17161455297 0.16431490964 0.1687415 0.16825014628 
0.16899381203 0.16896564985 0.16806664037 0.16773714604 0.1676373998 0.16780932097 0.16815092913 0.16860921581 0.16927757233 
0.1703011002 0.1604772764 0.18594777749 0.16954897548 0.16724259868 0.16495999821 0.16236962756 0.15949930857 0.15772844471 
0.15721773002 0.15559758155 0.15707832652 0.16071431174 0.16322378711 0.15998092114 0.16826079661 0.16812073525 0.16435053551 
0.16628084563 0.150420013 0.16910422712 0.1485710705 0.17116870817 0.1719440348 0.16392747329 0.16956175788 0.16489902875 
0.16166319394 0.16787588765 0.1829292464 0.16822701551 0.16724011798 0.16651188786 0.18037692344 0.16360816744 0.17046842895 
0.17080599882 0.16873686496 0.15352347059 0.16867939303 0.18625986111 0.16952045047 0.18166746802 0.17289437678 0.17151762998 
0.15688654137 0.16741253415 0.16537155877 0.16551203427 0.16205986008 0.1647259708 0.16428782839 0.16520577953 0.17568983068 
0.1632839045 0.16623972823 0.16098721106 0.15994763954 0.15985450858 0.15973571679 0.15939255149 0.17729212957 0.17563604269 
0.17321087776 0.17117175241 0.167140697 0.17165700345 0.17146605706 0.17206768146 0.17110461102 0.17615137376 0.17687985416 
0.16564719321 0.17120711618 0.17162789421 0.1673911459 0.1707535576 0.17038283483 0.17024571843 0.17024525389 0.16990305693 
0.16950651875 0.18088077358 0.18157676621 0.16571545222 0.16647459348 0.16394944339 0.16237938462 0.16122744043 0.16167071969 
0.1743393053 0.16491578884 0.16396535841 0.16566750551 0.16344920722 0.17754772875 0.17234060424 0.16416508925 0.17201048705 
0.16805097973 0.16676797826 0.16453152724 0.17302539117 0.168773579 0.16412793191 0.16512817603 0.16212266792 0.16362516702 
0.1807502402 0.1702307461 0.17297916131 0.1624054322 0.16383164484 0.17752890803 0.1733655325 0.1722838396 0.16958273269 
0.17219375851 0.17198385492 0.17093063449 0.16950904261 0.16556828221 0.17071063141 0.16142551908 0.17673630434 0.1678798609 
0.17455293026 0.17361831416 0.16192785784 0.16466711718 0.16676744752 0.17770353442 0.1737907113 0.17647289623 0.16633267496 
0.16918598444 0.16775293055 0.16669314739 0.17454656496 0.16393420177 0.17444669503 0.17032633516 0.28602878836 0.28298835123 
0.23256538124 0.14134199688 0.12963503054 0.11395207767 0.10853711849 0.10431960977 0.10251248578 0.10148575649 0.097041188086 
0.094940580963 0.094699159685 0.096728019262 0.09488465025 0.093912622066 0.094441883582 0.096874517258 0.098500708548 0.10356695709 
0.11151088017 0.12017391764 0.12517703635 0.14311362302 0.2377630181 0.23448521673 0.14473282054 0.127126404 0.11894992039 
0.11107069618 0.10776950876 0.10619839702 0.10170969776 0.093563949651 0.095436783475 0.09556011584 0.096422114671 0.095654512812 
0.090168711144 0.092783039459 0.09585118544 0.09608387376 0.09503371172 0.096668442748 0.10142231763 0.10652141703 0.11006060177 
0.11277259978 0.11670084012 0.12236325587 0.14069364451 0.22049030771 0.16666953188 0.16667732039 0.16688026994 0.16735959334 
0.16795016227 0.1685229307 0.16905446943 0.16944603957 0.16966089121 0.16968182918 0.16954649272 0.16923237679 0.16880289862 
0.16833335896 0.16782236915 0.16734093251 0.16690573701 0.16667016651 0.16667232637 0.16666795438 0.16666753582 0.16666925841 
0.16666799069 0.16666664678 0.16666429283 0.16666243531 0.16666284994 0.16666762659 0.2882118567 0.18990630973 0.16416591895 
0.15432177204 0.14912242259 0.14635008007 0.14494608939 0.14463207977 0.1448011808 0.1453831762 0.14626547854 0.1472920858 
0.14844094667 0.14981928944 0.15124190734 0.15274560897 0.15430326379 0.15584281347 0.1573027572 0.15859398985 0.15969381093 
0.16046479483 0.16087994626 0.16091220858 0.1604625853 0.15950587054 0.15785639912 0.15554518887 0.15279364331 0.14974972414 
0.14711464429 0.14571997054 0.14597858189 0.14774562563 0.15045868167 0.15348301205 0.15642560031 0.15897148273 0.16104928037 
0.16279320792 0.16421356708 0.16526388661 0.16602277288 0.16652786237 0.16673002561 0.16671890965 0.16665900717 0.16671984582 
0.16689879566 0.16717820674 0.16757414167 0.16812071068 0.16878985062 0.16949974103 0.16971920563 0.16851670964 0.16519821584 
0.16004800101 0.1542886806 0.14907850681 0.14565076338 0.14399186531 0.14374215329 0.14542357459 0.15241008235 0.16186205777 
0.18713631959 0.28245845811 0.43271437586 0.4032820452 0.39373420029 0.33804020547 0.343431829 0.41440330359 0.34741329513 
0.34523703112 0.33957386834 0.33137916616 0.36496843585 0.26352793588 0.2053158377 0.31904108252 0.21872378233 0.24978066343 
0.2926669893 0.31889980984 0.33068482249 0.3416466101 0.34595511736 0.347132418 0.34804658777 0.4098008814 0.34325787627 
0.34472433603 0.35410053966 0.45267042506 0.32746594836 0.16664182799 0.16667767705 0.16697768279 0.16765492291 0.16843106147 
0.16910620397 0.16956451878 0.16971691545 0.1695855346 0.169237527 0.16870455548 0.16806202485 0.16742607253 0.16687170669 
0.16668045236 0.16667826797 0.16666928925 0.16667197043 0.16667039148 0.16666658135 0.16666276306 0.16666269242 0.16666874963 
0.28385243466 0.18994616843 0.16155176136 0.15193461925 0.14722313625 0.14528250321 0.14481013814 0.14513004915 0.14600419249 
0.14721113494 0.1486358411 0.15032287607 0.15220998342 0.15419864492 0.15614840054 0.15791075381 0.1593761308 0.16042720809 
0.16094408402 0.16080831587 0.15997321751 0.1582370641 0.15537973315 0.15181416097 0.14831667263 0.14611410692 0.14615522634 
0.1483612284 0.15153840384 0.15506905034 0.15823695326 0.16086350895 0.1630143672 0.16462119267 0.1657617751 0.16643372968 
0.16670007392 0.16673672589 0.16666472454 0.16670136706 0.16683119776 0.16707026167 0.16739094472 0.16780660687 0.16835779753 
0.16907011772 0.16971518372 0.16935914326 0.1670045788 0.16274903491 0.15742149955 0.15218645202 0.14786436219 0.14503768766 
0.14365732513 0.14371366214 0.14607880709 0.15042671919 0.16108315754 0.18750099669 0.28980299066 0.44933473528 0.34637237488 
0.33593403348 0.33902799386 0.34187602089 0.34735303921 0.34802393949 0.3467042631 0.34273720743 0.40055551395 0.32588261127 
0.30178032336 0.29086156683 0.18738591947 0.31175739374 0.21308236492 0.27915966421 0.28275903313 0.37976727299 0.32966488996 
0.33825199748 0.41250517431 0.34583183667 0.34592129902 0.34616591299 0.34093966519 0.3316740251 0.34348948603 0.42933515092 
0.3584903832 0.16666164306 0.16668229235 0.37214622637 0.17730144102 0.39371455085 0.1713616128 0.21346179619 0.21190154277 
0.15489208407 0.11794598589 0.10671467458 0.099441662807 0.093195095039 0.08780711647 0.082913286065 0.085146043398 0.083505473659 
0.08048467128 0.08079531508 0.075994114565 0.081275235486 0.062137155561 0.060768116671 0.073845802918 0.068423105927 0.070270713207 
0.069919370354 0.06755245587 0.07299970366 0.057958916028 0.054145590861 0.073268927499 0.06709462542 0.069983551199 0.070051159535 
0.068759572044 0.072598039557 0.068504518091 0.076168817261 0.079239660447 0.074554454256 0.079885340342 0.07903157894 0.081517072299 
0.083969038296 0.085485209691 0.089985999487 0.088736366229 0.096518109887 0.11247276786 0.14443491721 0.069324867497 0.05776367598 
0.06741735147 0.10491639539 0.16666407857 0.16666821115 0.16674403144 0.16688433483 0.16706971063 0.16686150633 0.16729733932 
0.16756816394 0.16723714888 0.16780049642 0.16808180744 0.16770519633 0.16832148286 0.16859570346 0.16817980389 0.16878864377 
0.16903038857 0.16862010326 0.16918433073 0.16932692128 0.16898312363 0.16939988872 0.16945606137 0.16921228869 0.16946196763 
0.16943952871 0.16929242317 0.1693839199 0.16926565735 0.16923060958 0.16914149333 0.1689560386 0.16905048674 0.1687929943 
0.16858213075 0.16875578376 0.16838879122 0.16814041655 0.16840201831 0.16792855982 0.16768421844 0.16800010764 0.16749100732 
0.1672743054 0.16760005355 0.1670957552 0.16688853612 0.16722459722 0.16674854514 0.16665540184 0.16690418888 0.1666507136 
0.16665325605 0.16664607723 0.16665427715 0.16665438074 0.16663952475 0.16665641864 0.16665557876 0.16663784196 0.16665482565 
0.16665807345 0.16663810984 0.16665828987 0.1666578865 0.1666489588 0.16666341963 0.16666020494 0.16665498706 0.16666656109 
0.16666696234 0.16666166166 0.16666813255 0.16667141239 0.1666686604 0.16667118005 0.16667582057 0.16668106411 0.16667093454 
0.16666750557 0.16667871387 0.16668338524 0.22408547931 0.25958389596 0.19139372366 0.1767945681 0.16957443278 0.19457071484 
0.1631053458 0.15974100292 0.1727661712 0.15591990993 0.1538296832 0.16315535007 0.15171029583 0.15058350249 0.15754623251 
0.14932375154 0.1489244461 0.15424745908 0.14821002296 0.14817621867 0.15227177812 0.14788276591 0.14806533607 0.15122959444 
0.14779088467 0.14815461458 0.15063941308 0.14821904252 0.1486684181 0.15047886372 0.1489243192 0.14942963455 0.15077405804 
0.1497663408 0.15032871382 0.15130525935 0.15072572958 0.15143270211 0.15194859057 0.15187921553 0.15258409612 0.15276027045 
0.15303953839 0.15379667659 0.15363807546 0.15431274358 0.15505364013 0.15459223725 0.1555266865 0.15624750751 0.15555040575 
0.15671596805 0.15738243222 0.15645997434 0.15778563891 0.15834735208 0.15730007968 0.15868512024 0.15915055827 0.15797946715 
0.15931088292 0.15958761108 0.15844781701 0.1596487574 0.15973168598 0.15863351833 0.15964861878 0.15953766398 0.15859679822 
0.15927670245 0.15892163761 0.15824758597 0.15849774123 0.15788332335 0.15758681252 0.15729756203 0.15631911889 0.15661935866 
0.15557221675 0.15436257939 0.15531301537 0.15347282323 0.15207728247 0.15375143254 0.15121673685 0.14975878939 0.15195045596 
0.14913267774 0.14812035928 0.15037417676 0.14798776561 0.14768525761 0.14959263252 0.14810357177 0.14861699449 0.14998985402 
0.14929115993 0.15049186817 0.15101369169 0.15155911307 0.15292585216 0.15282021311 0.15404187252 0.15555138403 0.15504403398 
0.15669363643 0.15798309214 0.15732900222 0.15895253056 0.16012241862 0.15938434622 0.16098909112 0.16189230992 0.16117148087 
0.16257743639 0.16337280499 0.16266177126 0.16391070174 0.16449631418 0.16385871961 0.16491612895 0.16537341428 0.16477611539 
0.16571752746 0.16604848461 0.16551821184 0.16627358423 0.16644558472 0.16607356856 0.16660188466 0.16663841171 0.1664268461 
0.16682711791 0.16693758099 0.16701188785 0.1671736319 0.16692166955 0.16726901444 0.1674890878 0.16707940397 0.16758998188 
0.16787567833 0.16726203049 0.16789892047 0.16821427974 0.16738514254 0.16817132702 0.16795497933 0.1674454933 0.16634129576 
0.16648179647 0.16530971128 0.16330575222 0.16507171377 0.16172671097 0.1590390545 0.16258200912 0.15737699372 0.15481628671 
0.1592825105 0.1536396625 0.15149388094 0.15645060256 0.15082703903 0.14980344293 0.15470615638 0.14997101001 0.14970382567 
0.1543468768 0.1505885256 0.15121412373 0.15542308422 0.15332405915 0.1556575697 0.15815990641 0.16909569302 0.17761117384 
0.1902074897 0.21117960308 0.19084994872 0.21270792714 0.19106155304 0.18103970269 0.17191368752 0.16705356885 0.22812889431 
0.1613733176 0.15718837628 0.2128716401 0.15461252256 0.15194721181 0.20287024521 0.15040622575 0.14618871916 0.17004050737 
0.14754164967 0.14473963288 0.16973268955 0.1436046295 0.14281357465 0.16729476245 0.14844654146 0.14719604933 0.18918948354 
0.14313195322 0.1413322618 0.18904281332 0.1410829573 0.14020171093 0.16438276646 0.14072446476 0.14021205525 0.16204907875 
0.13995127307 0.13978475278 0.1627690081 0.14463931589 0.14524671878 0.18683399904 0.14166707643 0.1404874549 0.18658595834 
0.13992437481 0.14093774555 0.1638638614 0.14110167756 0.14194200485 0.16283332609 0.14066323921 0.14178946059 0.16332924822 
0.14169678033 0.1455900268 0.16484364716 0.14418798218 0.14422030966 0.18664295533 0.14326022979 0.14576899962 0.16728332401 
0.14640210286 0.14885346791 0.16852672401 0.14884984095 0.1523897116 0.17288319951 0.15445091397 0.15944894424 0.17842268729 
0.16731032901 0.17357087781 0.20921494668 0.1745588055 0.17773967668 0.22553433802 0.22338875659 0.24097653202 0.20355343146 
0.2159945718 0.20480601988 0.18903247101 0.19508632287 0.19707093391 0.17849435658 0.18090804606 0.18588735312 0.16990713604 
0.17123769666 0.17603362638 0.16319389234 0.16416454623 0.16783270577 0.15777445651 0.15759362807 0.16065425185 0.15238651245 
0.15243237901 0.15483842971 0.14616294173 0.14684974883 0.1489545788 0.13846228279 0.14063095904 0.14222302475 0.12686717238 
0.13186481897 0.13524283341 0.10910164676 0.11945095704 0.12780655978 0.10995165639 0.11045170412 0.12387698678 0.26422457448 
0.20421183758 0.12573814397 0.1056058963 0.10284080345 0.11499279418 0.1204146307 0.11960082792 0.12708412178 0.12190300063 
0.13387674899 0.13541525797 0.13418816933 0.1396128184 0.14170480606 0.1361978175 0.14657978517 0.14724381034 0.14215986938 
0.15173013174 0.15256010179 0.14819987601 0.15777906367 0.15849893239 0.15413548132 0.1640154241 0.16492106302 0.16036837506 
0.17024045248 0.17294816816 0.16727402097 0.17960379153 0.18278314127 0.17597627464 0.19074011698 0.19862517612 0.18609708607 
0.20723418745 0.21818998298 0.19878543008 0.22313822087 0.2440687933 0.20486471565 0.23336653939 0.18385802669 0.16668162252 
0.20163609401 0.16670838601 0.16677100653 0.20039609877 0.16811572134 0.16834085356 0.16442217878 0.15981545429 0.16408736331 
0.16705470843 0.19344300122 0.24842200638 0.19954901912 0.13541700323 0.15020530984 0.27724480277 0.23896379059 0.17161506681 
0.13553315297 0.20840028354 0.28006524309 0.21635581167 0.21686326203 0.14409201525 0.16679686379 0.24160185515 0.16709334374 
0.16733261267 0.16758408417 0.16782969689 0.16744097837 0.16806082793 0.16831034182 0.16795526276 0.16852067294 0.16872356737 
0.16842608075 0.16889629437 0.16905997259 0.16883941864 0.16915764064 0.16924151208 0.16913381686 0.16926231017 0.16926596966 
0.16926544976 0.16923158593 0.16916014323 0.1692513134 0.16906545944 0.1689332236 0.16910077382 0.16879086044 0.16862362501 
0.16883512048 0.16845422238 0.16826264233 0.16850394238 0.16807404977 0.16786283329 0.16813354564 0.1676761267 0.16748021154 
0.16774871078 0.16731024778 0.16713330538 0.16737951475 0.16699298208 0.16684988661 0.16705928343 0.16674122856 0.16662646945 
0.16680581513 0.16658589836 0.16658346268 0.16659920185 0.16658728659 0.16658823439 0.16653372863 0.16659887296 0.16660010022 
0.16654554875 0.1666118439 0.16662043797 0.16657066131 0.16663016018 0.16663992822 0.16660276526 0.1666509263 0.16665994265 
0.16663402134 0.16667176591 0.16667971552 0.16666019554 0.16681395675 0.16688477422 0.16662685273 0.18021995176 0.17336211095 
0.16977370357 0.16571428652 0.17418672213 0.16283817782 0.16055777248 0.16744179954 0.15873024992 0.15750824343 0.16314571342 
0.15607246968 0.1552185007 0.1599687089 0.15434958565 0.15403005845 0.15767611724 0.15342444547 0.15318487622 0.15617914128 
0.15281255077 0.15282568823 0.15529737775 0.15264335362 0.15287673873 0.15480577382 0.152806775 0.15308677106 0.15456509448 
0.15319536265 0.15352609434 0.15461252867 0.15365971581 0.1540953991 0.15482710765 0.15423417932 0.1546720643 0.15510636208 
0.15488835212 0.15537794662 0.15546835801 0.15563352189 0.15608474359 0.15592931136 0.15632399887 0.15676821898 0.1564616238 
0.15698093656 0.15735182174 0.15691428393 0.15747948419 0.15778187955 0.15724169256 0.157820193 0.15793386357 0.15736536225 
0.15787182332 0.15792862594 0.15733022792 0.15776422755 0.15768856523 0.15712275638 0.15746180425 0.15721471838 0.1567411022 
0.15691698819 0.15651797503 0.15622119396 0.15617589237 0.15562299444 0.15559371975 0.15523190553 0.1545316336 0.15489740389 
0.15405596432 0.15319345131 0.15401024542 0.15261795664 0.15175801051 0.15284719377 0.15145072154 0.1507926719 0.15194209258 
0.15086420858 0.15075127234 0.15151961484 0.1512378938 0.15172635287 0.15218508369 0.1524970638 0.15310649358 0.15355083957 
0.15409218025 0.15514368145 0.15531606666 0.15606793365 0.15721981535 0.15727328742 0.15826637243 0.15939190791 0.15934992232 
0.16019802987 0.16113877647 0.16123550562 0.16179683846 0.16258758812 0.16266528509 0.16309495567 0.16372214412 0.16378646897 
0.1640884689 0.164596583 0.16460138437 0.1648599774 0.16524997348 0.16516812928 0.16551720226 0.16584703877 0.16566658236 
0.16605959793 0.16626812657 0.16610050833 0.1664635241 0.16660294853 0.16649804549 0.19794071952 0.20036046678 0.18501074296 
0.16730108325 0.16688225429 0.16696454584 0.16691300203 0.16699296823 0.166723566 0.16692389956 0.16690085093 0.16657974742 
0.14855544808 0.14154841529 0.17401676686 0.19770219444 0.16911032221 0.1654789151 0.16456529768 0.16372874162 0.16218793058 
0.16431070062 0.16089113764 0.15923926043 0.16206529997 0.15876091161 0.15770991188 0.15783390333 0.15734267546 0.15956953514 
0.15813044263 0.15845239468 0.16048238772 0.15960620196 0.16057507844 0.16234543841 0.16187915353 0.16384011504 0.16451083769 
0.1663325527 0.16627748666 0.18679117313 0.19143325675 0.22610612401 0.21915678504 0.19095053903 0.18203034804 0.17877117473 
0.17356361622 0.16907343658 0.17665619449 0.16783511101 0.16820324642 0.17218136638 0.1635188718 0.16502311613 0.16892890709 
0.16286611565 0.16382021276 0.16628521319 0.1619861165 0.15902777954 0.16403995209 0.15822406876 0.15915152015 0.16263201819 
0.15917332526 0.15870703463 0.16143400973 0.15894303889 0.15953223753 0.16128079179 0.1577311987 0.15885692032 0.1609376417 
0.15780802124 0.15601401567 0.16042451605 0.15591680049 0.15773773856 0.16023324171 0.15856157164 0.15756124558 0.16002326777 
0.15868167435 0.1583871455 0.16044078889 0.15907977506 0.15791666482 0.16117839199 0.158550952 0.15804624421 0.16104845068 
0.15837358825 0.15815994076 0.16166984337 0.16127019372 0.16152355857 0.16253917346 0.16433210336 0.16398182676 0.16441688312 
0.16725232253 0.16713810069 0.16749492695 0.17112707935 0.17308456755 0.17108482335 0.17670085656 0.17956801953 0.17561609527 
0.18441857087 0.18713529521 0.19317906346 0.19151914927 0.19049572392 0.17928607402 0.18399784005 0.17195372264 0.17805462799 
0.16502327428 0.1706017801 0.17128995487 0.15891645365 0.16394901111 0.16512697254 0.15349395917 0.15838402537 0.15948140371 
0.14781788476 0.15287910282 0.15424860572 0.14138654983 0.14692165806 0.14888787787 0.13496980678 0.1401694249 0.14309469793 
0.13102824067 0.13534145331 0.13879847562 0.1391699728 0.13497012031 0.14030271374 0.15311569971 0.14551271274 0.16673895139 
0.16679249862 0.18906540954 0.20293391514 0.12516659337 0.129218922 0.12997089057 0.13305732351 0.13298099212 0.13517829151 
0.14008692956 0.13558560744 0.14194532177 0.14612292111 0.14151205308 0.14788955603 0.15190543968 0.14727731674 0.15359229735 
0.15787808273 0.15298493578 0.15965918412 0.16403848688 0.15880607701 0.16619991563 0.17109533525 0.16490369932 0.17364029795 
0.17957990681 0.17159079606 0.18268124481 0.1875152675 0.17836206687 0.18892563894 0.19359699766 0.18360994725 0.19182759784 
0.1882910142 0.18272582421 0.16648166931 0.16639391284 0.16608725235 0.16553505498 0.16957680501 0.16719138429 0.16619739307 
0.16583009483 0.16541817238 0.1656612071 0.1860446017 0.19636004555 0.17938731207 0.18605457709 0.17754219361 0.13682653433 
0.12820490831 0.13520604528 0.17691906245 0.15865109399 0.16671295767 0.16685484546 0.16692082133 0.16670908475 0.16677955072 
0.16676102823 0.16670078676 0.16671210631 0.16671606306 0.1845732032 0.14538190771 0.14991989067 0.15052760534 0.17447864132 
0.17970895894 0.18455972416 0.16000335643 0.16565091389 0.16817128748 0.1579613315 0.18896545682 0.20201585508 0.19255536036 
0.18627396504 0.18392678059 0.18280098095 0.17062446996 0.17103852729 0.17423699803 0.1499041984 0.15673751137 0.21398193544 
0.19466243273 0.1779051073 0.19394524979 0.21148032787 0.21403644286 0.18094707187 0.20798779381 0.15720173181 0.16783072572 
0.16809770844 0.16837387709 0.1686113982 0.16828340965 0.16886586711 0.16904947223 0.16884386568 0.16922688965 0.16934197037 
0.16930717637 0.16941402825 0.16943861124 0.16956559666 0.16941502245 0.16935982647 0.16960431547 0.16925842254 0.1691388307 
0.16945134039 0.16896950961 0.16881412248 0.16916186296 0.16861150396 0.16842814947 0.16876131306 0.16821314668 0.16800870044 
0.1683205454 0.16780255199 0.16760090223 0.16787835892 0.16740461919 0.16722729574 0.16745245226 0.16708185964 0.16693588402 
0.16708962912 0.16681949291 0.16670336665 0.16681817284 0.16660785243 0.16651583059 0.16659577704 0.166447331 0.16644687358 
0.16643269367 0.16646302242 0.1664740893 0.16637220539 0.16649827879 0.16651898576 0.16641699097 0.16654519924 0.16657025179 
0.16648216837 0.16660101731 0.16662219837 0.16655643669 0.16724635802 0.16753477332 0.16767377074 0.15465222793 0.1500846808 
0.16672378824 0.16698902181 0.16706722216 0.1665386636 0.17118259843 0.16858105891 0.1664524681 0.16479819928 0.16936312276 
0.16339544754 0.16180718048 0.16613647843 0.16073482672 0.15969234625 0.16349970285 0.1588827361 0.15819107788 0.16143732652 
0.15763608876 0.15726769071 0.15994486501 0.15673648405 0.1565697339 0.15887870085 0.15625415368 0.1561954934 0.15808036361 
0.15606294886 0.15611659122 0.15765452215 0.15598953481 0.15608318615 0.15732792619 0.15598285068 0.15611147019 0.15705374501 
0.1560824199 0.15626514703 0.15692537553 0.1563049702 0.15655643961 0.15685669456 0.15663870019 0.15688921925 0.15703431881 
0.15694615642 0.1571708814 0.1572116963 0.15716888753 0.15727452406 0.15728140048 0.15717694409 0.15719174875 0.15716077772 
0.1569876408 0.15689984935 0.15682592096 0.15661846739 0.15646320476 0.15632031126 0.15613678505 0.15593267138 0.15569824562 
0.1555789152 0.15529073778 0.1549952612 0.1549969684 0.15469616117 0.15434061097 0.15446214474 0.15411880303 0.15382782259 
0.15389488296 0.15338101103 0.15340287661 0.15295450335 0.15225089995 0.15272848035 0.15227168415 0.15194806277 0.15217585138 
0.15192550802 0.1521107614 0.15207853885 0.15264119258 0.15330947295 0.15280041277 0.15458471939 0.15537975009 0.15490251694 
0.15657332922 0.15750938316 0.15759843324 0.15849184606 0.1594463034 0.15978646438 0.16058962774 0.16172802669 0.16178004786 
0.16265307984 0.16344183119 0.16405038673 0.16399323433 0.16460551119 0.16547466845 0.16485384673 0.16529090356 0.16619857833 
0.16534087088 0.16565001347 0.16641940945 0.16568167126 0.16591144668 0.16644907815 0.16599278559 0.16621952567 0.16652518931 
0.16628218772 0.16646872667 0.16673205011 0.16662805017 0.14238682868 0.13752671479 0.14910357507 0.14581171914 0.14790972169 
0.16666766788 0.16665992223 0.16653471876 0.16647471635 0.20527904448 0.16622781288 0.16615197789 0.18172408414 0.17908883853 
0.18270213967 0.17766131766 0.17989767743 0.18672789306 0.16314378027 0.16163411587 0.16503662806 0.1651445071 0.1624871968 
0.16334769502 0.16463571629 0.16569963545 0.16633941885 0.16652737597 0.16758986275 0.16828139811 0.1753916656 0.16487474062 
0.17553041077 0.17830540825 0.17796672489 0.17944328072 0.19688072405 0.18574850825 0.17807253101 0.17858757081 0.16092139755 
0.16048400903 0.16121975407 0.17330518619 0.17158253956 0.17023935863 0.16898226523 0.17191179425 0.16774147543 0.16670970616 
0.16934691518 0.16588721135 0.16509112919 0.16745982173 0.16418437379 0.16370522786 0.16580027068 0.16323263611 0.16285938098 
0.16475109189 0.16284802966 0.16268847013 0.16422281849 0.16265171318 0.16246848285 0.16400129498 0.16202616153 0.16193326915 
0.1636694145 0.16157021974 0.16157230076 0.16307207295 0.16159744307 0.16156373548 0.16281118924 0.16201925813 0.16219251546 
0.1631991578 0.16230292042 0.16251031622 0.16364125065 0.16270450618 0.1629519602 0.16399650788 0.16313568635 0.1637035048 
0.16444540514 0.16436723892 0.16489345345 0.16515808512 0.1657014187 0.16658257241 0.16648880984 0.16758702241 0.16906587592 
0.1682484883 0.17036112313 0.17248383478 0.17058107119 0.17411359894 0.17714047077 0.17683187022 0.17382687325 0.15894095643 
0.16155188164 0.16889858429 0.17182860968 0.1547354869 0.15714147069 0.15933965172 0.14997287589 0.15247528818 0.15568207976 
0.14526935374 0.14786600869 0.15174786312 0.14338258344 0.14434416112 0.14910835632 0.14834580992 0.14505940689 0.1503663396 
0.1589136374 0.15631662528 0.18289405161 0.18969223069 0.17646045432 0.19910235789 0.20915412467 0.13778096119 0.14028395041 
0.14212439479 0.14480997235 0.14384071577 0.14697884879 0.14970075094 0.14746690526 0.15200076668 0.15481400185 0.15173184007 
0.1573180854 0.16024848687 0.15640261608 0.16273502233 0.16586858649 0.16129161768 0.16846390397 0.17173413404 0.16619206334 
0.17406536351 0.17677767709 0.17073001225 0.17806104507 0.17891288537 0.17357635074 0.17807973869 0.17604725419 0.17159992407 
0.16568552887 0.16809641644 0.169430693 0.16970241087 0.17001286089 0.16932749158 0.17382175818 0.17633750806 0.17400986937 
0.17121109345 0.17456875095 0.16494328413 0.16405500598 0.16098161586 0.16115279416 0.16343441607 0.1614374704 0.1637411136 
0.1664885446 0.16731627512 0.16304881307 0.1615319223 0.15553062015 0.17604974292 0.19829464549 0.20124579512 0.13681018038 
0.13729590199 0.14126655977 0.14210684549 0.16665021861 0.16667500492 0.16670514633 0.16645262685 0.15721015551 0.16670191915 
0.1660752588 0.17715001953 0.17485091112 0.17641859818 0.16671820273 0.1636262956 0.15581065779 0.15291845543 0.1654605065 
0.16521260406 0.16494567763 0.16475735198 0.16523198395 0.18240921942 0.19087402362 0.16558350274 0.16062756007 0.15997073279 
0.19044646938 0.19637643515 0.17014599654 0.16531786102 0.1808726451 0.17949777753 0.1779363899 0.17269034477 0.16662279297 
0.1741930896 0.15349308244 0.18352369053 0.19188658457 0.1923689902 0.1730800008 0.16512550232 0.16510897383 0.16448760643 
0.16535170343 0.16663030559 0.15187926732 0.14989160686 0.17531157639 0.19079812973 0.15081119973 0.17482375606 0.16890745056 
0.16919061659 0.16948771453 0.16969297031 0.16962196159 0.16988892038 0.16997213721 0.17015496865 0.17002548222 0.16998433725 
0.17041433686 0.16984558941 0.16971581406 0.17031581766 0.16947545911 0.16927597885 0.16989826508 0.16899499437 0.16876586837 
0.16932016719 0.16848136254 0.16823973063 0.16870838646 0.1679507517 0.16771996726 0.16809717221 0.16746029125 0.16724167153 
0.16752493562 0.16704232285 0.16688349114 0.16703341221 0.16674678951 0.16662519895 0.16667620868 0.16655231891 0.16645165957 
0.16646526696 0.16634853484 0.16628201193 0.16628085021 0.16624609031 0.16625925079 0.16614526614 0.1663145468 0.16634922423 
0.16617582914 0.16637399585 0.16642265088 0.16628377469 0.1664989602 0.16654643902 0.16641088401 0.16810647831 0.16938174966 
0.16596903484 0.16570708042 0.1459054851 0.1472654351 0.16701875903 0.17139930762 0.16920560134 0.16835198738 0.16673342757 
0.16964441196 0.16597506878 0.16460806933 0.16757500111 0.16383244156 0.16282467827 0.1657656701 0.16215903912 0.16146929451 
0.16415232098 0.16090472125 0.16035467787 0.16279582787 0.15960110649 0.15934442195 0.16148759953 0.15924677065 0.15908780333 
0.1607213137 0.15873406655 0.15855147565 0.16025641745 0.15823355735 0.15810155092 0.15953803528 0.15779198646 0.15773896928 
0.15891857086 0.15748558835 0.15747110208 0.15833985053 0.15746280044 0.15756172059 0.15801050796 0.15753923463 0.15763653523 
0.15804614484 0.15754303484 0.15756416355 0.1579856375 0.1573415063 0.1572360697 0.15769811918 0.15688001293 0.15664753759 
0.1571070108 0.15615252684 0.15584528757 0.15624616819 0.15530818018 0.15496168935 0.1551477374 0.154343013 0.15397808523 
0.15390988367 0.15341065365 0.15312706873 0.15267820614 0.15285282915 0.15267200982 0.15178906735 0.15246094623 0.15238136542 
0.15120278103 0.15182471632 0.15121244061 0.15187071766 0.15194070141 0.151962305 0.15754097174 0.16104324967 0.16207355232 
0.16346804848 0.16488790336 0.16491521726 0.16597255773 0.16691929684 0.16793075553 0.16729886902 0.16780763172 0.1693769251 
0.16786274949 0.16803538994 0.16969725287 0.16773454749 0.16770225874 0.16934864593 0.1673602908 0.16733533063 0.16859875388 
0.1671274084 0.16716557323 0.16797699925 0.17243274752 0.17195167673 0.15051145791 0.1481325728 0.17565229277 0.17230850006 
0.17202187433 0.17442601362 0.17656993943 0.18032088178 0.15891166715 0.15755737818 0.15695666248 0.1586854279 0.16424266248 
0.16451520094 0.17024116589 0.16947765927 0.16997641596 0.17064511234 0.17194635011 0.1817393837 0.17437877718 0.16129295208 
0.16113890674 0.16639331915 0.1662607888 0.171792324 0.17547132021 0.18526370001 0.18872586055 0.17049394373 0.16927949016 
0.1687709539 0.16803826849 0.16980668845 0.16753117286 0.1669681974 0.1688956604 0.16637307958 0.16595760429 0.16789185584 
0.16555808259 0.16544203987 0.1670872814 0.1654214181 0.16528832381 0.16673095811 0.16528017483 0.16508573041 0.16668393109 
0.16486632374 0.1646784489 0.16649987009 0.16423955561 0.16420133943 0.16585741615 0.16462233973 0.16484259429 0.16583983421 
0.16503770838 0.16520246741 0.16639511141 0.16533232844 0.16549068908 0.1666708883 0.16569475929 0.16590225707 0.16691492305 
0.16627409579 0.16674639546 0.16742908307 0.1672120389 0.16789494174 0.1680878547 0.16847848067 0.16946605932 0.16903999953 
0.17028359559 0.17153654101 0.17038998645 0.15377677559 0.15538967293 0.15851038311 0.16051840316 0.1620055597 0.16130527638 
0.1523513903 0.15270105719 0.1562689116 0.15614418634 0.1544369771 0.15734951495 0.16401605844 0.16271778906 0.16135994722 
0.17795631221 0.18078015409 0.17363275899 0.18860359196 0.18611141491 0.19190586587 0.18829512838 0.18656687945 0.19083573161 
0.18619823447 0.15725069902 0.15577643439 0.15903706809 0.1689319223 0.16925229459 0.16648059709 0.14815501275 0.15002316641 
0.14980280558 0.1516425936 0.15370417912 0.15212593152 0.15544016682 0.15774142241 0.15517635692 0.15966221595 0.16196121798 
0.15852039847 0.16382812717 0.16605927172 0.16204992056 0.16776969695 0.16950688496 0.16519690285 0.17023747559 0.17071257704 
0.16729333697 0.16728323286 0.15250984769 0.17288477587 0.16817707956 0.16849690899 0.16884611711 0.16509113031 0.16739793936 
0.16774102115 0.16795242842 0.16707359391 0.16115111316 0.15927039989 0.16072012132 0.16697821451 0.1714341187 0.16510222181 
0.16864178581 0.16652545769 0.16637962026 0.17755410625 0.18151486656 0.17387204652 0.17234435133 0.17084751959 0.16860900342 
0.16436771775 0.17159511307 0.16343231262 0.17175438517 0.16944245204 0.17092789798 0.16703614786 0.14944423637 0.14604523463 
0.14394304429 0.14973674849 0.16658452315 0.15910295263 0.16567665151 0.16768446593 0.16420940269 0.16456248885 0.16376368668 
0.16452112934 0.22148279118 0.27645229125 0.16872378371 0.17071638358 0.17026977634 0.16460633751 0.16421881794 0.17188804746 
0.17046458213 0.16759959619 0.16097550083 0.15951077574 0.18074612121 0.17845446994 0.16596603154 0.18469878574 0.18278987384 
0.18226666074 0.17707299392 0.18191886295 0.17273549455 0.1647251235 0.16481411135 0.16392726462 0.16426173323 0.16414060677 
0.1638969281 0.16406104043 0.16867680668 0.17009487701 0.16845265721 0.16704771415 0.16323999592 0.18226795793 0.17107406655 
0.16168715752 0.16223268387 0.17094118423 0.17034734548 0.16986669521 0.17067446661 0.16398208264 0.16551428549 0.1688229653 
0.16394838281 0.14431531371 0.14502951725 0.14836535112 0.14755976357 0.18189293801 0.15999833863 0.17234923337 0.16985874387 
0.17022025954 0.17051245806 0.17073917637 0.17083539968 0.17107791494 0.17114921499 0.1715622398 0.1710815689 0.17090371714 
0.1718278743 0.17050614589 0.17020612429 0.17128418366 0.16972149005 0.16939290067 0.17035957019 0.1690353636 0.1687026153 
0.16940242667 0.16826917984 0.16794569257 0.16856607253 0.1675456405 0.16725418309 0.1676919318 0.16695761841 0.16673323589 
0.16696003893 0.16654702818 0.16640280703 0.16645340551 0.16626624225 0.16620337049 0.16611732149 0.16608925452 0.29919308363 
0.2705334634 0.16596284538 0.16593727265 0.16585493697 0.16600922982 0.16608680939 0.1658271189 0.17338563241 0.17494562386 
0.1607650471 0.16024975152 0.16488586811 0.16478897977 0.16886960208 0.16802600813 0.16751664207 0.16651901045 0.1685788314 
0.16598761639 0.16513972203 0.16742787187 0.16456405949 0.16388842799 0.16611602301 0.16317967243 0.16239532687 0.16473513062 
0.16231584266 0.32293758626 0.28460657081 0.16193137857 0.16152759163 0.16356979433 0.16078573868 0.16042835689 0.16238103732 
0.16014548883 0.15980424335 0.16132442924 0.15917142479 0.1588929651 0.1603606216 0.15863999181 0.15865737993 0.15948083861 
0.15862819929 0.15866703661 0.1593224373 0.15854303881 0.15851289949 0.15926048372 0.15825814254 0.15806283718 0.15896884673 
0.15760981679 0.15725378152 0.15824114696 0.15646063296 0.15588438717 0.15704501358 0.1513487245 0.15062799862 0.15002008488 
0.14965347938 0.16673756779 0.16842762038 0.17108522246 0.17209024844 0.17315219667 0.17158601791 0.17192959672 0.17494432571 
0.17199989321 0.17193525758 0.17423663924 0.17107145411 0.1706794947 0.17321886361 0.16982361306 0.16940385357 0.17138036626 
0.17100871397 0.164026404 0.16422195911 0.16810007317 0.15789300881 0.15871396639 0.17314683632 0.17269424311 0.16189080179 
0.16131051519 0.18091337841 0.1775392777 0.17392430957 0.17423598502 0.17512010589 0.16129961011 0.16538555932 0.16475074823 
0.17782810736 0.17113621882 0.17314972486 0.1749722113 0.15971521745 0.16081023749 0.16093178915 0.16971906333 0.16933407684 
0.17033660994 0.16922123469 0.16882126543 0.1701799854 0.16821892878 0.167918802 0.16949662528 0.16781335267 0.16778081772 
0.16898391155 0.16821795203 0.16826107452 0.16930254949 0.16827099991 0.1680705555 0.16981125707 0.16747974986 0.16708196643 
0.16920611401 0.16741776615 0.33465651402 0.33343361541 0.16788632496 0.16796797249 0.16904051653 0.16793925148 0.16796396941 
0.16936133604 0.16796653387 0.1680277722 0.16915588863 0.16827844112 0.16848144187 0.16920734126 0.16861229542 0.16896976645 
0.1694784184 0.16909704459 0.16965026409 0.169603276 0.16992124601 0.17064794705 0.17048962931 0.16988697457 0.16160367256 
0.16277305629 0.16242007982 0.17003997612 0.17238701647 0.17032748202 0.16607081882 0.16576704209 0.18318308961 0.18247553836 
0.18001512934 0.17793065518 0.16597707838 0.16809654649 0.1674128561 0.16421556023 0.17844726556 0.18145403509 0.15499418704 
0.15639941654 0.16032722788 0.16179783563 0.16338136628 0.16470242305 0.16153742654 0.16946823142 0.16877799526 0.16925445137 
0.16985789785 0.16848755912 0.1792135819 0.18166433622 0.16626828914 0.15288956676 0.15090643227 0.15151729794 0.15359254751 
0.16417011242 0.17313473312 0.17634171479 0.17702241666 0.16553222138 0.16094231547 0.16120654611 0.17925071406 0.16891009752 
0.17140370256 0.16993819965 0.17433388876 0.16971672908 0.17471276735 0.15499722795 0.15434245239 0.16626269282 0.1799515626 
0.16123502564 0.16183919876 0.16981816443 0.16875538579 0.16644204181 0.16418617995 0.16410490397 0.1677663485 0.16717925015 
0.17276587217 0.1714525901 0.16349383731 0.1637009674 0.16378824127 0.16417586926 0.16362651491 0.16443158173 0.16544865341 
0.16519325714 0.16328168689 0.15330796791 0.16358306385 0.16381551546 0.1706354531 0.17085658533 0.17282162863 0.17585244888 
0.16364779507 0.1743647117 0.17686702781 0.16570874929 0.16650596832 0.17932961494 0.16865952841 0.17589953723 0.1632253174 
0.16754643438 0.16681747836 0.16567878215 0.16363314849 0.15252289305 0.15388161933 0.16960698761 0.15749296912 0.15920375215 
0.16327684953 0.16508911538 0.16557760244 0.15917159463 0.17507769573 0.17724944928 0.17298976305 0.17292364154 0.17080987287 
0.17024003739 0.16981485871 0.33915842849 0.33973414368 0.16892368156 0.16841792915 0.16976564855 0.16783991056 0.16739276393 
0.16813574566 0.16689617194 0.16656208036 0.16697861759 0.16624398897 0.16604402563 0.1661608335 0.16596986177 0.16583761784 
0.16573689697 0.16612525945 0.15518957149 0.16876758358 0.16806182283 0.16750768038 0.1668447536 0.16877413492 0.16666446055 
0.16583765474 0.16797464433 0.34211995928 0.33972437849 0.1671883 0.16907897722 0.16855523878 0.16539042819 0.16494690066 
0.16394305748 0.16312553568 0.16571632626 0.16283162635 0.34373700653 0.29799027439 0.16146803093 0.16080286829 0.16328678764 
0.16009798211 0.16016364842 0.15791826846 0.15708478887 0.16880416719 0.17072842276 0.17258875776 0.17500648002 0.17410051696 
0.17258746631 0.17168283136 0.17414554685 0.17351101035 0.17217057197 0.17815067121 0.17870555166 0.16465915658 0.16466293575 
0.16576658555 0.16664877327 0.16763381349 0.17062268432 0.16430841749 0.17054665909 0.1766074464 0.17538766279 0.1589166534 
0.1715529617 0.15937628241 0.17695976062 0.17788020891 0.16680335296 0.16788896783 0.33981594501 0.33659264881 0.17068847499 
0.17102900663 0.33467463956 0.33105454104 0.17094574794 0.17071568414 0.17251889133 0.17022835374 0.17004158329 0.17169789142 
0.16995549971 0.16990886216 0.17089965443 0.17003790127 0.16995629828 0.17058438146 0.16941874869 0.16965666243 0.16950526253 
0.15957514782 0.17154078469 0.17850688031 0.16467198214 0.16524484322 0.1597030036 0.16054701616 0.16170728019 0.15986247096 
0.16205542949 0.17537448568 0.17341842065 0.16890780488 0.17051762911 0.17164351981 0.32989038154 0.28930499935 0.16676112454 
0.16947058291 0.1604723466 0.16008524452 0.16008005711 0.16281733998 0.17699533168 0.16351589369 0.17190738142 0.17710475783 
0.17482569392 0.16553755029 0.16570376676 0.17627880479 0.16403736574 0.16351493903 0.32658619994 0.29896730215 0.17596931753 
0.17507609107 0.16100957448 0.34935590844 0.36403110821 0.17024580703 0.17209781071 0.17020095084 0.17016702224 0.17060728002 
0.17132898996 0.17142554078 0.17122525241 0.19581200966 0.17282790252 0.1695982571 0.16651972533 0.17015117938 0.16240484677 
0.16368462661 0.16212113707 0.17002614202 0.16111491982 0.16885786011 0.16805161049 0.16713769147 0.17234691587 0.17241101287 
0.17191849162 0.1673270173 0.16673579402 0.16583237579 0.1655002157 0.16599987061 0.16520146777 0.16640000753 0.16570795365 
0.16556603042 0.16090203676 0.16990137999 0.17183652083 0.17363574512 0.16544021869 0.16496297986 0.16434413836 0.16509489137 
0.16476494557 0.16482479668 0.16422862282 0.17054962669 0.17252031364 0.16209458795 0.17415141315 0.17383944423 0.17353193126 
0.16217465167 0.16224973687 0.16213896271 0.17345440062 0.17422302856 0.17166047325 0.17256247803 0.16515572495 0.16522439651 
0.17475038788 0.16997171053 0.16943472003 0.1691719427 0.16828626061 0.16794845255 0.16918153549 0.16679313627 0.16360481528 
0.16449542172 0.17065003396 0.16340509169 0.16379043115 0.17145918729 0.16496402966 0.16435570674 0.16889486644 0.17194667395 
0.17161085652 0.16373512931 0.1644423878 0.1653361727 0.16530425668 0.16568354115 0.1649444845 0.16423724645 0.16668307592 
0.16675137259 0.16668027021 0.16723206419 0.16697577074 0.16689403189 0.1678833772 0.167506938 0.16742459509 0.16852302103 
0.16817211293 0.16801681632 0.16907989268 0.16879488092 0.16858457148 0.16939855569 0.16924990396 0.16903099824 0.1694558558 
0.16945747214 0.16925781224 0.16928173001 0.16939734106 0.16925116531 0.16891383254 0.16914009748 0.1690424369 0.1684214124 
0.16869976625 0.16867574402 0.16785777254 0.16818178778 0.16821779526 0.16732517559 0.16760502873 0.16772545767 0.16684837813 
0.16709337438 0.16724967291 0.16664289108 0.16668606306 0.16686208466 0.16664193432 0.16664234577 0.16661519454 0.16664609269 
0.1666484668 0.16661774413 0.16665407941 0.16665548471 0.16662493851 0.16665652508 0.16665661299 0.16664036506 0.16666338701 
0.16666363625 0.16665557411 0.16667150885 0.16666999352 0.16667037671 0.16667545641 0.16667712101 0.1666866343 0.16667129567 
0.21489627186 0.18904164691 0.20695669411 0.16810617342 0.17771616988 0.18912464731 0.15718413364 0.16065383697 0.17058237874 
0.15179916238 0.15343210407 0.160335289 0.14940232868 0.15010525841 0.15539494721 0.14861872584 0.14871499432 0.15298025823 
0.14847772319 0.14822997848 0.15171374563 0.14900865975 0.14850251098 0.151319476 0.14981702247 0.14921274013 0.15153901328 
0.15078469881 0.15004211988 0.15190945802 0.15213302521 0.15126613736 0.15256905944 0.15362376928 0.15268893163 0.15354558914 
0.1551704389 0.15421305385 0.15463868743 0.1565832758 0.15572132901 0.15573583167 0.15789430032 0.15711988236 0.15676452987 
0.15884737196 0.15827899094 0.15760323289 0.15946257029 0.15907776562 0.15813677344 0.15952934742 0.15946232328 0.15835564391 
0.1590830421 0.15933638223 0.15813077178 0.1580978501 0.15869049689 0.15754763554 0.1563564814 0.15745238321 0.15658676107 
0.15404307298 0.15559340982 0.15527307156 0.15130548279 0.15301319935 0.15348549436 0.14895150203 0.15043385006 0.15152849826 
0.14811580393 0.1485947365 0.15027612496 0.1490605291 0.14837168079 0.15030010143 0.15128704328 0.14995998921 0.15166807225 
0.15417803055 0.15248896862 0.15385234345 0.15720956652 0.15556775458 0.15648323523 0.15972801714 0.15834717346 0.1589854769 
0.16188526847 0.16071766443 0.16104905977 0.16365430798 0.16273517347 0.16283378017 0.16491379262 0.16424469976 0.16418034614 
0.16583401715 0.16538518248 0.16520599975 0.16638126107 0.1661444685 0.1659619129 0.20112319537 0.16674729041 0.16670872581 
0.16688350655 0.16679174324 0.16678376266 0.16706726572 0.16693299958 0.16688063109 0.16732091716 0.1671492247 0.16700063196 
0.16767760685 0.16744795124 0.16719033723 0.16824303898 0.16791592898 0.16830224823 0.1682010438 0.16715795531 0.16733062979 
0.16799459613 0.16688829193 0.16491238064 0.16650832168 0.1659190487 0.16129061585 0.16353495327 0.16395077775 0.15725620604 
0.15972964919 0.1611491102 0.15365886729 0.15589743128 0.15819878316 0.15099514229 0.15264890943 0.1559583731 0.14953334556 
0.15043589209 0.15458637387 0.14947004348 0.14962121231 0.15424855151 0.15097046298 0.15035792227 0.15514649184 0.15508933377 
0.15336690295 0.15822054944 0.17619583229 0.16919383043 0.25446941264 0.19017713024 0.19437084251 0.23318432838 0.17908545351 
0.18673344382 0.16139354199 0.16986984746 0.19041154763 0.15305288152 0.16223199905 0.17852632563 0.15364165516 0.15938076201 
0.17695989085 0.14752809432 0.15030150244 0.17708181255 0.14979623046 0.14710892171 0.17424038179 0.14191380728 0.14411955514 
0.16410377955 0.14364822272 0.14800620624 0.1631451339 0.14301656581 0.1436007233 0.16890677487 0.14656255242 0.14304605365 
0.16780344683 0.14034163637 0.14029989112 0.16219193787 0.14318329673 0.1469351578 0.16225393156 0.14252871128 0.14265623842 
0.16790509208 0.14356442776 0.14236049519 0.17003034028 0.14530375064 0.14230328472 0.16963068012 0.14545388459 0.14261234811 
0.16881218279 0.14856170919 0.14572144715 0.17122339967 0.15202798704 0.14768151283 0.17409933322 0.16114569192 0.15345781013 
0.17798814654 0.17132017255 0.16176099072 0.17844964642 0.2325218756 0.22428805011 0.22021642633 0.20528317375 0.20169250854 
0.19765034062 0.19016159919 0.1974949187 0.18267243264 0.17936826939 0.18661202836 0.17276846307 0.17154630038 0.1766690915 
0.16606968666 0.1652212569 0.16895153737 0.16058504025 0.1603826887 0.16305809011 0.15526986797 0.15514969457 0.15761785596 
0.15013488523 0.15021968701 0.15235378436 0.14487537171 0.14335977357 0.14674451443 0.13799612783 0.13580822623 0.14008786066 
0.12940550068 0.12547240489 0.13376664502 0.11917694331 0.1060318493 0.12668576875 0.10658377866 0.11997483206 0.12684732776 
0.19214705571 0.25441985743 0.10217092131 0.10435012539 0.11501075694 0.10339073976 0.11993165795 0.1261115307 0.12022070678 
0.12190386991 0.13510802049 0.13128419091 0.12924883565 0.14151774028 0.14130540021 0.13856959318 0.14683872852 0.14626791045 
0.142620297 0.15293400988 0.15158704367 0.14869251923 0.15782214268 0.15724998178 0.15468799903 0.16424505831 0.1630687233 
0.16075421073 0.17299409587 0.17026730083 0.16813455826 0.18393333975 0.17949132832 0.17690710157 0.19754097249 0.19121245771 
0.18798781025 0.22166122726 0.20381232765 0.19947011285 0.23946518951 0.22251353134 0.20374508788 0.19518045883 0.25611720762 
0.16665465871 0.16668667758 0.1665814991 0.16713116489 0.16783997165 0.16756935185 0.15886879328 0.16474599066 0.2005696346 
0.16335538965 0.23077290193 0.2892925348 0.27593152948 0.2055189281 0.18004694114 0.1501116883 0.14673779165 0.17047159947 
0.14431003194 0.13445566952 0.23627762971 0.21724432091 0.17086636669 0.17356248225 0.16647635438 0.19218151738 0.16757829299 
0.16727796418 0.16699854452 0.16672085328 0.16651611511 0.16711671815 0.16873548288 0.16845428669 0.16916371618 0.16898779594 
0.16892472496 0.16933355513 0.16927221879 0.16931338518 0.16923019332 0.16930058033 0.16940100049 0.16895411874 0.16910802132 
0.16921971884 0.1685342547 0.16874904106 0.16886169849 0.1680610524 0.16830678898 0.16840420054 0.16755402003 0.16780629274 
0.16789755156 0.16710742703 0.16733332645 0.16739905148 0.16677172537 0.16693700368 0.16698778341 0.16653942579 0.16665041822 
0.16668803316 0.16654235427 0.16654298697 0.16648884816 0.1665709884 0.16655786875 0.16648139568 0.16660519379 0.16658757699 
0.16652773174 0.16664153109 0.16662369539 0.16658291282 0.16668714138 0.16666835698 0.16664655109 0.16672513747 0.16671264736 
0.16671375533 0.16534772509 0.16597935689 0.1625196928 0.16613836796 0.16986925908 0.17690334379 0.1704761047 0.18064307315 
0.19065852356 0.18254284668 0.17901656586 0.15808059295 0.15994485784 0.16429189739 0.15582259745 0.1568483344 0.16054616821 
0.15460961581 0.15508828235 0.15828768868 0.15404870029 0.15406724817 0.15698129929 0.15376316986 0.15361811435 0.15608900851 
0.15380842042 0.15361488488 0.15556376588 0.15425114656 0.1538642702 0.15542625438 0.15490982357 0.15439957381 0.15556455031 
0.15559419687 0.15508550328 0.1558839084 0.15634602287 0.15583965083 0.15624291832 0.15708183569 0.15660136873 0.15674384891 
0.15754280382 0.15721428428 0.15712505719 0.15772937047 0.15755325485 0.15726876782 0.1575592426 0.1575902735 0.15708487485 
0.15702860418 0.15722962305 0.15658975171 0.1563135305 0.15667355868 0.15589692577 0.15544287017 0.15598379396 0.15521747872 
0.15445385281 0.15515515719 0.15464247904 0.15293625866 0.15399356265 0.15388836743 0.15163286712 0.15244355889 0.15261248519 
0.15125301784 0.15154244012 0.15207005492 0.15212289954 0.15171662161 0.1525594689 0.15401593239 0.1531252265 0.15419940896 
0.15636659898 0.15517452979 0.15643763742 0.15902272884 0.15757814165 0.15875503806 0.16111015252 0.16001619651 0.16124996311 
0.16278095299 0.16186163903 0.16301262242 0.16410657821 0.163328968 0.16422054175 0.16499974618 0.1644598776 0.16505798709 
0.16574253457 0.16530776148 0.16568072289 0.16629895028 0.16601370007 0.1662006399 0.16662729381 0.18321901903 0.17697365207 
0.1669078881 0.16683316395 0.16646059838 0.16639987778 0.16703697151 0.16691458152 0.16675430664 0.1515921381 0.18364343758 
0.16617507878 0.16635400228 0.17221839357 0.16783329653 0.16638875602 0.16636832901 0.16572261802 0.1657205038 0.16357908335 
0.16480301588 0.1650962648 0.16092833508 0.16254064088 0.16350324778 0.15884595415 0.16003797868 0.15777192587 0.1586053956 
0.16005374489 0.15777704039 0.1581174356 0.16015743339 0.15871505754 0.15845268897 0.16122484739 0.16070259329 0.15972499178 
0.16277686018 0.16484130584 0.16215215524 0.16499813319 0.16879880423 0.21363433313 0.19231895436 0.20800439754 0.22332612881 
0.19114904663 0.21150690818 0.17033240531 0.17328956695 0.16699630283 0.16765095166 0.17084426053 0.16454962773 0.16556805119 
0.16729329481 0.16091279887 0.16089833259 0.16485474714 0.15998134567 0.16034852994 0.16361814539 0.16037291908 0.15978346464 
0.16260028535 0.15948161194 0.15973832612 0.16211549787 0.15868768422 0.15832560576 0.16162780924 0.15818797999 0.1588580181 
0.16159259938 0.15941590927 0.15920700857 0.16146309214 0.16100565458 0.1614492269 0.16185469692 0.16070433865 0.16073198934 
0.16231705329 0.16112951796 0.16136794184 0.16323204361 0.16310940415 0.16332576122 0.16453447566 0.1662783869 0.16655287209 
0.16645415399 0.17114372961 0.16982141835 0.16931799476 0.17859258572 0.17555157614 0.173888276 0.18117984232 0.20492418384 
0.18795270694 0.14729641537 0.15459051763 0.16287101648 0.1878046573 0.19490070576 0.18914791221 0.18830320702 0.1813143507 
0.1836465133 0.18028566876 0.17404524482 0.17907355233 0.17274765667 0.16734364301 0.17325383403 0.16658893864 0.16172753061 
0.16751967032 0.1609310349 0.15617857868 0.16207464222 0.15561150026 0.15082932305 0.15676603035 0.15010808681 0.14506014733 
0.15150935684 0.14422263526 0.13880559937 0.1462754443 0.13791417591 0.13367449669 0.14102166471 0.13456343681 0.1303692102 
0.13782967835 0.13261797294 0.14216037643 0.14167008736 0.14075975329 0.14957215751 0.21257264655 0.22729952254 0.12983124289 
0.13395554829 0.14305031158 0.13863709174 0.13556716873 0.14495222884 0.14095763213 0.14130138088 0.15084903311 0.14704744795 
0.14684522864 0.15665899067 0.15278535394 0.15250410854 0.16294224412 0.15869115081 0.15816553064 0.17029328538 0.16532828362 
0.16439031481 0.17828895507 0.17295803428 0.17117218436 0.1880471612 0.18073405087 0.17804685807 0.19471153177 0.1894045024 
0.18330921103 0.19222401562 0.19554275774 0.18413215097 0.16814528983 0.16783597041 0.1677078877 0.16832827788 0.19119056685 
0.19380269394 0.18365776313 0.18024577808 0.12931983432 0.12653862335 0.1357597496 0.13315670433 0.12980485798 0.13368097529 
0.13620936976 0.17547565673 0.16566225791 0.16093601526 0.17731424938 0.17718697644 0.17281461796 0.18748675916 0.1952566346 
0.16676508755 0.16683282695 0.16592904357 0.16658074327 0.166719413 0.16678670212 0.16674995176 0.14888774898 0.15567885447 
0.16721856773 0.18273254223 0.2153553014 0.19783076124 0.18544708865 0.20513566638 0.18160023495 0.18698890759 0.21217843286 
0.19127641639 0.20623916685 0.15053984624 0.15715388373 0.15571920378 0.15046492371 0.16404025778 0.1668732764 0.16644017764 
0.16533761643 0.16552779197 0.1696500239 0.16970162191 0.16927369649 0.16898544063 0.16934446977 0.16950331871 0.16985487839 
0.16886203752 0.16909682051 0.1694110118 0.16831008407 0.16856731243 0.16880727602 0.16770546832 0.16799171725 0.16814359975 
0.1671876646 0.16742826303 0.16750064431 0.16678035169 0.16696608768 0.16696416889 0.16651903514 0.16664221914 0.16658596995 
0.16636237266 0.16643295595 0.16635650792 0.1663864209 0.1663615983 0.16624858049 0.16646513796 0.16642332 0.166313137 
0.16655309077 0.16651411122 0.16642466632 0.16662892865 0.16658597514 0.16652993921 0.16306546122 0.16439541258 0.16545957408 
0.16549141754 0.16736886781 0.16705390052 0.16687256573 0.14020506444 0.14335851033 0.16484879232 0.16743639031 0.17505806124 
0.17920968563 0.17707189447 0.17324364994 0.15892694151 0.15957413925 0.15791354963 0.15832093103 0.16056104041 0.15725473238 
0.15740366373 0.15947450117 0.15689043837 0.15689111549 0.15862026211 0.15674906332 0.15667567273 0.1580269107 0.15675788199 
0.15662417152 0.15764705228 0.1568968304 0.15665819751 0.15736532496 0.15719936259 0.15695049258 0.1573981557 0.15735415551 
0.15720743753 0.15750933231 0.15719604715 0.1572172939 0.15738617533 0.15667170578 0.15685533318 0.15688387303 0.155792368 
0.1561365287 0.15597371176 0.15479449682 0.15516037465 0.15472519766 0.15402897729 0.15432231106 0.15352816192 0.15357119529 
0.15377680268 0.1527242075 0.15303404024 0.15354452354 0.15256520973 0.15227223384 0.1527706494 0.15219221892 0.15227229895 
0.1522903457 0.1519763572 0.15354983781 0.15308477531 0.15295504259 0.15630620266 0.15531609494 0.15542630769 0.15903025329 
0.15785688449 0.15890709837 0.16168687814 0.16033709027 0.16192061722 0.16407471167 0.16301906087 0.16464769297 0.1652904568 
0.16460470119 0.16651551751 0.16596405396 0.16551530048 0.16715976539 0.16622981919 0.16593697163 0.16723384899 0.16644098547 
0.16618055124 0.16706734263 0.16034531275 0.16137337604 0.16205937905 0.16658299284 0.16659509924 0.16629140363 0.15540794931 
0.16000716373 0.16493309971 0.16532616731 0.16444289239 0.16429858648 0.1635480203 0.16230733739 0.16184368074 0.16501582544 
0.1609019973 0.16112459248 0.16251720212 0.16610902131 0.16517361803 0.16716646113 0.17602766381 0.18804531711 0.16967392368 
0.1695358378 0.16968574212 0.17000623823 0.1670728414 0.16856327322 0.16463139293 0.16516735715 0.16398214809 0.16432442927 
0.16599140678 0.16350391478 0.16377381904 0.16545680381 0.16312550931 0.16323163455 0.16503697468 0.16301361681 0.1630925387 
0.16475269304 0.16292649733 0.16291904397 0.1645821472 0.163270391 0.16312029984 0.16459503708 0.16389293683 0.16356128648 
0.16492109491 0.16473846558 0.16423795645 0.16549935439 0.16606617579 0.16534683441 0.16645679106 0.16802864619 0.16683910021 
0.167713344 0.17070770794 0.16894967201 0.16950053785 0.17180770583 0.17187357431 0.15686092231 0.15879210027 0.19933775215 
0.20045178844 0.17752666112 0.17524965768 0.1733950897 0.17062788022 0.17247053768 0.16853225568 0.16603839819 0.16905105586 
0.16380733639 0.16123146049 0.16509246807 0.15901271457 0.15654309392 0.16093752548 0.15446479497 0.15200789489 0.15688777595 
0.15012737277 0.14782354131 0.15327139163 0.14631369773 0.1440428943 0.15032221184 0.14361511979 0.14306516421 0.14875959861 
0.14453855055 0.14920630158 0.15040673008 0.15123975133 0.15524472465 0.15451484522 0.14949653592 0.146741894 0.14464959015 
0.14219944607 0.14739961615 0.15960818501 0.15679230852 0.16541857654 0.16225270014 0.16070747669 0.17134694256 0.16810643622 
0.16576386905 0.17671445489 0.17393729902 0.1704361542 0.17928916506 0.17818864002 0.17366999706 0.17743031012 0.17947769932 
0.17398570375 0.19305492807 0.18608545938 0.16096780651 0.1615029812 0.16214854145 0.16140884801 0.16918013082 0.17304375917 
0.17370522002 0.16947600724 0.181269515 0.17682543455 0.17293011452 0.17850107021 0.16238677417 0.16398579075 0.16641330426 
0.16408724636 0.16544577948 0.16626424906 0.16775882631 0.16665729301 0.16182353643 0.16876455863 0.17044685339 0.17967104786 
0.17861215376 0.17461587454 0.1544929736 0.15186737568 0.15168262926 0.15606678075 0.16887889767 0.16851344843 0.16814755866 
0.16881781186 0.1654380739 0.16596876749 0.16613139746 0.16506981558 0.16535840719 0.13750055701 0.14391607432 0.13762480683 
0.16675376222 0.16653398101 0.16706869398 0.16723631325 0.18640734299 0.2016036215 0.16670465223 0.16666897824 0.16523430066 
0.16513942786 0.18232729397 0.19113102993 0.1904586901 0.19034417533 0.1826617702 0.1650951981 0.16508287982 0.16468287811 
0.16679441483 0.16845513813 0.16806099646 0.17110831662 0.16873136039 0.16948662966 0.15981981176 0.16267381833 0.17565078894 
0.17690293712 0.1699379194 0.15774063057 0.16963091728 0.20315436715 0.19643280321 0.19370460285 0.17052268169 0.17497296388 
0.17211333006 0.17188001801 0.17464098402 0.15984347219 0.19282397052 0.19425856726 0.1488286462 0.15154694927 0.17800219792 
0.18012847917 0.1748372068 0.1750231115 0.16766433999 0.16650540789 0.14436264542 0.14798008994 0.14421318547 0.1406555469 
0.13844369177 0.18646795147 0.1833137442 0.18065693753 0.15296159384 0.15652062148 0.15002111461 0.14802758284 0.17615372038 
0.17160982422 0.17019574103 0.17038681717 0.16795290027 0.16833086766 0.16723630834 0.16755558212 0.16770813415 0.1666573066 
0.16690395491 0.1669169963 0.16629916764 0.16644832946 0.1663519461 0.16612893649 0.16621075163 0.16605122923 0.16610171947 
0.16610054407 0.16593402436 0.1662190479 0.16615520829 0.16599025048 0.16639814438 0.16632153961 0.16618004828 0.16495977439 
0.1647069569 0.15982804217 0.16073908704 0.15987802679 0.16025584026 0.16090546989 0.16141786376 0.16207847799 0.16205250134 
0.1627807771 0.16335417473 0.15911457776 0.15940005922 0.16091889754 0.15851348913 0.15870021686 0.15996522514 0.15800087525 
0.15816389783 0.15918893871 0.1579814096 0.15788616991 0.15853472189 0.15794814973 0.15790588361 0.15847919996 0.15765298584 
0.15776640824 0.15831790864 0.15682824596 0.15719560393 0.1577042373 0.15538624331 0.15599359389 0.15638217058 0.15361756801 
0.15436379564 0.15436276808 0.15166257888 0.15225905531 0.15178195172 0.15008693834 0.15004189141 0.15799384146 0.1625024366 
0.1609938889 0.16246816354 0.16468351575 0.16332347117 0.16611391126 0.16888984103 0.16750598084 0.16945373245 0.16925005537 
0.16878945789 0.17185918007 0.1691724349 0.16906121965 0.17133514032 0.16854317824 0.1686692089 0.17048497272 0.1679458716 
0.16808066881 0.16941934759 0.17698724234 0.18514331683 0.16332796975 0.16436266228 0.16466972342 0.16466605498 0.16695849499 
0.16716559026 0.16956230701 0.16986945678 0.17042378622 0.16308672143 0.16383770396 0.16793649707 0.16649281893 0.18765293879 
0.17154056341 0.17021207419 0.16219865202 0.16447149002 0.1697714713 0.16895529896 0.17084222126 0.16403176186 0.16292451583 
0.17168061469 0.17134593407 0.16903025379 0.16657729855 0.16675511272 0.16844688016 0.16783525673 0.16743238249 0.17305012994 
0.16736516917 0.16764674112 0.16884223928 0.16636700796 0.16648349708 0.16815295771 0.16613597477 0.16621166276 0.16788733018 
0.16616448352 0.16608530954 0.16767347555 0.16644957139 0.1662993693 0.16772553744 0.16695777412 0.16671572766 0.16797948141 
0.16778980233 0.16729354993 0.1683886492 0.16888706845 0.16815481325 0.16897287006 0.17045167781 0.16943958854 0.16982200148 
0.15103045803 0.15842564219 0.15946402393 0.19062010893 0.18759254989 0.16899137751 0.17023383415 0.16835768162 0.16895245436 
0.16729159773 0.16827353462 0.16592255391 0.16408051331 0.16611441006 0.16257728608 0.16068269535 0.16363226948 0.15908298328 
0.15730703462 0.16091836582 0.15627419182 0.15482909925 0.15854378813 0.15437610886 0.15334487901 0.15728662629 0.15227067232 
0.15225103512 0.15639144736 0.1526926253 0.15493773268 0.15621687524 0.15692842229 0.15856344129 0.16087842835 0.15898710405 
0.16559032035 0.16333732835 0.1615336538 0.1591141688 0.1616132535 0.17124376434 0.1705065047 0.17070807788 0.17132676699 
0.16824929541 0.15203699089 0.1709182747 0.16475586211 0.16485875421 0.16923003964 0.16741023307 0.16735636142 0.14992306589 
0.14805837338 0.16878102316 0.16912634656 0.16958413778 0.16862287905 0.17259419079 0.14757749597 0.15075351015 0.1509801909 
0.14500400379 0.17099684218 0.17056816816 0.17053434234 0.1420399179 0.171658227 0.17380457652 0.17267229134 0.16424368197 
0.16446073243 0.16854292177 0.17045860938 0.17080641008 0.16039819808 0.16490656257 0.16536058368 0.16122429293 0.1613164806 
0.16995829048 0.17102201814 0.17009261362 0.16764890548 0.1641366263 0.14929483206 0.15080283731 0.15187846478 0.15157905397 
0.18041199129 0.18714440941 0.1676304342 0.16856636896 0.16766130041 0.16623184588 0.16518081045 0.16644690212 0.16327742051 
0.16443726601 0.16864726223 0.16894712263 0.16240156599 0.16227522875 0.16609588579 0.16635618849 0.16687817502 0.17720367711 
0.17282284881 0.18676215445 0.18114743024 0.1758717408 0.16587694672 0.16406288374 0.16423549196 0.1642646962 0.17129273249 
0.17032663691 0.17000317012 0.17037159859 0.17004651683 0.17100537828 0.16765844555 0.16991927683 0.17135353358 0.1536753315 
0.15155039719 0.1519546342 0.16876918868 0.16744024687 0.16786827676 0.16261559267 0.16280490977 0.16163357194 0.18956690817 
0.19008287537 0.18502907956 0.16766103811 0.1711379734 0.1614610048 0.16982881851 0.16083128713 0.17019602578 0.16945660626 
0.1688885337 0.18650185015 0.16474846654 0.18413015333 0.1842192228 0.17780861972 0.17374406219 0.17029259489 0.17192535824 
0.17034538794 0.16986175587 0.17091824887 0.17153242766 0.16879037647 0.18039951891 0.15836347932 0.15742616532 0.15547687431 
0.166438047 0.17582229591 0.16732831889 0.16781548561 0.16568198619 0.16576391764 0.16572666495 0.16572203229 0.16540958544 
0.16079347686 0.1612693137 0.16308418277 0.16378912785 0.16441634182 0.16403944077 0.16999506824 0.1668274477 0.16700490254 
0.17884063964 0.17707280311 0.1677669433 0.16184242647 0.16240223659 0.16398831351 0.16267958554 0.16448292364 0.16523510689 
0.16545803599 0.15987746421 0.16026573044 0.16153921447 0.15923955803 0.1593388996 0.16041884446 0.1591294571 0.15910900645 
0.1598980567 0.1589058662 0.15900171056 0.15983856687 0.15824454212 0.15868486094 0.15964685787 0.1560444089 0.15702749333 
0.15023411332 0.15181524413 0.16529788133 0.1652089509 0.16559562912 0.17097916251 0.1696477438 0.16831836871 0.17454104452 
0.17496799835 0.17338717483 0.17377711085 0.17637193868 0.17159890178 0.1721961243 0.17436050918 0.17006892855 0.17062545204 
0.17211915255 0.16929338024 0.1668628205 0.17081355364 0.17121826655 0.16975574035 0.16985100817 0.17550774188 0.17245822733 
0.17395312102 0.14576856103 0.16972165416 0.16982715632 0.17130687958 0.17381228915 0.17303726646 0.18165595691 0.16720828733 
0.16734639849 0.16547250574 0.16944972743 0.16965692012 0.17136996172 0.16584095796 0.17014925786 0.17026565955 0.17137282189 
0.14788416015 0.16389599768 0.16573633211 0.16645678181 0.16678954755 0.16916668634 0.16929252138 0.17093526573 0.16904142393 
0.16906398797 0.170564523 0.16912033346 0.16909470193 0.17031346357 0.16932863789 0.16929071141 0.17027470568 0.16957253514 
0.16940109923 0.17009045409 0.16990984206 0.16948910044 0.16971180508 0.18304712821 0.18138677125 0.18337046919 0.18408230045 
0.18148357732 0.17948252804 0.17104746918 0.17168313123 0.16593219601 0.16615927655 0.16554369933 0.16651752182 0.16688720055 
0.16607896892 0.14687478738 0.16432634134 0.16321388788 0.1623605023 0.16102697147 0.16314871767 0.16027418954 0.15950824963 
0.16179214801 0.15975650599 0.15956844952 0.1614174683 0.16109968348 0.1596497846 0.16653660728 0.17294758728 0.17301753593 
0.17511053644 0.16654405222 0.16660247392 0.16166359742 0.16301378145 0.16601552163 0.16516445663 0.16445643679 0.16372329793 
0.16911854717 0.16957607207 0.16940356753 0.16101335689 0.16690676417 0.16586289306 0.16579210534 0.16389685063 0.1637724313 
0.16339630841 0.16506424058 0.17942026808 0.17670429879 0.16971778321 0.16830336036 0.15326579467 0.15453761694 0.17395366122 
0.17750730972 0.1715294825 0.17175096822 0.17199759167 0.16841277398 0.16559312082 0.16524567074 0.16474374185 0.16927527454 
0.17028968227 0.17195607441 0.16942714864 0.17608691238 0.16888371628 0.16671941415 0.16772172938 0.16765744775 0.17102516169 
0.16934566653 0.16970060539 0.18351835715 0.16471381008 0.16497938191 0.16513810583 0.17207018955 0.1718675373 0.17275257095 
0.17302320414 0.16731924203 0.15517471647 0.15953471613 0.17937727692 0.16809232942 0.16843715948 0.16896776363 0.17314133873 
0.17217366506 0.16590967171 0.16595574854 0.16445272364 0.16536515778 0.16656309405 0.16515251321 0.16456050191 0.16615790981 
0.16273806193 0.16073824623 0.16082799643 0.16408560047 0.15892474895 0.15970603702 0.16541616368 0.17638293916 0.16306807534 
0.16396760769 0.16414889709 0.16964638241 0.17983316729 0.17918419477 0.1820020319 0.18343620208 0.16397763931 0.16115861923 
0.16963571716 0.17015703581 0.16952128343 0.1709425367 0.17525300204 0.17408886049 0.16110764174 0.16167225804 0.16594040254 
0.16238967884 0.16293582251 0.1631151839 0.1582089236 0.17320683978 0.17824851368 0.16878173142 0.18177892269 0.17901426342 
0.17182151084 0.17210050208 0.17118767248 0.17200365877 0.16794352078 0.16853883286 0.17114496271 0.17134939789 0.17283984868 
0.17099006201 0.17119805938 0.17209850356 0.17028082217 0.17071793717 0.17143789787 0.16933911866 0.16979298752 0.17024224878 
0.16880157059 0.16562951599 0.16605211434 0.16646712618 0.16503382223 0.17892536681 0.1732125002 0.1712510652 0.17203022916 
0.16182399359 0.16057646285 0.16056767547 0.16267688223 0.17874294263 0.1772163446 0.1648864198 0.16464407417 0.16628333099 
0.16705894026 0.16878361301 0.16263813917 0.17290360879 0.17296492095 0.17217050267 0.1723978367 0.17411730104 0.17347905384 
0.16329964869 0.16294577248 0.16167954665 0.1644744942 0.16085180441 0.16187243481 0.16574137366 0.16335338751 0.16396897785 
0.16429547713 0.16611560124 0.16714864011 0.17606103113 0.17720069304 0.16090349409 0.17937509079 0.17736002125 0.17268281735 
0.17414470357 0.17486964946 0.17613574679 0.17853672818 0.17460146935 0.17495049761 0.16670976018 0.16523631202 0.16975967167 
0.1707541555 0.1689699913 0.16901604088 0.16850107427 0.1698910134 0.16730854821 0.16498647757 0.16572321786 0.16729852331 
0.16567765619 0.17572928881 0.17596717853 0.17270262039 0.17244227073 0.16402381244 0.1630412994 0.1642590385 0.1693182972 
0.16945554544 0.16370770398 0.17932793926 0.16422831456 0.16481556578 0.16528256439 0.16373338016 0.17376464497 0.16449663423 
0.16313844097 0.1629712303 0.16252330327 0.17417372455 0.17572834373 0.16359512973 0.16527738573 0.17621401941 0.16574690342 
0.16508095946 0.16657387224 0.17383551159 0.17556189224 0.16394270453 0.16375716238 0.17299173316 0.17334335159 0.17033354454 
0.16801846868 0.16825550534 0.17335140344 0.16617607494 0.17333702166 0.173961057 0.17500539764 0.17460359701 0.17594119631 
0.17131312839 0.1717911414 0.16835243925 0.16848194008 0.16969581487 0.17113985765 0.17735015708 0.17142311866 0.17380458967 
0.17325309464 0.17254055636 0.17941477761 0.17001099407 0.17514636433 0.16426755016 0.16869483565 0.16718362281 0.17572839839 
0.16925149592 0.16665872816 0.31407507975 0.24274780866 0.16666767671 0.16670057554 0.16676655827 0.16685794127 0.16697661843 
0.16711533981 0.16728524224 0.16746407093 0.16769424529 0.16793653968 0.14387079782 0.14455532164 0.14606821021 0.14820853345 
0.15059448092 0.1553364308 0.16183054315 0.17047889839 0.18880781681 0.14367908917 0.14387513519 0.16824458687 0.16855338275 
0.15866652286 0.15598361442 0.15318095361 0.15073244404 0.1444502999 0.16890819764 0.16154843793 0.1692966219 0.16960646383 
0.16976325818 0.16961853164 0.16897737837 0.16782296385 0.16614038094 0.16397382183 0.14832011693 0.14663498404 0.14538738289 
0.31655198979 0.16672849362 0.16673398135 0.24389594521 0.19051935623 0.17271060658 0.16320780109 0.15681973825 0.15319793824 
0.15021060287 0.1481326078 0.1465757698 0.14575826678 0.14493131462 0.14472085639 0.14477387966 0.14563731659 0.14619096122 
0.14666934534 0.14729189288 0.14845127423 0.14924408449 0.14997852186 0.15089382625 0.15336741815 0.15435735214 0.15589448677 
0.156810269 0.15751581246 0.1583416921 0.15894354955 0.15956599507 0.16007309087 0.16049225473 0.16088454741 0.16097115496 
0.16087599383 0.16063174711 0.16027821566 0.15968028774 0.15904877574 0.15792521166 0.15564446775 0.15398054192 0.15246906126 
0.15064214963 0.1491527007 0.14750366061 0.14648199387 0.14585118252 0.14597294557 0.14680640532 0.14800486067 0.14945943511 
0.15082487265 0.15260495983 0.15418974453 0.15590494296 0.15725008825 0.15867633882 0.15988147081 0.16107142686 0.16281843897 
0.16373594741 0.16433864295 0.16501205251 0.16547722693 0.16593250084 0.166240686 0.16651567262 0.16665279732 0.16674138734 
0.1449306745 0.14524505581 0.15160785338 0.15257847224 0.14477477398 0.14786214153 0.15511771226 0.16073751607 0.15683134763 
0.1456506199 0.16196567789 0.16665149753 0.16667035937 0.16666549731 0.16665244491 0.16666516062 0.16689562257 0.16717949497 
0.16745879224 0.16785399335 0.16814649938 0.16851949535 0.16906341773 0.16932618048 0.16949140042 0.16963862505 0.16969573533 
0.16970005591 0.16966289053 0.16957471426 0.1692632679 0.16900450221 0.16879092311 0.16849566859 0.16823677327 0.16789823958 
0.1676424833 0.16734790014 0.16690470821 0.16667174352 0.16667206643 0.16667610191 0.16667534328 0.16667123083 0.16666625279 
0.16666718268 0.16666653862 0.16666627865 0.16666802751 0.16666834124 0.16666635293 0.16666515006 0.16666576061 0.16666488849 
0.16666409004 0.1666654589 0.1667280428 0.16879252519 0.16943083771 0.16713060912 0.16667026408 0.39672768084 0.44545029597 
0.49269732716 0.49129118035 0.52387897525 0.52959208737 0.54502555825 0.55381519161 0.56092817128 0.57192177479 0.57724324167 
0.58135956059 0.57713018085 0.58193971561 0.57792461414 0.5778136704 0.57469728395 0.57421487985 0.56402651514 0.54979579074 
0.54722944678 0.51923976302 0.49935557323 0.46276626499 0.44450712585 0.51454522193 0.36077624413 0.41263884006 0.48250335809 
0.4766142007 0.53064822559 0.5165048412 0.55273314057 0.54458323325 0.5672764676 0.55973742253 0.57951705452 0.56941388181 
0.58133212406 0.58187290457 0.57931221591 0.57859916469 0.56970321496 0.57532434725 0.56337342308 0.56872369347 0.53880505929 
0.54941804341 0.49283527085 0.53069121566 0.38519992762 0.49295959921 0.42948629226 0.30590994905 0.14847767786 0.34979382035 
0.18583174467 0.26351162459 0.2051661574 0.30260843953 0.28780099923 0.3197413326 0.27047263801 0.32520704284 0.33410196553 
0.33040165269 0.29662704701 0.33796399904 0.34224699768 0.34140937831 0.34214385646 0.34101190895 0.29827271927 0.34171390393 
0.3326504301 0.33782308093 0.33343313368 0.33421552319 0.3523497996 0.33542855709 0.29666526175 0.31744334397 0.16882388727 
0.53698725768 0.42709929659 0.48882377458 0.38974281649 0.4136514131 0.51384345233 0.50048668044 0.57149589849 0.57637875831 
0.56533622514 0.57279965709 0.57661925184 0.57007008747 0.5599232061 0.3786268595 0.56012635381 0.55410919587 0.57790433723 
0.51472431449 0.54051942508 0.54973854515 0.52477933271 0.4723730785 0.48434484167 0.57721346429 0.56879796817 0.16704261628 
0.16697959377 0.16719041983 0.16711579262 0.16720804085 0.16743969172 0.16728052316 0.14005723844 0.16700266946 0.16716262531 
0.16674313287 0.1669188773 0.13741057991 0.14076509736 0.13723745014 0.13342839089 0.16214873095 0.16383576258 0.16216858162 
0.15991177589 0.16307490894 0.16324205028 0.18038661558 0.17846323214 0.18002358539 0.15560385201 0.1559806826 0.15656521151 
0.19827264672 0.20357120906 0.18971270652 0.16795653688 0.16812462044 0.16782915462 0.14317372655 0.17841548553 0.14798847013 
0.16836139394 0.16858705244 0.1686442291 0.14681043221 0.14792900219 0.16695854156 0.16686755213 0.16703557826 0.16225254794 
0.16226173336 0.16212161407 0.15243304696 0.14317382062 0.16666315074 0.16739895893 0.16729833593 0.16700997257 0.16689948967 
0.20082495477 0.19013313992 0.18373741191 0.17652108744 0.16546307698 0.16505419904 0.16698489467 0.16658926877 0.16513943121 
0.16591465568 0.16588228045 0.17365946637 0.17491460739 0.17447625314 0.17562928138 0.155583446 0.16527876091 0.15888389766 
0.16981463229 0.16310305513 0.16115077023 0.16378872369 0.16170680899 0.15552378456 0.15268212255 0.15457061189 0.16500074884 
0.1652828786 0.16643992755 0.16013669177 0.16149709852 0.16141120043 0.15190758353 0.15394733291 0.1499481652 0.16363840552 
0.16343434584 0.16352987171 0.16338559732 0.1663066721 0.16633534091 0.166401236 0.1721048165 0.17548366543 0.17096109053 
0.17462063741 0.14951080086 0.15163034469 0.15175433469 0.15377587911 0.16665629513 0.16663286943 0.16665756228 0.16663350853 
0.16939209154 0.16935476987 0.17000899438 0.15746828899 0.15855814396 0.15612508357 0.16762106423 0.1682161347 0.16683586289 
0.14962225486 0.16041222889 0.16021412778 0.15942158058 0.16982262167 0.17018932267 0.17023377464 0.17600581603 0.18456126527 
0.17391214655 0.167952043 0.16809207265 0.16828241229 0.16844698819 0.17246096947 0.17211796993 0.17152035927 0.15565781006 
0.15548234499 0.15646450598 0.15632212941 0.1522433615 0.15123619596 0.15355355457 0.1526305478 0.15328035111 0.15578312299 
0.15452680842 0.15847709292 0.16665401317 0.23248296848 0.19247839706 0.27810906246 0.21519325599 0.19509047192 0.18900474301 
0.18983167099 0.18405194564 0.16856544801 0.16865964421 0.1687787961 0.16665675996 0.16200953123 0.16478352873 0.29036031281 
0.24886071861 0.24012143324 0.16573456067 0.15722422815 0.15738130378 0.15633584471 0.15384332616 0.15509266919 0.153551506 
0.15478959526 0.16778901616 0.16804857807 0.16795654903 0.22432081974 0.21316991822 0.21337537315 0.17787568303 0.17342144829 
0.17423453063 0.16772678363 0.16791712191 0.16812842698 0.14857939173 0.16373036563 0.1639454616 0.1653779552 0.15841575332 
0.15848059227 0.15953724919 0.17047074276 0.17387894436 0.16843876426 0.17150101951 0.17156799331 0.17326965381 0.1715962906 
0.1719791402 0.17064896296 0.16375609964 0.16433338471 0.16441878262 0.16480684596 0.16490497671 0.16702105584 0.16612989951 
0.17141980344 0.15310448793 0.15365153642 0.15447165626 0.16928119154 0.1693273539 0.16925201034 0.16927191918 0.17147541002 
0.17203417597 0.18140124416 0.18985069097 0.18650939298 0.1629006314 0.16527289018 0.16533598033 0.16429862798 0.16482411875 
0.16484650317 0.16522185857 0.1546472819 0.1543817219 0.15513773875 0.15452435283 0.15696437591 0.15427117616 0.1490993484 
0.15259282267 0.16661832311 0.16656637185 0.16660368901 0.16945901525 0.16829112422 0.17331088928 0.17134912923 0.17041964704 
0.15302428533 0.15290785386 0.15182748667 0.228743919 0.20535029513 0.19799137093 0.16904465618 0.16882443322 0.16906806905 
0.15403549142 0.154535026 0.15449158385 0.16434215441 0.16541851351 0.16611809757 0.15502384888 0.15521118417 0.15664537775 
0.15678782782 0.16260789642 0.16190914805 0.15973491733 0.15988977679 0.16113640205 0.15141051669 0.15057146341 0.14971878184 
0.16654821037 0.16648887538 0.16685399802 0.15131873528 0.15212774907 0.15405085064 0.16559670215 0.16710593731 0.16676732161 
0.16676196895 0.166974449 0.17084731328 0.16974224378 0.1702620035 0.16692102667 0.16676011939 0.16712022713 0.16695469204 
0.16784228234 0.16809545757 0.1396341734 0.13593545094 0.16770953834 0.15092742212 0.15089961323 0.15361430714 0.16820124325 
0.16879200455 0.16737216237 0.16810682706 0.15280898237 0.15664065701 0.15699813824 0.15679668825 0.15714814269 0.17417529381 
0.17568662504 0.16718048679 0.16916095398 0.16884278748 0.15431996091 0.1504619432 0.14979606837 0.16578388929 0.17946577415 
0.1794192744 0.16679070916 0.16851214216 0.16717193609 0.16736818515 0.16892987433 0.15336236323 0.15846158247 0.16100299313 
0.16250090281 0.16313199521 0.16119607121 0.16162636138 0.16721678033 0.16548693398 0.1661904125 0.16522302534 0.16622742144 
0.16652042713 0.1663892901 0.16669622856 0.16684331353 0.164480263 0.16557552307 0.16554356182 0.14974729052 0.1954509651 
0.16706543482 0.16705912072 0.16684206138 0.16606696754 0.16637097211 0.1562550913 0.1564504815 0.15570152698 0.16845108992 
0.16789385154 0.16623139507 0.17170177116 0.17614279239 0.17248580905 0.16102735153 0.16184916285 0.16055896408 0.16659507486 
0.1764200765 0.17817145741 0.17915866221 0.17860350178 0.16699477071 0.15092029301 0.1636790611 0.16398290744 0.1638622861 
0.16246598035 0.16349553643 0.16566184789 0.18589693223 0.1814098486 0.18062205986 0.16529286173 0.16360252576 0.16506412722 
0.17313384486 0.17812727934 0.15650705162 0.15674565442 0.15583917451 0.17391467414 0.16666372526 0.18602662866 0.17106357082 
0.16745071777 0.16730590736 0.16729038959 0.16708286085 0.15641426619 0.15262816499 0.1554819708 0.15194697224 0.16128849117 
0.16121077439 0.16250339835 0.16598778723 0.16462916429 0.16621428801 0.16485005958 0.16336737238 0.16776052865 0.16756007512 
0.15449872796 0.1667359517 0.16689240209 0.16681273427 0.16889996384 0.17182192147 0.16739012146 0.16848236876 0.16715331518 
0.16129820653 0.16343809291 0.1603021512 0.16763302615 0.16776458544 0.16758965622 0.15362276387 0.15738052761 0.15772810199 
0.15727315671 0.16451457014 0.1649200604 0.16285094319 0.14632475072 0.16802357443 0.16788282009 0.16968423167 0.16988544528 
0.17031479059 0.1697994279 0.17014990686 0.14418613514 0.14188559855 0.17059179037 0.16992948415 0.15952419377 0.15644679359 
0.16138624346 0.16543774678 0.16569291592 0.16538668854 0.14905673123 0.14582028103 0.1471715874 0.16657517355 0.16662564764 
0.16657193107 0.17009688777 0.16991429988 0.17046173401 0.1703036083 0.16822247007 0.16845603752 0.13322461135 0.16111555116 
0.16175982914 0.16270785213 0.16339250418 0.18312495826 0.17902650862 0.16155592035 0.16906561824 0.16934768754 0.16967705539 
0.17153776335 0.17265956395 0.17129628293 0.17055824085 0.17098868303 0.17024450502 0.17057901278 0.17151883495 0.16871846189 
0.16822636016 0.16077375249 0.16373149549 0.16489864712 0.17796324473 0.16958382022 0.18605952676 0.17252353363 0.17327866084 
0.16277852182 0.16492833846 0.16593778667 0.16778436061 0.16614264823 0.16630614321 0.16677974241 0.15267773907 0.150891953 
0.15222391763 0.15307855208 0.15258753377 0.15118034908 0.16655357034 0.1663460718 0.16663900692 0.17010137193 0.17065924161 
0.16939893472 0.17000239045 0.13187201673 0.13526487554 0.13385913955 0.13831684529 0.15658549601 0.15612409043 0.15694019726 
0.17607826569 0.17791648924 0.1768201949 0.15475548597 0.15138688079 0.15408775262 0.17195759171 0.17295740617 0.17286831891 
0.13606228212 0.15534417831 0.17277204223 0.17178892826 0.17370395912 0.16221732727 0.15544341348 0.15490995577 0.14953553161 
0.15229936223 0.14879718829 0.18163863988 0.18233960054 0.1777674359 0.1512687848 0.15028707496 0.15177162246 0.15109424716 
0.16906164552 0.16874489801 0.17211198085 0.1693026546 0.17252039268 0.15560200893 0.15956285857 0.15472269676 0.15268425386 
0.15189121643 0.15320084677 0.16045965142 0.16145439575 0.16046153269 0.17946935883 0.18195162648 0.17654007501 0.17759193761 
0.18215556684 0.18507371946 0.1446867393 0.14430438892 0.17975216867 0.18480239545 0.17206594585 0.17456641051 0.16661182164 
0.16656427684 0.16618964841 0.16484000648 0.16538563837 0.16425347095 0.1666769178 0.16670985808 0.16670714097 0.15778793537 
0.15827899565 0.15546260824 0.1559028294 0.16398141495 0.16422338712 0.16413487795 0.16678061886 0.16684221987 0.16674475039 
0.16679766783 0.19993779981 0.19191706197 0.18602518294 0.17070800277 0.17328065073 0.17489804196 0.17915393528 0.18400971774 
0.18129470632 0.16892634892 0.16908253373 0.16903955966 0.16917023088 0.15845713529 0.16184384302 0.16175592062 0.16017893074 
0.18965106826 0.18643796945 0.18603445526 0.16672404283 0.16607368563 0.16625811959 0.16678524369 0.13934887603 0.15689698812 
0.15794067957 0.15652065398 0.15756580344 0.15932972323 0.15770809733 0.15779955705 0.16023492858 0.14953827275 0.14790805498 
0.15072356103 0.18099646033 0.18330769953 0.18274256456 0.1560138929 0.15851999435 0.15868973432 0.16764293092 0.17653016293 
0.17851575948 0.15303687523 0.18305284981 0.16543302733 0.16597385321 0.16367271726 0.16397809279 0.15970626707 0.16059105119 
0.16170320937 0.15970490184 0.16692098189 0.16733566802 0.16648147916 0.16688911211 0.16818049585 0.16696503008 0.17815104453 
0.18141620423 0.17574173547 0.16808450095 0.16877659661 0.16779857094 0.16842339438 0.14678454869 0.15082786596 0.16826022336 
0.16799079047 0.1528777343 0.19149194519 0.19687868858 0.16824879795 0.16705425488 0.16711073568 0.16680799469 0.16747723036 
0.16668457803 0.16669073547 0.16667194192 0.16664339201 0.18203252461 0.17673463261 0.17560986077 0.18166900268 0.14045237038 
0.16709735747 0.16165648021 0.16016213235 0.15992059367 0.15997323106 0.15916056906 0.15721323524 0.16709558543 0.15324433844 
0.15098115122 0.15306539371 0.17756722503 0.17877602036 0.17584634459 0.17725207541 0.15604513763 0.15883909245 0.15807897651 
0.16667025986 0.16666905767 0.15755296879 0.15706897218 0.15694193361 0.16390574591 0.163819045 0.14596001123 0.15956050627 
0.160413482 0.15964382693 0.16162234142 0.1581131872 0.15993332146 0.16954640015 0.16976828671 0.16950682547 0.16654016251 
0.16722141947 0.15903405371 0.15976803713 0.16014050271 0.16923811509 0.16920026991 0.16915685145 0.15584701878 0.15481955148 
0.15686831728 0.16667010021 0.15997047617 0.15702329382 0.16566482815 0.16513444867 0.16567010811 0.16848884225 0.16806020144 
0.16643414108 0.16610156532 0.16393625285 0.16333810341 0.16276657588 0.15191975695 0.15965435641 0.15960075452 0.15853600922 
0.15844280245 0.15655637883 0.15612205704 0.19342140021 0.19313004378 0.20490552593 0.15733077369 0.15730470638 0.15714372651 
0.16956938098 0.16973772986 0.16945777461 0.15229319801 0.1527536099 0.15223972786 0.15281878104 0.15760775994 0.15637402359 
0.1402953954 0.14388066299 0.15693452534 0.16499669241 0.15329709357 0.16693244657 0.16733197184 0.1686259249 0.16849629474 
0.17451799359 0.17321784374 0.14125960718 0.13610770695 0.13277347051 0.12624740631 0.16284639936 0.16199641703 0.17090504635 
0.17171053022 0.14486888479 0.18320985424 0.18633427575 0.1851571661 0.1611695057 0.16122425879 0.16083753807 0.1637493715 
0.16637948104 0.16519366562 0.18318723602 0.18723729498 0.16643094466 0.17949697882 0.16627007452 0.16647190972 0.1665616421 
0.16655742428 0.16660825771 0.16642269129 0.16483687896 0.16507864886 0.16352084722 0.1481378244 0.15063775895 0.14781250487 
0.15009295781 0.15964867703 0.15927275885 0.15908371304 0.15871667803 0.15813778381 0.16171984445 0.16102315292 0.14883052373 
0.15533500328 0.16398840002 0.15266401074 0.15432438881 0.15120630158 0.16829286599 0.16960311273 0.16937424984 0.15066394492 
0.19928136566 0.15986793178 0.16117889823 0.16098528287 0.16981562293 0.16739893749 0.18253416546 0.18182162673 0.23764412227 
0.20783829616 0.15663554995 0.15919578354 0.16561514111 0.17694139388 0.18346078031 0.17887529272 0.18487087857 0.16428038677 
0.16608236115 0.1889946525 0.18465271823 0.16182398052 0.17466665826 0.13768892034 0.11755408095 0.13143642924 0.10048317119 
0.17188426711 0.16157035255 0.16755832746 0.16712898636 0.17020957887 0.16918056534 0.19245803369 0.20210243152 0.18936643842 
0.18483991138 0.16545411299 0.16562295988 0.16638629473 0.16343915965 0.16489958735 0.16454002644 0.16553247817 0.2275616494 
0.20808148345 0.20726975878 0.15507050669 0.15617018405 0.16540234014 0.16504488761 0.16478028552 0.16188072362 0.16265272089 
0.16298069398 0.17094769066 0.17097397342 0.16334305697 0.16451939391 0.16654322348 0.16660112413 0.1469371784 0.12274678048 
0.14077266117 0.1319347874 0.20928586198 0.27089771716 0.10317851113 0.12056545367 0.16215108946 0.16288022701 0.16417057189 
0.16766601577 0.16524212539 0.16473794829 0.16734445491 0.16722332151 0.16770113145 0.16792037335 0.16827438357 0.17020838374 
0.16531263593 0.16511495307 0.1631683977 0.16552383844 0.17282623367 0.1717451581 0.16286154172 0.16187094861 0.16626283327 
0.15791575203 0.15466638099 0.16906959067 0.16960478986 0.16944600785 0.17001631168 0.16185345626 0.16199115183 0.16147143512 
0.16135403585 0.16027935617 0.1680934624 0.16833951397 0.16989951661 0.17235420585 0.17169528925 0.17274333402 0.15384217634 
0.15508845993 0.15400804906 0.15520512686 0.15870831642 0.15965740824 0.15867168611 0.15349211199 0.15326109069 0.16481172013 
0.16325958434 0.16924814776 0.16949978739 0.16919875172 0.15210306333 0.15285892599 0.15736903067 0.15767415464 0.15740756705 
0.16935843611 0.16952508743 0.16950669739 0.16668286309 0.16666809595 0.16668041064 0.15089095999 0.14544497616 0.14890981651 
0.15384514727 0.15920020327 0.1581495268 0.15665290986 0.15562408531 0.15285160118 0.16674874038 0.15364252546 0.15657696776 
0.15117390006 0.15439826476 0.16685208295 0.16766699471 0.16798272837 0.16815772212 0.16702502831 0.16596274149 0.16617543869 
0.16624895437 0.16635556211 0.15367328653 0.15555062627 0.1549852513 0.14683210935 0.14474154907 0.14745980427 0.16646698536 
0.1665247646 0.16644354041 0.17577450776 0.1768392587 0.15718865803 0.15819123332 0.16662519353 0.16458465414 0.15391300555 
0.15497029965 0.15483917755 0.16347636168 0.1664008237 0.16494084157 0.15625957005 0.16662411856 0.16657466056 0.16658489333 
0.1627795726 0.16173002356 0.21577178938 0.1521272713 0.15225500562 0.15204038652 0.14826606724 0.15649119248 0.15811287729 
0.1584861174 0.15780874951 0.15730241079 0.15741266793 0.15762017638 0.15813587327 0.16667867103 0.16666739952 0.1334166996 
0.1624463322 0.16528049098 0.16574863237 0.16565129231 0.16409687211 0.16450934294 0.16364045022 0.16410261467 0.1734959494 
0.16647757897 0.16657843403 0.16653894465 0.16663109595 0.16258569563 0.15320819444 0.16819142156 0.16939241153 0.15822811649 
0.15852834018 0.15938768276 0.14278554436 0.15953678816 0.15920945941 0.16048423301 0.15868768271 0.16015447567 0.15503143306 
0.16672071813 0.16678228089 0.16618453281 0.16625868901 0.15576175423 0.15819671863 0.21921069589 0.24108246533 0.15797484339 
0.15858045132 0.15840404209 0.16733750523 0.16813015976 0.16796018678 0.16827556692 0.15753738142 0.16852442402 0.16874412939 
0.16633983708 0.16637897146 0.16712190094 0.16728257719 0.16639173232 0.16717284996 0.19772523867 0.21472770912 0.22287140917 
0.14414227577 0.1473523885 0.14737755826 0.19753074584 0.19002735719 0.1932421081 0.15924367295 0.16738481743 0.16759185338 
0.16769207908 0.13824092732 0.15575687589 0.14713745683 0.17204372225 0.15496312698 0.17152017749 0.18143110008 0.17353003333 
0.17723183552 0.17287449612 0.17695106551 0.16545624602 0.16409713147 0.16736209262 0.16720594952 0.16744092891 0.1603298457 
0.15833290747 0.16902393591 0.16993639618 0.16992588891 0.17015405681 0.16103321095 0.16153482047 0.1605439498 0.17261388349 
0.15930288725 0.15791092264 0.16034402607 0.17767810997 0.17346152052 0.16514347998 0.16472625656 0.16530582205 0.16371288252 
0.16385596445 0.15319661922 0.15594961096 0.15312407944 0.16569371031 0.13483146984 0.12644033831 0.1331996369 0.17228303443 
0.17066936254 0.16606409358 0.16596062914 0.16619690032 0.18188806949 0.17032429614 0.16133258582 0.16071329938 0.14634352776 
0.16559084868 0.16577925264 0.16718045236 0.16758402057 0.17005982457 0.19146144914 0.20690867451 0.18816771989 0.16929255638 
0.16926666554 0.15138483978 0.14974514585 0.15182198206 0.18083278808 0.1825169813 0.1695014295 0.17162826881 0.16848976235 
0.17062269407 0.16922303979 0.17012667741 0.1681109218 0.16903300309 0.16846861507 0.16874730198 0.16318883347 0.16161155673 
0.16189555203 0.16031722238 0.17470571885 0.17346784575 0.17195127272 0.17181486351 0.17333099816 0.17536552091 0.17803525261 
0.16265513377 0.16123707771 0.16254172367 0.20627987997 0.19875520865 0.17665625151 0.18139771364 0.17805311126 0.16812807904 
0.14891835749 0.14966273698 0.15354829712 0.1667206173 0.16769316502 0.15746960714 0.15800900251 0.17525021819 0.17564540647 
0.13551065646 0.13883177792 0.13867270466 0.16754086621 0.16598598079 0.166154523 0.16607923891 0.16591620273 0.16578805462 
0.16887839076 0.15960262773 0.15714807029 0.15746781706 0.17834344517 0.17432271814 0.18405518151 0.17972255002 0.16475412275 
0.16535985726 0.16619645195 0.1666646808 0.1438874334 0.14734073221 0.14556720135 0.16951392657 0.1698318115 0.16937002852 
0.16394150741 0.1626943593 0.15602613325 0.15543503127 0.16353584047 0.16664637554 0.16665834729 0.16664006965 0.16317113286 
0.16158272125 0.16147231185 0.1672027604 0.1656641121 0.14951705797 0.15336159559 0.15572729783 0.16703941998 0.16891429062 
0.13691356759 0.16954403022 0.17045919932 0.14563932598 0.17244155269 0.16377732581 0.16375788119 0.16572227192 0.16414645419 
0.17254815205 0.13730685577 0.1782555208 0.1624444575 0.15510461158 0.15586977723 0.15920414385 0.17499991317 0.17476619439 
0.17935506388 0.17369535474 0.1736161375 0.22826269487 0.16874905336 0.1700126532 0.16998024014 0.17124666471 0.17217067747 
0.17333108075 0.15089357161 0.16719020674 0.16849788262 0.16725195302 0.17774885131 0.26057038378 0.18912387956 0.1528127733 
0.15287582363 0.15371092566 0.15223213192 0.15219815422 0.16914862119 0.15537088472 0.15366998842 0.15005769554 0.15361869866 
0.1648970074 0.16646640571 0.16884575023 0.16941343058 0.15141731862 0.15181522962 0.15374825121 0.15635377608 0.16570845321 
0.16534518515 0.1483424976 0.14538057305 0.14656594495 0.1666593202 0.16553477106 0.16569846353 0.1683221283 0.16892714946 
0.16871527375 0.16664140016 0.16665490946 0.16665794126 0.1555964025 0.16757024795 0.16495109579 0.16541053291 0.16550541632 
0.14929568108 0.15113813153 0.16737134636 0.15499582289 0.15315036365 0.15320934296 0.1629078731 0.16191870968 0.16434741791 
0.15708177935 0.15579480087 0.15536614943 0.16955101719 0.17012744635 0.16412132057 0.16581004014 0.16457257754 0.16003069657 
0.15841831775 0.15734770172 0.16404061242 0.1631588401 0.16361968767 0.16820499811 0.16933205622 0.16928677668 0.15117656889 
0.18098042531 0.17154310571 0.17118817132 0.17257457307 0.16688692728 0.1668956331 0.16526541486 0.16455462926 0.15888503129 
0.15965467922 0.15891588954 0.1596217096 0.16812120391 0.16849807762 0.16783022549 0.16704075402 0.16619750161 0.16994887804 
0.1686778143 0.17013631424 0.16421548544 0.16771722163 0.16882724161 0.1663623649 0.16945421111 0.17968907647 0.16662918891 
0.1665874508 0.15410741009 0.15247378989 0.16457431233 0.15989654655 0.15591945322 0.15765705144 0.10921878839 0.11794580844 
0.16248584653 0.16858454269 0.16887003156 0.17051686676 0.17091332685 0.16628609453 0.16397479714 0.177758923 0.19622014681 
0.20145388028 0.19129466105 0.14186812791 0.14487231431 0.14112210532 0.15460278385 0.16873969382 0.12924909484 0.16139707812 
0.17261531787 0.16406902917 0.165985733 0.16519781924 0.16797872209 0.17014301962 0.17481935673 0.1567266178 0.15737844967 
0.15875928502 0.16663604848 0.16665735889 0.1666008693 0.16663212558 0.15805800166 0.16909624672 0.16982481509 0.16030912985 
0.16667297859 0.16671448307 0.16671044391 0.12619631498 0.16567750923 0.16644396416 0.1614336898 0.15994833264 0.18938491923 
0.15842414541 0.17096185512 0.16844306669 0.15044172153 0.16737460343 0.16857207678 0.16896637617 0.16923688658 0.16860930173 
0.1688684894 0.16571148645 0.16614693666 0.16576418525 0.17232589223 0.17272542637 0.164993308 0.16540069145 0.16584901115 
0.16598623425 0.16607595051 0.16929341386 0.16177350259 0.16656835783 0.16653419284 0.16662577466 0.16646476617 0.16632757647 
0.16639174536 0.1613663077 0.163898762 0.16593994975 0.15781990373 0.15799530089 0.1659630762 0.17375215582 0.15881577259 
0.18678546989 0.18201091979 0.16985599843 0.17013384334 0.15609271495 0.15765328792 0.15712146487 0.15766797183 0.15647060819 
0.15706446588 0.16876449564 0.15825236098 0.15844947644 0.16671639936 0.16667538883 0.15719749164 0.15832884981 0.15917786268 
0.15971911905 0.1591277296 0.17381178482 0.16780062638 0.17213123523 0.17181059605 0.17323840998 0.16984362705 0.16619373093 
0.16792508092 0.16782378389 0.16837449128 0.16882911304 0.16900203866 0.16892022364 0.15818219878 0.15821156584 0.15776627172 
0.17631215353 0.19395389361 0.16588609132 0.17777130287 0.18127737566 0.18645182766 0.17048796365 0.17382416689 0.17329567395 
0.17689234663 0.16663539695 0.16146309504 0.15634073132 0.16977898883 0.17593148656 0.18122147548 0.16372921862 0.17358921685 
0.16933286751 0.16728208916 0.16764430159 0.16669981177 0.1646916558 0.16126578152 0.16336100821 0.16693204413 0.16585925187 
0.16625652305 0.16535399207 0.16897776313 0.16640768622 0.16649671711 0.16902730759 0.1688028933 0.16897112387 0.16946111935 
0.16667303359 0.17909650355 0.16774064321 0.16449991572 0.16408554352 0.18633574974 0.1569998712 0.15735900686 0.16467297289 
0.16614491801 0.16594572269 0.16758062499 0.16746077823 0.16962569739 0.16846665038 0.16976708592 0.17333466944 0.17212851986 
0.19593933535 0.15675491806 0.15692293996 0.15644872539 0.15681399715 0.13326426965 0.12855111604 0.17033744093 0.16308176789 
0.18295071963 0.204667609 0.19472212461 0.14232498868 0.13866636232 0.17082736299 0.1712574531 0.17124255877 0.1701275402 
0.16966117516 0.16962673586 0.16399416528 0.16779713054 0.15825498192 0.16695821146 0.15901384038 0.16767577753 0.16721386394 
0.16669699704 0.1708145767 0.17062572533 0.1685764236 0.16020818036 0.1592600636 0.18133858304 0.19360938264 0.15751364419 
0.16598139143 0.16753194492 0.16932830332 0.1666108664 0.1761577953 0.17386371595 0.16495541553 0.1640571123 0.1661206816 
0.22626707386 0.17145575294 0.14546245027 0.16666738703 0.16696449369 0.14585295266 0.19190855824 0.19322853976 0.16691931163 
0.16726388741 0.162935737 0.16879384419 0.16991801957 0.16651407556 0.16649802353 0.17035179817 0.17150529551 0.16743543772 
0.16595132693 0.1676556196 0.16099126132 0.16073122276 0.16483058298 0.16437276912 0.16359372139 0.15227844132 0.15199120935 
0.16494514938 0.16602559418 0.16531598063 0.16517788092 0.16907823276 0.17012007763 0.16105538088 0.14831287074 0.14818396278 
0.1743140282 0.17209338502 0.17064245637 0.17050787798 0.17153412715 0.1699396686 0.17852383741 0.17674434779 0.16978733436 
0.17000315276 0.17102576671 0.17146748851 0.13747556743 0.16583684023 0.1656290139 0.16569961887 0.15772636179 0.16832133323 
0.16724633368 0.17063773513 0.17076026942 0.1633881879 0.15842277254 0.15804235069 0.15157787929 0.14801318534 0.17039287337 
0.16838417809 0.17038411833 0.16833315402 0.16016984671 0.16354539705 0.15900882813 0.16207396363 0.14849517456 0.16202809496 
0.17262978969 0.16578659171 0.16516124553 0.16572062553 0.16503785758 0.15738263334 0.16220012159 0.1614961203 0.15888487075 
0.15876952395 0.16687111574 0.16670464278 0.16675404551 0.16012251992 0.15902340375 0.15876887843 0.17150271286 0.15717608366 
0.17035683163 0.16995441415 0.16964569686 0.15733589351 0.15724432373 0.16671827247 0.16674157191 0.16668580288 0.16677110872 
0.16586392545 0.16336114264 0.16066948019 0.16202570057 0.14993974292 0.15046767725 0.15187776333 0.14462824164 0.14961847022 
0.15090692126 0.15181011527 0.15179132249 0.1378822457 0.13785099109 0.16759290596 0.16859028652 0.16770368511 0.16679206194 
0.16914779743 0.16727239397 0.16568640995 0.164999032 0.16462645604 0.16453891007 0.16420958927 0.16241674914 0.16153787762 
0.16428168158 0.16334999325 0.18763667566 0.19144552245 0.17348802042 0.16891715719 0.17230962489 0.17158742186 0.17128691033 
0.17049768158 0.1645642058 0.1706548356 0.17262441818 0.17298675812 0.16642098083 0.16600120108 0.16755373824 0.16496330108 
0.16976775193 0.16933452876 0.17074170373 0.17097765779 0.17058524483 0.17117343831 0.16650297887 0.16642444407 0.16618382778 
0.16627306217 0.16642146518 0.1617706092 0.16322847528 0.19080317098 0.19285516719 0.166306007 0.15750242646 0.15882749349 
0.15772747691 0.15910857836 0.16664156405 0.16027505955 0.16424249959 0.16346190569 0.16399515522 0.16901720326 0.17037632897 
0.16886055943 0.15785141512 0.15767429825 0.16350534178 0.1640693178 0.15814756407 0.14957506636 0.1602885346 0.17845617944 
0.17453416988 0.15639159838 0.17110940408 0.17816072717 0.16182487729 0.16334259145 0.16301557191 0.16053887621 0.16118402384 
0.15964569066 0.16518234843 0.16800495783 0.16774112582 0.16423658138 0.16395949709 0.15914084623 0.16829829704 0.16699245657 
0.16670405578 0.17584685428 0.17295096544 0.17499281989 0.16671830888 0.16687423783 0.16675899384 0.16165455725 0.162927672 
0.16741801004 0.16656603809 0.16649976197 0.16654324614 0.19813441888 0.20964646161 0.16649127273 0.16657978519 0.16016193685 
0.15981463987 0.17966245809 0.1699386397 0.15781008609 0.1618546681 0.16105551718 0.15435220198 0.17667894028 0.14610315901 
0.16051001845 0.1648927762 0.16403888198 0.15431320484 0.15565424716 0.15231080426 0.16907748702 0.16923012159 0.16547274328 
0.16450778479 0.1674590518 0.16471821328 0.16534868796 0.16532440229 0.23534467995 0.16684789816 0.1685178578 0.16150851447 
0.16062886247 0.16065263814 0.16114940579 0.16206220655 0.1609502577 0.1552573766 0.15980214502 0.16035168884 0.16111403665 
0.14496538617 0.17060545418 0.16144952348 0.16216464571 0.16286266504 0.22082926717 0.16969994932 0.17166648166 0.17190248571 
0.15611726209 0.15620638582 0.14747158446 0.15019923985 0.16939343008 0.1847496751 0.19503226862 0.18689248829 0.16964647453 
0.16845641414 0.17270878957 0.13980992165 0.16916162786 0.17990551887 0.16653160089 0.16860166871 0.17445107703 0.1804863506 
0.20315368628 0.22016818357 0.16934836919 0.16945271674 0.16336223593 0.15470369654 0.16781498909 0.16924774647 0.15776582527 
0.16431670125 0.15428312142 0.15796234997 0.15494674971 0.16662530928 0.16232019624 0.16065824206 0.16752930422 0.16270569166 
0.16250688347 0.15505396599 0.15648675178 0.15646291907 0.16861011617 0.14976271726 0.15308138404 0.15182771927 0.15540091079 
0.15449622335 0.15572601416 0.17609645617 0.14506085024 0.17063287917 0.18522478308 0.16389735775 0.16312005165 0.16851204089 
0.16313054693 0.16392352458 0.16102554684 0.16403844046 0.16262152498 0.15858802423 0.14892525736 0.16468178898 0.12843642084 
0.13978860805 0.15549717787 0.15623459448 0.15228115704 0.15042219742 0.16649166737 0.1681525656 0.16045664454 0.17070754981 
0.17470644376 0.15345376291 0.15333864678 0.16666427912 0.16667990011 0.16667341332 0.16666630918 0.15484794249 0.16449201857 
0.15022607466 0.1517639294 0.1509015375 0.16560479839 0.16569975417 0.15805020859 0.15657843886 0.15442684749 0.16674847045 
0.16690801637 0.154542898 0.16475027169 0.16173011445 0.16154840321 0.16178274477 0.16151134777 0.1539860306 0.15378353522 
0.15443486312 0.16583461798 0.17145329157 0.17159179278 0.16826215303 0.16828907598 0.16671275331 0.16662256505 0.14426618211 
0.15190664655 0.14630088279 0.14265454155 0.14892355139 0.14810450245 0.14542626621 0.14161554167 0.1687747488 0.17603672647 
0.17866700667 0.16889932912 0.15053935009 0.20277180866 0.21271798598 0.18942101333 0.17894010397 0.1807823335 0.18191281818 
0.18117414799 0.17017981662 0.17369403008 0.18988078746 0.17660184346 0.16737840257 0.16830897569 0.16798678942 0.15626170785 
0.19272662669 0.21178170297 0.17782071886 0.19135898239 0.1659804873 0.16296985566 0.16389236751 0.17490140993 0.18237568662 
0.16654237791 0.18510187646 0.15639352227 0.17010317316 0.16241072536 0.16594793562 0.16662055492 0.16939676284 0.15709567413 
0.15703615524 0.17767638092 0.17130545457 0.15707698336 0.16864758242 0.166669992 0.16687391311 0.15735874099 0.15486353297 
0.15668966801 0.15793592271 0.16978841497 0.17025747155 0.17019031914 0.16261628193 0.15558673698 0.15636333099 0.17130596519 
0.16994321304 0.17155553402 0.17008535012 0.17528010349 0.17606752565 0.17362877141 0.16636740604 0.16509602151 0.16607016941 
0.16632411997 0.16447179873 0.16308781039 0.17041899548 0.16785898311 0.16552838155 0.18320260864 0.18099970178 0.16176758444 
0.16321025855 0.16613927468 0.15284954314 0.15091058303 0.16426907277 0.16627244377 0.1660517904 0.16631765317 0.16630428997 
0.16618888929 0.15424496713 0.16357963363 0.16344639922 0.16666200007 0.16665742467 0.16665292413 0.16640839382 0.16642686305 
0.15854362641 0.16096326509 0.18232608869 0.18687184386 0.18161975112 0.1802505945 0.17535419168 0.169322996 0.1691501207 
0.16944785139 0.16081779164 0.13978635245 0.14108159302 0.15905658438 0.17180204303 0.17280936063 0.16751460353 0.16734413395 
0.16848279067 0.16859450119 0.16824808541 0.16835002616 0.16615929413 0.16469215252 0.16778653412 0.13453151505 0.13325984035 
0.13576390059 0.16970075006 0.14138810868 0.1404142484 0.14222729697 0.15724721946 0.15717788525 0.16531511502 0.16661093502 
0.16649808898 0.15100926412 0.16602564909 0.16640455468 0.15658112322 0.15744890269 0.15714846675 0.15828047885 0.15723358007 
0.15206590393 0.16635908364 0.1667987503 0.19115081584 0.16827361749 0.16808245952 0.16680722238 0.16811611676 0.17186129155 
0.17455615222 0.17331191473 0.16296439218 0.16060715065 0.16097246302 0.15220781659 0.17690598311 0.14382779402 0.16899340843 
0.17059435547 0.17043813051 0.16256909125 0.16160562294 0.16204481462 0.14103467674 0.14260664257 0.16264391141 0.16080916658 
0.14449976625 0.1501557092 0.16440881534 0.16399626116 0.14514846824 0.14885568884 0.14358795227 0.14342861473 0.15861014441 
0.15789388795 0.16638094063 0.16274041108 0.1652069367 0.16701597053 0.16677539382 0.16842249651 0.16815194914 0.19264828795 
0.18923824936 0.16756546043 0.14864536954 0.14800592186 0.1671793237 0.15157006458 0.14977220852 0.14945448812 0.16818896108 
0.1668122815 0.16948019407 0.17030296792 0.17085267732 0.16738968936 0.16787626868 0.17056056381 0.17197262748 0.17258565461 
0.17722970175 0.1742696 0.15612684282 0.15304479366 0.15820250615 0.16201823613 0.16798494329 0.15834405328 0.1673788704 
0.1662788558 0.14170429759 0.14694863662 0.15475373721 0.15659136107 0.16444413379 0.16396139669 0.17042374197 0.16682712778 
0.1618669975 0.1694740195 0.168838487 0.16119653014 0.16149484668 0.16346402743 0.17045398066 0.17058543049 0.16568373157 
0.16431322783 0.15612452538 0.15206375075 0.15527515512 0.17079484191 0.16454025807 0.16818643237 0.1553373234 0.16616774277 
0.16591703316 0.1643477562 0.16415705813 0.16485461155 0.16448977303 0.16421494453 0.16910271881 0.16909199438 0.14675557235 
0.16620169012 0.1757672406 0.177234756 0.17704460447 0.17902201467 0.17517363623 0.17119009224 0.17266334452 0.17412693002 
0.16369771639 0.23850890518 0.16663772982 0.16670110251 0.16683128988 0.20532672954 0.16667105556 0.17516966764 0.17016994625 
0.1694597042 0.16730110725 0.17122789004 0.17082200019 0.17067398791 0.15576603422 0.15674122577 0.16430956221 0.16250516441 
0.16563402626 0.12024130853 0.16851268925 0.15680412015 0.15752474279 0.15718040214 0.16934566261 0.16196654657 0.1632061055 
0.16496111039 0.17456545221 0.17311677398 0.13714220911 0.17356137206 0.15027916557 0.18064927273 0.16846546992 0.16753329497 
0.16587009706 0.16600937812 0.15059403525 0.1651737669 0.15473436906 0.16470464183 0.16355499792 0.16598485159 0.16576511813 
0.18019769839 0.16776118788 0.15560119658 0.1556940187 0.16392514994 0.16662026711 0.16665220875 0.17255626268 0.16349636986 
0.17091980642 0.1684665372 0.16852802174 0.16508413345 0.16484117077 0.13820924806 0.16383594936 0.15370110458 0.15468106425 
0.15715138686 0.1581148025 0.18045899764 0.17437033603 0.17508106178 0.15471620706 0.1505102727 0.15703880454 0.19953454177 
0.16245458789 0.161523352 0.17205916943 0.16574703646 0.15866930065 0.15990587076 0.16038756688 0.16017459789 0.16203647679 
0.16257872903 0.15879891791 0.15879058068 0.17320574209 0.14533458478 0.16706289173 0.16917749238 0.1712001768 0.16932388287 
0.16945920236 0.17719742584 0.1761075755 0.16196520508 0.16931975719 0.15052396591 0.17477065503 0.15755023873 0.17362279393 
0.17450083564 0.16722594352 0.15706490505 0.17003937135 0.15236410834 0.16894406453 0.16917000308 0.16838694699 0.1215171342 
0.13560198427 0.17591789117 0.18000171568 0.1649116408 0.14803271847 0.14980326027 0.13691126709 0.14575076306 0.14940283671 
0.16195402693 0.15224961691 0.15011329581 0.15041904509 0.16674132191 0.16921498236 0.18352291199 0.17303250316 0.17272131549 
0.14999465709 0.18251921559 0.16671219395 0.19041351202 0.16880609614 0.16574510807 0.16973074376 0.16902291063 0.1674740007 
0.17259896406 0.17156071575 0.17620563029 0.18029225893 0.16670406138 0.16681445621 0.15255075398 0.15678083045 0.15721167793 
0.15780094148 0.16936866569 0.15639091539 0.15965189938 0.15922249621 0.16591548658 0.15866828916 0.17832108613 0.11845104846 
0.12979031435 0.21571793807 0.18512815186 0.18551867527 0.16661942131 0.1023558835 0.11361157678 0.18961480848 0.18977878021 
0.15779072458 0.15771942387 0.16027190885 0.15741097336 0.1689777386 0.16420696498 0.16626428288 0.16743396607 0.15910741485 
0.16940450164 0.16928830523 0.15186629939 0.15399182493 0.15302458486 0.16666490876 0.15791758831 0.16714273314 0.16659218815 
0.16665890207 0.1670750481 0.16515885055 0.16418968756 0.16419284989 0.1577517069 0.15143004326 0.14982452312 0.15099824085 
0.16408014289 0.16379395246 0.1645885476 0.163083729 0.16109665237 0.17001557688 0.16754006281 0.15180084901 0.17344149206 
0.16431844306 0.16465636144 0.17724823367 0.17277167589 0.12992942567 0.12611333282 0.16397538887 0.17621884361 0.14684775655 
0.16833341836 0.16839155486 0.16851045615 0.16093150904 0.16493301251 0.15396410257 0.1813784908 0.16727610664 0.16771065198 
0.16458504429 0.16259690755 0.16939801082 0.18004932316 0.17216830188 0.1484567035 0.17154320229 0.19908998724 0.17778595163 
0.16589686318 0.16410549137 0.15982490874 0.17405718105 0.15833440265 0.16234631505 0.15945762634 0.16640381496 0.1470553081 
0.16769687852 0.1480254152 0.15035689257 0.15615555323 0.16462351451 0.1634236013 0.14456744729 0.15202382686 0.16554436319 
0.15127706781 0.17096538001 0.16586673294 0.1563352071 0.16150769064 0.16861024995 0.15708242158 0.17079804321 0.17386110641 
0.17272898057 0.15138870077 0.17521276619 0.20243894884 0.19891333301 0.16646743928 0.21325976094 0.16392352703 0.1700144118 
0.17917497893 0.15984839016 0.18313243041 0.17426622043 0.16743989607 0.16902927561 0.16698311913 0.16721514815 0.16524592669 
0.16939297167 0.15543475963 0.21085376684 0.17323086303 0.16547859679 0.16510917782 0.16886975552 0.16780580468 0.16102126176 
0.17430012567 0.16854467647 0.16474491015 0.164564883 0.16286268653 0.16632822183 0.16083969599 0.16508558913 0.16949181411 
0.17113677608 0.16132896622 0.16725124225 0.16766714132 0.16886446256 0.16798982333 0.16233049835 0.16572576348 0.16482547124 
0.16619450551 0.1677029262 0.16668516071 0.16424798717 0.16659310753 0.1717087229 0.1264153699 0.16790866375 0.16944451005 
0.17984807286 0.13149639523 0.14452427979 0.16972300553 0.13014569553 0.16513190588 0.16802521861 0.17885841739 0.19532072232 
0.15346073246 0.16506437062 0.16479629329 0.16519070513 0.19476020754 0.16276890691 0.16605131035 0.15869432589 0.18223326288 
0.16649032174 0.17634823703 0.17806898322 0.1640758011 0.16308139058 0.15790137748 0.17159399465 0.15641441014 0.1821645349 
0.17077132794 0.17159035998 0.16776079941 0.17284718144 0.16178211324 0.15573261131 0.17069496917 0.14453360006 0.16143193746 
0.16570000666 0.15528193236 0.17028914177 0.16985498469 0.16977630868 0.17068684217 0.17161663892 0.17648686275 0.17812080579 
0.17246438853 0.1723033552 0.16705831737 0.17373080947 0.15551527112 0.16371824393 0.1729864414 0.1688944903 0.16596087123 
0.16877062013 0.16901706702 0.17032271461 0.16716656037 0.16825886528 0.17241889927 0.15348157191 0.16757350816 0.16462731699 
0.1689245067 0.16288626309 0.15671582165 0.1685084417 0.17276845092 0.16558197586 0.17417073151 0.12579078035 0.16971166124 
0.15178500545 0.15915010587 0.18227471992 0.16467407599 0.15723044342 0.15478988879 0.16567073276 0.1524091809 0.15299294221 
0.17286162376 0.14113770278 0.16604758061 0.16930998568 0.16835514745 0.15238700913 0.16575226479 0.16619294545 0.16622975867 
0.16596421929 0.16695306162 0.18197164358 0.14825844409 0.16585134017 0.1532662655 0.16233593336 0.16722702207 0.16829936385 
0.16948696667 0.16540180029 0.15929307292 0.16267278477 0.19094392819 0.17809966847 0.17268263865 0.18575469152 0.16339991947 
0.16671646857 0.1626173905 0.14990153188 0.14487235501 0.14812202938 0.17172079064 0.16287084914 0.17026608057 0.1522299133 
0.16510415388 0.16009246804 0.16081726814 0.19138313318 0.20987810183 0.23170445805 0.16935620141 0.15237939247 0.15829983171 
0.15521629018 0.16170548654 0.16983749096 0.17600169554 0.17501859261 0.1544879524 0.15783702684 0.17313417356 
Strain%20xx%20component 1 8918 double
1.23724e-06 9.26121e-07 9.18429e-07 1.24768e-06 -0.133328 -0.133345 -0.133305 -0.133324 -0.0516573 
-0.0441576 -0.177046 -0.1755 -0.0431244 -0.0527194 -0.175977 -0.21396 -0.0185375 -0.00087071 
-0.00017776 -0.000487597 -0.0018481 -0.000274729 -0.000419926 -0.00106506 -0.00207287 -0.00179799 -0.000924685 
-0.00155382 -0.00190126 -0.0015807 -0.00213147 1.40058e-06 -0.000797854 -0.00102193 -0.00067662 0.00146421 
-1.19563e-05 -0.0159343 -0.0226073 0.00114027 -0.000218879 -0.00103884 0.00819186 0.00501907 0.00287811 
-0.0022221 -0.00133828 0.00448272 0.00530568 0.00543587 -0.00129744 -0.00266717 0.00456857 0.0050079 
0.00475378 0.00171772 -0.00363087 0.00194668 0.0041224 0.00378803 0.00380038 -0.000531308 0.00100193 
-0.0122926 -0.133152 -0.133425 -0.134175 -0.135311 -0.136485 -0.137591 -0.138573 -0.13915 
-0.13938 -0.139302 -0.138824 -0.138054 -0.137177 -0.136145 -0.135136 -0.13425 -0.133411 
-0.132875 -0.132428 -0.132153 -0.132128 -0.132209 -0.132424 -0.132695 -0.132966 -0.133204 
-0.133335 -0.25509 -0.137291 -0.127847 -0.121551 -0.11815 -0.11642 -0.115876 -0.115837 
-0.116098 -0.116693 -0.117446 -0.118303 -0.119257 -0.120443 -0.121579 -0.122806 -0.124042 
-0.125227 -0.126321 -0.127265 -0.128044 -0.128529 -0.128675 -0.128513 -0.127934 -0.126933 
-0.125349 -0.123307 -0.121023 -0.118759 -0.11713 -0.116553 -0.117471 -0.119389 -0.121539 
-0.123991 -0.126103 -0.128014 -0.129494 -0.130785 -0.131744 -0.132488 -0.133045 -0.133329 
-0.133405 -0.133336 -0.133436 -0.133618 -0.133886 -0.134252 -0.134752 -0.135272 -0.135656 
-0.135273 -0.133428 -0.130091 -0.125662 -0.121347 -0.11772 -0.115894 -0.115218 -0.116047 
-0.120324 -0.12647 -0.13929 -0.184128 -0.124689 -0.102444 -0.0904573 -0.09317 -0.0876612 
-0.0754753 -0.0803414 -0.0767276 -0.0824562 -0.0667595 -0.0493011 -0.0337407 -0.020281 -0.0565827 
-0.0637877 -0.074174 -0.0742144 -0.0880086 -0.0813108 -0.0854053 -0.090014 -0.0862532 -0.10384 
-0.133863 -0.123386 -0.133221 -0.133492 -0.134553 -0.136101 -0.137583 -0.138739 -0.139377 
-0.139355 -0.138909 -0.137967 -0.136801 -0.135445 -0.134275 -0.133277 -0.132631 -0.132244 
-0.132132 -0.132264 -0.132548 -0.132893 -0.133177 -0.133327 -0.181724 -0.14479 -0.125595 
-0.119824 -0.11706 -0.116032 -0.116008 -0.116445 -0.117313 -0.118331 -0.119569 -0.12101 
-0.122551 -0.124142 -0.125585 -0.126896 -0.127877 -0.12853 -0.12866 -0.128267 -0.127282 
-0.125468 -0.122897 -0.120089 -0.117629 -0.116754 -0.117754 -0.1199 -0.12263 -0.125325 
-0.127581 -0.129509 -0.131039 -0.132128 -0.132874 -0.133245 -0.133364 -0.133341 -0.133402 
-0.133549 -0.133775 -0.134062 -0.134428 -0.1349 -0.135444 -0.135624 -0.134503 -0.131779 
-0.128029 -0.123883 -0.120035 -0.117231 -0.115651 -0.115339 -0.116686 -0.118363 -0.126308 
-0.139033 -0.249349 -0.158732 -0.134687 -0.117658 -0.0949476 -0.0898634 -0.0972716 -0.0820756 
-0.078133 -0.0672906 -0.0701794 -0.0717509 -0.052831 -0.0195823 -0.0301902 -0.0481902 -0.0630404 
-0.0569724 -0.0721198 -0.0683991 -0.0796183 -0.0827833 -0.0868457 -0.107 -0.101633 -0.125161 
-0.171808 -0.133539 -0.134109 -0.134981 -0.13588 -0.1368 -0.137553 -0.138181 -0.138462 
-0.138487 -0.138246 -0.137761 -0.137145 -0.136402 -0.135593 -0.134834 -0.134144 -0.133574 
-0.133116 -0.132791 -0.132629 -0.132599 -0.132647 -0.132775 -0.132934 -0.13309 -0.133228 
-0.133318 -0.142762 -0.137461 -0.130872 -0.126312 -0.123554 -0.121854 -0.120802 -0.120514 
-0.120206 -0.120312 -0.120717 -0.121175 -0.121748 -0.122496 -0.123244 -0.124082 -0.124807 
-0.12557 -0.126219 -0.126759 -0.126995 -0.127079 -0.126953 -0.126566 -0.125943 -0.125024 
-0.123872 -0.12236 -0.120596 -0.119193 -0.118553 -0.119348 -0.120763 -0.122935 -0.124929 
-0.126819 -0.128396 -0.129745 -0.13075 -0.131596 -0.132218 -0.132761 -0.133097 -0.133328 
-0.133456 -0.133575 -0.133706 -0.133844 -0.133889 -0.133908 -0.133365 -0.131752 -0.128922 
-0.125737 -0.123571 -0.122721 -0.122957 -0.123586 -0.124662 -0.130525 -0.137934 -0.0468435 
-0.0315054 -0.0252914 -0.022712 -0.0209975 -0.0188973 -0.0188162 -0.0161776 -0.0165805 -0.0153426 
-0.0147745 -0.0157922 -0.0153406 -0.0154284 -0.0144682 -0.0148767 -0.0152452 -0.0166364 -0.0189114 
-0.0176619 -0.0182059 -0.0210148 -0.0283719 -0.0359922 -0.0477478 -0.182136 -0.189882 -0.174655 
-0.159718 -0.147207 -0.136478 -0.128284 -0.120607 -0.112652 -0.103333 -0.0899492 -0.0734008 
-0.0977798 -0.107403 -0.108618 -0.0714572 -0.0814388 -0.097999 -0.104921 -0.112738 -0.119854 
-0.12771 -0.136282 -0.145411 -0.158515 -0.172719 -0.190653 -0.171244 -0.0912621 -0.13336 
-0.133857 -0.123977 -0.15863 -0.0450217 -0.190971 -0.0716987 -0.201342 -0.134555 -0.135491 
-0.136334 -0.137107 -0.137724 -0.13812 -0.138227 -0.138074 -0.137703 -0.137183 -0.136565 
-0.135865 -0.135163 -0.134528 -0.133988 -0.133553 -0.133186 -0.132982 -0.132872 -0.132842 
-0.132886 -0.132986 -0.1331 -0.133341 -0.12363 -0.12512 -0.125024 -0.124558 -0.123944 
-0.123478 -0.12315 -0.122988 -0.122956 -0.123036 -0.123273 -0.123587 -0.123974 -0.124488 
-0.125024 -0.125561 -0.126063 -0.12639 -0.126519 -0.12644 -0.126218 -0.125904 -0.125504 
-0.125047 -0.124374 -0.12322 -0.12139 -0.119199 -0.11747 -0.117666 -0.120312 -0.123426 
-0.126255 -0.128558 -0.130127 -0.131263 -0.131998 -0.132465 -0.132774 -0.133108 -0.133386 
-0.133703 -0.100636 -0.13333 -0.133209 -0.133161 -0.110898 -0.109773 -0.134144 -0.131955 
-0.128186 -0.12484 -0.12425 -0.125165 -0.124856 -0.12204 -0.133622 -0.145667 -0.170971 
-0.0575291 -0.0531899 -0.0470415 -0.0444351 -0.0404119 -0.0348172 -0.0328313 -0.0341565 -0.0327741 
-0.0326743 -0.0293318 -0.0296413 -0.031695 -0.0324711 -0.0333262 -0.0345637 -0.0343291 -0.0380205 
-0.040526 -0.0453758 -0.0519924 -0.0665658 -0.167683 -0.158519 -0.155228 -0.146357 -0.138293 
-0.131225 -0.124557 -0.117685 -0.110412 -0.106149 -0.113742 -0.109831 -0.133264 -0.146164 
-0.0993187 -0.102717 -0.109288 -0.116607 -0.123584 -0.130683 -0.138328 -0.14667 -0.155539 
-0.164014 -0.164802 -0.150755 -0.132695 -0.114775 -0.134449 -0.0901456 -0.163176 -0.111648 
-0.102578 -0.0979959 -0.0966918 -0.0919275 -0.16444 -0.0976337 -0.152211 -0.164033 -0.135968 
-0.136862 -0.137669 -0.138234 -0.138456 -0.138356 -0.138013 -0.13746 -0.136796 -0.136074 
-0.135372 -0.134695 -0.134176 -0.133734 -0.133372 -0.133113 -0.132986 -0.132929 -0.132955 
-0.133019 -0.134981 -0.123311 -0.134091 -0.116116 -0.120174 -0.122389 -0.123754 -0.124343 
-0.124536 -0.12453 -0.124554 -0.124628 -0.124691 -0.124852 -0.125163 -0.125603 -0.12605 
-0.126514 -0.126851 -0.126907 -0.126661 -0.126206 -0.125643 -0.125122 -0.124719 -0.124411 
-0.123748 -0.121506 -0.119057 -0.115522 -0.111443 -0.116415 -0.122624 -0.127246 -0.13063 
-0.132962 -0.134188 -0.134562 -0.134392 -0.134232 -0.13417 -0.134108 -0.116511 -0.120844 
-0.133114 -0.132888 -0.132455 -0.105937 -0.144755 -0.1307 -0.132865 -0.124078 -0.124726 
-0.120315 -0.110392 -0.13651 -0.153616 -0.140717 -0.12467 -0.0742704 -0.0678487 -0.0620536 
-0.0581226 -0.0538672 -0.0505541 -0.0494542 -0.0488103 -0.047648 -0.0459772 -0.0459322 -0.0479213 
-0.0496557 -0.0511167 -0.0526507 -0.0559307 -0.0597601 -0.0648338 -0.0706113 -0.0788394 -0.136923 
-0.147922 -0.132457 -0.127201 -0.122416 -0.120574 -0.12345 -0.112521 -0.14214 -0.168058 
-0.114124 -0.117943 -0.122851 -0.128401 -0.134587 -0.140732 -0.146665 -0.150948 -0.150071 
-0.142545 -0.111194 -0.151813 -0.13486 -0.1221 -0.142171 -0.108825 -0.15829 -0.112086 
-0.133151 -0.141009 -0.135885 -0.134935 -0.155203 -0.107592 -0.128806 -0.149171 -0.149019 
-0.131685 -0.113921 -0.137789 -0.13868 -0.13922 -0.139342 -0.138918 -0.138176 -0.137319 
-0.136446 -0.135571 -0.134768 -0.134125 -0.133669 -0.133377 -0.133048 -0.13288 -0.132872 
-0.132883 -0.133022 -0.125803 -0.132313 -0.121405 -0.108142 -0.114795 -0.11945 -0.12252 
-0.124191 -0.124991 -0.125241 -0.125524 -0.125592 -0.125673 -0.12586 -0.12624 -0.126785 
-0.12744 -0.127955 -0.128098 -0.127799 -0.126949 -0.125812 -0.124614 -0.123592 -0.123036 
-0.122611 -0.127783 -0.133526 -0.136827 -0.138184 -0.138376 -0.137541 -0.136497 -0.135772 
-0.143812 -0.0965965 -0.142677 -0.125276 -0.134081 -0.133981 -0.137181 -0.121393 -0.128058 
-0.12513 -0.132816 -0.1325 -0.146132 -0.0822919 -0.079868 -0.0757124 -0.0695355 -0.0653927 
-0.0652842 -0.0658811 -0.0639278 -0.0595807 -0.064192 -0.0662097 -0.0676145 -0.0697543 -0.0735046 
-0.0773491 -0.0821294 -0.0881103 -0.130669 -0.128165 -0.131378 -0.132882 -0.136021 -0.143756 
-0.153731 -0.156628 -0.129434 -0.132747 -0.123551 -0.127248 -0.131206 -0.135644 -0.139457 
-0.142277 -0.141453 -0.136583 -0.135281 -0.121795 -0.136691 -0.137212 -0.114848 -0.144204 
-0.119543 -0.142605 -0.136072 -0.138233 -0.138179 -0.13574 -0.10815 -0.117286 -0.136337 
-0.147758 -0.13635 -0.13191 -0.143938 -0.117434 -0.0991125 -0.120577 -0.119711 -0.139331 
-0.140184 -0.14105 -0.140767 -0.139632 -0.138265 -0.137176 -0.135969 -0.134838 -0.133982 
-0.133419 -0.132984 -0.132582 -0.13258 -0.128434 -0.13068 -0.11019 -0.116773 -0.121457 
-0.123938 -0.125409 -0.126018 -0.126171 -0.126502 -0.126753 -0.127564 -0.128603 -0.129518 
-0.130035 -0.12983 -0.128836 -0.135216 -0.14339 -0.143141 -0.143576 -0.141536 -0.139382 
-0.135975 -0.132916 -0.113711 -0.132432 -0.12703 -0.131882 -0.139624 -0.135073 -0.0957038 
-0.0900596 -0.0808779 -0.0790067 -0.0837632 -0.0836184 -0.0773437 -0.0829389 -0.0832814 -0.084176 
-0.0885063 -0.0927242 -0.0962882 -0.10119 -0.1365 -0.12941 -0.14995 -0.128958 -0.147865 
-0.133578 -0.136798 -0.137662 -0.132336 -0.124553 -0.125189 -0.135533 -0.124354 -0.12657 
-0.137554 -0.137595 -0.0963178 -0.132544 -0.131089 -0.133802 -0.142655 -0.139678 -0.137567 
-0.131686 -0.136022 -0.117631 -0.143739 -0.139206 -0.136735 -0.135163 -0.133844 -0.132985 
-0.132729 -0.11547 -0.121056 -0.12399 -0.124808 -0.126028 -0.126842 -0.129606 -0.145578 
-0.142055 -0.10194 -0.12149 -0.134224 -0.0997086 -0.101062 -0.0971156 -0.0993292 -0.106893 
-0.106911 -0.132624 -0.13759 -0.132336 -0.127682 -0.131375 -0.133773 -0.142187 -0.134553 
-0.132282 -0.132651 -0.13193 -0.133217 -0.118656 -0.111876 -0.131326 -0.13352 -0.134397 
-0.135461 -0.136568 -0.137601 -0.138228 -0.138452 -0.138239 -0.13769 -0.136869 -0.135951 
-0.134989 -0.134113 -0.133485 -0.133016 -0.132773 -0.132678 -0.132759 -0.132918 -0.133096 
-0.133255 -0.107557 -0.134743 -0.12863 -0.124432 -0.122258 -0.121284 -0.120769 -0.120848 
-0.121162 -0.121551 -0.122299 -0.123191 -0.124141 -0.125043 -0.125896 -0.12651 -0.126855 
-0.126861 -0.126565 -0.125993 -0.125098 -0.123826 -0.121919 -0.119821 -0.118758 -0.119477 
-0.121477 -0.123894 -0.126348 -0.128203 -0.129754 -0.131062 -0.13192 -0.132663 -0.133172 
-0.133357 -0.133448 -0.133511 -0.133635 -0.13385 -0.133798 -0.133948 -0.133777 -0.132745 
-0.130503 -0.127547 -0.124835 -0.12326 -0.122754 -0.122922 -0.123713 -0.125634 -0.134457 
-0.144735 -0.0802049 -0.0406294 -0.0342932 -0.0303462 -0.0216756 -0.0200421 -0.0178407 -0.0188692 
-0.0182414 -0.0187401 -0.0161773 -0.0187194 -0.0180113 -0.0188466 -0.018262 -0.0189185 -0.0209489 
-0.0213962 -0.0261998 -0.0410292 -0.157664 -0.190365 -0.177078 -0.160989 -0.148235 -0.139165 
-0.131996 -0.12482 -0.117946 -0.109688 -0.100953 -0.0892197 -0.0746219 -0.10302 -0.116685 
-0.0890567 -0.0717489 -0.0903326 -0.0964156 -0.106176 -0.114058 -0.121154 -0.128931 -0.1373 
-0.148072 -0.160883 -0.182493 -0.188796 -0.146034 -0.128839 -0.133607 -0.128877 -0.21117 
-0.195697 -0.0751783 -0.0613206 -0.135006 -0.134057 -0.137046 -0.137915 -0.13832 -0.138205 
-0.137754 -0.137039 -0.136239 -0.135322 -0.134519 -0.133873 -0.133408 -0.133084 -0.132935 
-0.132912 -0.132997 -0.133143 -0.133299 -0.134576 -0.124235 -0.120959 -0.100611 -0.124246 
-0.124021 -0.123793 -0.123605 -0.123446 -0.123488 -0.123727 -0.124139 -0.124695 -0.125289 
-0.12594 -0.126392 -0.126569 -0.126405 -0.125935 -0.125435 -0.125023 -0.124518 -0.123119 
-0.120192 -0.117325 -0.117199 -0.12048 -0.124644 -0.128131 -0.130324 -0.13173 -0.132539 
-0.132984 -0.133354 -0.133725 -0.0923711 -0.133316 -0.132708 -0.133297 -0.0888625 -0.134093 
-0.109327 -0.133237 -0.133721 -0.130298 -0.126067 -0.124189 -0.124635 -0.125354 -0.124159 
-0.120242 -0.148619 -0.158617 -0.0673661 -0.0511842 -0.0432707 -0.0399094 -0.0391338 -0.0384752 
-0.0375352 -0.0362564 -0.0356182 -0.0362823 -0.0380402 -0.0380502 -0.0392385 -0.042473 -0.0469192 
-0.0514388 -0.0668866 -0.148746 -0.114765 -0.096486 -0.167529 -0.164747 -0.157724 -0.149241 
-0.14192 -0.134515 -0.127703 -0.120948 -0.114655 -0.10864 -0.105914 -0.115581 -0.112795 
-0.182271 -0.110489 -0.109869 -0.116019 -0.122976 -0.129864 -0.137381 -0.145906 -0.155097 
-0.162617 -0.16491 -0.151689 -0.135972 -0.154572 -0.101967 -0.104145 -0.133144 -0.132739 
-0.10105 -0.16788 -0.167853 -0.0988083 -0.131871 -0.13888 -0.137984 -0.138386 -0.137576 
-0.136631 -0.135595 -0.134688 -0.133944 -0.13345 -0.133112 -0.132944 -0.132917 -0.132982 
-0.133103 -0.133864 -0.13551 -0.134991 -0.118934 -0.120129 -0.0996828 -0.124403 -0.124754 
-0.124869 -0.124915 -0.125042 -0.125377 -0.12587 -0.126503 -0.1271 -0.127348 -0.127035 
-0.126146 -0.125005 -0.124167 -0.123857 -0.123423 -0.121003 -0.115086 -0.110818 -0.116266 
-0.12368 -0.130041 -0.133838 -0.135253 -0.135632 -0.135283 -0.13487 -0.123488 -0.132991 
-0.106191 -0.135947 -0.124911 -0.122557 -0.122167 -0.123423 -0.1239 -0.138803 -0.0642064 
-0.0596235 -0.0587545 -0.0571213 -0.0554864 -0.0544928 -0.053952 -0.0547428 -0.0565347 -0.059135 
-0.0633773 -0.0678605 -0.0722961 -0.0820058 -0.117989 -0.160386 -0.153025 -0.149655 -0.144843 
-0.139457 -0.133907 -0.128886 -0.124616 -0.121245 -0.120377 -0.123947 -0.125115 -0.122712 
-0.117943 -0.133672 -0.140001 -0.146035 -0.150417 -0.150075 -0.143284 -0.145457 -0.12623 
-0.113387 -0.137367 -0.121678 -0.0608012 -0.105584 -0.152659 -0.128269 -0.136528 -0.132464 
-0.134047 -0.112707 -0.134857 -0.161907 -0.145455 -0.148185 -0.13231 -0.116387 -0.103379 
-0.110938 -0.139601 -0.16379 -0.0775483 -0.152125 -0.115084 -0.148649 -0.120175 -0.114943 
-0.139599 -0.13891 -0.139678 -0.13603 -0.134846 -0.13386 -0.133224 -0.132898 -0.132722 
-0.132703 -0.132877 -0.135717 -0.120902 -0.125583 -0.125192 -0.124128 -0.125767 -0.126023 
-0.126523 -0.127297 -0.128221 -0.128938 -0.128888 -0.127463 -0.125171 -0.122291 -0.122379 
-0.131318 -0.139659 -0.140272 -0.139979 -0.138707 -0.137392 -0.141841 -0.122253 -0.0776834 
-0.138662 -0.134365 -0.123617 -0.145767 -0.11254 -0.124668 -0.118119 -0.143169 -0.0747673 
-0.11757 -0.0805516 -0.0735544 -0.072018 -0.0720152 -0.0738228 -0.0768555 -0.0809197 -0.0860865 
-0.0920176 -0.128221 -0.148709 -0.0833251 -0.14354 -0.140868 -0.137651 -0.134008 -0.131484 
-0.130372 -0.128141 -0.129094 -0.131605 -0.138398 -0.134856 -0.14189 -0.138234 -0.136383 
-0.141278 -0.123059 -0.137369 -0.120422 -0.14023 -0.0967959 -0.133415 -0.111334 -0.131726 
-0.118259 -0.133289 -0.152314 -0.1364 -0.118229 -0.135252 -0.149162 -0.131227 -0.0990391 
-0.139773 -0.140665 -0.126643 -0.0775617 -0.156956 -0.138107 -0.14172 -0.133712 -0.11594 
-0.130517 -0.135021 -0.132347 -0.132359 -0.126403 -0.125424 -0.136378 -0.13599 -0.132087 
-0.126058 -0.123815 -0.127053 -0.128087 -0.129428 -0.130909 -0.132266 -0.146645 -0.145306 
-0.142635 -0.14019 -0.134708 -0.140603 -0.0932408 -0.131042 -0.0928571 -0.12989 -0.130521 
-0.138826 -0.0913185 -0.100785 -0.120817 -0.089633 -0.0893993 -0.0915613 -0.0960109 -0.100894 
-0.107158 -0.137121 -0.139262 -0.132834 -0.133808 -0.138088 -0.136642 -0.135044 -0.134845 
-0.120361 -0.135187 -0.135941 -0.13238 -0.132987 -0.129938 -0.141581 -0.132426 -0.13987 
-0.116966 -0.129194 -0.131596 -0.142472 -0.136806 -0.131413 -0.13938 -0.135082 -0.136629 
-0.151083 -0.138695 -0.121543 -0.12862 -0.127371 -0.147124 -0.105995 -0.141088 -0.120344 
-0.103165 -0.108449 -0.111464 -0.113765 -0.1328 -0.126374 -0.13234 -0.121454 -0.12429 
-0.109821 -0.105062 -0.131023 -0.126606 -0.134219 -0.127062 -0.109015 -0.14648 -0.133753 
-0.137197 -0.127781 -0.126031 -0.117341 -0.131355 -0.143981 -0.138355 9.38521e-07 9.44606e-07 
9.13721e-07 2.82146e-07 1.51713e-07 1.34174e-07 5.59793e-08 5.36482e-08 5.14128e-08 9.71067e-08 3.99551e-08 
3.90595e-08 3.86946e-08 9.46574e-08 4.47156e-08 4.21387e-08 4.61431e-08 4.53455e-08 3.94333e-08 5.39571e-08 
6.41448e-08 6.64708e-08 1.61441e-07 3.07851e-07 1.24768e-06 1.23724e-06 1.27437e-07 7.29906e-08 6.55154e-08 
9.07666e-08 6.7329e-08 5.78836e-08 7.14599e-08 6.46019e-08 6.98487e-08 5.00826e-08 5.2274e-08 6.61975e-08 
6.52539e-08 6.04056e-08 4.88576e-08 5.34865e-08 5.07611e-08 8.47248e-08 8.31371e-08 5.28896e-08 5.53322e-08 
5.96397e-08 9.51798e-08 9.3042e-08 1.14453e-07 8.92252e-07 -0.133227 -0.133233 -0.133747 -0.134708 
-0.135902 -0.137057 -0.138119 -0.138911 -0.139351 -0.139387 -0.139108 -0.138479 -0.137617 
-0.136673 -0.135644 -0.134677 -0.133809 -0.133118 -0.13261 -0.132265 -0.132119 -0.132149 
-0.132311 -0.13255 -0.132827 -0.13309 -0.133284 -0.133342 -0.168449 -0.142099 -0.132558 
-0.124148 -0.11956 -0.117208 -0.116045 -0.1158 -0.115941 -0.116351 -0.117037 -0.117844 
-0.11878 -0.119864 -0.121006 -0.122186 -0.123414 -0.124653 -0.1258 -0.126813 -0.12769 
-0.12831 -0.128647 -0.12865 -0.128283 -0.127499 -0.126222 -0.12434 -0.122162 -0.119836 
-0.117829 -0.116697 -0.116911 -0.118318 -0.120426 -0.122776 -0.125069 -0.127091 -0.128775 
-0.130189 -0.131306 -0.132155 -0.132785 -0.133195 -0.13338 -0.133399 -0.133331 -0.133379 
-0.133522 -0.133746 -0.134063 -0.134501 -0.135013 -0.13548 -0.135476 -0.134408 -0.131773 
-0.127886 -0.12352 -0.119443 -0.116738 -0.115449 -0.115428 -0.117148 -0.123739 -0.131067 
-0.149331 -0.109577 -0.111086 -0.0930476 -0.0797357 -0.0944571 -0.0877561 -0.063885 -0.0799566 
-0.0763775 -0.0716761 -0.0671119 -0.0467033 -0.0413597 -0.00784811 -0.0477828 -0.00244305 -0.0351775 
-0.0560836 -0.0625193 -0.070381 -0.074157 -0.0766149 -0.0816407 -0.0862647 -0.0686139 -0.0992285 
-0.109868 -0.12187 -0.114523 -0.0500555 -0.133223 -0.133301 -0.133936 -0.135306 -0.136873 
-0.138234 -0.13917 -0.139477 -0.139197 -0.138501 -0.137422 -0.136125 -0.134843 -0.133734 
-0.132901 -0.132382 -0.132154 -0.132164 -0.132383 -0.132718 -0.13305 -0.13327 -0.133343 
-0.111171 -0.152063 -0.131309 -0.122122 -0.11804 -0.116388 -0.115962 -0.116173 -0.116858 
-0.11782 -0.118944 -0.120281 -0.121779 -0.123365 -0.124867 -0.126259 -0.127406 -0.128253 
-0.128633 -0.128513 -0.127831 -0.126431 -0.124227 -0.121463 -0.118776 -0.117102 -0.117102 
-0.118776 -0.12124 -0.123988 -0.126488 -0.1286 -0.130298 -0.131617 -0.132529 -0.133091 
-0.133317 -0.133412 -0.133335 -0.133365 -0.133467 -0.133659 -0.133917 -0.134245 -0.134666 
-0.135187 -0.13558 -0.135143 -0.133188 -0.129909 -0.125954 -0.121941 -0.118522 -0.116274 
-0.115251 -0.115581 -0.117909 -0.122433 -0.131734 -0.135127 -0.16986 -0.168481 -0.127058 
-0.106848 -0.0973938 -0.0909684 -0.0846539 -0.0820629 -0.0782963 -0.0747737 -0.0533021 -0.0637977 
-0.0554388 -0.0279158 -0.0101239 -0.0571045 -0.00900627 -0.0306527 -0.0570531 -0.0498154 -0.0694655 
-0.0715816 -0.0580544 -0.0785624 -0.0827857 -0.0880167 -0.0933275 -0.107751 -0.128441 -0.171091 
-0.0522414 -0.133334 -0.13331 -0.210183 -0.0540062 -0.185845 -0.0608438 9.26121e-07 9.18429e-07 
-0.0242538 1.36208e-07 0.000564908 8.52638e-08 0.000155896 7.72004e-08 -0.00219433 0.00542937 0.000810997 
0.000138098 0.00344351 -0.00197257 0.00610768 6.94902e-08 -0.00318783 0.00560364 -0.00176598 0.00194771 
0.00132695 -0.000551498 0.00590444 -0.00324567 6.98162e-08 0.00533321 -0.000681914 0.00139013 0.00169093 
-0.00150536 0.004528 -0.0048517 0.00581073 0.0052071 -0.00384851 0.00451504 -0.00157643 0.00153594 
0.00153627 -0.00114315 0.00539922 -0.00152977 1.00148e-07 1.31293e-07 -0.0177938 -0.00364422 -0.00407322 
-0.00584377 0.0011134 -0.133312 -0.133372 -0.133538 -0.133797 -0.134172 -0.133805 -0.134609 
-0.135156 -0.134518 -0.135601 -0.136169 -0.135426 -0.13663 -0.137175 -0.136349 -0.137555 
-0.13804 -0.137202 -0.13834 -0.138623 -0.137907 -0.138765 -0.138875 -0.138368 -0.138889 
-0.138846 -0.13852 -0.13874 -0.138507 -0.138398 -0.13826 -0.137894 -0.138045 -0.137573 
-0.13715 -0.137479 -0.136776 -0.136275 -0.136786 -0.135865 -0.135375 -0.135999 -0.134993 
-0.134561 -0.13521 -0.134206 -0.133791 -0.134472 -0.133515 -0.133247 -0.133839 -0.133012 
-0.13279 -0.133323 -0.132627 -0.13249 -0.132928 -0.132407 -0.13239 -0.132695 -0.13238 
-0.132411 -0.132593 -0.132443 -0.132543 -0.132608 -0.132607 -0.132735 -0.132702 -0.132816 
-0.132944 -0.132852 -0.133025 -0.133131 -0.133017 -0.133208 -0.13327 -0.133165 -0.133322 
-0.133324 -0.133336 -0.133279 -0.129318 -0.156354 -0.141904 -0.137146 -0.133072 -0.138295 
-0.129685 -0.126403 -0.133993 -0.12403 -0.122272 -0.128794 -0.120993 -0.120098 -0.125069 
-0.119213 -0.118874 -0.12259 -0.118371 -0.118315 -0.121319 -0.11821 -0.11827 -0.120724 
-0.118178 -0.118402 -0.120375 -0.118531 -0.118855 -0.120266 -0.119103 -0.119512 -0.120517 
-0.119757 -0.120218 -0.120918 -0.120532 -0.121075 -0.121483 -0.121498 -0.122009 -0.122133 
-0.122432 -0.123 -0.122869 -0.123457 -0.124054 -0.12365 -0.124423 -0.124995 -0.124459 
-0.12541 -0.125918 -0.125194 -0.12629 -0.126711 -0.125891 -0.127017 -0.127364 -0.126469 
-0.127518 -0.127743 -0.126859 -0.127778 -0.127848 -0.127059 -0.127796 -0.127707 -0.12701 
-0.127511 -0.127229 -0.126748 -0.126896 -0.126416 -0.126239 -0.125928 -0.12514 -0.125494 
-0.124564 -0.123576 -0.12447 -0.122781 -0.121695 -0.123099 -0.120785 -0.119727 -0.121454 
-0.118948 -0.118221 -0.11989 -0.117932 -0.117678 -0.118965 -0.118023 -0.11847 -0.118938 
-0.119179 -0.120125 -0.120059 -0.121184 -0.122232 -0.121881 -0.123252 -0.124435 -0.123933 
-0.125419 -0.126426 -0.125866 -0.127244 -0.128157 -0.127578 -0.12887 -0.12958 -0.129039 
-0.130118 -0.13075 -0.130253 -0.131187 -0.131642 -0.131182 -0.131983 -0.13234 -0.131896 
-0.132614 -0.132875 -0.132485 -0.133051 -0.133204 -0.132931 -0.133309 -0.133357 -0.133216 
-0.133449 -0.133539 -0.133599 -0.133729 -0.133515 -0.1338 -0.13398 -0.133638 -0.134046 
-0.134299 -0.133775 -0.134312 -0.134586 -0.133883 -0.134726 -0.134592 -0.134251 -0.133386 
-0.133626 -0.132528 -0.130886 -0.132539 -0.129501 -0.127243 -0.130334 -0.125719 -0.123537 
-0.127302 -0.122501 -0.120683 -0.124675 -0.120268 -0.119345 -0.123104 -0.119485 -0.119103 
-0.122809 -0.1196 -0.119782 -0.123246 -0.120884 -0.122235 -0.124028 -0.130399 -0.136259 
-0.143157 -0.153471 -0.135684 -0.112716 -0.0363079 -0.0230037 -0.0130993 -0.0161677 -0.038912 
-0.0114757 -0.0145831 -0.0272778 -0.0135416 -0.00821163 -0.0216141 -0.0065971 -0.00760138 -0.0263026 
-0.00763829 -0.0074699 -0.0220065 -0.0092852 -0.0112811 -0.0215129 -0.0102006 -0.0116955 -0.0113111 
-0.0101227 -0.00722115 -0.0117014 -0.0049796 -0.00545747 -0.0196184 -0.00546282 -0.00434806 -0.0177701 
-0.00642281 -0.00944137 -0.0183802 -0.0115445 -0.0102593 -0.0105964 -0.00966959 -0.00689424 -0.00873481 
-0.00437758 -0.00519776 -0.0197668 -0.00578316 -0.0054522 -0.0170487 -0.00643932 -0.00639312 -0.0173941 
-0.0102299 -0.0123303 -0.017555 -0.012915 -0.010676 -0.00882209 -0.0070306 -0.00781304 -0.0187958 
-0.00684106 -0.00802329 -0.0205627 -0.00852762 -0.00860536 -0.0223647 -0.0121701 -0.0150867 -0.0278379 
-0.0183985 -0.0166362 -0.0290269 -0.0222023 -0.0307388 -0.0424515 -0.219692 -0.235581 -0.197095 
-0.213783 -0.193455 -0.17715 -0.186305 -0.184689 -0.163138 -0.166753 -0.16889 -0.151583 
-0.153652 -0.155128 -0.141953 -0.143752 -0.143622 -0.135136 -0.135052 -0.13369 -0.127978 
-0.128036 -0.126139 -0.120146 -0.120774 -0.118374 -0.110122 -0.11278 -0.109937 -0.0941899 
-0.100661 -0.0984371 -0.0642989 -0.0811108 -0.083077 -0.0710821 -0.0610095 -0.0791267 -0.144987 
-0.0798458 -0.0877226 -0.0622893 -0.0570695 -0.0775045 -0.0850599 -0.0854122 -0.0943632 -0.0804982 
-0.105476 -0.106234 -0.0882166 -0.11117 -0.114643 -0.104562 -0.121177 -0.122374 -0.110415 
-0.127924 -0.128472 -0.118368 -0.135263 -0.136258 -0.125623 -0.143306 -0.145081 -0.133674 
-0.151461 -0.154797 -0.142584 -0.16332 -0.168876 -0.153919 -0.177506 -0.187909 -0.164152 
-0.200443 -0.213499 -0.181334 -0.214031 -0.230218 -0.187241 -0.11239 -0.0695167 -0.133408 
-0.0857677 -0.133347 -0.133404 -0.0876379 -0.134555 -0.134775 -0.124287 -0.123795 -0.125815 
-0.13387 -0.160908 -0.217071 -0.0515655 -0.058963 -0.0801482 -0.243419 -0.184541 -0.0700259 
-0.0662418 -0.168107 -0.246337 -0.171157 -0.183006 -0.103071 -0.133411 -0.0914841 -0.134348 
-0.134782 -0.135234 -0.13569 -0.13502 -0.136097 -0.136556 -0.135916 -0.13694 -0.137314 
-0.136732 -0.137621 -0.137934 -0.137447 -0.13811 -0.138276 -0.137962 -0.138313 -0.138325 
-0.138205 -0.13826 -0.138128 -0.138186 -0.137967 -0.137715 -0.137923 -0.137461 -0.137152 
-0.137467 -0.13684 -0.136481 -0.136883 -0.136129 -0.13573 -0.13622 -0.13538 -0.135006 
-0.135514 -0.134684 -0.134344 -0.134836 -0.134073 -0.133789 -0.134245 -0.133578 -0.13335 
-0.133755 -0.133156 -0.133011 -0.133352 -0.132898 -0.132825 -0.133072 -0.132757 -0.132747 
-0.132909 -0.132729 -0.132752 -0.132843 -0.132778 -0.132833 -0.132858 -0.132885 -0.132962 
-0.13293 -0.133015 -0.133094 -0.133039 -0.133394 -0.13346 -0.133428 -0.129796 -0.12856 
-0.127422 -0.126147 -0.125296 -0.125587 -0.12469 -0.125317 -0.124085 -0.123442 -0.124694 
-0.122921 -0.122574 -0.124235 -0.122164 -0.122054 -0.123772 -0.121865 -0.121718 -0.12335 
-0.12164 -0.121706 -0.123108 -0.121678 -0.121868 -0.122951 -0.121898 -0.122109 -0.122954 
-0.122239 -0.122519 -0.123171 -0.122686 -0.123024 -0.123456 -0.123259 -0.123615 -0.123782 
-0.12387 -0.124284 -0.124201 -0.124542 -0.124918 -0.124734 -0.125173 -0.125553 -0.125331 
-0.125794 -0.126114 -0.125831 -0.126305 -0.126553 -0.126217 -0.126619 -0.126731 -0.126426 
-0.126708 -0.126745 -0.126471 -0.126634 -0.126564 -0.126355 -0.126402 -0.126221 -0.126064 
-0.126009 -0.125735 -0.125696 -0.125464 -0.125052 -0.12529 -0.124692 -0.124105 -0.124764 
-0.123585 -0.122732 -0.123791 -0.122028 -0.120958 -0.122258 -0.120014 -0.119152 -0.120295 
-0.11843 -0.118011 -0.118282 -0.118132 -0.118607 -0.117664 -0.119749 -0.120679 -0.118917 
-0.121965 -0.123287 -0.121888 -0.124529 -0.125653 -0.12484 -0.126719 -0.12769 -0.127431 
-0.128473 -0.129248 -0.129331 -0.129824 -0.130464 -0.130663 -0.13087 -0.131348 -0.131624 
-0.13161 -0.131986 -0.13226 -0.132186 -0.132468 -0.132623 -0.132668 -0.13291 -0.132942 
-0.13307 -0.133233 -0.133242 -0.1334 -0.133489 -0.133554 -0.0733795 -0.119333 -0.122028 
-0.133913 -0.133454 -0.133514 -0.133462 -0.133537 -0.133271 -0.133478 -0.133515 -0.133196 
-0.0956686 -0.107861 -0.127168 -0.116999 -0.078292 -0.133762 -0.13294 -0.131961 -0.130293 
-0.133109 -0.128673 -0.126724 -0.130025 -0.125394 -0.124089 -0.123884 -0.123498 -0.124518 
-0.123956 -0.124036 -0.124695 -0.124093 -0.124032 -0.12505 -0.123203 -0.122851 -0.123507 
-0.133657 -0.133896 -0.156916 -0.154721 -0.187108 -0.16006 -0.140754 -0.0462079 -0.0398299 
-0.0392224 -0.0364373 -0.0546257 -0.0356611 -0.0355016 -0.0498357 -0.0326292 -0.0320638 -0.0459146 
-0.029007 -0.0315325 -0.0408323 -0.0252209 -0.0231142 -0.0376414 -0.0229141 -0.0229644 -0.0338776 
-0.0268233 -0.0248471 -0.0325519 -0.0248709 -0.0246237 -0.0334391 -0.0232294 -0.0261381 -0.0326359 
-0.0210757 -0.0203907 -0.0302883 -0.0198047 -0.0208196 -0.029494 -0.0258996 -0.0227687 -0.0298968 
-0.0244259 -0.0239405 -0.0322981 -0.023797 -0.0256303 -0.0315263 -0.0242258 -0.0265344 -0.0340131 
-0.023257 -0.0239997 -0.0334749 -0.028557 -0.0268505 -0.0356485 -0.0307208 -0.029003 -0.0392946 
-0.0326242 -0.0334744 -0.041701 -0.0373714 -0.040994 -0.0475206 -0.046524 -0.0519652 -0.0576503 
-0.0669074 -0.171939 -0.179326 -0.175287 -0.16808 -0.149384 -0.164975 -0.151633 -0.15999 
-0.142001 -0.149646 -0.150969 -0.133825 -0.140397 -0.142457 -0.126736 -0.133084 -0.134781 
-0.119583 -0.125874 -0.128028 -0.111642 -0.118352 -0.121273 -0.101771 -0.109696 -0.114121 
-0.0921475 -0.100718 -0.108326 -0.106056 -0.0973289 -0.109871 -0.0928626 -0.108127 -0.133309 
-0.133364 -0.152607 -0.163957 -0.0856293 -0.0942262 -0.0958214 -0.101683 -0.101396 -0.104827 
-0.110859 -0.105836 -0.113314 -0.118233 -0.112695 -0.120559 -0.125517 -0.119952 -0.127716 
-0.133003 -0.127061 -0.135449 -0.140947 -0.134428 -0.143876 -0.150012 -0.14233 -0.153385 
-0.16131 -0.151108 -0.165756 -0.171602 -0.159753 -0.172259 -0.176607 -0.165692 -0.171807 
-0.159022 -0.158701 -0.133281 -0.133357 -0.132909 -0.12029 -0.11871 -0.118567 -0.134098 
-0.133997 -0.134325 -0.134013 -0.111451 -0.108237 -0.161765 -0.17082 -0.15967 -0.105194 
-0.0930221 -0.105727 -0.102393 -0.0794566 -0.13364 -0.133914 -0.134115 -0.133338 -0.13334 
-0.133309 -0.133176 -0.133247 -0.133293 -0.113945 -0.11189 -0.0862137 -0.105682 -0.111618 
-0.111112 -0.0819159 -0.126472 -0.13312 -0.093817 -0.0811523 -0.154976 -0.166631 -0.0684399 
-0.060428 -0.0727072 -0.166366 -0.106281 -0.110816 -0.0971335 -0.111264 -0.102695 -0.175698 
-0.131724 -0.126795 -0.156542 -0.175608 -0.180879 -0.145408 -0.170978 -0.0963775 -0.135718 
-0.136145 -0.136594 -0.136966 -0.13643 -0.137381 -0.137669 -0.137291 -0.137958 -0.138154 
-0.137983 -0.138263 -0.138304 -0.138381 -0.138276 -0.138182 -0.138438 -0.138026 -0.137839 
-0.138206 -0.13756 -0.137313 -0.137759 -0.136975 -0.136674 -0.137145 -0.136312 -0.135965 
-0.136442 -0.135619 -0.13527 -0.135722 -0.134933 -0.13462 -0.135027 -0.134362 -0.134089 
-0.134428 -0.133875 -0.13365 -0.133946 -0.133476 -0.133293 -0.133534 -0.133161 -0.133066 
-0.133228 -0.132992 -0.132941 -0.133037 -0.132911 -0.132893 -0.132944 -0.132909 -0.132927 
-0.132935 -0.132958 -0.133006 -0.132978 -0.134762 -0.135239 -0.135478 -0.117653 -0.118794 
-0.133889 -0.134322 -0.13453 -0.133734 -0.120292 -0.121126 -0.122469 -0.122743 -0.118099 
-0.123307 -0.123455 -0.12134 -0.123733 -0.123809 -0.123133 -0.123893 -0.123865 -0.124076 
-0.123861 -0.12386 -0.124476 -0.123776 -0.123803 -0.12452 -0.123781 -0.12384 -0.1245 
-0.123844 -0.123963 -0.124575 -0.12399 -0.124152 -0.124689 -0.124231 -0.124425 -0.124789 
-0.124569 -0.124842 -0.124982 -0.12504 -0.125318 -0.12535 -0.125511 -0.125808 -0.125847 
-0.126006 -0.126288 -0.126319 -0.12643 -0.126606 -0.126698 -0.126637 -0.126698 -0.126857 
-0.126592 -0.126537 -0.126757 -0.126325 -0.126187 -0.126448 -0.125935 -0.125766 -0.125942 
-0.125524 -0.125317 -0.125374 -0.125119 -0.124921 -0.124916 -0.124743 -0.124442 -0.124579 
-0.124077 -0.123434 -0.124133 -0.122559 -0.121315 -0.122698 -0.120381 -0.118974 -0.120199 
-0.117617 -0.116394 -0.117354 -0.114775 -0.114702 -0.113463 -0.11691 -0.118584 -0.113716 
-0.121151 -0.123177 -0.119495 -0.125153 -0.126825 -0.125031 -0.128332 -0.129637 -0.12898 
-0.130717 -0.131541 -0.131799 -0.13215 -0.132694 -0.133548 -0.132927 -0.133251 -0.134357 
-0.133228 -0.133398 -0.13448 -0.133372 -0.133473 -0.134329 -0.133487 -0.133613 -0.134217 
-0.133617 -0.133724 -0.134093 -0.134143 -0.113976 -0.108072 -0.116312 -0.116921 -0.119049 
-0.133226 -0.133222 -0.133113 -0.133044 -0.0894435 -0.132835 -0.132854 -0.0949216 -0.0871616 
-0.103734 -0.113712 -0.145993 -0.153287 -0.131669 -0.129237 -0.13265 -0.133393 -0.124099 
-0.124682 -0.125026 -0.124636 -0.124439 -0.122829 -0.120795 -0.122628 -0.110425 -0.0991271 
-0.14228 -0.14132 -0.158797 -0.159828 -0.152448 -0.125718 -0.124051 -0.0784579 -0.126643 
-0.124462 -0.127711 -0.0640783 -0.060468 -0.0575164 -0.0559992 -0.0704572 -0.0526944 -0.0508408 
-0.0647136 -0.0493127 -0.0462853 -0.0599511 -0.0445804 -0.04344 -0.0558099 -0.041636 -0.0418133 
-0.0519833 -0.0416182 -0.041063 -0.0498239 -0.0407818 -0.0405912 -0.0492024 -0.0396795 -0.0383087 
-0.0481068 -0.0377997 -0.0378085 -0.0468045 -0.0376362 -0.038345 -0.045798 -0.0396412 -0.0402486 
-0.0468288 -0.0407437 -0.0410971 -0.0488168 -0.0421467 -0.0426729 -0.0502931 -0.0431634 -0.0432154 
-0.0517535 -0.0449969 -0.0467171 -0.0541251 -0.0487593 -0.050144 -0.0575613 -0.0521925 -0.0549303 
-0.0619987 -0.0577228 -0.0611974 -0.0675729 -0.0656608 -0.0730523 -0.0921685 -0.0744475 -0.134096 
-0.137565 -0.147363 -0.151319 -0.128602 -0.131738 -0.134665 -0.122544 -0.125665 -0.129864 
-0.116606 -0.119798 -0.12485 -0.113581 -0.11526 -0.121349 -0.118433 -0.115186 -0.122017 
-0.102898 -0.110403 -0.144886 -0.152167 -0.13909 -0.168329 -0.17947 -0.108561 -0.111543 
-0.11379 -0.116951 -0.11607 -0.119627 -0.122967 -0.120357 -0.125856 -0.129383 -0.125643 
-0.13256 -0.136314 -0.131529 -0.13946 -0.143461 -0.137712 -0.14672 -0.150741 -0.143827 
-0.153515 -0.156616 -0.149037 -0.157403 -0.156625 -0.150993 -0.153473 -0.146766 -0.138641 
-0.132595 -0.116965 -0.112612 -0.107049 -0.105157 -0.116021 -0.153817 -0.156991 -0.15316 
-0.150213 -0.116401 -0.134586 -0.133239 -0.123539 -0.123153 -0.12306 -0.123344 -0.140448 
-0.144186 -0.145258 -0.139574 -0.106738 -0.101872 -0.0743686 -0.16146 -0.164535 -0.105927 
-0.107273 -0.113181 -0.114076 -0.13307 -0.133123 -0.133185 -0.133007 -0.118316 -0.133201 
-0.132696 -0.14482 -0.142407 -0.148545 -0.133248 -0.132769 -0.109101 -0.105596 -0.135169 
-0.135026 -0.13546 -0.133904 -0.134153 -0.150208 -0.159621 -0.106582 -0.101394 -0.109883 
-0.15132 -0.163526 -0.116235 -0.117537 -0.137997 -0.15858 -0.15343 -0.14411 -0.133147 
-0.110966 -0.123144 -0.14617 -0.155716 -0.161961 -0.146431 -0.132046 -0.132277 -0.132165 
-0.134791 -0.133089 -0.106982 -0.111505 -0.0837527 -0.154478 -0.117947 -0.151947 -0.137315 
-0.137703 -0.138143 -0.138425 -0.138257 -0.138695 -0.138808 -0.13899 -0.138861 -0.138811 
-0.139319 -0.138606 -0.138423 -0.139161 -0.138079 -0.137795 -0.138572 -0.137378 -0.137049 
-0.137768 -0.136616 -0.136259 -0.136893 -0.13582 -0.135473 -0.136008 -0.135074 -0.134733 
-0.135164 -0.134421 -0.134157 -0.134436 -0.133932 -0.13371 -0.133886 -0.133566 -0.13338 
-0.133518 -0.133219 -0.133092 -0.133198 -0.133008 -0.132945 -0.132956 -0.132939 -0.132907 
-0.132866 -0.132914 -0.132921 -0.132875 -0.132996 -0.133021 -0.132945 -0.124754 -0.125264 
-0.132598 -0.132391 -0.117903 -0.119532 -0.134551 -0.111723 -0.114494 -0.117155 -0.11889 
-0.111603 -0.120706 -0.121836 -0.117106 -0.123004 -0.123612 -0.121018 -0.124198 -0.124458 
-0.12337 -0.12474 -0.124859 -0.124605 -0.124906 -0.124964 -0.125095 -0.125039 -0.125106 
-0.125377 -0.125112 -0.125166 -0.125575 -0.125185 -0.125283 -0.125655 -0.125351 -0.125538 
-0.125749 -0.125695 -0.12595 -0.126018 -0.126172 -0.126432 -0.126496 -0.126692 -0.126983 
-0.127144 -0.127187 -0.127408 -0.127729 -0.127459 -0.127487 -0.128043 -0.127344 -0.127196 
-0.127902 -0.126826 -0.126539 -0.127377 -0.126059 -0.125704 -0.126402 -0.125177 -0.124839 
-0.125211 -0.124395 -0.124138 -0.124094 -0.123931 -0.123777 -0.123343 -0.123633 -0.123384 
-0.122794 -0.122346 -0.120957 -0.118354 -0.116612 -0.114205 -0.113012 -0.124987 -0.127537 
-0.130175 -0.132084 -0.130881 -0.133686 -0.134888 -0.135184 -0.13556 -0.136145 -0.137495 
-0.136314 -0.136422 -0.138254 -0.136098 -0.135929 -0.137962 -0.135482 -0.135337 -0.137012 
-0.135033 -0.13496 -0.136142 -0.148705 -0.146384 -0.121611 -0.120006 -0.100802 -0.106893 
-0.10244 -0.0874246 -0.144042 -0.148435 -0.119745 -0.123963 -0.130818 -0.133111 -0.133319 
-0.134556 -0.143382 -0.139997 -0.123335 -0.120544 -0.124104 -0.133558 -0.11933 -0.128331 
-0.12445 -0.132959 -0.132849 -0.134496 -0.136862 -0.147856 -0.152094 -0.0754577 -0.0724248 
-0.0710703 -0.069225 -0.0808805 -0.0670174 -0.0649598 -0.0775954 -0.0619113 -0.0600921 -0.0724233 
-0.0581051 -0.0574207 -0.0672755 -0.0574265 -0.0571561 -0.0652198 -0.0573601 -0.056842 -0.0655065 
-0.0558444 -0.0550453 -0.0648292 -0.0528537 -0.0528068 -0.0616999 -0.0551389 -0.0561027 -0.0618426 
-0.0571905 -0.0580225 -0.0651158 -0.0586885 -0.0594967 -0.066794 -0.0605128 -0.0613784 -0.0685306 
-0.0631669 -0.0649335 -0.0714036 -0.0668146 -0.0686743 -0.0751988 -0.0711874 -0.0736079 -0.0794484 
-0.076765 -0.0795751 -0.0847721 -0.126626 -0.128731 -0.13239 -0.135598 -0.137712 -0.136135 
-0.124455 -0.125207 -0.129449 -0.127608 -0.126378 -0.12969 -0.134236 -0.131551 -0.12934 
-0.139066 -0.142056 -0.134363 -0.15015 -0.143026 -0.15979 -0.153476 -0.15609 -0.161506 
-0.155905 -0.126543 -0.126623 -0.130274 -0.137136 -0.134893 -0.134676 -0.120759 -0.123058 
-0.122395 -0.125117 -0.127687 -0.12541 -0.129906 -0.132761 -0.129245 -0.135192 -0.138001 
-0.133433 -0.140291 -0.14281 -0.137658 -0.144704 -0.146293 -0.140973 -0.14641 -0.14542 
-0.139297 -0.142094 -0.11189 -0.086299 -0.136271 -0.136715 -0.137204 -0.135492 -0.135132 
-0.135632 -0.135943 -0.13469 -0.115216 -0.118302 -0.122166 -0.124636 -0.0831423 -0.131988 
-0.132376 -0.13307 -0.132923 -0.13652 -0.142571 -0.140933 -0.139921 -0.138742 -0.113081 
-0.11054 -0.12067 -0.125028 -0.148429 -0.144271 -0.148106 -0.134742 -0.121035 -0.117892 
-0.115744 -0.121407 -0.133082 -0.127589 -0.142465 -0.144997 -0.135072 -0.135379 -0.139897 
-0.140471 -0.0500326 -0.0559084 -0.140596 -0.14297 -0.139977 -0.135893 -0.135232 -0.115161 
-0.114692 -0.135527 -0.112069 -0.114926 -0.13672 -0.143063 -0.132573 -0.145668 -0.141094 
-0.140338 -0.145505 -0.151375 -0.0838199 -0.135747 -0.136116 -0.136032 -0.136226 -0.132473 
-0.132958 -0.131664 -0.145973 -0.147425 -0.144241 -0.143427 -0.1344 -0.152163 -0.0894523 
-0.121242 -0.11967 -0.0982798 -0.0907101 -0.0897476 -0.109243 -0.121037 -0.122571 -0.123362 
-0.118474 -0.116046 -0.116847 -0.120539 -0.119619 -0.141604 -0.121554 -0.0919854 -0.138538 
-0.138988 -0.139391 -0.139664 -0.139778 -0.140097 -0.140145 -0.14066 -0.140032 -0.139794 
-0.140965 -0.139244 -0.138863 -0.140195 -0.138213 -0.137777 -0.138968 -0.137252 -0.136813 
-0.137714 -0.136206 -0.135772 -0.136576 -0.135205 -0.134807 -0.13539 -0.134383 -0.134057 
-0.134393 -0.133782 -0.133548 -0.13369 -0.133325 -0.133188 -0.133181 -0.133024 -0.0601543 
-0.0759696 -0.132819 -0.132741 -0.13276 -0.132737 -0.132737 -0.132583 -0.132119 -0.132076 
-0.121768 -0.124859 -0.133675 -0.131919 -0.112282 -0.11505 -0.117938 -0.119852 -0.1136 
-0.121788 -0.122886 -0.119134 -0.123985 -0.124525 -0.122674 -0.125175 -0.125337 -0.124694 
-0.125534 -0.0683902 -0.0828275 -0.125757 -0.12585 -0.125697 -0.125861 -0.125935 -0.126101 
-0.126073 -0.12622 -0.126367 -0.126302 -0.126528 -0.126577 -0.126878 -0.12721 -0.127141 
-0.127622 -0.128045 -0.128107 -0.128397 -0.128745 -0.129093 -0.128948 -0.129076 -0.129817 
-0.128947 -0.128793 -0.129887 -0.128328 -0.127779 -0.12934 -0.123149 -0.122409 -0.121757 
-0.121333 -0.13111 -0.134365 -0.138187 -0.139944 -0.139441 -0.140008 -0.140573 -0.143406 
-0.14097 -0.140923 -0.1433 -0.140043 -0.139506 -0.142561 -0.138517 -0.137926 -0.14044 
-0.0985427 -0.134785 -0.136138 -0.136192 -0.130674 -0.131695 -0.117986 -0.110743 -0.113447 
-0.117108 -0.13757 -0.130851 -0.126871 -0.123852 -0.120569 -0.120977 -0.132089 -0.131736 
-0.143596 -0.132747 -0.141256 -0.143428 -0.132999 -0.134387 -0.133941 -0.0878701 -0.0860943 
-0.0970498 -0.0830073 -0.0800384 -0.092717 -0.0753051 -0.0732366 -0.0853811 -0.0723059 -0.0722048 
-0.0798338 -0.0746391 -0.0749417 -0.0813282 -0.0747906 -0.0738802 -0.0835194 -0.07069 -0.0685381 
-0.0804052 -0.0708709 -0.0738552 -0.0769965 -0.0736046 -0.074699 -0.0800695 -0.0748421 -0.0755825 
-0.0829738 -0.0759957 -0.077167 -0.0835251 -0.0792312 -0.0812113 -0.0860837 -0.0834189 -0.0851711 
-0.090435 -0.0871812 -0.0893627 -0.0941678 -0.0920631 -0.094797 -0.104302 -0.098458 -0.13546 
-0.137054 -0.135806 -0.131003 -0.132274 -0.128982 -0.132688 -0.132441 -0.153199 -0.151776 
-0.14784 -0.147111 -0.130736 -0.130632 -0.129185 -0.129723 -0.147946 -0.151798 -0.128163 
-0.1299 -0.134729 -0.136309 -0.138208 -0.139397 -0.135222 -0.108409 -0.137116 -0.137719 
-0.138527 -0.136729 -0.134861 -0.139123 -0.132857 -0.124573 -0.123023 -0.123981 -0.125304 
-0.115281 -0.127143 -0.13087 -0.128447 -0.132249 -0.129637 -0.131194 -0.149526 -0.13649 
-0.1389 -0.137629 -0.126081 -0.119441 -0.128701 -0.126834 -0.126118 -0.11817 -0.134741 
-0.132198 -0.133837 -0.138494 -0.137117 -0.128782 -0.136779 -0.136674 -0.140341 -0.138199 
-0.105077 -0.102386 -0.132208 -0.133412 -0.134297 -0.131453 -0.131332 -0.131454 -0.137455 
-0.135568 -0.132128 -0.125587 -0.137131 -0.136452 -0.102185 -0.0993613 -0.141243 -0.14516 
-0.136334 -0.128474 -0.130081 -0.141194 -0.141677 -0.135029 -0.137419 -0.145371 -0.135849 
-0.140876 -0.140535 -0.137811 -0.138121 -0.125134 -0.126804 -0.105761 -0.131503 -0.133522 
-0.136483 -0.139205 -0.13865 -0.132668 -0.121666 -0.125009 -0.142348 -0.142204 -0.139422 
-0.138729 -0.138166 -0.0780428 -0.0802895 -0.136962 -0.136329 -0.137979 -0.135581 -0.135007 
-0.135919 -0.134356 -0.133924 -0.134464 -0.133496 -0.133206 -0.133418 -0.133075 -0.132857 
-0.132846 -0.132739 -0.127752 -0.115974 -0.118642 -0.121219 -0.122629 -0.118291 -0.123818 
-0.124716 -0.122634 -0.0820384 -0.0841553 -0.125021 -0.12426 -0.125556 -0.12561 -0.126044 
-0.12644 -0.126529 -0.126456 -0.126726 -0.0849947 -0.100197 -0.127065 -0.127275 -0.127207 
-0.128489 -0.129156 -0.130744 -0.130247 -0.122012 -0.126808 -0.124807 -0.144734 -0.143578 
-0.141873 -0.140756 -0.143773 -0.10829 -0.0989496 -0.126977 -0.129095 -0.137794 -0.138568 
-0.135774 -0.135865 -0.135719 -0.0931037 -0.13927 -0.139357 -0.124846 -0.117289 -0.131622 
-0.140646 -0.131737 -0.146886 -0.147942 -0.127999 -0.127579 -0.0893172 -0.0920903 -0.0886266 
-0.0914618 -0.0952421 -0.0982698 -0.0920833 -0.0923214 -0.100078 -0.0903265 -0.090836 -0.0989499 
-0.0918252 -0.0941774 -0.0980547 -0.0979477 -0.100049 -0.103059 -0.103575 -0.101686 -0.108287 
-0.132018 -0.12548 -0.131453 -0.136895 -0.138673 -0.13135 -0.133218 -0.134573 -0.130956 
-0.134445 -0.144987 -0.142374 -0.112022 -0.138624 -0.140013 -0.102928 -0.124923 -0.134697 
-0.111277 -0.127687 -0.129861 -0.130481 -0.135375 -0.14655 -0.131642 -0.141093 -0.146354 
-0.111837 -0.132524 -0.132665 -0.119395 -0.134716 -0.134854 -0.116598 -0.146672 -0.145777 
-0.144763 -0.130478 -0.143817 -0.15956 -0.138469 -0.140869 -0.0886365 -0.0878427 -0.0901033 
-0.0929012 -0.0928794 -0.0918593 -0.0270526 -0.100569 -0.100197 -0.140832 -0.103767 -0.129012 
-0.128373 -0.134311 -0.106682 -0.128619 -0.136487 -0.135737 -0.134641 -0.141571 -0.141489 
-0.140893 -0.1349 -0.134186 -0.133078 -0.132673 -0.133375 -0.133387 -0.134043 -0.133215 
-0.132462 -0.132037 -0.111292 -0.140647 -0.14304 -0.132255 -0.13191 -0.131487 -0.127821 
-0.134948 -0.133875 -0.132699 -0.121611 -0.121571 -0.130238 -0.10893 -0.109467 -0.142997 
-0.133554 -0.132629 -0.131506 -0.118672 -0.114424 -0.115408 -0.106712 -0.132135 -0.132105 
-0.110926 -0.11704 -0.119774 -0.137191 -0.135998 -0.135695 -0.121628 -0.134221 -0.133006 
-0.135292 -0.11293 -0.131755 -0.132167 -0.109118 -0.132125 -0.131597 -0.126981 -0.104679 
-0.105532 -0.131289 -0.131777 -0.132442 -0.132343 -0.133049 -0.132494 -0.132025 -0.13331 
-0.133575 -0.133434 -0.134501 -0.133995 -0.133921 -0.135778 -0.135028 -0.1349 -0.13703 
-0.136332 -0.13603 -0.13812 -0.137561 -0.137117 -0.138742 -0.138443 -0.137971 -0.138855 
-0.138862 -0.138408 -0.138519 -0.138751 -0.138402 -0.137802 -0.138251 -0.138004 -0.136828 
-0.137384 -0.137304 -0.135717 -0.136364 -0.136421 -0.134668 -0.135222 -0.135461 -0.133722 
-0.134209 -0.134534 -0.13309 -0.133405 -0.133778 -0.132658 -0.132853 -0.133219 -0.132483 
-0.132534 -0.132864 -0.132486 -0.132431 -0.132704 -0.132659 -0.132531 -0.132703 -0.132898 
-0.132742 -0.132831 -0.133124 -0.132992 -0.133008 -0.133283 -0.133205 -0.133175 -0.133327 
-0.109991 -0.136368 -0.139485 -0.13125 -0.139238 -0.127392 -0.124484 -0.127132 -0.131584 
-0.120732 -0.122136 -0.126502 -0.119239 -0.119701 -0.123285 -0.118619 -0.118703 -0.121785 
-0.118594 -0.118417 -0.12102 -0.119053 -0.11869 -0.120828 -0.119712 -0.119275 -0.120976 
-0.12056 -0.119974 -0.121347 -0.121637 -0.12098 -0.121939 -0.122848 -0.12213 -0.122752 
-0.124118 -0.123369 -0.123649 -0.125288 -0.124617 -0.124601 -0.126363 -0.125758 -0.125492 
-0.127151 -0.126709 -0.126194 -0.127647 -0.127362 -0.126664 -0.127725 -0.127689 -0.126862 
-0.127383 -0.127586 -0.126732 -0.126622 -0.127083 -0.126295 -0.125259 -0.126105 -0.125571 
-0.123338 -0.124563 -0.124474 -0.121022 -0.122392 -0.122824 -0.118781 -0.119988 -0.120893 
-0.117869 -0.118281 -0.119334 -0.118723 -0.118188 -0.11919 -0.120727 -0.119643 -0.120534 
-0.123272 -0.121919 -0.122669 -0.125807 -0.124496 -0.125109 -0.127855 -0.126765 -0.127255 
-0.129593 -0.128668 -0.128965 -0.131006 -0.130276 -0.130406 -0.131999 -0.131479 -0.131497 
-0.13274 -0.13238 -0.132287 -0.133162 -0.132983 -0.132914 -0.0603662 -0.133386 -0.133351 
-0.133499 -0.133424 -0.133403 -0.133643 -0.133537 -0.133486 -0.133846 -0.133711 -0.133575 
-0.13413 -0.133955 -0.133739 -0.134639 -0.13435 -0.134811 -0.134672 -0.133857 -0.134159 
-0.134641 -0.133862 -0.132254 -0.133532 -0.133255 -0.129223 -0.131066 -0.131639 -0.125724 
-0.127769 -0.12902 -0.122512 -0.124355 -0.126212 -0.12031 -0.121639 -0.124077 -0.119206 
-0.119951 -0.122983 -0.119068 -0.119244 -0.122763 -0.120089 -0.119528 -0.123233 -0.122239 
-0.121146 -0.124582 -0.135516 -0.129759 -0.151534 -0.139986 -0.139462 -0.136106 -0.0427488 
-0.0505574 -0.0212258 -0.0215868 -0.0561541 -0.0183896 -0.0177638 -0.0378381 -0.0133388 -0.0127934 
-0.0331965 -0.0104744 -0.0110442 -0.024504 -0.00873467 -0.00904078 -0.0196374 -0.0109514 -0.0109817 
-0.021213 -0.00834033 -0.00853907 -0.0203627 -0.00901356 -0.00936457 -0.016833 -0.00785667 -0.00838783 
-0.0167245 -0.0111641 -0.00994966 -0.0188524 -0.00844505 -0.00880445 -0.0192711 -0.00884084 -0.00979562 
-0.0171931 -0.0106412 -0.00942862 -0.016683 -0.00718362 -0.00930642 -0.0177827 -0.00879712 -0.0106032 
-0.0225483 -0.0105317 -0.010938 -0.0195992 -0.0113118 -0.0111166 -0.0199539 -0.0109817 -0.0118327 
-0.0222125 -0.0214699 -0.0197021 -0.0342293 -0.216813 -0.216468 -0.216289 -0.198243 -0.188323 
-0.189435 -0.178814 -0.186322 -0.169139 -0.163812 -0.170615 -0.155167 -0.152973 -0.155936 
-0.145872 -0.144751 -0.145064 -0.139132 -0.138251 -0.137244 -0.131747 -0.131386 -0.129873 
-0.125028 -0.125121 -0.123095 -0.117831 -0.1163 -0.115498 -0.109588 -0.106865 -0.106967 
-0.0982619 -0.0937307 -0.0971617 -0.0831076 -0.0602039 -0.0841751 -0.0629 -0.0702491 -0.0850367 
-0.0777763 -0.140582 -0.0591602 -0.0657324 -0.0787936 -0.0632347 -0.0767951 -0.0967982 -0.0921635 
-0.0814976 -0.106388 -0.100827 -0.0956462 -0.115087 -0.114912 -0.0991815 -0.121895 -0.121329 
-0.111424 -0.129632 -0.127429 -0.11861 -0.135701 -0.135387 -0.126223 -0.143729 -0.14226 
-0.134191 -0.155352 -0.151253 -0.143733 -0.167973 -0.163556 -0.155615 -0.188151 -0.177941 
-0.174105 -0.217529 -0.192599 -0.18911 -0.221901 -0.20747 -0.187306 -0.0929058 -0.169266 
-0.133391 -0.133315 -0.133354 -0.133713 -0.134266 -0.134039 -0.123475 -0.127279 -0.09113 
-0.127474 -0.188614 -0.253756 -0.246797 -0.14943 -0.0540334 -0.0964823 -0.065954 -0.0741883 
-0.0916473 -0.0685879 -0.183717 -0.152187 -0.0673366 -0.133197 -0.133351 -0.0667463 -0.135244 
-0.134697 -0.134233 -0.133777 -0.133592 -0.134527 -0.137282 -0.136794 -0.138039 -0.137727 
-0.137521 -0.138349 -0.138225 -0.138154 -0.138169 -0.138293 -0.138312 -0.137692 -0.137961 
-0.138012 -0.136943 -0.137327 -0.137424 -0.136092 -0.136538 -0.136654 -0.135166 -0.135634 
-0.135778 -0.134333 -0.134764 -0.134909 -0.133698 -0.134018 -0.134179 -0.13324 -0.133462 
-0.13362 -0.132954 -0.133062 -0.133226 -0.132822 -0.132871 -0.132992 -0.132841 -0.132817 
-0.13291 -0.132963 -0.132889 -0.132942 -0.133123 -0.133034 -0.133067 -0.133277 -0.133199 
-0.133219 -0.133726 -0.134117 -0.124886 -0.126061 -0.125831 -0.126836 -0.122604 -0.118805 
-0.102845 -0.0711019 -0.111301 -0.123621 -0.124248 -0.124249 -0.122779 -0.123109 -0.124222 
-0.122328 -0.12253 -0.123856 -0.122262 -0.122203 -0.123682 -0.122342 -0.122166 -0.123493 
-0.12254 -0.122364 -0.123449 -0.12302 -0.122667 -0.123624 -0.123659 -0.123245 -0.123935 
-0.124429 -0.123944 -0.124408 -0.125153 -0.124712 -0.124976 -0.125919 -0.125467 -0.12563 
-0.126428 -0.126135 -0.126179 -0.126683 -0.126519 -0.126477 -0.126591 -0.126611 -0.126471 
-0.126222 -0.126372 -0.126176 -0.125714 -0.125971 -0.125692 -0.125079 -0.125467 -0.125232 
-0.124168 -0.124796 -0.124789 -0.122416 -0.123574 -0.12381 -0.119861 -0.121226 -0.12164 
-0.118019 -0.118716 -0.118727 -0.118489 -0.118042 -0.117333 -0.121205 -0.119866 -0.118787 
-0.124393 -0.122947 -0.122567 -0.127275 -0.125919 -0.126405 -0.129245 -0.12831 -0.129214 
-0.130699 -0.129954 -0.131032 -0.131739 -0.131158 -0.132124 -0.132404 -0.13202 -0.132762 
-0.132979 -0.13265 -0.133185 -0.133415 -0.133186 -0.13355 -0.133886 -0.112295 -0.112742 
-0.133475 -0.133411 -0.133277 -0.133104 -0.13357 -0.133466 -0.133316 -0.0658623 -0.106777 
-0.134041 -0.133929 -0.117731 -0.118802 -0.133671 -0.133414 -0.132927 -0.13363 -0.132029 
-0.133241 -0.134246 -0.12875 -0.130603 -0.13207 -0.125354 -0.127005 -0.123742 -0.124544 
-0.125076 -0.123749 -0.123928 -0.12435 -0.124088 -0.124168 -0.124973 -0.123725 -0.123918 
-0.124811 -0.122523 -0.122829 -0.12243 -0.115358 -0.175416 -0.151851 -0.145366 -0.183846 
-0.110551 -0.1143 -0.0484161 -0.052122 -0.0350965 -0.0401173 -0.0576618 -0.0316018 -0.0324098 
-0.0462367 -0.0296135 -0.02945 -0.040646 -0.0285442 -0.0293035 -0.0395497 -0.0280701 -0.0275757 
-0.0383826 -0.0270412 -0.027661 -0.0368757 -0.026962 -0.0269553 -0.0367311 -0.0260433 -0.0272997 
-0.0359914 -0.0266741 -0.0261608 -0.0355622 -0.0284141 -0.0278442 -0.0360264 -0.027784 -0.027707 
-0.0366469 -0.0290968 -0.0285796 -0.0385641 -0.0307043 -0.0304167 -0.0406087 -0.0332311 -0.0338863 
-0.0432544 -0.0385189 -0.0358591 -0.0477235 -0.0553246 -0.0459824 -0.0570843 -0.0824195 -0.171084 
-0.15355 -0.109952 -0.102852 -0.0787767 -0.101535 -0.180395 -0.174554 -0.173692 -0.164246 
-0.16713 -0.162821 -0.154135 -0.161696 -0.152268 -0.145042 -0.153649 -0.143986 -0.137553 
-0.145713 -0.13639 -0.130236 -0.138259 -0.129394 -0.123323 -0.13119 -0.122252 -0.115944 
-0.124365 -0.114872 -0.108262 -0.11795 -0.107217 -0.0991216 -0.111835 -0.0992277 -0.0908142 
-0.107535 -0.0975645 -0.107913 -0.110371 -0.108835 -0.101168 -0.16552 -0.195596 -0.09549 
-0.102263 -0.111786 -0.109787 -0.106519 -0.116884 -0.112492 -0.11294 -0.124107 -0.119596 
-0.119427 -0.131497 -0.126663 -0.126437 -0.139653 -0.134217 -0.133615 -0.149264 -0.142799 
-0.141637 -0.15991 -0.152933 -0.150523 -0.172002 -0.162669 -0.159311 -0.177966 -0.173279 
-0.164762 -0.163229 -0.177299 -0.160089 -0.136264 -0.135704 -0.135491 -0.136537 -0.165548 
-0.177546 -0.162706 -0.149062 -0.094848 -0.0904534 -0.106007 -0.103655 -0.0968236 -0.102758 
-0.10719 -0.102117 -0.134338 -0.128216 -0.0782922 -0.0636396 -0.112165 -0.132664 -0.156249 
-0.133315 -0.133405 -0.13273 -0.133186 -0.133305 -0.133374 -0.133322 -0.0910914 -0.09034 
-0.133739 -0.144955 -0.180607 -0.160441 -0.128109 -0.169597 -0.0681228 -0.0888706 -0.181801 
-0.158576 -0.176072 -0.115426 -0.107216 -0.0879204 -0.108367 -0.0922185 -0.133434 -0.13302 
-0.132346 -0.132288 -0.138494 -0.138572 -0.137924 -0.137497 -0.138033 -0.138273 -0.138666 
-0.137289 -0.137652 -0.138009 -0.136426 -0.136823 -0.137116 -0.135461 -0.135919 -0.136118 
-0.13461 -0.135013 -0.135131 -0.133918 -0.134245 -0.134299 -0.133444 -0.133678 -0.133678 
-0.133119 -0.133273 -0.133262 -0.132953 -0.133026 -0.133015 -0.132923 -0.132941 -0.132917 
-0.132993 -0.132956 -0.132937 -0.13313 -0.133053 -0.133039 -0.131776 -0.134078 -0.135124 
-0.134742 -0.13499 -0.134508 -0.134365 -0.111268 -0.114734 -0.122639 -0.12201 -0.110347 
-0.100352 -0.0835237 -0.0901174 -0.124103 -0.124023 -0.124208 -0.124158 -0.124584 -0.12425 
-0.124187 -0.12479 -0.124342 -0.124225 -0.124889 -0.124607 -0.124379 -0.124987 -0.125067 
-0.124752 -0.125199 -0.125595 -0.12527 -0.125609 -0.126222 -0.125847 -0.126201 -0.126757 
-0.126468 -0.126821 -0.12694 -0.126843 -0.12723 -0.12667 -0.126794 -0.127173 -0.125997 
-0.126279 -0.126598 -0.125206 -0.125507 -0.125573 -0.124627 -0.124845 -0.124598 -0.12421 
-0.124435 -0.123967 -0.123261 -0.124025 -0.123667 -0.120385 -0.12229 -0.122218 -0.115709 
-0.117912 -0.118098 -0.11424 -0.114278 -0.113258 -0.118726 -0.116496 -0.113491 -0.124324 
-0.121726 -0.11988 -0.12916 -0.127067 -0.127008 -0.132082 -0.13085 -0.131913 -0.133441 
-0.132783 -0.134555 -0.134013 -0.133701 -0.135452 -0.134073 -0.133933 -0.135449 -0.134083 
-0.133941 -0.135075 -0.123797 -0.123678 -0.123928 -0.133151 -0.133155 -0.132868 -0.102166 
-0.0991995 -0.134929 -0.135274 -0.135028 -0.125087 -0.12476 -0.123675 -0.123264 -0.123671 
-0.123124 -0.124192 -0.122172 -0.123512 -0.124682 -0.124337 -0.112437 -0.136988 -0.138524 
-0.138318 -0.138439 -0.138899 -0.0531501 -0.0579173 -0.0494142 -0.0498043 -0.0485674 -0.0487647 
-0.059142 -0.0469824 -0.0475248 -0.0577963 -0.0457192 -0.0465855 -0.0561939 -0.0450823 -0.0453478 
-0.0549221 -0.0451881 -0.0444724 -0.0541333 -0.0458376 -0.0451802 -0.054265 -0.0470635 -0.0465994 
-0.0554965 -0.0492245 -0.0485966 -0.0576822 -0.0530335 -0.0512279 -0.0610473 -0.0569224 -0.0549294 
-0.0653639 -0.061376 -0.0592509 -0.0697964 -0.0751516 -0.0950349 -0.115682 -0.109585 -0.16122 
-0.164094 -0.158199 -0.15556 -0.153251 -0.149582 -0.151682 -0.146834 -0.143456 -0.147515 
-0.140528 -0.137074 -0.142291 -0.134152 -0.130901 -0.136776 -0.128196 -0.125057 -0.131443 
-0.122618 -0.119788 -0.126781 -0.11783 -0.11504 -0.123096 -0.114483 -0.113248 -0.120932 
-0.115018 -0.119624 -0.121949 -0.120601 -0.120383 -0.124545 -0.122743 -0.119492 -0.116857 
-0.114051 -0.12028 -0.135494 -0.131933 -0.142878 -0.138876 -0.136858 -0.150309 -0.146283 
-0.143144 -0.156163 -0.153404 -0.148414 -0.156478 -0.157155 -0.150855 -0.147631 -0.154931 
-0.146969 -0.155692 -0.147725 -0.125846 -0.128618 -0.130224 -0.123944 -0.119321 -0.116796 
-0.10663 -0.116812 -0.142697 -0.142421 -0.13908 -0.141315 -0.123146 -0.12281 -0.121088 
-0.122643 -0.0504033 -0.0514578 -0.0624032 -0.0600705 -0.100352 -0.102803 -0.114064 -0.159168 
-0.159151 -0.15339 -0.128995 -0.125771 -0.125528 -0.131001 -0.137299 -0.136776 -0.136235 
-0.116466 -0.132177 -0.132602 -0.132729 -0.134757 -0.134162 -0.107481 -0.115659 -0.108285 
-0.134262 -0.134129 -0.134872 -0.134928 -0.150013 -0.170916 -0.133232 -0.133208 -0.133531 
-0.13578 -0.136307 -0.150563 -0.151934 -0.157235 -0.148493 -0.132865 -0.132428 -0.132057 
-0.120802 -0.120154 -0.117769 -0.105407 -0.112555 -0.110313 -0.105901 -0.106621 -0.142692 
-0.144156 -0.0668418 -0.121838 -0.0728774 -0.172276 -0.165388 -0.164284 -0.0925175 -0.0721462 
-0.0642736 -0.0745983 -0.088245 -0.114333 -0.156609 -0.159026 -0.113469 -0.108289 -0.152138 
-0.158826 -0.150949 -0.145079 -0.135491 -0.13305 -0.115591 -0.116485 -0.116476 -0.112179 
-0.109656 -0.149463 -0.145513 -0.142492 -0.10513 -0.108322 -0.118209 -0.119395 -0.143219 
-0.139108 -0.138995 -0.139249 -0.13581 -0.136334 -0.134774 -0.135231 -0.135427 -0.13391 
-0.134283 -0.134326 -0.133342 -0.133593 -0.133522 -0.133013 -0.133183 -0.133045 -0.132844 
-0.132925 -0.132792 -0.13282 -0.132829 -0.132707 -0.13293 -0.132903 -0.132789 -0.135672 
-0.134814 -0.119233 -0.115988 -0.125302 -0.125225 -0.125127 -0.124945 -0.12538 -0.124572 
-0.124193 -0.124662 -0.125434 -0.125326 -0.12568 -0.125748 -0.125525 -0.125894 -0.126247 
-0.125937 -0.126258 -0.126932 -0.126538 -0.126899 -0.127674 -0.127284 -0.127778 -0.128134 
-0.127937 -0.128607 -0.127907 -0.128088 -0.128878 -0.126723 -0.127286 -0.128192 -0.125017 
-0.125768 -0.126338 -0.12317 -0.123807 -0.123768 -0.121394 -0.121501 -0.112429 -0.123348 
-0.118551 -0.113626 -0.130729 -0.127127 -0.127302 -0.136543 -0.134482 -0.135839 -0.137673 
-0.137072 -0.140001 -0.137733 -0.137692 -0.140129 -0.136932 -0.137225 -0.139345 -0.13609 
-0.136386 -0.138046 -0.139097 -0.15145 -0.123504 -0.122737 -0.123198 -0.133129 -0.0675047 
-0.0683552 -0.1381 -0.138512 -0.139199 -0.134261 -0.135493 -0.124447 -0.122735 -0.156616 
-0.1492 -0.147918 -0.111219 -0.109633 -0.123806 -0.125058 -0.124819 -0.120522 -0.119878 
-0.14753 -0.148153 -0.144563 -0.0652848 -0.0660621 -0.0759608 -0.135751 -0.111779 -0.119791 
-0.0698903 -0.0702203 -0.0789603 -0.0641254 -0.0646296 -0.0740899 -0.0630673 -0.0633482 -0.0726712 
-0.0634814 -0.0631199 -0.0718833 -0.0653547 -0.064368 -0.0727448 -0.0682298 -0.0668166 -0.0751368 
-0.072336 -0.0702081 -0.0786666 -0.0771465 -0.0750179 -0.0831328 -0.0823904 -0.0802858 -0.0886987 
-0.1219 -0.126541 -0.123657 -0.154744 -0.15053 -0.0737027 -0.0825055 -0.0721479 -0.146328 
-0.144332 -0.144922 -0.142627 -0.140297 -0.142347 -0.138378 -0.135896 -0.13932 -0.133813 
-0.131519 -0.135923 -0.130079 -0.128102 -0.132745 -0.127316 -0.12587 -0.130883 -0.124558 
-0.124182 -0.129375 -0.124664 -0.126509 -0.128494 -0.127969 -0.128549 -0.130262 -0.13046 
-0.141974 -0.139389 -0.137266 -0.13429 -0.136705 -0.145753 -0.146389 -0.140939 -0.144381 
-0.140135 -0.108687 -0.126704 -0.136204 -0.135977 -0.145484 -0.143926 -0.141868 -0.122822 
-0.120554 -0.136995 -0.137465 -0.138038 -0.136705 -0.143681 -0.119591 -0.122234 -0.122515 
-0.116775 -0.140017 -0.139522 -0.139472 -0.113949 -0.105154 -0.0981965 -0.087209 -0.134557 
-0.133864 -0.11568 -0.112353 -0.104288 -0.124341 -0.131787 -0.132097 -0.119518 -0.115026 
-0.0936089 -0.135756 -0.137664 -0.135326 -0.132738 -0.121302 -0.120628 -0.114909 -0.118648 
-0.147742 -0.156702 -0.135665 -0.13689 -0.135603 -0.120309 -0.121199 -0.119841 -0.135553 
-0.136074 -0.136546 -0.137693 -0.132734 -0.131355 -0.132682 -0.132932 -0.12084 -0.128019 
-0.124537 -0.155714 -0.148978 -0.144007 -0.114804 -0.131873 -0.131529 -0.131485 -0.0848931 
-0.100595 -0.108265 -0.139256 -0.13884 -0.14005 -0.137907 -0.140296 -0.144263 -0.127341 
-0.124826 -0.124869 -0.0789388 -0.0687438 -0.0692984 -0.114955 -0.117858 -0.120187 -0.159568 
-0.160682 -0.15534 -0.117003 -0.0941547 -0.122156 -0.0911935 -0.126923 -0.138992 -0.138029 
-0.137278 -0.14793 -0.139941 -0.145387 -0.146859 -0.138784 -0.13548 -0.133257 -0.146787 
-0.115782 -0.120173 -0.107956 -0.120664 -0.142057 -0.141013 -0.13264 -0.131969 -0.129572 
-0.132987 -0.136833 -0.134925 -0.135563 -0.132635 -0.132797 -0.132544 -0.132626 -0.132333 
-0.126259 -0.12606 -0.125569 -0.125262 -0.136047 -0.13477 -0.102189 -0.138154 -0.139641 
-0.136501 -0.135899 -0.135731 -0.125936 -0.125784 -0.125729 -0.126217 -0.1246 -0.123874 
-0.124661 -0.126846 -0.126511 -0.126719 -0.127757 -0.127257 -0.127573 -0.128856 -0.128237 
-0.128758 -0.129946 -0.129432 -0.13021 -0.130531 -0.130493 -0.131662 -0.1288 -0.129719 
-0.122559 -0.12421 -0.13206 -0.132035 -0.132373 -0.135836 -0.132274 -0.114739 -0.143391 
-0.143442 -0.142583 -0.143002 -0.14592 -0.140619 -0.141404 -0.143948 -0.138795 -0.139517 
-0.141398 -0.136757 -0.134911 -0.139601 -0.140122 -0.0836291 -0.084132 -0.134823 -0.132449 
-0.131902 -0.117579 -0.0840217 -0.0854861 -0.0928411 -0.12685 -0.12722 -0.136997 -0.141074 
-0.142152 -0.137555 -0.0818483 -0.0825598 -0.0920998 -0.135656 -0.0895149 -0.0907767 -0.0967404 
-0.120116 -0.115383 -0.12264 -0.121418 -0.122329 -0.0810139 -0.0809042 -0.0902712 -0.0818024 
-0.080825 -0.0893878 -0.0844676 -0.0828329 -0.0902558 -0.0888387 -0.0866266 -0.0935654 -0.0937963 
-0.0912427 -0.0981506 -0.0998265 -0.0971792 -0.103593 -0.142885 -0.139619 -0.142689 -0.143503 
-0.138605 -0.13575 -0.0993574 -0.108869 -0.13304 -0.133358 -0.132586 -0.133842 -0.13434 
-0.133291 -0.118895 -0.139237 -0.137962 -0.137059 -0.135454 -0.137368 -0.134393 -0.133261 
-0.135912 -0.133239 -0.132709 -0.134926 -0.135037 -0.13362 -0.117436 -0.117728 -0.123012 
-0.125434 -0.13684 -0.138628 -0.134388 -0.135647 -0.138715 -0.138698 -0.135599 -0.132192 
-0.0802218 -0.10881 -0.12089 -0.124008 -0.134366 -0.132541 -0.132553 -0.134736 -0.133427 
-0.131848 -0.132022 -0.135831 -0.131308 -0.0899954 -0.13646 -0.125757 -0.127185 -0.140596 
-0.145612 -0.140587 -0.140873 -0.141124 -0.112951 -0.133495 -0.133808 -0.134234 -0.137768 
-0.139108 -0.139437 -0.137148 -0.144336 -0.137272 -0.119785 -0.117414 -0.118978 -0.139998 
-0.130124 -0.131322 -0.153621 -0.131689 -0.131987 -0.13221 -0.141313 -0.14109 -0.142123 
-0.11097 -0.131057 -0.128613 -0.132237 -0.133546 -0.135923 -0.136412 -0.137103 -0.126338 
-0.141416 -0.1326 -0.134521 -0.133131 -0.130185 -0.141346 -0.140272 -0.138845 -0.141343 
-0.136865 -0.133721 -0.132807 -0.137949 -0.131359 -0.1319 -0.139185 -0.130726 -0.135666 
-0.136421 -0.136282 -0.0884589 -0.149253 -0.149199 -0.151828 -0.153853 -0.136587 -0.132941 
-0.138016 -0.138673 -0.137763 -0.13964 -0.125234 -0.126851 -0.128436 -0.127752 -0.132578 
-0.127225 -0.126879 -0.127997 -0.131489 -0.142649 -0.148202 -0.112311 -0.15191 -0.148272 
-0.0978725 -0.0979097 -0.13986 -0.140846 -0.122166 -0.120299 -0.0975712 -0.0964394 -0.104407 
-0.102465 -0.100183 -0.10571 -0.106458 -0.103999 -0.109731 -0.110507 -0.107525 -0.112228 
-0.115156 -0.132825 -0.133325 -0.133893 -0.132192 -0.13402 -0.128794 -0.128767 -0.124199 
-0.133772 -0.131672 -0.130758 -0.134099 -0.129327 -0.125925 -0.137545 -0.137767 -0.124941 
-0.124066 -0.122505 -0.135763 -0.100654 -0.101777 -0.0974718 -0.0984058 -0.107285 -0.10535 
-0.132906 -0.133454 -0.131707 -0.135761 -0.129394 -0.129844 -0.132408 -0.126518 -0.126312 
-0.127004 -0.133481 -0.134671 -0.123128 -0.129073 -0.130297 -0.132015 -0.124469 -0.104712 
-0.115259 -0.144545 -0.145996 -0.148764 -0.144381 -0.143644 -0.134213 -0.133036 -0.137977 
-0.13911 -0.137 -0.136594 -0.117487 -0.129296 -0.128551 -0.126117 -0.125732 -0.125187 
-0.126354 -0.119139 -0.12353 -0.101305 -0.100843 -0.131359 -0.131374 -0.137439 -0.127275 
-0.117204 -0.137237 -0.133393 -0.131473 -0.132067 -0.13273 -0.13133 -0.119512 -0.128938 
-0.129886 -0.136624 -0.136022 -0.109229 -0.118094 -0.131942 -0.12829 -0.11894 -0.127477 
-0.132577 -0.133986 -0.14334 -0.14531 -0.131694 -0.132731 -0.142224 -0.14275 -0.116182 
-0.13578 -0.136055 -0.142557 -0.127101 -0.110295 -0.111897 -0.113784 -0.143822 -0.145578 
-0.120501 -0.116601 -0.13608 -0.136179 -0.137778 -0.139248 -0.147234 -0.139776 -0.142432 
-0.112769 -0.115171 -0.149657 -0.123468 -0.113263 -0.134424 -0.126175 -0.126928 -0.115828 
-0.125133 -0.133328 -0.172134 -0.210247 -0.133337 -0.133363 -0.133416 -0.133488 -0.133583 
-0.133693 -0.133829 -0.133972 -0.134154 -0.134339 -0.115447 -0.116395 -0.117517 -0.119063 
-0.121455 -0.126455 -0.131266 -0.139296 -0.151263 -0.115295 -0.115304 -0.134591 -0.134822 
-0.126818 -0.124804 -0.12259 -0.120716 -0.115783 -0.13509 -0.129089 -0.135354 -0.135566 
-0.135645 -0.135454 -0.134925 -0.133962 -0.132635 -0.130908 -0.118779 -0.117502 -0.116468 
-0.17325 -0.133389 -0.133381 -0.213467 -0.148428 -0.139803 -0.131786 -0.126576 -0.123093 
-0.120663 -0.118803 -0.117483 -0.116695 -0.11601 -0.115875 -0.115929 -0.116556 -0.11699 
-0.117378 -0.117866 -0.11877 -0.119392 -0.120001 -0.120723 -0.122681 -0.123483 -0.124697 
-0.125408 -0.125965 -0.126618 -0.127086 -0.127587 -0.127974 -0.128323 -0.128646 -0.128679 
-0.128618 -0.128412 -0.12812 -0.12765 -0.127116 -0.126268 -0.12444 -0.123109 -0.121967 
-0.120534 -0.119415 -0.118114 -0.117357 -0.116853 -0.116938 -0.117593 -0.118495 -0.119651 
-0.120684 -0.122088 -0.123313 -0.124669 -0.125723 -0.126865 -0.127808 -0.128795 -0.130187 
-0.130916 -0.131416 -0.131948 -0.132322 -0.1327 -0.132981 -0.133196 -0.133303 -0.133377 
-0.116018 -0.116253 -0.121292 -0.122063 -0.115902 -0.118307 -0.124092 -0.128544 -0.125426 
-0.116609 -0.129516 -0.133223 -0.133344 -0.133331 -0.133195 -0.133246 -0.133777 -0.134343 
-0.134914 -0.135706 -0.136301 -0.137047 -0.138136 -0.138662 -0.139008 -0.139308 -0.139425 
-0.139428 -0.139335 -0.139163 -0.138534 -0.138014 -0.137592 -0.137 -0.136477 -0.135797 
-0.135288 -0.134694 -0.133807 -0.133341 -0.133046 -0.132731 -0.132508 -0.132307 -0.132194 
-0.132116 -0.132142 -0.132234 -0.132333 -0.132478 -0.132619 -0.132792 -0.13293 -0.133085 
-0.133191 -0.133285 -0.133445 -0.137595 -0.138877 -0.134256 -0.132124 -0.0198061 -0.0205343 
-0.0220585 -0.0184264 -0.0193027 -0.0182964 -0.0188697 -0.0185662 -0.0178609 -0.0179417 -0.0157527 
-0.0177531 -0.0188116 -0.0184141 -0.0179084 -0.0183259 -0.0181336 -0.0170217 -0.0174986 -0.0180928 
-0.016548 -0.0176557 -0.0242462 -0.0201171 -0.0231389 -0.019376 -0.0132395 -0.0203978 -0.0176078 
-0.0210221 -0.0174692 -0.0189467 -0.0176771 -0.0163625 -0.0180925 -0.017613 -0.0180668 -0.0184842 
-0.0175733 -0.0158362 -0.0183009 -0.0174484 -0.0183348 -0.0172658 -0.0177446 -0.0173089 -0.0185729 
-0.0190616 -0.0168116 -0.0178943 -0.0200213 -0.0194979 -0.0199521 -0.0459763 -0.0120913 -0.186511 
-0.028541 -0.0535851 -0.048142 -0.0648831 -0.0611873 -0.0711718 -0.0752964 -0.0707169 -0.0755367 
-0.0744205 -0.0906304 -0.0774645 -0.082376 -0.0812475 -0.0865722 -0.0853928 -0.10564 -0.089699 
-0.0990421 -0.0958223 -0.11067 -0.105357 -0.144469 -0.125422 -0.134166 -0.0612699 -0.0111896 
-0.0205533 -0.0207365 -0.0239622 -0.0230187 -0.0225107 -0.0207668 -0.021111 -0.019197 -0.0196426 
-0.0196717 -0.0204542 -0.0194013 -0.019619 -0.0190214 -0.0223845 -0.0206231 -0.0205616 -0.0196514 
-0.0212901 -0.0194891 -0.0193552 -0.0201359 -0.023622 -0.0202005 -0.0193368 -0.019984 -0.134246 
-0.134059 -0.134526 -0.13432 -0.134454 -0.134909 -0.134572 -0.112314 -0.134308 -0.134481 
-0.133881 -0.134043 -0.107995 -0.112298 -0.107116 -0.104746 -0.0406756 -0.0502277 -0.0410619 
-0.0235758 -0.0132649 -0.0143459 -0.137066 -0.131032 -0.134643 -0.125084 -0.12506 -0.125518 
-0.173517 -0.187928 -0.165685 -0.13592 -0.136234 -0.135671 -0.010095 -0.0170316 -0.00854381 
-0.136686 -0.137159 -0.13723 -0.012981 -0.0135978 -0.133542 -0.133445 -0.133605 -0.0362316 
-0.0363787 -0.0258748 -0.127277 -0.00844617 -0.132809 -0.13514 -0.135074 -0.134557 -0.134478 
-0.0459684 -0.0388759 -0.0248932 -0.0175981 -0.0592087 -0.0570252 -0.0679456 -0.0658187 -0.132743 
-0.133621 -0.133668 -0.143122 -0.144407 -0.144072 -0.145422 -0.122715 -0.124951 -0.124799 
-0.126102 -0.124543 -0.124859 -0.124094 -0.124556 -0.130115 -0.126652 -0.129154 -0.0549897 
-0.0558699 -0.0645069 -0.0230505 -0.0241316 -0.0329873 -0.125856 -0.12827 -0.123116 -0.131352 
-0.13177 -0.132055 -0.132785 -0.132893 -0.132901 -0.132927 -0.140488 -0.144765 -0.139051 
-0.143277 -0.122724 -0.125104 -0.125597 -0.127696 -0.132392 -0.132634 -0.132371 -0.132638 
-0.137935 -0.137867 -0.138734 -0.132367 -0.134083 -0.131091 -0.0611575 -0.0704328 -0.0594942 
-0.12295 -0.131234 -0.131731 -0.130178 -0.138669 -0.139076 -0.139106 -0.13114 -0.141664 
-0.118263 -0.135836 -0.136019 -0.136353 -0.136536 -0.14176 -0.141321 -0.140628 -0.124323 
-0.124068 -0.124945 -0.12465 -0.121088 -0.120095 -0.121073 -0.119794 -0.122154 -0.123851 
-0.123414 -0.126923 -0.132534 -0.213292 -0.150546 -0.243427 -0.173314 -0.164302 -0.15592 
-0.159427 -0.152192 -0.137035 -0.137108 -0.137425 -0.132441 -0.105264 -0.096877 -0.253868 
-0.18217 -0.20393 -0.116044 -0.125092 -0.124958 -0.124491 -0.124646 -0.125275 -0.124413 
-0.125076 -0.135594 -0.136054 -0.135907 -0.165308 -0.0971719 -0.139476 -0.156839 -0.150584 
-0.150163 -0.135486 -0.135806 -0.136156 -0.118801 -0.0499335 -0.0508575 -0.0590883 -0.126926 
-0.12698 -0.127745 -0.148547 -0.153381 -0.146262 -0.150604 -0.0566593 -0.0709783 -0.0668495 
-0.0782517 -0.0752607 -0.134778 -0.134468 -0.135812 -0.135334 -0.121686 -0.118766 -0.120349 
-0.089562 -0.122398 -0.122843 -0.123334 -0.138327 -0.138243 -0.138279 -0.138136 -0.140545 
-0.141161 -0.0501893 -0.0364177 -0.0633827 -0.0268691 -0.0157111 -0.0160168 -0.136333 -0.136114 
-0.135952 -0.135667 -0.123691 -0.123476 -0.124107 -0.122378 -0.124015 -0.096479 -0.0960232 
-0.0637634 -0.132795 -0.132879 -0.132766 -0.138861 -0.133183 -0.138192 -0.137714 -0.151485 
-0.123849 -0.123551 -0.122955 -0.220382 -0.185056 -0.16675 -0.137513 -0.137183 -0.13744 
-0.123577 -0.123843 -0.124074 -0.123204 -0.122841 -0.121698 -0.123187 -0.123181 -0.124043 
-0.123978 -0.130133 -0.129603 -0.124582 -0.124221 -0.123147 -0.123791 -0.12331 -0.122133 
-0.133921 -0.133929 -0.134523 -0.120736 -0.12886 -0.122755 -0.132549 -0.133676 -0.133327 
-0.133323 -0.133568 -0.139754 -0.138384 -0.139072 -0.13348 -0.133316 -0.133669 -0.133498 
-0.135731 -0.136155 -0.106846 -0.102309 -0.135473 -0.120521 -0.120478 -0.121962 -0.117767 
-0.115022 -0.119278 -0.116774 -0.121882 -0.127423 -0.127573 -0.126981 -0.127151 -0.0605853 
-0.08071 -0.141339 -0.145092 -0.143751 -0.122738 -0.120035 -0.119298 -0.0333069 -0.0184968 
-0.0210161 -0.141399 -0.144845 -0.0687359 -0.0696723 -0.0785986 -0.121056 -0.124133 -0.124899 
-0.135893 -0.137696 -0.134423 -0.135849 -0.133763 -0.139297 -0.141476 -0.139564 -0.132814 
-0.133098 -0.132971 -0.133249 -0.133405 -0.132287 -0.133482 -0.133537 -0.119378 -0.187054 
-0.134424 -0.134351 -0.134064 -0.132672 -0.13294 -0.126606 -0.126309 -0.126187 -0.115305 
-0.117528 -0.120998 -0.147349 -0.152859 -0.154936 -0.125954 -0.126287 -0.126101 -0.132776 
-0.0730769 -0.0867823 -0.0665827 -0.162772 -0.133537 -0.120469 -0.133148 -0.134561 -0.134545 
-0.139218 -0.140279 -0.143264 -0.166645 -0.164266 -0.160084 -0.0549814 -0.0446256 -0.0546346 
-0.044352 -0.0711601 -0.129607 -0.128896 -0.128124 -0.153866 -0.013044 -0.0324312 -0.0168963 
-0.135001 -0.13467 -0.134772 -0.134249 -0.123035 -0.121429 -0.122744 -0.120989 -0.0337964 
-0.0342455 -0.0418925 -0.0612102 -0.0532942 -0.0620399 -0.0539115 -0.0444806 -0.135528 -0.135127 
-0.12312 -0.133523 -0.13383 -0.13373 -0.136573 -0.139833 -0.0528229 -0.0554859 -0.0433635 
-0.109183 -0.106053 -0.104067 -0.135283 -0.13555 -0.135243 -0.122894 -0.126541 -0.126947 
-0.126269 -0.13891 -0.138651 -0.135612 -0.00817773 -0.136048 -0.135771 -0.109028 -0.107236 
-0.101148 -0.138643 -0.139009 -0.00824948 -0.0105269 -0.0211278 -0.137976 -0.124321 -0.123928 
-0.124802 -0.132343 -0.13263 -0.132341 -0.120643 -0.117702 -0.119035 -0.132987 -0.132896 
-0.133103 -0.138915 -0.13865 -0.13929 -0.0478518 -0.0330069 -0.0457764 -0.097008 -0.125386 
-0.125191 -0.125526 -0.125256 -0.164349 -0.156502 -0.0255948 -0.0868241 -0.0892253 -0.0969108 
-0.0924824 -0.0965622 -0.102413 -0.0820888 -0.100385 -0.0930753 -0.124799 -0.125256 -0.125205 
-0.134647 -0.123788 -0.12442 -0.123095 -0.147384 -0.0368974 -0.0224876 -0.0513083 -0.0390258 
-0.125077 -0.124982 -0.124064 -0.123986 -0.132921 -0.132978 -0.133361 -0.122013 -0.120663 
-0.12164 -0.124314 -0.123833 -0.122874 -0.133761 -0.133452 -0.133809 -0.113275 -0.109208 
-0.114592 -0.110179 -0.0892838 -0.101711 -0.0980228 -0.107357 -0.126087 -0.126065 -0.126326 
-0.119404 -0.126907 -0.121395 -0.122966 -0.120523 -0.123221 -0.141128 -0.142357 -0.142242 
-0.0947943 -0.123847 -0.11684 -0.119896 -0.123327 -0.0411856 -0.12433 -0.123844 -0.121919 
-0.124633 -0.120813 -0.151902 -0.152308 -0.147624 -0.119487 -0.119501 -0.118317 -0.118415 
-0.137339 -0.136981 -0.146237 -0.142234 -0.148406 -0.123214 -0.124022 -0.122908 -0.122143 
-0.121459 -0.122608 -0.1296 -0.130281 -0.128813 -0.141127 -0.143796 -0.137786 -0.139898 
-0.144098 -0.147942 -0.11648 -0.116081 -0.142327 -0.14695 -0.133209 -0.135174 -0.133924 
-0.133905 -0.13341 -0.137355 -0.138209 -0.135171 -0.133332 -0.133335 -0.133348 -0.132534 
-0.13317 -0.129391 -0.130081 -0.133682 -0.136167 -0.135099 -0.133357 -0.133454 -0.133281 
-0.133376 -0.114783 -0.0847129 -0.114259 -0.138143 -0.140832 -0.14197 -0.147647 -0.152835 
-0.151006 -0.137694 -0.137979 -0.138009 -0.138244 -0.125295 -0.13715 -0.137694 -0.135207 
-0.17816 -0.156272 -0.156635 -0.133832 -0.13411 -0.133551 -0.133403 -0.109554 -0.126029 
-0.126581 -0.125764 -0.126283 -0.134725 -0.12378 -0.12368 -0.124448 -0.112266 -0.11182 
-0.106815 -0.137709 -0.142623 -0.141559 -0.125886 -0.133053 -0.129357 -0.135349 -0.145242 
-0.148071 -0.122385 -0.151946 -0.134074 -0.1363 -0.131127 -0.132797 -0.124575 -0.126486 
-0.130705 -0.126713 -0.1344 -0.13493 -0.133834 -0.134336 -0.0747145 -0.0680749 -0.158799 
-0.160222 -0.150805 -0.135871 -0.136775 -0.13553 -0.136369 -0.118458 -0.123602 -0.136511 
-0.135984 -0.126082 -0.175649 -0.182417 -0.136443 -0.134534 -0.134548 -0.13408 -0.135098 
-0.133166 -0.133242 -0.133197 -0.13275 -0.0298734 -0.0460645 -0.0225763 -0.0148592 -0.00936065 
-0.134206 -0.137271 -0.135238 -0.135417 -0.123885 -0.123984 -0.123577 -0.121117 -0.12192 
-0.120565 -0.121911 -0.137738 -0.13837 -0.134308 -0.134167 -0.109335 -0.108059 -0.113131 
-0.133313 -0.133328 -0.126103 -0.125736 -0.125576 -0.131839 -0.13136 -0.00687588 -0.128984 
-0.130363 -0.123128 -0.122911 -0.119583 -0.118507 -0.106795 -0.103865 -0.110334 -0.133283 
-0.13375 -0.131123 -0.132875 -0.132569 -0.138381 -0.138169 -0.138219 -0.118739 -0.116675 
-0.116321 -0.13313 -0.128927 -0.121393 -0.133426 -0.133123 -0.132953 -0.136099 -0.136254 
-0.134468 -0.134774 -0.136411 -0.136567 -0.135888 -0.121412 -0.12779 -0.127751 -0.126999 
-0.126934 -0.126855 -0.127008 -0.175913 -0.172718 -0.190651 -0.126569 -0.126484 -0.126746 
-0.101808 -0.0983844 -0.0913059 -0.120811 -0.12215 -0.120624 -0.12239 -0.126546 -0.130721 
-0.106712 -0.111592 -0.126623 -0.0567411 -0.126712 -0.0680942 -0.0677108 -0.0779181 -0.0766861 
-0.103372 -0.0926211 -0.106442 -0.102382 -0.095063 -0.0769349 -0.130443 -0.129757 -0.105479 
-0.111457 -0.116017 -0.143937 -0.149236 -0.14724 -0.125652 -0.121646 -0.123161 -0.0501586 
-0.0586347 -0.0489411 -0.145222 -0.150491 -0.133172 -0.148552 -0.133282 -0.133448 -0.133724 
-0.133275 -0.133431 -0.133262 -0.132953 -0.133168 -0.131516 -0.118061 -0.119375 -0.117769 
-0.118966 -0.126367 -0.126662 -0.125967 -0.126172 -0.124014 -0.125212 -0.124875 -0.118549 
-0.123438 -0.124993 -0.125933 -0.128009 -0.124024 -0.0478559 -0.0593045 -0.048602 -0.0129651 
-0.166678 -0.127971 -0.129087 -0.128868 -0.03717 -0.032897 -0.0262405 -0.0206727 -0.210773 
-0.159807 -0.084374 -0.0952532 -0.0917969 -0.147447 -0.159472 -0.153987 -0.164874 -0.122313 
-0.120388 -0.15908 -0.154708 -0.123077 -0.0157368 -0.00931702 -0.0866182 -0.0993594 -0.0562839 
-0.0202353 -0.0257391 -0.137793 -0.135236 -0.140598 -0.138145 -0.177613 -0.189964 -0.174781 
-0.16757 -0.13519 -0.136747 -0.136568 -0.0379386 -0.0404057 -0.0473965 -0.0492539 -0.188312 
-0.170954 -0.165107 -0.125024 -0.125498 -0.132885 -0.132357 -0.132163 -0.0349441 -0.0425265 
-0.04334 -0.145645 -0.144 -0.0367684 -0.0260671 -0.133301 -0.133315 -0.105076 -0.0745361 
-0.109453 -0.0929803 -0.0783353 -0.13446 -0.0609377 -0.078845 -0.130244 -0.130929 -0.132294 
-0.139677 -0.133801 -0.133473 -0.133847 -0.133734 -0.13413 -0.146029 -0.146604 -0.148699 
-0.141828 -0.119428 -0.117614 -0.116507 -0.15176 -0.146944 -0.12235 -0.122157 -0.133149 
-0.123638 -0.12234 -0.13727 -0.137923 -0.137813 -0.138478 -0.117884 -0.119756 -0.121746 
-0.12356 -0.126269 -0.136177 -0.0753372 -0.0843286 -0.141405 -0.140692 -0.141949 -0.122767 
-0.12348 -0.122935 -0.123656 -0.115267 -0.111712 -0.106361 -0.123181 -0.123299 -0.121549 
-0.120212 -0.137823 -0.138194 -0.13788 -0.1251 -0.12544 -0.126798 -0.127514 -0.127012 
-0.138282 -0.138381 -0.138369 -0.133099 -0.133008 -0.133122 -0.119252 -0.114493 -0.119288 
-0.126595 -0.127167 -0.126509 -0.125042 -0.124399 -0.124874 -0.133385 -0.121939 -0.123442 
-0.120634 -0.122214 -0.133718 -0.135491 -0.135969 -0.136243 -0.0521123 -0.0414536 -0.0502219 
-0.132906 -0.13293 -0.125816 -0.126526 -0.125995 -0.11959 -0.116978 -0.120309 -0.132934 
-0.132906 -0.13296 -0.088834 -0.102614 -0.12624 -0.126768 -0.13305 -0.0144993 -0.125525 
-0.126568 -0.127041 -0.140018 -0.144077 -0.142038 -0.124218 -0.132703 -0.132883 -0.132817 
-0.123497 -0.123856 -0.209912 -0.117152 -0.114988 -0.114344 -0.118444 -0.123562 -0.126648 
-0.126867 -0.126368 -0.12641 -0.126279 -0.126459 -0.126559 -0.133093 -0.132999 -0.105365 
-0.126107 -0.132022 -0.132389 -0.132342 -0.131495 -0.13199 -0.131552 -0.132181 -0.130184 
-0.13341 -0.133598 -0.133392 -0.133559 -0.130978 -0.12482 -0.13591 -0.137418 -0.125441 
-0.125363 -0.125821 -0.00823192 -0.129526 -0.125967 -0.127218 -0.126629 -0.127814 -0.11351 
-0.134559 -0.134517 -0.133778 -0.13378 -0.12203 -0.123809 -0.0880045 -0.146683 -0.129365 
-0.131039 -0.129492 -0.134989 -0.136002 -0.135802 -0.136237 -0.129378 -0.137012 -0.137438 
-0.133804 -0.133537 -0.133894 -0.133858 -0.133264 -0.133834 -0.143951 -0.109469 -0.173269 
-0.110646 -0.118644 -0.114525 -0.185388 -0.174094 -0.178571 -0.130525 -0.13479 -0.135214 
-0.135396 -0.106168 -0.123287 -0.119754 -0.103244 -0.0106246 -0.0385036 -0.0295704 -0.0417886 
-0.12618 -0.122462 -0.12942 -0.0594578 -0.0513584 -0.134834 -0.134606 -0.135005 -0.128243 
-0.126593 -0.137724 -0.0939712 -0.0871217 -0.0967098 -0.0251509 -0.025212 -0.0243065 -0.0173677 
-0.0271726 -0.134811 -0.138526 -0.145946 -0.141341 -0.132145 -0.131773 -0.132381 -0.131197 
-0.131271 -0.122001 -0.129688 -0.125959 -0.133845 -0.104748 -0.0888063 -0.100223 -0.152185 
-0.149506 -0.132978 -0.132807 -0.132983 -0.167997 -0.111693 -0.136757 -0.136291 -0.0486584 
-0.0596805 -0.0606962 -0.134675 -0.135144 -0.137694 -0.151675 -0.166196 -0.147898 -0.138481 
-0.138307 -0.123406 -0.121827 -0.123526 -0.136757 -0.141492 -0.128157 -0.129872 -0.128647 
-0.130189 -0.114418 -0.109685 -0.117227 -0.113039 -0.136842 -0.13734 -0.130402 -0.129361 
-0.128607 -0.127809 -0.0980472 -0.108193 -0.122991 -0.118572 -0.120858 -0.15638 -0.159629 
-0.137942 -0.136195 -0.137279 -0.196854 -0.185462 -0.156262 -0.163139 -0.159159 -0.134549 
-0.118921 -0.119471 -0.12195 -0.119698 -0.117357 -0.124015 -0.124054 -0.113341 -0.115745 
-0.104633 -0.108666 -0.109302 -0.143817 -0.13264 -0.132792 -0.132785 -0.132654 -0.132481 
-0.137487 -0.132891 -0.130475 -0.131049 -0.153788 -0.148931 -0.164158 -0.158287 -0.130113 
-0.132307 -0.129147 -0.130897 -0.116038 -0.119631 -0.11789 -0.13798 -0.138412 -0.137881 
-0.128856 -0.12962 -0.125672 -0.125524 -0.126951 -0.1327 -0.132467 -0.13265 -0.132114 
-0.129479 -0.128655 -0.123804 -0.124403 -0.119295 -0.105386 -0.101154 -0.134127 -0.137003 
-0.00860489 -0.137745 -0.138963 -0.00603888 -0.017284 -0.134928 -0.136009 -0.138534 -0.0515527 
-0.0179692 -0.00903348 -0.0152191 -0.134109 -0.1241 -0.124599 -0.124623 -0.153242 -0.151271 
-0.159249 -0.105853 -0.104595 -0.224086 -0.0782764 -0.0872365 -0.0860794 -0.0945347 -0.0976197 
-0.105542 -0.120335 -0.06993 -0.0785869 -0.0707291 -0.0161813 -0.162016 -0.0793908 -0.11464 
-0.113002 -0.111148 -0.116309 -0.118069 -0.13794 -0.131587 -0.124806 -0.123092 -0.12693 
-0.140328 -0.141772 -0.0722085 -0.0815667 -0.114386 -0.107851 -0.126445 -0.129365 -0.13425 
-0.134517 -0.115344 -0.113427 -0.121738 -0.132423 -0.132549 -0.132786 -0.136492 -0.137321 
-0.137046 -0.132896 -0.132952 -0.132846 -0.127206 -0.135254 -0.132079 -0.132443 -0.13276 
-0.119311 -0.120715 -0.136809 -0.123241 -0.122098 -0.122068 -0.12434 -0.123445 -0.123321 
-0.124003 -0.125799 -0.125872 -0.124637 -0.122193 -0.0463219 -0.0567307 -0.0468649 -0.125436 
-0.124834 -0.125327 -0.0459456 -0.0361323 -0.0363224 -0.114326 -0.1086 -0.110346 -0.00951147 
-0.0220407 -0.0607094 -0.0712583 -0.0740267 -0.133483 -0.133505 -0.0290874 -0.0279902 -0.127914 
-0.128401 -0.127482 -0.127823 -0.0772414 -0.0789101 -0.0638572 -0.0613835 -0.05087 -0.122497 
-0.12227 -0.119476 -0.0521837 -0.0704675 -0.0817422 -0.0596504 -0.138873 -0.135849 -0.132823 
-0.132893 -0.124157 -0.123678 -0.134565 -0.130435 -0.126638 -0.127172 -0.0661307 -0.0816099 
-0.125044 -0.125553 -0.126983 -0.125687 -0.127463 -0.0430715 -0.0317286 -0.022855 -0.158716 
-0.166011 -0.154058 -0.112547 -0.116114 -0.110915 -0.122695 -0.136901 -0.0805302 -0.13379 
-0.150633 -0.122878 -0.120412 -0.122297 -0.141702 -0.14601 -0.15494 -0.131073 -0.128456 
-0.133384 -0.13308 -0.133063 -0.133007 -0.132991 -0.132769 -0.147706 -0.148575 -0.128369 
-0.133018 -0.133203 -0.133218 -0.0940348 -0.13307 -0.132932 -0.137668 -0.135979 -0.157522 
-0.133882 -0.1429 -0.139523 -0.118683 -0.133886 -0.136603 -0.137432 -0.137818 -0.136947 
-0.137367 -0.132915 -0.133391 -0.132912 -0.139159 -0.14302 -0.131795 -0.132143 -0.132731 
-0.132942 -0.132975 -0.138485 -0.133333 -0.133109 -0.133056 -0.133131 -0.133248 -0.133119 
-0.133241 -0.0328898 -0.12534 -0.124649 -0.128553 -0.128431 -0.03032 -0.127664 -0.127129 
-0.0699304 -0.0544593 -0.0686196 -0.0576626 -0.124895 -0.126299 -0.125736 -0.126084 -0.125126 
-0.125503 -0.112121 -0.126752 -0.126395 -0.133241 -0.133221 -0.125284 -0.126813 -0.127426 
-0.117393 -0.121805 -0.11716 -0.107974 -0.105877 -0.140323 -0.144434 -0.13943 -0.132798 
-0.135921 -0.135811 -0.136549 -0.137576 -0.137923 -0.137656 -0.128131 -0.127815 -0.127299 
-0.102891 -0.113603 -0.0775206 -0.06759 -0.162856 -0.168336 -0.138191 -0.14142 -0.141614 
-0.0152547 -0.133478 -0.0328241 -0.124195 -0.138603 -0.142673 -0.147537 -0.122656 -0.136527 
-0.11677 -0.121878 -0.120036 -0.128383 -0.128206 -0.125306 -0.133303 -0.1344 -0.133227 
-0.13364 -0.132555 -0.136975 -0.1331 -0.133126 -0.137611 -0.137259 -0.0784611 -0.0868166 
-0.133274 -0.0947374 -0.0683738 -0.132519 -0.132871 -0.168758 -0.128344 -0.128476 -0.0538316 
-0.0630968 -0.0621209 -0.0733284 -0.0721137 -0.0879201 -0.0789125 -0.0873061 -0.0869586 -0.0827621 
-0.16579 -0.12654 -0.125721 -0.125289 -0.125748 -0.101654 -0.0936424 -0.0203103 -0.0127304 
-0.0325553 -0.174263 -0.163962 -0.114109 -0.109455 -0.139653 -0.140123 -0.140213 -0.138817 
-0.138296 -0.138387 -0.0510262 -0.135583 -0.127041 -0.124785 -0.127012 -0.135482 -0.126861 
-0.126042 -0.139784 -0.139526 -0.0805697 -0.128314 -0.127505 -0.156441 -0.176982 -0.126068 
-0.13843 -0.140503 -0.143608 -0.132942 -0.128457 -0.125566 -0.141448 -0.140826 -0.143603 
-0.119657 -0.0214302 -0.00634735 -0.133145 -0.134404 -0.00904226 -0.155605 -0.157263 -0.134314 
-0.134814 -0.025979 -0.137572 -0.0826279 -0.132946 -0.133035 -0.118137 -0.112053 -0.0699977 
-0.0612379 -0.0713659 -0.0249543 -0.0336797 -0.123967 -0.125382 -0.131656 -0.119608 -0.119584 
-0.133436 -0.133769 -0.132134 -0.1321 -0.137524 -0.138867 -0.125536 -0.118447 -0.120824 
-0.143966 -0.0964892 -0.0884037 -0.0874986 -0.115798 -0.138466 -0.132941 -0.131151 -0.0863598 
-0.138235 -0.139373 -0.140154 -0.00921346 -0.132653 -0.132476 -0.13248 -0.135229 -0.0632164 
-0.133778 -0.0943831 -0.0931703 -0.0443004 -0.124694 -0.124715 -0.12084 -0.118232 -0.139148 
-0.136865 -0.139099 -0.136702 -0.124012 -0.123133 -0.123825 -0.123476 -0.118548 -0.12816 
-0.132263 -0.129613 -0.132255 -0.132709 -0.132471 -0.13025 -0.135889 -0.134924 -0.12847 
-0.128842 -0.133934 -0.133522 -0.133705 -0.134311 -0.133218 -0.132009 -0.0984945 -0.126216 
-0.139216 -0.138756 -0.138325 -0.127718 -0.127096 -0.133305 -0.133358 -0.133289 -0.133325 
-0.132505 -0.129092 -0.125663 -0.125601 -0.00840542 -0.120357 -0.121346 -0.0100434 -0.119346 
-0.120192 -0.120426 -0.121259 -0.106766 -0.101525 -0.135665 -0.136944 -0.135903 -0.134734 
-0.124471 -0.125232 -0.126341 -0.126075 -0.13764 -0.138373 -0.136965 -0.126957 -0.126468 
-0.127125 -0.126655 -0.142017 -0.136282 -0.146778 -0.084816 -0.11012 -0.102782 -0.10395 
-0.095302 -0.13184 -0.139205 -0.141741 -0.142031 -0.133641 -0.133145 -0.135217 -0.132566 
-0.138438 -0.137885 -0.139705 -0.139969 -0.139508 -0.140225 -0.132918 -0.133026 -0.133143 
-0.133307 -0.133416 -0.125927 -0.126029 -0.133854 -0.147448 -0.132882 -0.12484 -0.125327 
-0.124804 -0.125233 -0.13321 -0.124437 -0.131772 -0.130923 -0.131336 -0.118288 -0.111916 
-0.066081 -0.126699 -0.126522 -0.1309 -0.131309 -0.12658 -0.118994 -0.128533 -0.159195 
-0.153532 -0.125157 -0.152569 -0.145589 -0.129677 -0.131129 -0.131232 -0.134518 -0.135469 
-0.133949 -0.140373 -0.134387 -0.134196 -0.132661 -0.132724 -0.1274 -0.134796 -0.13392 
-0.134 -0.144912 -0.141662 -0.144292 -0.133839 -0.134016 -0.133806 -0.129602 -0.131233 
-0.139146 -0.132969 -0.132971 -0.133 -0.0317045 -0.0745855 -0.133005 -0.133059 -0.125656 
-0.125733 -0.146457 -0.137383 -0.123593 -0.124243 -0.137319 -0.125046 -0.0255104 -0.00930094 
-0.0326935 -0.126857 -0.122342 -0.123522 -0.124632 -0.108022 -0.138135 -0.138432 -0.133439 
-0.132189 -0.13532 -0.131784 -0.132158 -0.132105 -0.201754 -0.133421 -0.13671 -0.0237097 
-0.114105 -0.1192 -0.117776 -0.0404961 -0.0171387 -0.0120328 -0.127392 -0.126929 -0.132532 
-0.00711886 -0.0209745 -0.127382 -0.128124 -0.127534 -0.160182 -0.0834449 -0.0946658 -0.0955393 
-0.124925 -0.12504 -0.119333 -0.122665 -0.0838507 -0.119652 -0.102252 -0.100684 -0.137411 
-0.0725715 -0.0200316 -0.0140896 -0.0149234 -0.0127159 -0.132935 -0.130217 -0.129801 -0.132825 
-0.16642 -0.187562 -0.138123 -0.138278 -0.124344 -0.125326 -0.116384 -0.138403 -0.126654 
-0.134868 -0.125361 -0.129129 -0.127904 -0.132764 -0.125769 -0.125592 -0.13518 -0.132367 
-0.133164 -0.123358 -0.124036 -0.124184 -0.124372 -0.114071 -0.124048 -0.123226 -0.125246 
-0.124866 -0.125476 -0.0152374 -0.00594305 -0.0208897 -0.0301425 -0.131519 -0.130893 -0.136985 
-0.126391 -0.126288 -0.129174 -0.131932 -0.130509 -0.133183 -0.121145 -0.131699 -0.0918665 
-0.110894 -0.0914231 -0.0760242 -0.0996897 -0.088677 -0.134727 -0.134732 -0.128451 -0.138552 
-0.141979 -0.122409 -0.122296 -0.133318 -0.133395 -0.133389 -0.13291 -0.12034 -0.132567 
-0.118217 -0.117818 -0.120525 -0.134499 -0.133962 -0.125628 -0.104024 -0.112061 -0.133539 
-0.133847 -0.122809 -0.0271538 -0.0255431 -0.0345956 -0.0256536 -0.0353391 -0.124411 -0.12411 
-0.124443 -0.0578477 -0.148594 -0.147853 -0.145528 -0.146446 -0.143137 -0.14365 -0.116125 
-0.117374 -0.118384 -0.114408 -0.120966 -0.119939 -0.117342 -0.113456 -0.137535 -0.123 
-0.0949626 -0.137728 -0.119634 -0.167011 -0.180776 -0.159519 -0.128325 -0.112242 -0.145981 
-0.151287 -0.135356 -0.137228 -0.173179 -0.14266 -0.135331 -0.136542 -0.136087 -0.124826 
-0.147185 -0.124408 -0.140591 -0.128499 -0.121207 -0.139178 -0.136829 -0.114391 -0.108709 
-0.132877 -0.0925311 -0.125933 -0.103929 -0.124228 -0.13408 -0.132655 -0.136444 -0.126212 
-0.126017 -0.147437 -0.150594 -0.126441 -0.137071 -0.13493 -0.135091 -0.120471 -0.118786 
-0.112555 -0.123891 -0.0895023 -0.0973043 -0.0990526 -0.0992254 -0.124474 -0.125131 -0.0952299 
-0.0860975 -0.0952378 -0.0863328 -0.145077 -0.145983 -0.143126 -0.13377 -0.132569 -0.133101 
-0.13297 -0.0529812 -0.123602 -0.101372 -0.0751985 -0.141739 -0.166496 -0.163916 -0.134932 
-0.135802 -0.132755 -0.125815 -0.123743 -0.136253 -0.132846 -0.132647 -0.1329 -0.133023 
-0.132912 -0.124693 -0.139913 -0.138862 -0.132666 -0.132602 -0.13276 -0.132949 -0.132987 
-0.124029 -0.124276 -0.131564 -0.143833 -0.136674 -0.139105 -0.143804 -0.138066 -0.137797 
-0.138133 -0.125245 -0.111328 -0.10581 -0.12731 -0.123108 -0.125793 -0.135078 -0.134754 
-0.136809 -0.136915 -0.136402 -0.136522 -0.127267 -0.126759 -0.124124 -0.103174 -0.101292 
-0.106192 -0.0946253 -0.112654 -0.111895 -0.114096 -0.126626 -0.126669 -0.134337 -0.134027 
-0.133052 -0.119753 -0.132804 -0.132925 -0.125319 -0.12606 -0.125975 -0.127406 -0.126456 
-0.121211 -0.133561 -0.134844 -0.161541 -0.136426 -0.136396 -0.134958 -0.13587 -0.150871 
-0.154717 -0.152468 -0.135113 -0.132781 -0.133491 -0.128269 -0.157553 -0.0115208 -0.0792914 
-0.0884006 -0.0883257 -0.0264535 -0.0258794 -0.0364746 -0.114626 -0.107817 -0.135204 -0.133778 
-0.114645 -0.121739 -0.135858 -0.136391 -0.11666 -0.12055 -0.114369 -0.113608 -0.131059 
-0.130621 -0.133696 -0.11505 -0.113556 -0.134406 -0.134027 -0.136705 -0.136268 -0.158625 
-0.157491 -0.134049 -0.118772 -0.118303 -0.133162 -0.121114 -0.119765 -0.119517 -0.0750703 
-0.064637 -0.11377 -0.105169 -0.103599 -0.119169 -0.116391 -0.12116 -0.0972168 -0.102482 
-0.13149 -0.12727 -0.128408 -0.124941 -0.130185 -0.127328 -0.126504 -0.12529 -0.134991 
-0.134009 -0.113144 -0.11825 -0.126232 -0.125443 -0.136077 -0.135994 -0.0977103 -0.0662447 
-0.035619 -0.132795 -0.130893 -0.131837 -0.131249 -0.139601 -0.139146 -0.139191 -0.133282 
-0.140756 -0.123344 -0.119861 -0.124437 -0.115107 -0.131769 -0.136622 -0.123155 -0.133428 
-0.133229 -0.131433 -0.131337 -0.131836 -0.134081 -0.133103 -0.137995 -0.137812 -0.120204 
-0.133316 -0.120039 -0.124308 -0.127089 -0.13162 -0.123505 -0.139892 -0.114499 -0.117033 
-0.0453283 -0.145625 -0.133336 -0.13354 -0.133789 -0.199274 -0.133615 -0.0580966 -0.148847 
-0.138887 -0.0684603 -0.140252 -0.139742 -0.139566 -0.129361 -0.130784 -0.131717 -0.130224 
-0.0605234 -0.0859311 -0.121813 -0.13081 -0.131137 -0.126487 -0.138634 -0.0349976 -0.0437069 
-0.131717 -0.111393 -0.102463 -0.107878 -0.127634 -0.125098 -0.136827 -0.136689 -0.144294 
-0.142549 -0.143473 -0.120343 -0.121853 -0.123033 -0.13433 -0.13248 -0.133045 -0.132898 
-0.118445 -0.122104 -0.12448 -0.124577 -0.139562 -0.13329 -0.132894 -0.152155 -0.142356 
-0.148535 -0.0775794 -0.0775051 -0.133451 -0.133946 -0.10942 -0.132666 -0.12307 -0.123586 
-0.125976 -0.126592 -0.150673 -0.111921 -0.117319 -0.123772 -0.122724 -0.125635 -0.169209 
-0.130459 -0.129186 -0.141298 -0.132722 -0.124643 -0.125078 -0.124934 -0.13571 -0.138213 
-0.138866 -0.132808 -0.124108 -0.0226209 -0.0706863 -0.118439 -0.120275 -0.110549 -0.138211 
-0.138291 -0.147184 -0.145905 -0.0350529 -0.146685 -0.0137153 -0.0549668 -0.127661 -0.114527 
-0.121411 -0.134732 -0.126034 -0.11461 -0.122467 -0.137877 -0.138321 -0.125314 -0.0754395 
-0.104141 -0.112945 -0.103424 -0.134465 -0.11651 -0.120392 -0.00894468 -0.00561426 -0.0108267 
-0.0353689 -0.123599 -0.121751 -0.122112 -0.133309 -0.138039 -0.0250465 -0.102674 -0.0172735 
-0.121189 -0.0824201 -0.133442 -0.156101 -0.137168 -0.0611213 -0.0923358 -0.0790952 -0.070365 
-0.123191 -0.126196 -0.122222 -0.135521 -0.133177 -0.133442 -0.121307 -0.125647 -0.125971 
-0.12579 -0.0733088 -0.12521 -0.127794 -0.127502 -0.132983 -0.129282 -0.160506 -0.0720832 
-0.0958959 -0.212609 -0.144362 -0.146427 -0.133921 -0.064334 -0.0774096 -0.15123 -0.153162 
-0.126659 -0.135425 -0.130745 -0.126396 -0.137491 -0.134499 -0.138262 -0.135307 -0.127447 
-0.138786 -0.138553 -0.118635 -0.118951 -0.1174 -0.132925 -0.125493 -0.134322 -0.133159 
-0.133212 -0.0690812 -0.132173 -0.0272476 -0.0294732 -0.126687 -0.118234 -0.118621 -0.118092 
-0.137933 -0.137017 -0.132217 -0.0265439 -0.12734 -0.0913471 -0.145505 -0.00835709 -0.109472 
-0.0520422 -0.137425 -0.0482507 -0.118031 -0.0908284 -0.0869998 -0.143011 -0.14692 -0.121365 
-0.136646 -0.136715 -0.137008 -0.123778 -0.12252 -0.123882 -0.0750213 -0.134846 -0.135426 
-0.0398061 -0.13053 -0.145986 -0.164414 -0.154317 -0.118406 -0.114584 -0.051634 -0.135468 
-0.123827 -0.124626 -0.125154 -0.133403 -0.133022 -0.0417969 -0.125235 -0.122435 -0.118603 
-0.129321 -0.119969 -0.121877 -0.127689 -0.138911 -0.138147 -0.115202 -0.123412 -0.133037 
-0.121905 -0.0987929 -0.132525 -0.125162 -0.114688 -0.0773723 -0.132369 -0.080351 -0.111519 
-0.107226 -0.12093 -0.114967 -0.165174 -0.162181 -0.11097 -0.177422 -0.125709 -0.0772351 
-0.14942 -0.131346 -0.153412 -0.0780494 -0.135033 -0.075114 -0.123822 -0.122514 -0.136969 
-0.117965 -0.129851 -0.153861 -0.142626 -0.134975 -0.135237 -0.117661 -0.120858 -0.12676 
-0.143847 -0.0767578 -0.135285 -0.0529397 -0.0430074 -0.133229 -0.127951 -0.124643 -0.1381 
-0.140085 -0.129407 -0.134805 -0.0715581 -0.0792601 -0.0734952 -0.115475 -0.125669 -0.132509 
-0.124736 -0.119148 -0.122079 -0.0373877 -0.0641343 -0.140846 -0.0925339 -0.136074 -0.0658187 
-0.148985 -0.0600422 -0.0928874 -0.0900026 -0.0986272 -0.135911 -0.12943 -0.129193 -0.159458 
-0.11455 -0.129502 -0.131957 -0.132347 -0.157399 -0.110397 -0.13334 -0.131629 -0.166529 
-0.13355 -0.143827 -0.145758 -0.143715 -0.0438218 -0.124758 -0.131952 -0.124395 -0.147213 
-0.0952419 -0.104411 -0.134486 -0.103488 -0.132077 -0.124058 -0.123909 -0.117531 -0.129183 
-0.132686 -0.128963 -0.138537 -0.106323 -0.103955 -0.0897775 -0.100164 -0.123902 -0.133509 
-0.107611 -0.102065 -0.141544 -0.143041 -0.128143 -0.133242 -0.141881 -0.120566 -0.132595 
-0.0825513 -0.0806472 -0.090983 -0.144651 -0.142194 -0.10521 -0.12274 -0.140288 -0.141884 
-0.137542 -0.0129229 -0.125471 -0.0568017 -0.142046 -0.145491 -0.143404 -0.0761373 -0.138509 
-0.121382 -0.125829 -0.146269 -0.131816 -0.125951 -0.124758 -0.0408498 -0.1217 -0.122461 
-0.135235 -0.111706 -0.132881 -0.13199 -0.136027 -0.11736 -0.132603 -0.132992 -0.13308 
-0.0614652 -0.133878 -0.148023 -0.118032 -0.13302 -0.124211 -0.133578 -0.134695 -0.136594 
-0.0853739 -0.135224 -0.132931 -0.136487 -0.15177 -0.148199 -0.141638 -0.170039 -0.137171 
-0.133259 -0.0426732 -0.118979 -0.115811 -0.09845 -0.140811 -0.0431029 -0.0944567 -0.121751 
-0.135011 -0.122866 -0.123636 -0.0307552 -0.0647477 -0.0927475 -0.0838787 -0.124401 -0.0089237 
-0.124753 -0.129746 -0.138572 -0.1273 -0.128715 -0.127562 -0.124857 -0.0648136 
Strain%20xy%20component 1 8918 double
-0.312774 -0.349925 0.340826 0.310335 1.40255e-05 2.25369e-05 2.95828e-05 2.81604e-05 -0.0721649 
-0.0653126 0.00667743 -0.0497901 -0.0596761 -0.0841091 -0.0118079 -0.0163564 -0.18335 -0.128988 
-0.101005 -0.0793633 -0.0710234 -0.0588459 -0.0515728 -0.0324324 -0.0259938 -0.0162307 -0.0109158 
0.00747482 0.015844 0.0265158 0.037285 0.0442379 0.0535444 0.0661897 0.0813498 0.0918069 
0.119846 0.176405 -0.171042 -0.117211 -0.103515 -0.0871863 -0.072979 -0.069855 -0.0646414 
-0.0513053 -0.036024 -0.022334 -0.0200695 -0.018848 -0.0062965 0.00829377 0.0186566 0.0200178 
0.0231792 0.028552 0.0460137 0.0636943 0.0692358 0.0744821 0.0805505 0.0994543 0.117978 
0.162435 4.9495e-05 1.36877e-06 -4.42998e-05 -4.03316e-05 -5.00879e-05 -4.6597e-05 -1.73597e-05 5.26926e-06 
-7.70655e-06 1.20916e-05 3.18301e-05 4.1215e-05 4.9086e-05 4.39458e-05 3.01335e-05 3.28397e-05 1.50407e-05 
1.35396e-05 1.54209e-05 -2.10608e-06 -8.47499e-06 -1.19534e-05 -1.82083e-05 -1.76543e-05 -1.43825e-05 -1.14343e-05 
9.83748e-06 0.00115279 -0.00508055 -0.00229074 -0.000992717 -0.000538305 -0.000443326 -0.00050737 -0.000488798 
-0.000337758 -0.000268346 -0.000214173 -0.000227503 -0.00017318 -0.000218034 -0.000209698 -0.000224492 -0.000233643 
-0.000188134 -0.000197609 -0.000214388 -0.000222824 -0.000141194 -4.02654e-05 -4.27034e-05 -2.23596e-05 -1.42586e-05 
0.000254626 0.000409864 0.000402451 0.000442424 0.000480255 3.25045e-05 -0.000398251 -0.000341814 -0.000253786 
-0.000207966 -0.000187121 -0.000175316 -0.000109668 1.02541e-05 -1.24652e-05 -2.80408e-05 -2.05978e-06 2.23119e-05 
5.99654e-05 1.90243e-05 -7.25967e-06 -1.84889e-05 -2.82674e-05 -4.58222e-05 -0.000110218 -0.000189667 -0.000189037 
-9.22087e-05 0.000268727 0.000593572 0.000738753 0.000592371 0.000252501 0.000285506 0.000352422 0.000392275 
0.00120161 -0.00189403 -0.00242503 -0.0188877 0.024323 0.0142001 0.00672896 0.010442 0.00568092 
-0.00632529 0.000797304 -0.00011575 0.0117663 0.00137575 -0.00530383 0.0141815 0.012443 0.0140886 
0.000769626 0.00613213 -0.000442648 0.0120658 0.00148653 0.0039602 0.00695555 0.00255841 0.0177175 
0.0398148 0.0234961 7.18507e-05 -3.64e-05 -3.93104e-05 -6.06792e-05 -6.70461e-05 -2.59045e-05 -1.07336e-05 
-1.31209e-05 1.74748e-05 4.82337e-05 3.91351e-05 4.12443e-05 2.9095e-05 -5.25664e-07 2.56271e-06 1.25284e-06 
-1.65213e-05 -3.11536e-05 -2.72708e-05 -2.8269e-05 -1.38745e-05 1.21158e-05 0.0242435 -0.00565623 -0.000804231 
-0.000488594 -0.000159545 -0.000277333 -0.000125792 -0.000135435 -0.000154488 -9.09022e-05 -0.0001348 -0.000133188 
-0.000149987 -0.000117384 -0.000158861 -0.00012944 -8.39186e-05 -4.12336e-05 -6.37703e-05 2.37737e-05 0.000138096 
0.000227059 0.00040465 0.00049344 0.000290568 0.000203899 -8.30939e-05 -0.000239128 -0.000270186 -0.000207276 
-0.000125702 -9.84813e-05 -0.000100614 -4.66309e-05 -4.84122e-05 1.90143e-05 0.000106101 7.6116e-07 -1.12329e-05 
-1.87755e-05 -2.79018e-05 -3.01441e-05 -8.15009e-05 -0.0001565 -0.000249244 -0.000195727 0.000135805 0.000495103 
0.000740532 0.000769276 0.000632803 0.000542302 0.000667943 0.000978108 0.00184272 0.00210886 0.00500048 
0.0112911 0.00774078 0.0525569 0.0432457 0.0331021 0.0125375 0.00777784 0.0168103 0.00191466 
0.000187534 -0.008988 -0.000488528 0.0116842 0.00360177 0.00920302 0.00283513 -0.00209256 0.00109896 
-0.0148386 -0.00187083 -0.00972519 -9.93445e-05 0.00234045 0.00570939 0.0244553 0.0184781 0.0362334 
0.0565567 -0.000292443 -0.000802974 -0.00117173 -0.00137296 -0.00130381 -0.00105503 -0.000709234 -0.00027739 
0.000191317 0.000565819 0.000892672 0.00111188 0.00121983 0.00121234 0.00111116 0.000943437 0.000754317 
0.000518507 0.000292051 0.00010698 -6.77325e-05 -0.000192769 -0.00026802 -0.000291038 -0.00026738 -0.000186033 
-4.90327e-05 0.0939621 0.0356375 0.020014 0.0113767 0.00634843 0.00329033 0.00123114 -0.000151836 
-0.00112412 -0.00184657 -0.00243566 -0.00285439 -0.00316799 -0.00346185 -0.00359982 -0.00367491 -0.00348981 
-0.00308951 -0.0026414 -0.00188145 -0.00114371 -0.000303956 0.000651811 0.00169033 0.00289006 0.00426289 
0.00545434 0.00612421 0.00574324 0.00381998 0.000740209 -0.00263506 -0.00524312 -0.00665134 -0.00689252 
-0.00639698 -0.0055095 -0.00458919 -0.00363028 -0.00279275 -0.00207838 -0.00139937 -0.000862355 -0.000369818 
-0.000393197 -0.000538971 -0.000698416 -0.000859789 -0.00103002 0.00129335 0.0045246 0.00796204 0.0102571 
0.00985823 0.00729673 0.00375946 0.00023978 -0.00462154 -0.0134873 -0.0492372 -0.0901104 -0.134659 
-0.113211 -0.0990287 -0.0876762 -0.0730759 -0.0594339 -0.0474822 -0.0422635 -0.0375365 -0.0284061 
-0.0145595 -0.00410525 -0.000702406 0.00409812 0.012463 0.0252726 0.037745 0.0448208 0.04776 
0.055182 0.0690651 0.0834398 0.0989035 0.115199 0.138088 0.0271527 0.0592085 0.0694106 
0.0700854 0.0682086 0.0653958 0.0618535 0.0583206 0.0547168 0.0500323 0.0416587 0.0200052 
-0.0301397 -0.165484 -0.0267474 0.0134954 0.0406731 0.0479438 0.051367 0.0545043 0.0575357 
0.0607839 0.0637462 0.0672083 0.0690883 0.068209 0.0553498 0.0293061 -0.132636 -0.000220737 
-0.000506375 -0.0338771 0.0464241 -0.0255086 0.0364759 -0.014775 -0.0140023 -0.001858 -0.00233589 
-0.0024104 -0.00215769 -0.00160827 -0.000861202 -6.31144e-05 0.000706385 0.00133336 0.00181135 0.00209045 
0.00219944 0.00209957 0.00189109 0.00155051 0.00119881 0.000800435 0.000446948 0.000114556 -0.000174209 
-0.000353899 -0.000447242 -0.000453922 -0.00066842 0.051652 0.0340447 0.0215323 0.0138758 0.00767708 
0.00369142 0.00097527 -0.00092124 -0.00234607 -0.00349106 -0.00429702 -0.0049169 -0.005329 -0.00547861 
-0.00540328 -0.00497391 -0.00420278 -0.00309078 -0.00178363 -0.000410843 0.0011306 0.00258936 0.00424349 
0.00601796 0.0078107 0.00908683 0.00900695 0.00689016 0.00236557 -0.00346277 -0.00836008 -0.0112381 
-0.0121487 -0.0116501 -0.0104222 -0.00891296 -0.00726488 -0.00567742 -0.00436585 -0.00315145 -0.0021225 
-0.00123165 0.0922952 -0.000823857 -0.000979987 -0.00102092 0.00340359 -0.0583366 0.00994375 0.0139969 
0.0149172 0.0117039 0.00602685 -0.00034355 -0.00750675 -0.0172537 0.00148661 0.0324679 -0.0372159 
-0.0964645 -0.0834901 -0.0732747 -0.0654406 -0.0563152 -0.0465184 -0.0362185 -0.0267785 -0.020381 
-0.0132652 -0.00479367 0.00397377 0.0129036 0.0191803 0.0272774 0.0347103 0.0441169 0.053655 
0.0627563 0.0721212 0.08114 0.0924513 0.0366036 0.0253184 0.0486902 0.0498376 0.0495771 
0.0470911 0.0427822 0.0373341 0.0288692 0.0153056 0.000291041 0.00387334 -0.000454161 0.0340318 
0.011706 0.026228 0.0349571 0.039246 0.0428589 0.0457872 0.047385 0.0481887 0.046626 
0.041566 0.0304951 0.0230696 -0.00063624 -0.0325101 0.0050416 -0.0987421 0.0449679 -0.0017036 
-0.0484142 -0.00723731 -0.0718297 -0.0120285 0.0263891 -0.0523524 -0.0498317 0.0168485 -0.00346181 
-0.00331239 -0.00270134 -0.00174984 -0.000598796 0.000579025 0.00153288 0.00230257 0.00282757 0.00311306 
0.00312371 0.00287417 0.00248051 0.00195955 0.00145276 0.000954117 0.000475341 1.86405e-05 -0.000305442 
-0.000488209 -0.00314508 0.0104515 -0.00241627 0.0412761 0.0280395 0.018593 0.0110135 0.00584281 
0.00245822 -0.000152724 -0.0020457 -0.00350038 -0.00460114 -0.00544181 -0.00591308 -0.00601922 -0.00566381 
-0.00481333 -0.00339802 -0.00170189 0.000113046 0.00192753 0.00363888 0.00533327 0.00682054 0.00834346 
0.00970793 0.0103888 0.0090852 0.00492206 -0.00345078 -0.0121396 -0.0157995 -0.016683 -0.0162387 
-0.0145874 -0.0124756 -0.0102354 -0.00811378 -0.00640525 -0.00486309 -0.00353539 0.00581846 0.00833116 
-0.000704575 -0.000719418 -0.000662808 0.0643514 0.0266402 0.0170631 0.00164504 -0.00174199 -0.00855045 
-0.0164908 -0.0274315 0.0215384 0.0271699 -0.036196 0.0145929 -0.0709439 -0.0626167 -0.0550019 
-0.0473259 -0.0387147 -0.0302601 -0.022804 -0.015567 -0.00812537 -0.000455828 0.00745977 0.0150315 
0.0221784 0.0296877 0.037475 0.0453547 0.0528124 0.0606347 0.0678327 0.0744388 0.0373751 
0.0348784 0.0327462 0.0293386 0.0244216 0.0163295 0.0105461 0.00970147 0.0240707 -0.00636096 
0.0198771 0.0250908 0.02914 0.0318083 0.0330472 0.0334846 0.0316866 0.0275963 0.0206922 
0.0167917 -0.0273657 0.0311567 0.0143312 0.00693733 0.0363534 -0.0226275 -0.00773297 0.0134596 
-0.000609559 0.0240277 0.00972846 0.00501107 0.0163117 -0.00194828 -0.0392274 0.022051 0.0140259 
0.000730312 0.00743833 -0.00417357 -0.00304811 -0.00147851 0.000164732 0.00169857 0.002767 0.0035833 
0.00403536 0.00413277 0.0039609 0.00346249 0.00284975 0.00215765 0.00162241 0.00097274 0.000350522 
-0.000123504 -0.000504615 -0.0114337 5.51027e-05 0.0136271 0.0421243 0.030174 0.0207225 0.0130073 
0.00756762 0.00384249 0.000793193 -0.000691338 -0.00241118 -0.00376559 -0.00473651 -0.00522481 -0.00508944 
-0.00427546 -0.00269676 -0.000547699 0.00184722 0.00397043 0.00564005 0.00729659 0.00839209 0.0086235 
0.008741 -0.0216914 -0.0206733 -0.0179086 -0.0147255 -0.0118427 -0.00946116 -0.00759541 -0.00587604 
0.019205 0.0581743 0.0193474 0.0154722 0.0217998 0.00477314 0.0110259 -0.0146965 -0.0243613 
0.0163778 -0.000351651 0.016708 0.000664407 -0.051275 -0.0443802 -0.0374796 -0.0313136 -0.0246541 
-0.0175714 -0.0103704 -0.00335122 0.00309379 0.00951753 0.0165422 0.0234956 0.0304217 0.0368376 
0.0426385 0.0485077 0.0536976 0.0200111 0.0172197 0.0142527 0.0162189 0.0171324 -0.0160483 
-0.022322 0.00028422 0.0138764 0.0124155 0.0179992 0.0192577 0.0208077 0.0213337 0.0205065 
0.0182118 0.0136999 -0.00461362 -0.00442875 -0.0245477 0.0126873 0.0208261 -0.0113692 0.0196787 
0.00913428 0.0260468 0.00853051 0.0241228 0.0183832 0.0132998 -0.0224474 0.0113573 -0.00739776 
0.012063 0.0103139 0.00294175 0.0220323 0.00691681 -0.0398344 -0.00385818 0.0116225 -0.00489112 
-0.00301459 -0.000935432 0.00161456 0.00344867 0.0042516 0.00514962 0.00533193 0.00513172 0.00459134 
0.00374093 0.0026732 0.00161062 0.000530533 0.0126378 0.00578792 0.0297102 0.020709 0.0136262 
0.00851301 0.00420255 0.00178841 -0.000704222 -0.0015814 -0.00315833 -0.00303606 -0.00245876 -0.00103914 
0.00153912 0.00451165 0.00895118 -0.0271127 -0.0203923 -0.0154368 -0.0111989 -0.00863154 -0.00720898 
0.00919926 0.0155009 -0.0140142 -0.0158687 -0.0123314 0.00167309 0.0140633 0.0148717 -0.0333071 
-0.0281465 -0.0247551 -0.0194262 -0.0128196 -0.00478306 0.00277976 0.00973288 0.0170852 0.0236152 
0.0288039 0.0326138 0.0368738 0.0404934 0.0145089 0.0119101 -0.00952438 0.00810021 0.00268264 
0.00960271 0.011545 -0.00591081 0.00464609 0.0104966 0.0132369 0.0161394 -0.0146469 0.0101477 
0.0136801 0.014588 -0.0184814 0.00637197 0.00395692 0.00592025 0.00897196 0.0165726 0.0126537 
0.0121431 0.00808748 0.00767526 -0.00010625 0.0063375 0.00717675 0.00651366 0.00608466 0.00494804 
0.00369512 0.019187 0.0134584 0.0100833 0.01223 0.00710778 0.00425833 0.000798669 -0.00501632 
-0.0044973 -0.0087269 -0.00395983 0.015044 0.00179408 0.0112212 0.0176654 0.0217595 0.0227488 
0.0271397 0.00415473 0.0100622 0.00270727 0.000951876 0.00172719 0.0111426 0.00443424 0.00830782 
0.00672749 0.0121213 0.00404757 0.0104378 0.015715 0.0159138 0.00791303 -0.000505305 -0.00108416 
-0.00141113 -0.00158885 -0.00129818 -0.000700672 -3.06778e-06 0.000592812 0.00107973 0.0013852 0.00147645 
0.00137914 0.00113144 0.000824792 0.000478671 0.000178186 -0.000100387 -0.000284269 -0.000368138 -0.000338604 
-0.000178653 0.111391 0.0400479 0.0179262 0.00872584 0.00425945 0.00152888 -0.000251184 -0.00143487 
-0.00235287 -0.00294061 -0.00350265 -0.00385375 -0.0039245 -0.00370071 -0.00317118 -0.00237061 -0.00124337 
6.14251e-05 0.00144056 0.00291575 0.00474962 0.00620526 0.006785 0.00539245 0.00166261 -0.00309621 
-0.00627187 -0.00754621 -0.00752887 -0.00648537 -0.00523545 -0.00406264 -0.00296064 -0.00212062 -0.00129301 
-0.000189873 -0.00028597 -0.000476442 -0.000609665 -0.000681721 -0.000989479 0.000135985 0.00277642 0.00656328 
0.0102033 0.0112648 0.00947977 0.00626944 0.00271595 -0.00095684 -0.00596298 -0.0160604 -0.0480949 
-0.0882446 -0.119608 -0.110757 -0.0928201 -0.07772 -0.0664148 -0.0552077 -0.0420307 -0.0289516 
-0.0209583 -0.011351 0.000309169 0.0108638 0.0194691 0.0296169 0.0380166 0.0512921 0.0628269 
0.0747211 0.0872362 0.10669 0.0195827 0.0547191 0.068817 0.0701923 0.0685273 0.0658748 
0.0637614 0.0606583 0.0575462 0.0539642 0.048725 0.0405226 0.0165823 -0.0256841 -0.120343 
-0.0309481 0.0165395 0.0341551 0.0466885 0.0512806 0.0547781 0.0579903 0.0609635 0.0640057 
0.0673054 0.069533 0.0640507 0.0529244 0.0190885 -0.134598 -0.00108406 -0.0299587 0.0293824 
0.0558618 -0.0079932 -0.00697495 -0.00223637 -0.00201138 -0.00267703 -0.00184424 -0.000617954 0.000619144 
0.00159477 0.00228071 0.00256738 0.00258095 0.00228642 0.00179513 0.00124955 0.00064794 0.000162724 
-0.000232056 -0.000473331 -0.000567902 -0.0004817 0.00741277 0.0264517 0.046788 0.082081 0.0150854 
0.00830723 0.00379283 0.000685241 -0.00159443 -0.00320721 -0.00443569 -0.00526515 -0.00568072 -0.00555257 
-0.00484762 -0.00359136 -0.0019002 0.000137304 0.00234816 0.00433186 0.00632791 0.00822175 0.00966931 
0.00901765 0.00405229 -0.00359567 -0.00982323 -0.0127 -0.0132398 -0.012004 -0.00998314 -0.0077972 
-0.00599665 -0.00445281 -0.00311465 -0.0835538 -0.000734347 -0.000768986 -0.000917196 -0.0484904 0.00301518 
-0.0482434 0.000339078 0.0128393 0.0158676 0.0142732 0.00942312 0.00346303 -0.00280752 -0.0109604 
-0.0237286 0.0378744 -0.0448181 -0.0758506 -0.0661036 -0.0560539 -0.0451919 -0.0354754 -0.0252438 
-0.0147248 -0.00445324 0.00395011 0.0144828 0.0243766 0.0336249 0.0432888 0.0535523 0.0641341 
0.0759867 0.0886355 0.0354257 0.00566291 -0.0473949 0.0347257 0.0435552 0.0488076 0.0507885 
0.0504293 0.0489146 0.0460374 0.0416503 0.0358897 0.0271784 0.0131518 0.00216816 0.00092294 
-0.0237066 -0.0012811 0.0321173 0.0371459 0.0406589 0.0432585 0.0452239 0.0467744 0.0457059 
0.0403816 0.0305694 0.0218298 -0.0027584 0.0248303 0.0110386 0.024965 -0.049259 -0.000817795 
-0.00224569 0.0147864 0.0252221 -0.00100901 0.000268302 0.000171625 -0.00332987 0.00172425 0.00288129 
0.00350676 0.003711 0.0034611 0.00286755 0.00215025 0.00135722 0.000604801 1.01833e-05 -0.000375495 
-0.000627648 0.0161204 0.00679685 -0.00340091 0.00760907 0.0280358 0.0643047 0.00574709 0.00190881 
-0.00101106 -0.00312138 -0.0046111 -0.00553144 -0.00578101 -0.00527159 -0.00377485 -0.00154895 0.0010811 
0.0036943 0.00610082 0.0075398 0.00852945 0.00944605 0.010167 0.00678121 -0.00411758 -0.0141156 
-0.0181444 -0.0185649 -0.0165946 -0.0136774 -0.0108302 -0.00835128 -0.00638695 0.0116304 -0.000708514 
-0.0248877 0.0118968 -0.00480932 0.00194675 0.010438 -0.0117104 -0.0324217 -0.00174847 -0.0548922 
-0.0371043 -0.0279776 -0.019044 -0.00937461 -0.000148097 0.00914259 0.0181087 0.0270568 0.0351906 
0.043728 0.0524642 0.0608836 -0.0562737 0.0124394 -0.00740475 0.0307977 0.0345223 0.0365075 
0.0367885 0.035454 0.0325413 0.0281868 0.022928 0.0160499 0.0106724 0.011622 0.0265664 
0.0229689 0.0297281 0.0310951 0.0299999 0.0264345 0.0209425 0.0175359 0.0251109 0.0164723 
0.043137 0.0231922 0.0199326 -0.0465137 -0.015797 0.0255303 0.0279176 -0.00416981 -0.000118379 
0.00312708 0.0130688 -0.0047425 -0.0175787 -0.0215398 0.0269669 0.00112431 -0.0223066 -0.0382277 
0.00547996 0.0231943 0.0115233 0.0693133 0.0120127 0.00742255 0.0222879 0.00690439 0.0181125 
0.0176149 0.0209817 0.00161059 0.00492977 0.00474368 0.00407163 0.00319595 0.00220096 0.00116424 
0.000312977 -0.00033032 0.00709581 0.0141015 0.000181268 0.0033677 0.0076202 -0.00208477 -0.00361176 
-0.00434939 -0.00429717 -0.00299247 -0.000207319 0.00356904 0.00700334 0.00933821 0.0116126 -0.02829 
-0.0241426 -0.0209026 -0.0156197 -0.0118113 -0.00922201 -0.00730633 -0.0290686 0.013018 -0.021537 
0.00340549 0.014311 -0.0103767 0.0233292 -0.00261778 -0.0123321 -0.000335382 0.0184674 -0.0129754 
-0.0146559 -0.0289656 -0.00467831 0.00407806 0.0123902 0.0203903 0.0272805 0.0338232 0.0400707 
0.0460261 0.0162642 -0.0025083 -0.0441829 0.0240303 0.0250141 0.0257162 0.0255139 0.0222392 
0.018573 0.0167542 0.0141592 0.0147674 0.0175482 0.0191493 0.0142643 0.0124634 0.0109406 
0.0162186 0.016405 0.00443291 0.0103101 -0.000900336 0.0526698 0.00419948 0.0350909 0.00171238 
0.00953238 0.0143067 -0.0157973 -0.0057452 0.0218316 0.0165644 0.0175881 0.00313294 -0.0302455 
-0.00342199 0.0178744 0.0156345 -0.0377744 0.00240417 -0.00519885 0.00960565 0.0184903 -0.018552 
0.014157 0.00674546 0.00315665 0.00185053 -7.57479e-05 0.00487391 0.00962433 0.0130375 0.0137132 
0.00192211 0.0090019 -0.0011792 -0.00163773 -0.00117321 0.00160989 0.00761649 -0.0142096 -0.00996014 
-0.00740243 -0.00619618 0.0157427 0.00381354 -0.00799942 0.0143474 -0.0151931 -0.0137365 -0.0197081 
0.0139644 -0.000828487 -0.0203387 0.0140439 0.00710961 0.0141139 0.0203956 0.0247224 0.028294 
0.0304433 0.000370629 -0.0113715 0.00451205 0.00546115 0.0166426 0.0189996 0.0182099 0.0152293 
-0.0136712 0.00811835 0.00794665 0.000861549 0.00739682 0.00957248 0.000896154 0.0112914 0.0162907 
0.0201035 0.00997299 0.00434206 -0.00273636 0.00616022 0.00765112 0.0165184 0.00836309 0.0126512 
-0.00447154 0.00566854 0.0141629 0.00279572 0.00360527 0.00861326 0.0088772 0.00746472 0.0142643 
0.014609 0.0175523 0.0195924 0.0209085 0.00655626 0.0121001 0.00316275 0.00362822 0.00973163 
-0.00385405 0.00283253 0.00276745 0.00404434 0.00944071 -0.00712838 -0.0115092 -0.00236839 0.0123671 
0.00836161 0.00900203 0.00712274 0.0116002 0.00750841 0.00278695 0.011779 -0.347866 0.342003 
-0.273418 -0.145675 -0.113683 -0.0914616 -0.0780545 -0.0642855 -0.0521773 -0.0424623 -0.0329309 
-0.0213982 -0.0101899 -0.00168468 0.00873412 0.0215944 0.0329578 0.0454497 0.0469683 0.0586442 
0.0734657 0.0900095 0.105151 0.141168 0.247267 -0.24847 -0.130423 -0.109744 -0.0942353 
-0.0746896 -0.072042 -0.0675251 -0.0594899 -0.0426607 -0.0251447 -0.0203422 -0.0189601 -0.0159125 
-0.000234316 0.0161497 0.0191758 0.0212832 0.0239223 0.0343377 0.0569869 0.0672475 0.0716243 
0.0769644 0.0866282 0.108283 0.129576 0.255445 5.27539e-05 2.69285e-05 -3.50985e-05 -5.15934e-05 
-5.65758e-05 -5.17958e-05 -2.77058e-05 -8.26175e-06 -3.69285e-06 1.4039e-06 2.12615e-05 3.82916e-05 4.78741e-05 
5.40501e-05 4.26477e-05 3.05944e-05 2.30592e-05 1.54125e-05 1.50306e-05 7.73836e-06 -4.9624e-06 -1.08983e-05 
-1.79041e-05 -2.18688e-05 -1.81048e-05 -1.28737e-05 -1.42096e-06 1.44419e-05 0.167219 -0.00164666 -0.0026245 
-0.00204869 -0.000864553 -0.00054698 -0.000466595 -0.000489136 -0.000456549 -0.000339609 -0.000261369 -0.000203518 
-0.000194683 -0.000208261 -0.000241105 -0.000238289 -0.00021498 -0.000197495 -0.000212533 -0.00023339 -0.000234642 
-0.000185822 -7.07179e-05 -4.97764e-05 -3.29804e-05 -6.04099e-06 8.27652e-05 0.000334327 0.000463228 0.000513567 
0.000549647 0.000320543 -0.000249794 -0.000384543 -0.000337451 -0.000275623 -0.000233342 -0.000199662 -0.000141361 
-3.11472e-05 -1.35004e-05 -2.74075e-05 -2.29376e-05 1.42771e-05 6.14533e-05 3.80309e-05 1.65401e-05 3.31299e-06 
-1.7181e-05 -2.86087e-05 -4.14452e-05 -7.60502e-05 -0.000145634 -0.000195798 -0.000136605 8.67257e-05 0.000439533 
0.000671139 0.000659433 0.000428261 0.000225384 0.000265522 0.000263915 0.00044798 0.000136941 -0.00200548 
-0.00920704 -0.143771 0.015731 0.00487296 -0.00214354 0.0139197 0.0088441 -0.0157297 0.00258087 
0.00133114 0.000980567 0.00201667 -0.0137711 0.0073703 -0.0182009 -0.0414782 -0.0219561 0.00479697 
0.00277335 0.000653431 0.000884698 0.00155418 0.00181884 0.00372833 0.00682699 -0.0115336 0.0165913 
0.0219809 0.0301725 0.0122842 -0.0637337 4.29255e-05 2.33565e-05 -3.09905e-05 -5.77716e-05 -6.66906e-05 
-5.24833e-05 -3.10261e-05 -5.581e-07 1.03708e-05 3.62072e-05 4.43057e-05 4.63325e-05 3.78547e-05 1.98652e-05 
7.98893e-06 -3.56557e-06 -1.18717e-05 -2.54274e-05 -2.89297e-05 -3.16001e-05 -2.40932e-05 -1.71423e-06 1.62684e-05 
0.147292 0.00308114 -0.00309868 -0.000805425 -0.00050288 -0.000298312 -0.00020742 -0.000171044 -0.000178786 
-0.00017765 -0.000128167 -0.000158046 -0.000169193 -0.000178513 -0.000178696 -0.000173738 -0.00013055 -8.26691e-05 
-0.000100297 -3.27734e-05 8.38428e-05 0.000251579 0.000378033 0.000527121 0.000487588 0.000186785 0.000104351 
-0.000205022 -0.000307602 -0.000281202 -0.000186351 -0.000107804 -0.000139984 -7.64745e-05 -3.79332e-05 -2.22046e-05 
6.67919e-05 5.83755e-05 8.22349e-06 -2.5226e-06 -1.53405e-05 -2.86409e-05 -3.73156e-05 -5.37875e-05 -0.000124038 
-0.000203057 -0.000218597 -2.81176e-05 0.000321763 0.000624602 0.000778982 0.000716633 0.00056858 0.000575567 
0.000803708 0.00141489 0.00201236 0.00358886 0.00727169 0.00459601 -0.166454 0.0473881 0.0355293 
0.0252595 0.017257 0.0111749 0.00709517 0.00441536 0.00192619 0.000654403 -0.0188887 0.00121401 
0.00253888 -0.00979425 -0.0223185 -0.0794264 -0.0185435 -0.0103969 0.00239716 -0.0176668 -0.00168675 
-0.00111064 -0.0192767 0.00177867 0.00486184 0.00950739 0.0157235 0.0239525 0.036334 0.0473355 
-0.0591498 1.61111e-05 1.70837e-05 -0.013708 -0.0759259 -0.00872502 -0.0718752 -0.269282 0.26517 
-0.179987 -0.135149 -0.121999 -0.11355 -0.102084 -0.0944167 -0.0819987 -0.0747553 -0.0735133 
-0.0691084 -0.0654262 -0.0611436 -0.0590517 -0.0438011 -0.0324933 -0.0262394 -0.0253244 -0.0217284 
-0.0195807 -0.0160115 -0.0157834 -0.0101749 0.000280407 0.0151904 0.0158434 0.0192979 0.0220148 
0.0259862 0.0292474 0.0334221 0.0367291 0.0541667 0.0577472 0.0625481 0.0665297 0.0716529 
0.076661 0.0819632 0.0857805 0.0938504 0.108677 0.129794 0.170297 -0.0530468 0.00939351 
0.0461891 0.118814 3.8988e-05 -0.000111161 -0.00017346 -0.00037947 -0.000426034 -0.000559893 -0.000597451 
-0.000609611 -0.00100274 -0.00070679 -0.00071305 -0.0012933 -0.000672911 -0.000668563 -0.00135688 -0.000561883 
-0.000526616 -0.00118863 -0.000387697 -0.000348992 -0.00088523 -0.000148835 -0.000131903 -0.000500871 8.74216e-05 
0.00012103 -4.31038e-05 0.000280412 0.000315751 0.00038127 0.000450324 0.000473536 0.000735232 0.000573111 
0.00057756 0.00100995 0.000632101 0.000631948 0.0011755 0.000628068 0.000624431 0.00122841 0.000573829 
0.000569791 0.00116554 0.000496104 0.000475998 0.00103081 0.000396072 0.000382378 0.000849205 0.000270832 
0.000260121 0.000638867 0.000155822 0.000134018 0.000404398 5.73627e-05 4.06449e-05 0.000198342 -3.09258e-05 
-4.32786e-05 1.74469e-05 -9.93605e-05 -0.000104796 -0.000133828 -0.000140886 -0.000143214 -0.000235533 -0.000152717 
-0.000153147 -0.00028558 -0.000141602 -0.000135558 -0.000282349 -0.000100909 -8.33399e-05 -0.000230282 -2.03013e-05 
-1.53278e-05 -1.84333e-05 -0.000114386 0.104271 0.0513572 0.0359519 0.0184671 0.0176847 0.0564945 
0.00906761 0.0091891 0.0276897 0.00530181 0.00506639 0.0153519 0.00295591 0.00268461 0.0086695 
0.00148753 0.0012625 0.00473804 0.0004378 0.000404546 0.0022006 -0.00023207 -0.000245161 0.0004833 
-0.000676819 -0.000713587 -0.000704635 -0.00103396 -0.00104519 -0.00153456 -0.00132158 -0.00136936 -0.00218206 
-0.00153705 -0.0015376 -0.0026385 -0.00168303 -0.00169659 -0.00301502 -0.00181802 -0.00182643 -0.00335194 
-0.00190012 -0.00191112 -0.00356851 -0.00193811 -0.00194788 -0.00366056 -0.00188376 -0.00183643 -0.00357742 
-0.00164367 -0.00162783 -0.00332774 -0.00141893 -0.0013874 -0.00290856 -0.00104867 -0.00101446 -0.00229797 
-0.00067686 -0.000609077 -0.0015332 -0.000265768 -0.000170429 -0.000724602 0.000276575 0.000321281 0.000154572 
0.00079976 0.000862136 0.00115891 0.00142274 0.00148168 0.00229295 0.00211425 0.00231683 0.00359098 
0.00280511 0.00291021 0.00485916 0.00323879 0.00325495 0.00586128 0.00308433 0.00302827 0.00608616 
0.00212982 0.00197375 0.00495251 0.000634908 0.000250776 0.00241336 -0.0011595 -0.0015014 -0.00100012 
-0.00270718 -0.00277465 -0.00405251 -0.00345274 -0.00343719 -0.00605398 -0.00357607 -0.00353096 -0.00686518 
-0.0033098 -0.00325094 -0.00671931 -0.00286376 -0.00280471 -0.00599875 -0.00238585 -0.00232601 -0.00505934 
-0.00189763 -0.00179829 -0.00409464 -0.00142012 -0.00139951 -0.00320597 -0.00106003 -0.00102855 -0.00243644 
-0.000721936 -0.000677436 -0.00174055 -0.000447642 -0.000391411 -0.00113311 -0.000187148 -0.000125221 -0.00060212 
-0.000199581 -0.000212431 -0.000276457 -0.000288785 -0.000471933 -0.000359792 -0.000378763 -0.000620864 -0.000443967 
-0.000475811 -0.000783626 -0.000545035 -0.000558635 -0.000938718 0.000438656 0.000758824 0.00203697 0.00259672 
0.00281642 0.00392523 0.00439949 0.00628127 0.00529044 0.00546164 0.00926347 0.00532009 0.00506702 
0.0102617 0.00413039 0.00359598 0.00869974 0.00226901 0.00191206 0.00549707 0.000593286 0.000192839 
0.00202092 -0.00167483 -0.00227579 -0.00207337 -0.00585061 -0.00672677 -0.00873832 -0.0239359 -0.0263619 
-0.0423412 -0.0584236 -0.0673699 -0.107149 -0.136491 -0.123524 -0.114801 -0.109282 -0.120693 
-0.101619 -0.0940937 -0.105826 -0.0947719 -0.0814832 -0.0941759 -0.0790808 -0.0652565 -0.081398 
-0.0681616 -0.0543175 -0.0659788 -0.0541044 -0.0422569 -0.0516032 -0.0452366 -0.0395906 -0.0456768 
-0.0438874 -0.0309608 -0.040139 -0.0325818 -0.0194041 -0.0333596 -0.0223321 -0.00972998 -0.0213579 
-0.0102428 0.00212692 -0.00868784 -0.00300369 0.00197226 -0.00233539 -0.00127094 0.00984926 0.00178214 
0.00843678 0.0212783 0.00779732 0.0178438 0.0307192 0.0193068 0.0271217 0.0407911 0.0312654 
0.0367308 0.0508157 0.0412783 0.0394963 0.0555081 0.0454738 0.0516747 0.065616 0.0517684 
0.0626492 0.0771115 0.0618606 0.0741045 0.089091 0.0762268 0.0913901 0.106558 0.0932851 
0.107969 0.116982 0.10659 0.129054 0.144131 0.126611 0.065974 0.0641593 0.0786957 
0.0822326 0.0450112 0.0787091 0.081988 0.0650624 0.0744868 0.0765731 0.0695386 0.0696753 
0.0714373 0.0685583 0.0659954 0.0668316 0.0659812 0.0624816 0.0620651 0.0626816 0.0593944 
0.0587825 0.0593558 0.0565464 0.055851 0.0557254 0.0540012 0.0527696 0.0513215 0.0492674 
0.0489751 0.0452322 0.0310646 0.037923 0.0314581 -0.0556066 -0.00117403 -0.00614347 -0.144572 
-0.122724 -0.0538363 -0.00718319 0.0254416 0.0335294 -0.0106704 0.0452498 0.0474761 0.0288676 
0.0512394 0.0515182 0.044955 0.0530741 0.0528769 0.0491573 0.0561639 0.0553689 0.0523561 
0.0581737 0.0586925 0.054997 0.0619141 0.0622271 0.0584054 0.065605 0.0659227 0.0616261 
0.069147 0.0720609 0.0647376 0.0747067 0.0768547 0.068018 0.0787914 0.0831587 0.0693831 
0.0787559 0.0817667 0.0636071 0.0645426 0.0657817 0.0417108 -0.136696 -0.109174 -8.7134e-05 
0.145181 -9.73966e-05 -0.000121048 -0.119036 -0.00040281 -0.000270986 -0.0227996 -0.0150939 -0.0186908 
0.000268707 0.0310078 0.0540738 -0.0982811 -0.0453512 -0.00815763 0.0382301 -0.0608293 -0.0717374 
-0.0373148 0.0387441 -0.0451084 -0.0730565 0.0179404 -0.00834698 -0.000311688 0.132423 -0.00132253 
-0.00152316 -0.00174948 -0.0018526 -0.00211994 -0.00189186 -0.00185701 -0.00239674 -0.00174545 -0.00159822 
-0.00229602 -0.00135919 -0.00113119 -0.00189914 -0.000809822 -0.000549513 -0.00124534 -0.000199735 7.80558e-05 
-0.000459899 0.000419674 0.00066205 0.000323225 0.000934619 0.00113355 0.00103249 0.00134278 0.00147446 
0.00158582 0.00160107 0.00166434 0.00195853 0.00171485 0.0017136 0.00215488 0.00166049 0.00160556 
0.00215854 0.00151244 0.0014125 0.0020027 0.00126257 0.00114261 0.00172451 0.000987539 0.000848382 
0.00137671 0.000672692 0.000536269 0.00100138 0.00038419 0.000263761 0.000620005 0.000119062 1.20837e-05 
0.000276428 -0.000114992 -0.000191829 -3.5449e-05 -0.000272173 -0.000317754 -0.00026682 -0.000360558 -0.00037622 
-0.000405401 -0.000373622 -0.000360435 -0.000457179 -0.000529207 -0.000600589 -0.000325042 0.0449988 0.0349788 
0.0278496 0.0223739 0.0422346 0.0168364 0.0137085 0.0273411 0.0104348 0.00830903 0.0175399 
0.00563952 0.00429218 0.0106101 0.00251005 0.00169146 0.00562237 0.000432987 -0.000151153 0.00226746 
-0.00101899 -0.00149068 -3.87091e-05 -0.00209999 -0.00248181 -0.0016541 -0.00293751 -0.00322604 -0.00294278 
-0.00359346 -0.0037919 -0.00389856 -0.00408015 -0.00424021 -0.00462106 -0.00442552 -0.00451759 -0.00516703 
-0.00457005 -0.00461536 -0.005421 -0.00456489 -0.00444817 -0.0054567 -0.00429218 -0.00405681 -0.00520725 
-0.00372152 -0.00343739 -0.00460959 -0.00292855 -0.00250833 -0.00369721 -0.00192043 -0.00148244 -0.00245035 
-0.00085462 -0.000308411 -0.00109683 0.000357515 0.00091891 0.000354214 0.00157349 0.00217513 0.0018566 
0.00293955 0.00361798 0.00340388 0.00443083 0.00519799 0.00513183 0.00601269 0.0067046 0.00693241 
0.0073668 0.00767477 0.00849035 0.0076459 0.00737452 0.00912209 0.00635581 0.0053079 0.00814774 
0.00325485 0.00150487 0.00484914 -0.00104873 -0.00326441 -0.000446031 -0.00547059 -0.0068968 -0.00605517 
-0.00821838 -0.00893805 -0.00994028 -0.00940198 -0.00950145 -0.0117979 -0.00931106 -0.00901798 -0.0119936 
-0.00847265 -0.0079804 -0.0110971 -0.00730418 -0.00676773 -0.00968327 -0.00600354 -0.00541336 -0.00807121 
-0.00470501 -0.00422401 -0.00645882 -0.00361967 -0.00321622 -0.00501374 -0.00264576 -0.00226048 -0.00376481 
-0.00179674 -0.00146852 -0.00263647 -0.00106884 -0.000771948 -0.0016704 0.113653 0.0947585 0.0634706 
-0.000837485 -0.000679672 -0.000753793 -0.000850946 -0.000917168 -0.000911557 -0.000998531 -0.001015 -0.0010176 
-0.00446877 -0.00814127 -0.0408803 -0.0887136 -0.0505222 0.00713627 0.00902604 0.0108783 0.0121499 
0.012117 0.0125458 0.0122196 0.014739 0.0109047 0.00928454 0.00685054 0.00465264 0.00893177 
0.00192502 -0.000282683 0.00285804 -0.00342897 -0.00646693 -0.00375437 -0.0108068 -0.0161135 -0.0120365 
0.000416128 0.00147788 0.0311923 0.0384179 -0.00977969 -0.0839884 -0.0496501 -0.104909 -0.0964224 
-0.090807 -0.0817625 -0.0894929 -0.0716077 -0.0787966 -0.078344 -0.0663132 -0.0691663 -0.0688894 
-0.0548569 -0.0608487 -0.0605654 -0.0521362 -0.0447483 -0.052234 -0.038659 -0.0322352 -0.0413312 
-0.0236118 -0.0291146 -0.0312323 -0.0169575 -0.0243482 -0.0239505 -0.0118819 -0.0166738 -0.016581 
-0.0093296 -0.00325039 -0.00940331 0.00170379 0.00895597 -0.00030049 0.0169342 0.0107825 0.00858526 
0.0229739 0.0162653 0.0160328 0.0303013 0.0237875 0.0234084 0.0360868 0.0319364 0.0311358 
0.0418805 0.0491903 0.0392377 0.0581772 0.0548931 0.0489787 0.0677597 0.0616082 0.0581535 
0.0770254 0.0713609 0.0674773 0.0866579 0.0817585 0.076947 0.0929269 0.101449 0.086233 
0.104276 0.0500883 0.0464054 0.0382739 0.0273589 0.0285528 0.0307792 0.0564541 0.0583661 
0.0556999 0.0582547 0.0493929 0.0538782 0.0568417 0.0496467 0.0509155 0.054153 0.0482717 
0.0469073 0.0502478 0.0448027 0.0415994 0.0457966 0.0400175 0.0327983 0.0392067 0.0332959 
0.0153585 0.0275459 0.0224034 -0.010239 0.005778 0.00614207 -0.00656591 -0.00765029 -0.000337096 
-0.000425013 0.0347163 0.0363974 0.010967 0.0233734 0.030239 0.0347538 0.0193767 0.0393695 
0.0428221 0.0308182 0.0439913 0.0468962 0.0371919 0.0474352 0.0499829 0.0410448 0.0504306 
0.0530843 0.0442648 0.0527684 0.0554573 0.0466339 0.0547245 0.0574252 0.0478373 0.0557965 
0.0574606 0.0476589 0.0536672 0.0526742 0.0446 0.0461818 0.0402045 0.036205 0.0344849 
0.0261666 0.026021 -0.000892884 -0.000518891 -0.000815368 -0.0231194 -0.034045 -0.0243696 0.00311199 
0.00487655 0.0074564 0.00316191 -0.0764331 -0.100473 0.0552283 0.0558103 0.047003 -0.0132796 
0.000647894 0.00315879 -0.0768599 -0.0384259 -0.000739024 -0.00103799 -0.00155684 -0.000131008 -0.000750654 
-0.000566782 -0.000365098 -0.000319344 -0.000205076 0.0706316 0.00207524 -0.0124307 -0.000561912 -0.0532721 
-0.0635344 0.0928468 0.013585 0.000258561 -0.0381461 -0.018606 0.0304588 0.0386884 -0.115618 
-0.104034 -0.098187 0.0411425 -0.0424199 -0.0446595 -0.0614944 0.00363225 -0.00246358 -0.0381241 
-0.0841922 -0.0518262 0.0265751 0.0228714 0.0100135 0.0287343 -0.00730147 -0.0282209 -0.00290185 
-0.0029313 -0.00286504 -0.00272206 -0.00340574 -0.00244714 -0.00214164 -0.00303301 -0.00170535 -0.0012896 
-0.00224086 -0.000756964 -0.000311188 -0.00118192 0.000234712 0.0006596 -6.53589e-06 0.00110383 0.00144985 
0.00107209 0.00180502 0.00206788 0.00193435 0.0023099 0.0024618 0.00258331 0.00260178 0.00265518 
0.00298729 0.00266247 0.00261161 0.00313064 0.00249401 0.00237987 0.00301047 0.00219622 0.00201293 
0.00268282 0.00176655 0.00157455 0.00222491 0.0013361 0.00111826 0.00170804 0.000886289 0.000691891 
0.00120373 0.000468046 0.000287566 0.000709991 7.34011e-05 -8.37432e-05 0.000240947 -0.00023342 -0.000332096 
-0.000149047 -0.000418423 -0.000466918 -0.000401032 -0.00249292 -0.0027419 -0.00332048 0.00658241 0.00596093 
-0.00180391 -0.00214659 -0.00279282 -0.00227539 0.0382304 0.031556 0.0252758 0.0209011 0.0344112 
0.0164805 0.0129905 0.023174 0.00951539 0.0072302 0.0146731 0.00483361 0.00331078 0.00836142 
0.00174917 0.000670225 0.00410179 -0.000493371 -0.00134791 0.00112284 -0.00219026 -0.00286759 -0.00113479 
-0.00350941 -0.00395016 -0.00279264 -0.00447367 -0.0048124 -0.00406347 -0.00521195 -0.00544593 -0.00504614 
-0.00564503 -0.00576278 -0.00570003 -0.00578781 -0.00574302 -0.00599623 -0.00559861 -0.00533419 -0.00586639 
-0.00496915 -0.00451354 -0.00526866 -0.00388199 -0.00326972 -0.00413858 -0.00245766 -0.00175386 -0.00257473 
-0.00087927 -0.000152466 -0.000793352 0.000688736 0.00152253 0.00102699 0.00233706 0.00310609 0.0027874 
0.00394458 0.0047807 0.00449176 0.00555714 0.00641602 0.00607969 0.00723857 0.00808679 0.00756868 
0.00883396 0.00936873 0.00906646 0.00985601 0.00971987 0.0101909 0.00909092 0.00798403 0.00979288 
0.00616246 0.00361726 0.00721292 -0.000222373 -0.00358224 0.000945153 -0.00773 -0.0101246 -0.00822457 
-0.0121507 -0.013458 -0.0141487 -0.0139879 -0.01437 -0.0163248 -0.0142796 -0.013935 -0.0165429 
-0.0132295 -0.0125212 -0.015461 -0.0115493 -0.0107265 -0.0135274 -0.00964668 -0.00877595 -0.0113389 
-0.00773055 -0.00689659 -0.00915419 -0.00609005 -0.00539379 -0.00724562 -0.00465818 -0.00402217 -0.00563114 
-0.00336841 -0.00282742 -0.00296948 -0.00419266 0.0021557 0.00781007 0.00540925 0.00401379 0.00709996 
-0.000693108 -0.000751772 -0.000783278 -0.00082785 -0.122977 -0.000836903 -0.000855808 -0.0836615 0.0789414 
0.0757221 0.0584956 0.0305619 0.0275597 0.0154901 0.0158911 0.000485049 0.00159701 0.00229444 
-0.00110601 -0.00441902 -0.00812999 -0.0051438 -0.0120088 -0.0170245 -0.0122469 -0.0415402 -0.0219629 
0.0226725 0.0274239 0.035611 0.0317112 -0.0378956 -0.0485292 -0.0338439 -0.0849942 0.0148607 
0.0128788 0.0162636 -0.0767655 -0.0719597 -0.0677 -0.0642073 -0.0666492 -0.0601347 -0.055386 
-0.0589167 -0.0517193 -0.0474128 -0.0512408 -0.0422305 -0.037777 -0.0429864 -0.0328702 -0.0286888 
-0.0344795 -0.0247713 -0.0217761 -0.0264624 -0.017835 -0.0146143 -0.0192319 -0.0107104 -0.00688601 
-0.0118626 -0.00218736 0.00147637 -0.00427267 0.00613243 0.0100607 0.00353106 0.0140287 0.0169754 
0.0112481 0.0206731 0.0251512 0.01862 0.0288032 0.0324007 0.025948 0.0363838 0.0405401 
0.0335694 0.0452836 0.0493175 0.0414364 0.0532308 0.0574795 0.0490695 0.0613839 0.0664309 
0.0567577 0.0699816 0.0749284 0.0642686 0.0780081 0.0831392 0.0703661 0.0712372 0.0420629 
0.0432497 0.0422123 0.0415163 0.0376234 0.0397025 0.0351813 0.0331827 0.035768 0.0312007 
0.0265686 0.0305294 0.0270982 0.0160639 0.0219475 0.0206519 0.00627269 0.0115776 0.0130925 
0.000604956 0.00697581 0.0293301 0.0225792 0.0230539 0.00891468 -0.0106347 0.0229185 0.0268412 
0.0296535 0.0319637 0.0226017 0.0340935 0.0358697 0.0272756 0.0372536 0.0386826 0.0305503 
0.0393608 0.0400876 0.032508 0.0403188 0.0406458 0.0333655 0.0398256 0.0390137 0.0327988 
0.0369233 0.0342767 0.0299673 0.0305359 0.0253826 0.0242491 0.0229948 0.0196363 0.0189292 
-0.000672767 -0.0223225 -0.0298552 -0.0360783 -0.0333299 -0.0215388 0.0395952 0.0377292 0.0294013 
0.0333 0.0492471 0.012106 0.0142403 0.00953002 0.00629557 0.00245911 0.0109686 0.0428774 
0.0429053 0.0359266 0.0370079 -0.0341826 -0.0161494 -0.0788885 0.00394095 -0.0208045 0.0132006 
0.0190509 0.0167309 0.00935545 -0.000521837 -0.000540212 -0.000456425 -0.00071294 0.0109123 -0.000540396 
-0.00068179 0.0282506 0.025252 0.0254937 -0.000635413 0.0157893 -0.0130225 -0.00528138 0.00739049 
0.00982964 0.0120618 0.00320158 0.00325118 0.0218068 0.0207293 -0.0152043 -0.0060015 0.00389603 
-0.0221819 -0.0254879 -0.0441547 -0.0321094 -0.0451634 0.0288804 0.023839 0.0227693 -0.000660549 
0.0522033 0.0106541 0.0192668 0.0151384 0.00691575 0.0186132 2.21293e-05 5.33122e-05 0.0010681 
0.00503146 -0.000548536 0.000845495 0.0057817 -0.0716327 0.00495228 0.00841141 0.0247203 -0.00374739 
-0.00340973 -0.00288898 -0.00238456 -0.0036339 -0.00163976 -0.00102172 -0.00229079 -0.000247364 0.000388038 
-0.000669765 0.00111404 0.00161736 0.000946788 0.00213173 0.00253401 0.00226159 0.0029264 0.00319991 
0.00320103 0.00341765 0.00357082 0.0038308 0.00361772 0.00362432 0.00410715 0.00354229 0.00341131 
0.0040659 0.0031706 0.00296954 0.00371965 0.0026739 0.00240427 0.00315931 0.00206403 0.00180224 
0.00250446 0.00154741 0.00128258 0.00189324 0.000969445 0.000719002 0.00129368 0.000418079 0.00018171 
0.000656276 -4.08125e-05 -0.000219444 0.000111678 -0.000397177 -0.000497883 -0.000331182 -0.00671772 -0.00976515 
-0.000354811 -0.00025108 0.0168252 0.0190337 -0.00334773 0.0422243 0.0350606 0.0294921 0.0243091 
0.0359037 0.0198681 0.0157671 0.0252318 0.0121682 0.00939754 0.0167035 0.00680404 0.00499018 
0.0102219 0.00320961 0.00175904 0.00566407 0.000344679 -0.000680192 0.00231239 -0.00137243 -0.00215964 
2.45743e-05 -0.0029728 -0.00355007 -0.00158017 -0.00421721 -0.0046567 -0.00311176 -0.00510122 -0.00537929 
-0.00427766 -0.00559009 -0.00566576 -0.00501272 -0.00558991 -0.00539819 -0.00519094 -0.00504008 -0.00455834 
-0.00473155 -0.00384239 -0.00304815 -0.00353131 -0.00203483 -0.00115629 -0.00164941 1.00374e-05 0.000939044 
0.00064306 0.00199253 0.00292419 0.00292713 0.00373291 0.00460662 0.00482247 0.00542975 0.00624691 
0.00650664 0.00689668 0.00751456 0.00787662 0.00782852 0.00841555 0.00852451 0.00867241 0.00916607 
0.00864062 0.00922784 0.00950301 0.00906174 0.00827293 0.00605186 -0.0168248 -0.0186464 -0.0191277 
-0.018833 -0.018378 -0.0213172 -0.0172479 -0.0162771 -0.0193896 -0.0147381 -0.0136347 -0.0163069 
-0.0122304 -0.0111186 -0.0132501 -0.00988664 -0.00886352 -0.0106262 -0.00787907 -0.00703091 -0.00851315 
-0.00617476 -0.00539373 -0.00672571 0.0230261 0.0207351 0.00837485 0.00773886 0.0616392 0.0497309 
0.0498222 0.0664285 0.0229854 0.0185951 0.0127866 0.0132389 0.0255828 0.0270152 0.00320869 
0.00495344 0.0156849 0.0139051 -0.0118167 -0.0156444 -0.0127537 -0.0298623 -0.0268251 0.016722 
0.0154291 -0.000542034 -0.000521943 0.0193451 0.0206432 0.00715865 -0.00299608 -0.0569439 -0.0531417 
-0.0496168 -0.0459725 -0.047817 -0.0422345 -0.0383032 -0.040986 -0.0349684 -0.0309244 -0.0345032 
-0.027471 -0.0237307 -0.0279888 -0.0201927 -0.0166098 -0.0211316 -0.0129319 -0.00924236 -0.0139763 
-0.00562328 -0.00194639 -0.00688822 0.00134373 0.00519756 -0.000124683 0.00846604 0.0122354 0.00630723 
0.0158267 0.0193226 0.0130411 0.0228841 0.0265491 0.0200372 0.030116 0.0339339 0.026948 
0.0373199 0.0410067 0.0336733 0.0441385 0.0476974 0.0397772 0.050923 0.0545134 0.0456805 
0.0574765 0.0606278 0.051261 0.02227 0.0244064 0.0210807 0.0285328 0.0305655 0.0231599 
0.0169567 0.0205308 0.018687 0.0128803 0.0148521 0.0153913 0.0153802 0.0166579 0.0166759 
0.0203884 0.0167075 0.0170612 -0.0129263 -0.0249784 -0.0154064 -0.0342448 0.00786438 -0.00241989 
-0.0104609 0.0120435 0.012209 0.0140657 0.0146798 0.0168179 0.0115715 0.0214589 0.0233186 
0.0159229 0.0241432 0.0253254 0.0187337 0.0262561 0.0267743 0.0200681 0.0270984 0.0272323 
0.0212293 0.0269671 0.0260232 0.0210247 0.0248611 0.0228433 0.0195333 0.0204715 0.0171101 
0.012298 0.0159682 0.00205589 -0.0617973 -0.00403556 -0.00394664 -0.00443209 0.00733249 -0.00378409 
-0.00393748 -0.00454781 -0.00399328 -0.0239505 -0.0183541 -0.0199886 -0.0315803 -0.0579113 0.000437907 
0.0144887 -0.000605434 -0.000430555 0.0151063 0.0131683 0.0237278 0.0202006 0.0227587 -0.0186944 
-0.0073339 -0.0186375 -0.0232167 0.0233994 0.019557 0.0252269 -0.00466245 0.00898293 0.00753642 
0.0110478 0.00904113 -0.0005683 0.0149157 0.0310789 0.0303536 0.00659324 0.0065887 0.0300428 
0.025283 0.012366 0.0038832 0.0185482 0.02036 0.0210916 0.0116783 0.013681 -0.0182225 
-0.0197504 -0.00514755 0.00531137 0.0105591 -0.020556 -0.0308495 -0.000145823 -0.00737852 -0.00362843 
-0.0111706 0.0155256 0.013987 0.0634247 0.00768945 0.00991643 0.0118652 0.00949328 0.00232059 
0.00372976 0.00187821 0.0282829 0.0264498 0.0210316 0.0242489 0.0147532 0.00679839 -0.0519198 
0.011104 0.00673898 -0.0457074 -0.045541 -0.0421652 -0.0250142 0.00156598 -0.00286952 -0.00809113 
0.0011641 0.0127936 0.0154173 0.0127056 0.010312 0.00777662 0.0139036 0.0561862 -0.00452713 
-0.00393073 -0.00304128 -0.00224552 -0.00396633 -0.00123241 -0.000365684 -0.00200282 0.000852295 0.0016671 
0.000320363 0.00254039 0.00309359 0.00259154 0.0034906 0.00391466 0.00387109 0.00433388 0.00458085 
0.00471088 0.00467684 0.00472331 0.0052901 0.00463621 0.00453256 0.00526075 0.0042732 0.00401819 
0.00487206 0.00360486 0.00329415 0.00416664 0.00278099 0.00241905 0.00320885 0.00213499 0.00185994 
0.0115142 0.00162582 0.0012867 0.00214464 0.000765754 0.000441749 0.00105951 0.0145712 0.0133813 
0.0141674 0.0159406 0.00840568 0.00910384 0.0300678 0.0252138 0.0208214 0.0168279 0.0250081 
0.013453 0.0105803 0.0170486 0.00810876 0.00616007 0.0109865 0.00404196 0.00246777 0.00630507 
0.00173605 8.74831e-05 0.0104045 0.000535272 -0.000349784 0.00294038 -0.00153444 -0.00222947 0.000527856 
-0.00268996 -0.0032378 -0.00115974 -0.00394719 -0.00420597 -0.0024147 -0.00416817 -0.00408031 -0.00312827 
-0.00384261 -0.00338019 -0.00280632 -0.00272898 -0.00187305 -0.00180968 -0.000662833 0.000511387 0.000198958 
0.00194419 0.0031646 0.00302697 0.00530552 0.00634524 0.00675938 0.0102972 0.0107108 0.0100546 
0.00993866 -0.0244245 -0.023552 -0.0211044 -0.0193332 -0.0240895 -0.0167059 -0.0151567 -0.0178066 
-0.0131295 -0.011689 -0.0133519 -0.0102629 -0.00918852 -0.00986368 -0.00833565 -0.00748436 -0.00791816 
0.0481802 0.00692061 0.00900293 -0.00524529 0.0165711 0.0175493 -0.0144933 -0.0182096 0.00311115 
0.00898447 -0.0160861 -0.0198021 -0.0122991 -0.0135696 -0.012835 0.0121339 0.000821668 0.00122744 
-0.0262797 -0.032751 0.0166006 0.0131767 0.017407 0.018006 0.0150954 -0.0386456 -0.0356048 
-0.0365723 -0.0327141 -0.0299257 -0.0308692 -0.0280216 -0.0248032 -0.0264691 -0.0219966 -0.0185012 
-0.0221181 -0.015161 -0.0116894 -0.0161596 -0.00748782 -0.00412932 -0.00882057 -0.000229413 0.00293345 
-0.000999782 0.00610272 -0.000465519 -0.00117237 0.00965531 0.0130319 0.00625773 0.0168725 0.0202103 
0.0134184 0.0236009 0.0269144 0.0203585 0.0297075 0.0326957 0.026242 0.0348849 0.0375533 
0.0307994 0.039967 0.0425948 0.0348312 0.0447861 0.047032 0.0415641 0.0388712 0.0180675 
0.0189673 0.0148157 0.014304 0.0147783 0.0122634 5.59471e-05 0.000299641 -0.00502811 -0.0153024 
-0.02122 -0.0148633 0.0103257 0.0123539 0.00995005 0.00685836 0.00719219 0.00138664 0.014026 
0.0145782 0.0153719 0.0149077 0.0158976 0.0148393 0.010687 0.0354676 -0.00524989 -0.00501352 
-0.0054571 -0.0059407 0.00869144 0.00284118 -0.000234634 0.00893221 0.0121481 0.0141354 0.00806822 
-0.00203732 0.0130804 0.0127175 0.00960432 0.00109818 0.015851 0.0154306 -0.00287635 0.0185312 
0.0179989 0.0151687 -0.0191064 -0.0136794 -0.0154592 0.00701484 0.00783428 -0.00721971 -0.000928869 
0.0149934 0.0141605 -0.00655046 -0.00676228 -0.0259391 0.0113891 0.0109642 0.0168538 0.0165405 
-0.0161627 -0.0206489 0.00464322 0.00561725 0.00761727 0.00229522 0.0034024 0.0028 0.00975975 
0.00846846 0.00569447 0.0103486 0.014146 0.0114586 -0.0275008 -0.0253492 0.0114366 0.0103494 
0.0122031 -0.0138614 -0.0136269 0.0212329 0.0193025 -0.0116636 0.0193208 0.00616898 0.0126668 
0.0168833 0.0160507 0.0137663 0.0186078 0.01403 0.014481 0.0349528 0.0163433 0.0165706 
0.00980516 0.013022 0.0108819 0.0109221 0.0106766 0.00602716 -0.000557149 0.000846395 0.00487658 
0.00523929 0.00571934 -0.000439408 -0.000217104 0.00615739 0.0062047 0.00683993 0.00590953 0.00581038 
0.00683667 0.00559711 0.005323 0.00633434 0.00477391 0.00433696 0.00552906 0.00371659 0.00317707 
0.00430417 0.000184596 0.00962456 0.0200618 0.0164523 0.013606 0.0109335 0.0163146 0.00936205 
0.00713463 0.0116834 0.000852022 0.00143732 0.00847609 0.0111413 0.00977418 0.00567556 0.0044717 
0.00298257 0.00168716 0.00568507 0.0013069 0.00317199 0.0167092 -0.00028749 -0.00117826 0.00247575 
-0.0011885 -0.000826435 0.00834676 0.0105983 -0.00957597 0.0122617 0.0129628 -0.00800451 -0.00703746 
-0.00649838 -0.00597842 -0.00477852 -0.0114891 -0.0136193 0.000204274 -0.0054398 0.0129183 0.0151987 
0.0146588 0.0167414 0.0179425 -0.023415 0.0203348 -0.00604105 -0.00817704 -0.00916355 0.00699864 
-0.00474808 0.00544065 -0.00141994 -0.00705002 0.0079817 0.00870098 0.00648658 0.00820611 0.00227067 
0.00565309 0.0112155 0.0132959 0.0105783 0.0139993 0.00662299 0.0173444 0.0204711 0.0144687 
0.022799 0.0251536 0.0197758 0.0258465 0.0274238 0.0223287 0.0334276 0.031887 0.0285839 
0.0149837 -0.0127374 -0.0101045 0.0110366 0.0145285 0.00287057 0.00685175 0.00778709 0.00150199 
0.014271 0.00376288 0.00663473 0.0239911 0.0119422 0.00970098 0.0178827 0.0346617 0.0156237 
0.0230372 -0.00107561 -0.0004187 0.000351605 0.0138722 -0.0105382 0.00519721 -0.00373601 -0.0129135 
-0.00615714 0.00321704 0.00269938 0.00197141 0.0093277 0.00692615 0.0263698 0.0457556 0.00115513 
-0.0025117 0.00115793 0.0386386 0.0490277 0.0081757 0.00752463 -0.0215686 -0.0189802 -0.0157698 
-0.0106746 -0.00691586 -0.00137792 0.00841498 -0.00353861 0.0299265 0.0171357 -0.0304269 0.00338801 
0.00446759 0.00614051 0.0249941 0.000786056 0.012695 0.0106787 0.013523 -0.00265601 0.00293807 
0.00392504 0.00738216 0.00715678 0.00643415 0.00584319 0.0075339 0.0136756 0.0142073 0.0116812 
0.00215107 0.00288131 0.0210989 0.0055183 0.00222805 0.00165794 0.00284003 0.00403434 0.00615657 
0.0124341 0.0127341 0.0112328 0.0138377 0.0144257 0.00330217 0.00485297 0.00926581 -0.00242284 
0.00486379 0.00382287 0.00334111 0.0142725 0.0119954 0.0159835 0.0137614 0.00336314 0.00219774 
-0.00114036 0.0173366 0.0147078 0.00852915 0.00915098 0.00775768 0.01299 0.00970566 0.00831304 
0.0113049 0.0190205 0.00708954 0.00934172 0.0192911 0.00536318 0.00547086 0.00985131 0.0167557 
0.0185945 0.0058473 0.00742003 0.00451751 0.00389522 0.00875535 0.00963168 0.00995115 7.63586e-05 
-0.000298853 -0.000173053 -0.000580144 -0.000535727 -0.000806415 -0.000743092 -0.000722144 -0.00127176 -0.000822791 
-0.000839005 -0.00152925 -0.000642388 -0.000713145 -0.00146357 -0.000331526 -0.000397772 -0.00101433 1.76069e-05 
-3.73346e-05 -0.000350128 0.000337659 0.000271061 0.000299498 0.000582259 0.000535372 0.000848624 0.000723024 
0.000711821 0.00124356 0.0007642 0.000765026 0.00144241 0.000703972 0.0007221 0.00143742 0.000559113 
0.00060299 0.00126425 0.00040343 0.000430107 0.000980568 0.000223813 0.000253521 0.00065174 6.20012e-05 
9.96369e-05 0.000323705 -7.67159e-05 -5.00532e-05 3.28035e-05 -0.000162607 -0.000153152 -0.0001973 -0.000203473 
-0.000201245 -0.000331966 -0.000176899 -0.000188797 -0.000359814 -7.75014e-05 -0.000101102 -0.000266239 -4.13793e-06 
0.109156 0.0555632 0.0824104 0.0182524 0.0186411 0.0733142 0.00832286 0.00897116 0.0276925 
0.00395414 0.004328 0.012861 0.00178581 0.00223356 0.00633553 0.000555393 0.000689892 0.00284178 
-0.000299059 -0.000180241 0.000575366 -0.000890566 -0.00080098 -0.000919239 -0.00131357 -0.00125735 -0.00191789 
-0.00159209 -0.00152324 -0.00268012 -0.00187516 -0.00183637 -0.00324235 -0.00205221 -0.00203463 -0.0037257 
-0.00205336 -0.00207082 -0.00391618 -0.00193836 -0.001958 -0.00385085 -0.00167929 -0.00174274 -0.00346342 
-0.00123302 -0.00133257 -0.00282331 -0.000621755 -0.000736268 -0.00181566 4.09674e-05 -6.45195e-05 -0.000614049 
0.000777686 0.000635777 0.000742876 0.00159252 0.00142984 0.00215911 0.00260741 0.00240985 0.0038258 
0.00340268 0.00321533 0.00553182 0.00369212 0.00365096 0.00661059 0.00280125 0.00312694 0.00637794 
0.000750539 0.0011885 0.00367822 -0.00175368 -0.00127902 -0.0007378 -0.00334352 -0.00312448 -0.00478637 
-0.00394706 -0.00391348 -0.00706085 -0.00388403 -0.0039722 -0.007658 -0.00329273 -0.00341763 -0.00705551 
-0.00264367 -0.00275065 -0.00586317 -0.00205508 -0.00215209 -0.00465947 -0.0014866 -0.00157942 -0.00350995 
-0.00104872 -0.00112955 -0.00255109 -0.000601577 -0.000708011 -0.00170286 0.137958 -0.000103032 -8.8742e-05 
-0.000148673 -0.000140231 -0.000243707 -0.000255369 -0.000247669 -0.000378838 -0.000327452 -0.000320766 -0.000550353 
-0.000365122 -0.000343404 -0.000658918 -0.000572899 -0.000596242 8.95125e-05 -0.00012714 -0.000526731 0.00163996 
0.00114239 0.00133838 0.00372739 0.00317902 0.00462045 0.00561902 0.00526156 0.0084778 0.00606443 
0.00606769 0.0109435 0.0049758 0.0052829 0.010552 0.00324747 0.00361071 0.00792385 0.00150201 
0.00178084 0.00446722 -0.000216911 3.75971e-05 0.000922551 -0.00240607 -0.00224794 -0.00327703 -0.00749789 
-0.00657818 -0.0104221 -0.0228823 -0.0217569 -0.0388687 -0.0286175 -0.0598249 -0.108438 -0.127505 
-0.150066 -0.104786 -0.11929 -0.115528 -0.083938 -0.0987328 -0.102864 -0.0709659 -0.0800528 
-0.0875266 -0.0581254 -0.0736633 -0.0724414 -0.0536229 -0.0626118 -0.0612527 -0.0347066 -0.049326 
-0.0478528 -0.0227855 -0.0310185 -0.0363182 -0.0147475 -0.0272465 -0.0252261 -0.0102822 -0.0177605 
-0.015786 0.00631492 -0.00784308 -0.00505243 0.0178749 0.00899751 0.00463547 0.0278328 0.0138202 
0.0151228 0.036518 0.0226511 0.0243421 0.0424771 0.0318194 0.0338113 0.0585766 0.0461331 
0.0441449 0.0704748 0.0557092 0.0571041 0.083051 0.0656213 0.0686229 0.0908586 0.078886 
0.0811683 0.114381 0.0977359 0.099524 0.0418517 0.0605304 0.0810995 0.0770215 0.0404021 
0.0834458 0.0788929 0.0632792 0.078217 0.0751457 0.0693959 0.0727686 0.0708066 0.0689236 
0.0680884 0.0665446 0.0667063 0.0642208 0.0642183 0.064039 0.0608838 0.0609506 0.0614356 
0.0577943 0.0584384 0.058276 0.0552846 0.0554853 0.0552497 0.0515163 0.0524838 0.0507139 
0.0473211 0.0481067 0.0443846 0.0370371 0.0288525 0.0312449 0.000104495 -0.0554576 -0.00668108 
-0.116612 -0.141662 -0.00287423 -0.0576083 0.0358811 0.0269281 -0.00907049 0.045153 0.0451938 
0.0258192 0.0500928 0.051005 0.0412311 0.0532581 0.0538931 0.0491675 0.0552219 0.0554961 
0.0522413 0.0586923 0.0583721 0.0555681 0.061955 0.0607715 0.0588442 0.0662746 0.0647144 
0.0617437 0.0718086 0.0694497 0.0649127 0.0796177 0.0739736 0.0677483 0.0826899 0.0780884 
0.0666836 0.0804599 0.0752007 0.0605016 0.0517373 0.0587822 0.0412782 -0.118699 -0.146572 
-0.000164867 -8.65148e-05 -0.000272813 -0.00108473 -0.000637875 -0.000613571 -0.0130372 -0.0216999 -0.144693 
-0.0139611 -0.0506837 -0.0145711 0.0376488 0.0422071 0.116926 -0.0104267 -0.0422492 -0.0690707 
-0.0134368 -0.0481045 -0.0406521 0.034948 -0.0764413 -0.0379491 -0.000890295 0.113257 -0.00182672 
-0.00164305 -0.00155089 -0.00122428 -0.0016815 -0.00214185 -0.00197145 -0.00214483 -0.00124427 -0.00160229 
-0.00229078 -0.000276139 -0.000709564 -0.00124226 0.00063457 0.00027652 6.42081e-06 0.00135765 0.00106802 
0.00112369 0.00184263 0.00166697 0.00195825 0.0020275 0.00197068 0.00244077 0.001981 0.00203274 
0.00259422 0.00170288 0.00184703 0.00244911 0.00130125 0.00148478 0.00205023 0.000846168 0.00105456 
0.00152454 0.000399788 0.000576321 0.000944437 1.67689e-05 0.000182369 0.000400384 -0.000265479 -0.000159144 
-4.23239e-05 -0.000423736 -0.000375367 -0.000360676 -0.000454902 -0.000468997 -0.00053072 -0.000329143 -0.000409506 
-0.000532523 0.0070367 0.00503185 0.0172219 0.0227392 0.0318928 0.0446739 0.0359177 0.0618964 
0.0959771 0.0975867 0.0637214 0.00937831 0.0122281 0.020492 0.00478152 0.00651315 0.0115803 
0.00166803 0.00284128 0.00595106 -0.000485492 0.000291271 0.00215789 -0.00208962 -0.00146926 -0.000506638 
-0.00317517 -0.00276889 -0.00244914 -0.00401436 -0.00371967 -0.00385829 -0.00461139 -0.00440117 -0.00487531 
-0.00487307 -0.00479565 -0.00550702 -0.00465622 -0.00479078 -0.00565914 -0.00399922 -0.00436789 -0.00525807 
-0.00295571 -0.00344907 -0.00425339 -0.00155323 -0.00218151 -0.00276933 0.00010597 -0.000639625 -0.000903212 
0.00191446 0.00109979 0.00122567 0.00366104 0.00283624 0.00333865 0.00560706 0.00463287 0.00532133 
0.00729574 0.00653409 0.00727111 0.0082737 0.0080256 0.00902181 0.0071258 0.00798512 0.00954672 
0.00262665 0.00482604 0.00687039 -0.00337611 -0.000731328 0.00029186 -0.00801855 -0.00626017 -0.00687854 
-0.0101099 -0.00943192 -0.0114282 -0.0103636 -0.0104372 -0.0131232 -0.00921582 -0.00980455 -0.0126866 
-0.00759276 -0.00830507 -0.0110031 -0.0059349 -0.00659898 -0.00889624 -0.00446852 -0.00512451 -0.00689617 
-0.00326647 -0.003777 -0.00522038 -0.00219367 -0.00266393 -0.00377272 -0.00256052 -0.0680188 -0.0570762 
-0.000672511 -0.00061707 -0.000862755 -0.000927853 -0.000827384 -0.000760574 -0.000824766 -0.0339674 -0.0805965 
0.00297616 0.00152626 -0.0414079 -0.032046 0.000291149 -0.00035115 -0.000331379 0.00154224 0.0115089 
0.00965235 0.010132 0.0135138 0.0130317 0.014497 0.011794 0.0128324 0.00775157 0.0095703 
0.0119626 0.00297273 0.00508759 0.00645563 -0.00206806 0.000180502 0.000359883 -0.00877344 -0.00567537 
-0.00663676 -0.0203335 -0.0143557 -0.0168345 -0.0349841 0.0336052 0.0388684 -0.0810755 -0.0242761 
-0.0848414 -0.107925 -0.0800269 -0.0831469 -0.0701159 -0.0691843 -0.0710172 -0.059456 -0.0553816 
-0.0614083 -0.0450544 -0.0467201 -0.0509487 -0.0360111 -0.0368405 -0.0401893 -0.0261615 -0.0246666 
-0.0300064 -0.0159418 -0.0149944 -0.0200221 -0.00355736 -0.00500286 -0.00990265 0.00392083 0.00398414 
-9.35457e-05 0.0136739 0.015868 0.0095915 0.0227894 0.0271208 0.0197047 0.0342073 0.0355464 
0.0286179 0.0439487 0.0452161 0.0383033 0.0541184 0.0548142 0.0486461 0.0636641 0.067503 
0.0592763 0.0779835 0.0814357 0.0700543 0.0948211 0.0938872 0.0816895 0.0859246 0.0403416 
0.0351871 -0.00663299 0.000574668 -0.0344 -0.0791734 0.044735 0.0497916 0.0554262 0.0552416 
0.0395936 0.0590035 0.057406 0.0465249 0.0594199 0.0568814 0.0499886 0.0579192 0.0554164 
0.050571 0.0560512 0.0528887 0.0496394 0.0530381 0.0498423 0.0474048 0.0493604 0.0457158 
0.0438765 0.0445045 0.039914 0.0387945 0.0374575 0.030957 0.0318165 0.0254823 0.0128637 
0.0208388 0.00335246 -0.00916565 0.00652019 -0.00944738 -0.00482885 -0.0683764 0.00332218 0.00369903 
-0.0118136 0.000509319 0.0395231 0.0373254 0.0448874 0.0421042 0.0347177 0.048139 0.0457905 
0.0390449 0.0510686 0.0487672 0.0420144 0.0533677 0.0514247 0.0443302 0.0555511 0.0536258 
0.0461382 0.055715 0.0544933 0.0464215 0.0521993 0.0531455 0.0434339 0.0411091 0.0464971 
0.035996 0.0251549 0.0369206 0.0263293 -0.00216542 -0.00208345 -0.00250841 -0.00274818 0.0286461 
0.0385422 0.0290086 0.0289 0.0224871 0.0115617 0.00425301 0.034628 0.0294358 0.0188593 
0.0287535 -0.0636965 0.00511831 0.0154017 -0.0798411 -0.0904067 -0.0500495 -0.0703741 -0.0444448 
-0.000609429 -0.000473236 -0.00081981 -0.000956382 -0.000186526 -0.00039282 -0.000333787 -0.00508396 -0.0239693 
-0.000858165 0.0299188 0.0103058 0.0245389 -0.0486242 -0.0127202 -0.0986285 -0.0992874 0.0245723 
0.0298233 0.00620813 0.0041462 0.00367664 -0.00532107 0.00050839 -0.0245452 -0.000988437 -0.000855429 
-0.000217784 -0.000288045 0.000418925 -0.000259869 -0.00255282 -0.00302002 0.00167441 0.0011495 0.000968303 
0.00258202 0.00221779 0.00233334 0.00303416 0.00288338 0.00322118 0.00314205 0.00313931 0.00363867 
0.0028678 0.00302607 0.00360673 0.00232612 0.00259356 0.00318077 0.00169455 0.00198817 0.00251641 
0.000990752 0.00131758 0.00175257 0.000377396 0.000637912 0.000976365 -0.000115795 9.56412e-05 0.000296544 
-0.000426005 -0.000298848 -0.000191582 -0.000598185 -0.000545031 -0.000501591 0.0161376 0.0146458 0.00709428 
0.00490058 -0.0028207 -0.00270571 -0.00329375 0.00828715 0.00445059 0.0212921 0.0273952 0.0557058 
0.072164 0.0764163 -0.0623791 0.00312512 0.0049261 3.40153e-05 0.00138213 0.0037417 -0.00221594 
-0.00128453 0.000383497 -0.00383795 -0.00316595 -0.00211613 -0.0049865 -0.00454464 -0.00390809 -0.00565743 
-0.0054035 -0.00511153 -0.00570349 -0.00575259 -0.00570331 -0.00507134 -0.0054847 -0.00558663 -0.00366903 
-0.00440089 -0.00459269 -0.0017433 -0.00265618 -0.00270242 0.000584678 -0.000504783 -0.000269007 0.00299451 
0.00181775 0.00239074 0.00515621 0.00416435 0.00491241 0.00685906 0.00595876 0.00684058 0.00829914 
0.00752878 0.0080396 0.0096139 0.00900539 0.00895283 0.00957648 0.0100008 0.00993076 0.00508059 
0.00782491 0.00876815 -0.00390728 0.000271201 0.00187848 -0.0118602 -0.00878315 -0.00939866 -0.0153884 
-0.0140453 -0.0164313 -0.0157924 -0.0157502 -0.0185848 -0.0143232 -0.01507 -0.0177017 -0.0118679 
-0.0129264 -0.0151502 -0.00938143 -0.0104968 -0.0122375 -0.00720968 -0.00814322 -0.00958176 -0.00541059 
-0.00623388 -0.00736681 0.00760841 0.0101859 0.00856391 -0.000807421 -0.000723445 -0.000760711 -0.0143362 
-0.03527 0.0122506 0.00966244 0.0139494 -0.00381829 -0.000612547 0.00270581 0.0058675 -0.00154761 
0.00981521 0.0123896 0.00616254 -0.0114785 -0.00719218 -0.00806413 -0.0400831 -0.040209 -0.00115441 
-0.00183954 -0.0025747 -0.000788563 -0.0559514 -0.0607277 -0.036228 -0.0411721 -0.0266558 -0.0315861 
-0.0325701 -0.0168601 -0.0222412 -0.0235304 -0.00708552 -0.0120625 -0.0142171 0.00209216 -0.00235593 
-0.00474055 0.0117817 0.00677972 0.00446846 0.0211513 0.0161935 0.0136441 0.0303845 0.0256038 
0.0226065 0.0392922 0.0344444 0.0311066 0.0487308 0.0436654 0.0395011 0.058572 0.0532422 
0.0481651 0.0684032 0.0628795 0.0567071 -0.0657948 -0.053271 0.00946992 0.00656944 -0.0232216 
0.00383576 0.0369114 0.0395083 0.0413419 0.0424599 0.0329976 0.0433789 0.0433355 0.0357468 
0.0433789 0.0427202 0.0368074 0.0419776 0.040625 0.0362833 0.0390896 0.0369694 0.0341294 
0.0347113 0.0319322 0.0305268 0.0290765 0.0249722 0.0256938 0.020961 0.0150617 0.0196672 
0.0108925 0.00671895 0.0130546 0.00728832 0.00839497 0.0111245 0.0334027 0.031713 0.0298819 
0.0274015 0.0249883 0.0372708 0.0364506 0.0386111 0.0380769 0.0306049 0.0374361 0.0382128 
0.0306472 0.0331152 0.035686 0.0283844 0.0256091 0.0302883 0.0238386 0.0198039 0.0242814 
0.0192758 0.0207384 0.03016 0.0152279 0.0162241 0.0168929 0.0136019 0.0346335 0.0451463 
0.0534966 0.0354999 0.0290623 0.0236274 0.0204872 0.0235947 0.0139258 0.0178913 0.0238221 
0.0155469 -0.0458745 -0.0514996 -0.0506983 -0.0417635 -0.00938594 -0.0293018 -0.0246064 0.0300281 
0.0341679 0.0283697 0.0353728 0.0342165 0.0273635 0.0288606 -0.00380159 -0.00339773 -0.00346042 
-0.0382585 7.2709e-05 -0.000451452 -0.000425822 0.00485755 0.00310648 0.0121236 0.00987917 0.0182906 
-0.0039303 -0.00463492 -0.00555702 -0.00406533 -0.0344964 -0.0207213 -0.000640283 -0.000688842 0.00172964 
0.00932912 -0.0273748 -0.0305531 -0.0154048 0.0264344 0.0312435 0.000757351 0.000151786 0.000616835 
-0.0165227 -0.0165799 -0.0233555 -0.0434221 -0.0309897 -0.0297358 0.00261802 -0.00492468 0.0254517 
0.0278959 -0.0616649 0.0125408 -0.0557362 -0.0016183 0.0185517 -0.00387245 -0.0473058 0.0780049 
0.0727821 0.0651395 0.0674081 0.00911225 0.00331804 0.0126675 0.00427621 0.00274408 0.0237695 
0.0286513 0.0239445 0.0244206 -0.0030852 -0.000671952 0.00354017 0.0034354 0.0205854 0.0247442 
0.0213567 0.0188216 0.0156805 0.0209265 -0.00410549 -0.0142543 0.00769215 0.007253 0.0235959 
0.0225076 0.00168489 0.000863728 0.00430561 0.00420994 0.00409434 0.00422204 0.0048669 0.00345905 
0.00377908 0.00443373 0.00266755 0.00304765 0.00364473 0.0017714 0.00218469 0.00269646 0.000881661 
0.00127134 0.00167394 0.000160231 0.000472711 0.000730868 -0.000354269 -0.00014676 -2.55526e-05 0.00693223 
0.00509783 0.0131104 0.00981379 -0.00153387 -0.00040128 0.00108887 0.00269377 0.00171595 0.00470359 
0.00678647 0.00540047 -0.00339481 -0.00261391 -0.000995595 -0.00463225 -0.00413521 -0.00288962 -0.00512139 
-0.00497298 -0.00402469 -0.00479872 -0.00508559 -0.00439087 -0.00338337 -0.00421013 -0.0037302 -0.000871964 
-0.00209657 -0.00167034 0.0022833 0.000897501 0.00163083 0.00528707 0.00393046 0.00530181 0.00766446 
0.00645787 0.00822882 0.00934429 0.00877411 0.0105543 0.0083388 0.0083988 -0.0184083 -0.0227975 
-0.0214594 -0.0269471 -0.0212701 -0.0212078 -0.0262235 -0.0187137 -0.0200883 -0.0225985 -0.0147262 
-0.0162025 -0.0181846 -0.0114359 -0.0128456 -0.0136801 -0.00888294 -0.0100506 -0.0104883 -0.00691125 
-0.00785284 -0.00825555 -0.0380759 -0.0253996 0.00932204 0.0124474 0.0102179 0.00197552 -0.0203992 
-0.0246764 0.00314241 0.00253445 0.00254437 0.0148788 0.0133294 -0.00713485 -0.00404589 0.0198139 
0.0270226 0.0288012 0.00125688 -0.0086424 -0.0119481 -0.00868257 -0.0111719 0.000697961 0.00519116 
0.0219168 0.0243211 0.0208782 -0.0112768 -0.0159544 -0.017326 -0.00381829 -0.0156571 -0.0234609 
-0.0286316 -0.0329933 -0.0252859 -0.00247841 -0.00697396 -0.0088399 0.00654025 0.00200458 -0.000322282 
0.0151905 0.0108339 0.00823245 0.0236494 0.0193263 0.0164081 0.0311167 0.0272462 0.0238549 
0.0386508 0.0346484 0.0306014 0.0461526 0.0421436 0.0370577 0.0534451 0.0496211 0.0432183 
0.00845362 0.0142569 0.0144143 -0.0048825 0.00419414 -0.0496567 -0.0501711 -0.0457562 0.0291776 
0.0301521 0.0237408 0.0305712 0.0308171 0.0247358 0.0311051 0.030562 0.0255189 0.0302931 
0.0289706 0.0258298 0.027182 0.0251507 0.0239776 0.0231101 0.0208119 0.0204278 0.0194638 
0.016518 0.0177497 0.0148772 0.0125802 0.0154556 0.0129132 0.0132079 0.0156838 0.0141738 
0.0235417 0.0241566 0.0248483 0.024276 0.018365 0.0175292 0.0201591 0.0149897 0.0167952 
0.0133679 0.00227456 -0.0380605 0.0113552 0.0088965 0.0211369 0.0227878 0.0153208 0.0212566 
0.0195305 0.00396034 0.00363943 0.00396851 0.00471628 0.0220522 0.00895431 0.00924289 0.00902509 
0.0117801 0.00038133 -0.000335043 -0.00136624 0.0156924 0.0481158 0.0584841 0.0611169 0.00553825 
0.00369953 0.0317924 0.0390135 0.0437045 0.0155774 0.00101321 0.000722083 0.0116306 0.00760907 
-0.0415408 0.0185887 0.0161235 0.013331 0.00264514 0.011043 0.00866374 0.00700776 0.00891681 
-0.0228332 -0.0165841 -0.00609185 -0.00652252 -0.00525544 0.0173096 0.0167124 0.0210823 0.0128698 
0.00903739 0.0189947 0.0195156 0.0157331 0.0162343 -0.000216419 -0.000513533 -0.00565979 -0.0257907 
-0.0175838 0.0148681 0.0221792 0.0197403 -0.00879776 0.00216674 0.00161464 0.00247345 0.0572489 
-0.0344232 -0.0265047 -0.00254794 -0.00341845 -0.00217434 0.0172277 0.0204571 0.0199256 0.0215001 
0.0209399 0.0161195 -0.0333892 -0.03741 -0.042033 0.00351735 0.0045927 0.00991452 -0.00682573 
0.00664731 -0.00715229 0.0274715 0.0494827 0.0130619 -0.0367855 0.0162852 -0.00439474 -0.00424849 
-0.0046784 -0.0115427 0.016985 0.00407282 0.0105744 0.0218668 0.02089 0.0161761 0.0213705 
-0.020474 -0.0152074 -0.0239643 -0.0150441 0.0181661 0.0136941 0.0167395 0.021644 0.020939 
-0.000486666 0.0181731 0.0057012 0.00581785 0.00267925 0.00318645 0.00150659 0.00203183 0.002493 
-0.00188329 -0.0011085 0.00248823 0.00414856 0.00829486 0.00682888 0.0408051 0.0153466 0.015751 
0.0122525 0.0154518 -0.00451845 -0.000122132 0.00104647 0.00335551 0.000876571 0.00616326 0.00837421 
0.00686788 -0.00279472 -0.00241754 -0.00069478 -0.0029924 -0.00302107 -0.00146177 -0.00208829 -0.00278978 
-0.00149306 0.000716008 -0.00079319 0.000116328 0.00559745 0.00352621 0.00451493 0.0104251 0.00865683 
0.0139957 0.0128428 0.00126829 0.00180988 0.00134132 -0.0268584 -0.0287721 0.0281954 -0.0150523 
-0.017816 -0.0110999 -0.0129699 -0.0120676 -0.00846404 -0.0095753 -0.00861639 -0.00685753 -0.00769251 
-0.00680098 0.018164 0.0162765 0.00360447 0.00266863 -0.00643021 -0.0103984 0.0162674 0.0163472 
0.0141384 0.0137888 -0.0141957 -0.0183471 -0.0116127 -0.0129621 -0.0126451 -0.0212136 0.0162654 
0.0185082 0.0134669 0.00154652 -0.00268012 -0.00448522 0.0148319 -0.0211343 -0.0244909 -0.0179067 
0.0168819 -0.00150397 0.0108335 0.0136563 0.0114295 0.00963808 0.00562986 0.00313527 0.0171712 
0.0133325 0.0106346 0.0237258 0.0204508 0.0172716 0.0290807 0.0260793 0.0226299 0.0340098 
0.0312597 0.0266171 0.0380122 0.0355603 0.0295474 -0.000953463 0.00473834 -0.0158559 -0.00751262 
-0.00524026 -0.0156749 -0.0254046 -0.0196469 0.00383981 0.00430557 0.00381627 0.0047594 0.0050967 
0.00501703 0.014832 0.0206239 0.0210725 0.0222997 0.0222354 0.0178608 0.0216268 0.0202208 
0.0186023 0.0185073 0.0168979 0.0167442 0.0123482 0.0132538 -0.00735338 -0.016127 -0.0131383 
-0.0131982 0.0102726 0.0112136 0.0148173 0.0131247 0.011012 0.0119683 0.00808565 0.00348173 
-0.0410588 0.033086 -0.0124276 0.0154426 0.00610725 0.000596225 0.0010124 0.00832254 0.00579974 
0.00527053 0.00245509 0.00949607 0.0116823 -0.0298325 -0.00494686 0.0123896 0.0112595 -0.0244771 
-0.0191362 0.00128383 1.13339e-05 0.0023591 0.0263189 0.0136571 0.0137329 0.0120942 -0.00624654 
-0.00570881 0.0187568 0.0160628 0.016869 -0.00552847 0.016513 0.0211504 0.0169467 -0.00478586 
0.0122763 0.0141819 0.0101538 0.00298787 0.00376762 0.00446734 -0.00178028 -0.00313808 -0.00087739 
-0.0166806 0.012154 0.015036 0.0159131 0.00539233 0.00649194 0.00553312 0.00529378 -0.0151351 
-0.00458034 0.0109892 0.0100881 0.00778831 0.00864928 0.0187278 0.0206408 0.0166802 0.0200961 
0.0127746 0.00809535 0.00481055 0.012156 0.0153651 0.01454 0.0153015 -0.0162299 0.00822614 
0.0117227 0.00989186 -0.0341235 -0.0149204 -0.00973254 -0.00990134 -0.00133494 0.011214 0.0145146 
0.00501883 0.00450258 0.00595748 0.00482001 0.0122198 0.0136265 0.000547086 0.000764071 0.000112758 
0.00123538 0.00175835 0.0031687 0.0108659 -0.00497823 -0.00766143 0.0252792 0.00574805 0.0128194 
0.011381 0.00810602 0.00650217 0.00554842 0.0117597 0.0142917 0.0174258 0.0144265 0.0117685 
0.0209235 0.0190027 0.0161274 0.0236524 0.0221874 0.0186611 0.0253263 0.0246712 0.0203517 
0.0206529 0.00550035 0.00601213 0.00672137 0.00550776 -0.0127728 0.0130538 0.0129346 0.0132135 
0.00562975 0.00240395 0.000968288 0.00549945 0.00194795 0.00652318 0.0117561 0.0130457 0.00729861 
0.00942266 0.0119808 0.0140367 -0.00240146 -0.00577376 0.00484587 0.00108806 -0.000519869 0.00587963 
0.00535916 0.00519709 0.00288116 0.0105594 0.000518919 0.00267146 0.000358537 0.00199773 0.0030124 
0.00379796 0.00793662 0.00808979 -0.0106847 -0.0105676 0.000779414 -0.00368075 -0.00170517 -0.0158542 
-0.0126774 -0.00510299 -0.00598069 -0.00325901 -0.00260268 0.012684 0.014089 0.0117973 0.00703861 
0.00803286 0.00722225 0.0143537 0.0175262 0.0116958 0.00949958 0.00448891 0.00594441 0.00834466 
0.00552555 0.0078449 0.0104017 -0.0099393 -0.013312 0.00373744 0.00524971 0.0131055 0.0104839 
0.0173621 0.0145427 -0.00880934 0.00588669 0.0071344 0.00859587 0.00527676 0.0130435 0.00635279 
0.00517779 0.0156924 0.0155021 -0.00772351 -0.00902548 0.00734439 0.006652 -0.00542911 0.0063419 
0.00987921 0.0109417 -0.000107056 0.000319813 0.00935591 0.00946547 0.00339154 0.00179618 0.0170412 
0.00892976 0.00752865 0.00523832 0.00648098 0.0129834 0.0103085 0.00616413 0.0080299 0.00532591 
0.0143495 0.016417 0.0121328 0.0105604 0.00994779 0.0139608 0.00270797 0.00969112 0.0106629 
0.0145478 0.0157776 0.00241065 0.0128443 0.00323487 0.0100637 0.00967877 0.00800728 -0.000136005 
0.0108291 7.93599e-06 -0.139245 -0.00659453 1.18106e-05 4.79233e-06 -8.96923e-06 -1.08975e-05 -1.93477e-05 
-2.1321e-05 -2.85001e-05 -2.91106e-05 -3.49743e-05 -6.08244e-05 0.000595674 0.00105801 0.00126605 0.00150021 
0.000847274 0.00148797 0.00180794 0.00529003 0.00113905 0.000649259 0.000413592 -8.7331e-05 -0.000136415 
0.000697629 0.000750704 0.000602677 0.000644804 0.000483794 -0.000153304 0.000640312 -0.000224901 -0.000203994 
-0.000188654 -0.000134147 1.73209e-05 0.000205499 0.00036213 0.000530003 0.000349808 0.00041556 0.00031096 
0.140276 4.28359e-05 7.74569e-05 0.0102885 -0.00305221 -0.00331629 -0.0032742 -0.00155067 -0.00082583 
-0.000707812 -0.000447442 -0.000404914 -0.000218628 -0.000302414 -0.000290598 -0.000302759 -0.000185826 -0.000185719 
-0.000174981 -0.000151148 -7.32159e-05 -0.000119639 -0.000143444 -0.000163377 -0.000182866 -0.000159244 -0.000143447 
-0.000163317 -0.000159089 -0.000149043 -0.000162652 -0.000130944 -0.000154135 -0.00010814 -6.13941e-05 -4.68721e-05 
-5.10032e-05 -7.74306e-06 -3.26923e-06 4.66926e-05 5.43423e-05 0.000126523 0.000284803 0.000395344 0.000357591 
0.00040703 0.000435966 0.000338999 0.000376436 0.000225242 -4.65731e-05 -0.000244312 -0.000213083 -0.000280933 
-0.00022755 -0.000243951 -0.00021678 -0.000184889 -0.00018295 -0.000130181 -0.000147578 -9.80689e-05 -5.62225e-05 
-4.33132e-05 -4.57047e-05 -2.27715e-05 -3.45745e-05 -2.11681e-05 -2.11573e-05 3.14223e-06 1.75644e-05 4.82072e-05 
-0.00020445 -0.000219267 -0.000155867 -0.000156432 -0.000312922 -0.000123351 -0.000153035 -7.4479e-05 0.000210126 
0.000124191 -9.44983e-05 3.68797e-05 1.6453e-05 1.01824e-05 5.02309e-05 -7.34713e-06 -2.97424e-05 -4.08256e-05 
-3.61521e-05 -4.51338e-05 -5.21306e-05 -4.65135e-05 -3.29357e-05 -1.53862e-05 -1.53145e-05 -5.86414e-07 -9.18325e-06 
-1.15535e-06 -4.07986e-06 1.40858e-05 1.74534e-05 3.70636e-05 3.8328e-05 4.15546e-05 3.87412e-05 3.60655e-05 
2.8295e-05 1.77571e-05 1.54157e-05 3.05655e-06 8.77833e-06 7.28605e-06 8.40029e-06 3.74172e-06 9.23259e-07 
-9.59059e-06 -7.99606e-06 -1.81307e-05 -1.88148e-05 -2.11763e-05 -2.07418e-05 -2.01542e-05 -1.74229e-05 -1.03658e-05 
-1.05768e-05 2.16667e-06 -1.75521e-05 -4.69064e-05 1.65226e-05 2.23739e-05 -8.99869e-06 -0.0215285 -0.0311861 
-0.0373764 -0.0412929 -0.0458902 -0.0479675 -0.0513433 -0.0524728 -0.0539516 -0.0551019 -0.0553138 
-0.0559309 -0.0568714 -0.0563768 -0.0566635 -0.0557218 -0.0552885 -0.0533034 -0.0538476 -0.0520815 
-0.0500121 -0.0464956 -0.0410418 -0.0320729 -0.0273727 -0.0432051 -0.0253382 -0.0289247 -0.0410343 
-0.0374776 -0.0486951 -0.0462758 -0.0524832 -0.0503121 -0.0547409 -0.0535014 -0.0559816 -0.0555499 
-0.056661 -0.0554864 -0.0565347 -0.0563529 -0.0558464 -0.0557997 -0.052025 -0.0539938 -0.0494905 
-0.0517004 -0.0429715 -0.0464414 -0.0257044 -0.0405055 -0.0199614 -0.0549827 -0.0176142 0.0600896 
0.00591768 0.00432572 0.0109222 -0.000108474 1.96632e-05 -0.00163836 0.00962489 -0.0019456 -0.00190427 
-0.0016115 0.0108338 -0.000514994 0.00117969 0.000258591 0.00417933 0.00257366 0.0208125 0.00603314 
0.0143359 0.011507 0.0209918 0.0172314 0.0374761 0.0304854 0.0390865 -0.0570446 -0.0173308 
-0.0516452 -0.0311794 -0.0417452 -0.0264444 -0.0318017 -0.048441 -0.044883 -0.0565782 -0.05721 
-0.055545 -0.0576823 -0.0576369 -0.057133 -0.0549449 -0.0219787 -0.0557911 -0.0543305 -0.0573908 
-0.0481104 -0.0521817 -0.0529529 -0.050111 -0.0398345 -0.0434977 -0.0575162 -0.0561207 0.00190888 
0.00134038 0.00208245 0.00150064 0.00112568 0.00123686 0.000562735 0.0541722 -0.00193834 -0.00145476 
-0.0016157 -0.00117767 0.0187719 0.0133258 0.0127701 0.0502138 0.00199181 -0.000306529 -0.00257502 
0.002998 0.00396762 -0.000122532 0.00683412 0.00724104 0.0025231 0.00536907 0.00448891 0.00376692 
0.0261013 0.0443464 0.0284049 -0.00205214 -0.00147816 -0.00138947 -0.0571772 -0.0563892 -0.0599202 
-0.00143766 -0.000671543 -0.00130947 0.0022083 -0.00432571 -0.000507517 -0.000637315 -0.000573985 0.0392652 
0.0338495 0.0358842 0.0591689 0.000512486 -0.000193705 -0.00389651 -0.00457914 -0.00346426 -0.00411703 
0.120117 0.111001 0.128503 0.117973 -0.00173966 0.00145297 0.000428161 0.00358182 -0.00582352 
-0.00619176 -0.0070224 -0.00913682 -0.0105498 -0.00628536 -0.00730874 -0.00771584 -0.0243421 -0.0127743 
-0.0318822 0.00569025 0.00291254 0.00763492 0.00468887 0.0446645 0.0430448 0.0374088 0.0324257 
0.0363471 0.03274 -0.00385905 -0.00534656 -0.00444123 0.0361952 0.0298749 0.0419137 0.00544764 
0.00477595 0.00765459 0.00688234 0.000177416 -4.92006e-05 1.91632e-05 0.0105071 0.00879891 0.0128672 
0.0116299 0.0278676 0.022952 0.0286928 0.0235294 4.06787e-05 8.53887e-06 -3.36798e-05 -8.03281e-05 
-0.00466496 -0.00553204 -0.00505778 0.0252155 0.031437 0.0309093 -0.0507152 -0.0455929 -0.0467872 
0.0347754 0.00172802 0.00291746 0.000332803 -0.000225791 -0.000625891 0.000170394 -0.0434231 -0.0500408 
-0.0490658 0.00340803 0.00388669 0.00331061 0.00376228 -0.00181701 -1.3272e-05 -0.000912391 -0.00546902 
-0.0052774 -0.0057595 -0.0055414 -0.00574212 -0.00427406 -0.00734961 -0.00558292 -0.00649141 -0.00964037 
-0.00708049 0.00145042 0.000142171 0.0527424 0.0352854 0.0357664 0.0467067 0.0174231 0.0265689 
0.0139102 0.0212527 0.00160163 0.00203637 0.00143354 6.61794e-05 -0.0356112 -0.0487316 0.0209467 
-0.0611006 0.0313563 -0.0330958 -0.0054473 -0.00499311 -0.00530737 0.00648985 0.00483587 0.00715654 
0.00559455 0.00238847 0.00237882 0.00182861 -0.0490389 -0.133961 -0.0901742 0.0304099 0.023892 
0.0209405 0.00340721 0.00285303 0.00283166 -0.000968264 0.00825544 0.0120599 0.00933406 0.000388518 
-0.000114857 2.02911e-05 0.0291588 0.0364329 0.0309328 0.0384377 -0.0747374 -0.0731169 -0.0686765 
-0.0634872 -0.0593717 0.0144864 0.015226 0.0127077 0.0130265 0.0160954 0.0213092 0.020415 
-0.0543348 -0.00346825 -0.00364231 -0.00442315 -2.94495e-05 0.000262594 0.000321038 0.000663861 0.000322331 
0.00124984 -0.103715 -0.112057 -0.105528 -0.0455789 -0.0422903 -0.0467599 0.0106206 0.010292 
0.00855655 0.00825808 -0.00373878 -0.00208903 -0.00377266 -0.0086479 -0.011934 -0.00269295 -0.00973486 
-0.0181119 -0.000232098 -0.000198226 -0.000130753 -1.20263e-05 -0.0254605 -0.0281126 -0.0235912 0.0706998 
0.00893124 0.00957034 0.00892082 0.067173 0.0434437 0.0274243 0.00258 0.00286437 0.00322654 
0.00757642 0.00578784 0.00694772 0.0102052 0.0106028 0.013408 -0.00272978 -0.00194122 -0.0026237 
-0.00175938 -0.00188913 -0.00230149 0.010587 0.00767688 0.00810914 0.0134435 0.0172334 0.0151444 
-0.00331763 -0.00396736 -0.00479095 0.0587198 0.0580616 0.0597207 -0.00108127 -0.000281341 -0.000701792 
-0.000775034 -0.000245802 -0.00669932 -0.00726306 -0.00815609 -0.000708529 -0.000869305 -0.000650036 -0.000803011 
-0.00253989 -0.00257941 0.0520751 0.0492458 -0.00185296 -0.00126646 -0.000682978 -0.000255785 0.0173598 
0.0209278 0.016738 0.0204543 0.0039571 0.00149287 0.000142154 -0.000303827 -0.00158619 -0.0794333 
-0.0743425 0.016872 0.021641 0.0191515 0.00324598 0.00221449 0.00144458 0.0672036 0.0647751 
0.072492 0.0179662 0.0227406 -0.00404081 -0.00746744 -0.00472411 -0.00568226 -0.00959651 -0.0148387 
0.0100008 0.0145533 0.00913327 0.0135188 -0.000318948 0.0153703 0.0202155 0.0166003 -0.000755405 
-0.000806768 -0.000882053 -0.000950568 -0.00100085 -0.00750696 -0.00794398 -0.00899762 0.000551145 0.0815258 
0.00296379 0.00238001 0.00267066 -0.000421447 -0.000713847 0.00156115 0.00104245 0.00282396 -0.0261289 
-0.0279459 -0.0205014 0.0690073 0.0697386 0.0720069 -0.00134489 -0.000384609 -0.00215345 1.21884e-06 
0.0806417 0.0767885 0.0903698 0.0750475 -0.000851865 -0.00330721 0.00535397 0.00666265 0.00824904 
0.0392984 0.0323171 0.0399291 0.0704363 0.0567155 0.0708492 -0.0338126 -0.0326722 -0.0291601 
-0.0873576 -0.084586 0.0115495 0.00630776 0.0079991 0.0579203 -0.0998952 -0.103176 -0.108332 
-0.00169699 -0.00112853 -0.00204512 -0.00094344 0.00618244 0.00271576 0.00453583 0.00141701 0.0166948 
0.0141044 0.0147261 -0.0219144 -0.0209479 -0.0262573 -0.0253655 -0.0276397 0.000619528 0.000578812 
0.00502932 0.000788885 0.000929644 0.00117328 0.0133367 0.0151545 0.0586428 0.0624795 0.0637922 
0.00182646 -0.0092822 -0.00195933 0.00129174 0.00178493 0.00233257 -0.00184366 -0.00500466 -0.00474575 
-0.00543122 0.0139561 0.0121164 0.008314 0.0590544 0.000760634 0.00133862 -0.0351147 -0.0325384 
-0.0390734 -0.00114882 -0.00160596 0.032237 0.0502327 0.0407344 0.0108765 0.0116914 0.00759049 
0.0150556 0.00227288 0.00245637 0.00293487 0.00827824 0.00686117 0.00847248 0.000474028 0.00038295 
0.000633933 0.000919387 0.00171074 0.00165274 0.0741235 0.0735204 0.0677788 0.0469701 0.00049746 
0.00208846 0.0021958 0.00382268 0.0364102 0.0257986 -0.0380415 0.0333023 0.0362458 0.0303865 
0.0531732 0.0553693 0.0472821 -0.0536883 -0.0448585 -0.0448999 -0.0108948 -0.0117935 -0.0080632 
-0.000357799 -0.00806846 -0.00924241 -0.0139768 0.0102752 0.0790548 0.0865543 0.078359 0.08513 
-0.00511403 -0.00573124 -0.00974543 -0.0100996 -0.000870964 -0.000920654 -0.00104092 -0.00330992 -0.00161768 
-0.00302689 0.00733722 0.00796941 0.00992621 0.00344183 0.00302294 0.00285506 0.0195189 0.0211407 
0.0200355 0.021994 0.0415796 0.0330024 0.0256464 0.0217869 0.00174656 0.00217226 0.000675281 
0.00566151 0.00390952 -0.000123653 0.0049297 0.00322573 -0.00371043 -0.00537508 -0.0058691 -0.00359508 
0.0457603 -0.00506681 0.0149207 0.0149312 0.0136908 0.011068 -0.00465918 -0.00462543 0.0237542 
0.0198323 0.0199018 0.00241523 0.00767515 0.00546238 0.00589038 0.00455266 0.00552435 0.00399383 
0.00399386 0.00355315 0.0209413 0.0185627 0.0224498 -0.00278746 -0.00422219 -0.000367425 0.00640964 
0.00357228 0.00317709 -0.000143604 0.00184854 -0.000386889 0.0203118 0.0244317 0.0212157 0.0235974 
0.0160714 0.0192753 0.0126229 0.0109246 0.0282289 0.0290952 0.0176014 0.0177697 0.00433161 
0.00502055 0.00457902 0.0116247 0.0133685 0.0100362 -2.51102e-05 -0.000118105 -8.33324e-05 0.0410798 
0.0341443 0.0465424 0.0392201 0.00448841 0.00943136 0.00715498 -0.000378657 -0.00033809 -0.00046515 
-0.000430973 -0.0946426 -0.108717 -0.0737751 0.0208432 0.0200231 0.0235706 -0.0181449 -0.0187222 
-0.0124207 0.00121622 0.000943136 0.00081577 0.000578835 0.0099921 0.0195642 0.026138 0.0202434 
0.0794201 0.00897085 0.00125714 0.00201279 0.00395446 0.00363778 -0.000253176 0.0280731 0.00278235 
0.00157378 0.00358788 0.00227781 0.0255618 0.00616874 0.00355078 0.00475611 0.004768 0.0022262 
0.000377986 -0.00929265 -0.00586675 -0.01358 0.0617291 0.0544397 0.0633111 0.00284527 -0.0171657 
-0.0120243 -0.00205033 0.0168099 0.00944187 0.00966421 0.00677569 0.00685876 0.00223578 0.0162547 
0.0162629 0.0156843 0.00643176 0.00590645 0.00576523 0.00528969 0.00342808 0.00676182 0.0570105 
0.0699493 0.068712 0.00695648 0.00664607 0.00603056 0.00574289 0.0298857 0.0263907 -0.000817231 
-0.00070512 0.0444324 0.0699281 0.0655805 -0.00197894 -0.00290866 -0.00234231 -0.00220462 0.00662405 
-0.000263998 -0.000181406 -0.000102527 0.000248855 -0.0967783 -0.0949254 0.0608678 0.0519682 0.0520096 
0.000489087 0.0314571 0.0293494 0.0364534 0.00733542 0.00493289 0.00378732 0.013861 -0.00112793 
-0.00163571 -0.00179453 0.0174559 0.0148582 0.0151509 0.0132763 -0.0132251 -0.023476 -0.0179709 
-2.13994e-05 -1.18054e-05 -0.00170986 -0.00312045 -0.00159132 0.00964472 0.00769053 0.0260696 -0.00176821 
0.000315336 -0.0169213 -0.0211639 -0.0151748 -0.0194192 0.028756 0.0277442 0.0239467 -0.000910261 
-0.00104851 0.00457229 0.0086338 0.00597701 -0.000474735 -0.000789429 -0.000705192 -0.0108776 -0.00794792 
-0.0130821 -0.000135919 0.0152749 -0.0128228 0.000878394 0.00106264 -0.000172998 0.0181576 0.0186885 
0.015469 0.0157831 0.0114335 0.0135956 0.0139068 -0.00336708 -0.000188804 -0.000535631 -0.00071845 
-0.00117901 0.000620819 0.00256688 0.0407378 0.0354503 0.0556509 -0.00180591 -0.00247972 -0.00176231 
0.0336938 0.0324451 0.0384771 0.00892996 0.00931381 0.0095717 0.00996653 0.000583206 0.0327432 
-0.010023 0.000272371 -0.000895952 0.00610542 0.0374575 0.01097 -0.0373037 -0.0331722 -0.0375479 
-0.0590249 -0.060181 -0.00863404 -0.0291957 0.00375288 -0.0055609 -0.00432951 -0.00489198 0.0207733 
0.0177998 0.0257275 0.00549694 0.00573015 -0.00101872 0.0161531 0.0130761 0.0152822 0.00353845 
-0.0420238 -0.0463771 0.0113055 0.0129765 -0.000410601 0.0145588 -0.0017008 -0.00127673 -0.00207508 
-0.000191286 -0.000442705 -0.000805871 -0.0111974 -0.0101234 -0.00941245 -0.00103156 -0.00288988 0.000331279 
-0.0011262 -0.00334628 -0.00369704 -0.00414211 -0.00451641 0.00127445 -0.00157897 0.00151704 -0.00179239 
0.00679773 -0.00260618 0.0288493 0.030971 0.0352612 -0.0657382 -0.0643387 -0.0690152 -0.0461386 
0.0253077 -0.00278017 -0.00535133 -0.00272764 -0.0685162 -0.0673079 -0.0768581 -0.0681221 0.0561123 
0.0382582 -0.0130515 -0.0065761 -0.0310051 0.0203225 0.0270542 0.0237216 0.0309127 -0.0189512 
-0.0250486 -0.00760046 -0.00788652 -0.0118022 0.0283052 0.0267323 -0.0607975 -0.0280323 -0.006272 
0.0315744 0.0281321 0.0117759 0.0123824 0.0147772 0.000656716 0.0450067 0.0583281 0.0516443 
0.0360982 0.0140169 0.013903 0.015575 0.0481005 0.0538775 0.0442809 0.0495299 -0.0184117 
-0.00917674 -0.0411709 0.00614895 0.00441491 -0.00513714 -0.0036583 -0.00427671 0.0224898 0.0182868 
0.0232316 0.0175768 0.0165501 0.0436531 0.0455521 0.00102028 0.00082695 -0.00761621 0.019278 
0.00579871 0.0156208 -0.137361 -0.160027 -1.59225e-05 -0.05739 -0.0111796 -0.0101782 -0.0122692 
0.0126847 0.00237797 0.00236829 -0.000755033 -0.000974662 -0.000459712 0.0476874 0.039167 0.0565316 
0.0550563 -0.00209502 0.00316328 -0.00555611 0.0558013 0.0683331 0.00440788 0.0086987 -0.00107487 
0.00590415 0.00278732 0.00477768 0.00539124 0.00435926 0.00492383 0.00824233 0.00855078 0.0122009 
0.0125376 -0.00257322 0.00134394 -0.000937893 0.000957234 0.00408919 0.00271871 0.00256362 -0.00389824 
-0.00432847 -0.00415964 -0.00464898 0.0108176 0.00719259 0.00421481 0.00930199 0.00953161 -0.00098984 
0.00340059 0.00220788 0.0016236 0.00156478 0.016933 0.0130305 -0.00426334 -0.00320827 -0.00352505 
-0.000326798 -0.000605878 -3.98165e-05 -0.000389895 -0.000406384 -0.000507964 0.00652571 0.00138914 0.00704727 
0.012877 -0.0126667 -0.010061 -0.00973204 -0.00720984 0.00996623 -0.000117214 0.000471526 0.00234906 
-0.000176107 0.00175106 0.000459498 -0.00343512 -0.00309924 -0.00380929 -0.055883 -0.0564445 -0.0520218 
0.000477454 0.000299629 0.00980252 0.00387986 0.00470311 0.0331071 0.0310003 0.0260513 9.47912e-05 
0.000141075 0.000317439 0.0697585 0.0643987 0.00201872 0.00104813 0.000503886 -0.0384192 0.00750504 
0.00636863 0.0086614 0.0500205 0.0501288 0.043235 0.00834166 0.000141936 0.000309347 0.000156876 
0.0113887 0.00863888 0.0784739 0.00770931 0.00538876 0.00691084 -0.000311465 -0.00532402 -0.00210778 
-0.001319 -0.00249881 -0.00331478 -0.0031722 -0.00266779 -0.00133197 -0.000300418 -0.000148629 0.0515825 
0.000606149 0.000843231 -3.47385e-05 0.00045209 0.00195432 0.000904786 0.00303351 0.00210634 0.0133655 
0.00179332 0.00205738 0.00134915 0.00159788 0.00434925 0.00835109 0.00975204 0.00916659 -0.00464208 
-0.00416442 -0.00365466 -0.00257247 -0.00108354 0.0120828 0.0146802 0.0105575 0.0127936 -0.00855155 
-0.00637804 -0.00559054 -0.00539304 -0.00464534 -0.0106232 -0.014157 0.141742 0.0968283 0.00213593 
0.00611978 0.000701155 -0.00326882 0.00512224 0.00452123 0.00446986 0.00408566 0.00124152 0.00109999 
0.00086311 -4.12156e-05 -0.000209539 -0.00103113 -0.000776525 -0.000745631 -0.0741768 -0.135456 -0.0693916 
0.0547615 0.0472582 0.0567276 0.0849023 0.080753 0.0654083 0.00164081 -0.000593673 -0.00128751 
-0.000717918 0.0144411 -0.00010704 0.0400012 -0.050455 0.0840485 -0.0757406 -0.0813117 -0.0831926 
-0.0281023 -0.0197338 -0.0219159 0.013771 0.0165383 0.00219975 0.00257471 0.0027304 0.0107949 
0.00602015 0.00145853 0.0412879 0.0473034 0.0431629 0.0199807 0.0129294 0.0132445 0.021611 
0.0240838 0.0626363 0.0640523 0.0185059 0.0176763 0.00359749 0.00420274 0.00428957 0.0035545 
0.00571275 0.0600625 0.0529197 0.0512521 0.00225078 0.004429 0.0130193 0.0118003 0.0498855 
0.0582275 -0.0013678 -0.000710543 -0.000489228 0.0772177 -0.0401498 0.0557607 0.0492649 -0.0547757 
-0.00634569 -0.00990168 0.0141803 0.0158287 0.0162332 0.0376597 0.0373046 0.0351683 -0.000143461 
-0.000390753 0.0112042 0.0126172 0.00948628 -0.00331072 0.00037646 0.0108438 0.0133385 0.0103456 
0.0132303 0.0352186 0.0384469 0.0293683 0.0325652 -0.00187678 -0.00171123 -0.0172954 -0.0146761 
-0.0175751 -0.0148478 0.0610977 0.0523079 -0.0134643 -0.0165298 -0.0142573 0.0488309 0.0579455 
0.0249798 0.0251256 0.021548 0.080563 0.0618568 0.0338659 0.0410109 0.0442979 -0.000570444 
0.00144151 0.00178899 0.0038561 0.0167976 0.0213535 0.000367863 0.0016267 -0.000621015 -0.0039059 
0.0396371 0.0421218 0.033691 0.0231213 0.000423652 0.00034138 0.000650531 0.000849343 0.000708219 
0.00172128 0.0176314 0.0193117 0.0211526 0.0246965 0.0224613 0.0303147 0.0284558 0.00779808 
0.0101174 0.0090391 0.0112677 0.0216732 0.0181473 0.0241093 0.0035199 0.00307203 0.00282885 
0.00548453 0.00436756 0.00345895 0.00400037 -0.0160445 -0.000234745 -0.000105654 -0.000149614 0.0167023 
0.016724 0.0169188 -0.00565345 -0.00329816 -0.00256711 -0.00583264 -0.0170545 0.00103295 0.00566191 
0.0128389 0.0064788 0.0059944 0.0199521 0.0178454 0.00697078 0.00809835 0.0108908 -0.00869558 
-0.0228726 -0.0285215 -0.0302007 0.00565463 -0.00186617 -0.00554973 0.000891062 0.0265927 0.0240124 
0.0310368 -0.00618724 -0.00113607 0.0679507 -0.0204769 -0.0200002 -0.0172985 -0.0168205 -0.00837123 
-0.0101439 0.00302745 0.0184886 0.0187125 0.0219091 -0.121994 -0.144367 -0.113302 0.000505832 
0.00173563 -0.00385864 0.0043455 0.00719037 0.00114179 0.0611485 0.00671498 0.022178 0.0174362 
0.0180874 0.0172804 -0.0494856 -0.0443054 0.00717077 0.00228624 0.0215178 0.0180225 0.00400728 
0.00406479 0.0565205 0.0556594 0.0551603 -5.66577e-05 0.00342996 0.0040864 -0.00516929 -0.0049153 
-0.00584489 -0.00036407 -0.000402465 -0.00031582 0.00548933 -0.00228333 -0.00251016 -0.00210344 -0.0032984 
-0.00129312 -0.00205936 0.0174873 -0.00331991 -0.00284526 -0.00233371 0.000895663 0.00410211 6.42239e-05 
-0.000859686 0.00300769 0.00369667 -0.0105002 -0.013455 -0.0368957 -0.0379202 -0.0419987 0.0129675 
0.0104375 0.00971003 0.0404064 -0.0358047 -0.0413817 0.0257376 0.0301066 0.0324281 0.0747356 
0.0781954 0.0716931 0.0642143 0.0684801 -0.000432039 -0.000205751 0.0541902 0.05351 -0.00334876 
-0.00205467 -0.00361989 -0.00229671 0.0352783 0.0381183 0.0525967 0.0481734 0.0532107 0.0130387 
0.012202 0.0150247 0.0201297 0.0431939 0.041337 0.0444806 -0.000143743 -0.0136171 -0.000312329 
-0.000294482 0.0111297 0.0106162 0.0116835 0.0142909 0.0122838 0.0126347 0.0300264 0.037433 
0.00364337 0.00978059 0.00983685 0.0121749 0.0123021 -0.0600452 -0.0595672 -0.063866 0.026411 
0.0152645 0.0219109 0.0326154 0.0366493 0.0418469 0.0054209 0.00423381 0.0321661 0.00627622 
0.0271149 0.0124092 0.0172931 0.0130488 0.0140471 0.0199405 0.0464172 0.0525759 0.0617993 
0.0531503 -0.000532647 -0.00050521 -0.000476686 -0.000457139 0.0480319 0.050354 0.0426244 -0.0124214 
-0.000313534 -0.000469341 -0.00055251 0.0480675 -0.00441207 -0.000153402 0.0464897 0.0389874 0.0340453 
0.0455638 0.0202781 0.0182856 0.0583364 -0.000363118 0.00506268 -0.00334817 -0.0029944 -0.00298115 
-0.00270308 0.00572172 0.00521867 0.00472964 0.0195256 0.0171956 0.00169565 0.00126327 0.00190697 
0.00243425 0.00190787 9.33594e-05 0.0648704 -0.000667657 -0.000559836 -0.000616674 0.00110882 0.00115423 
0.00141147 -0.000907536 0.0193704 0.0240456 -0.000301516 -0.00140862 0.0628636 -0.0128035 -0.00333916 
0.101434 0.0989153 0.0606932 0.0680576 -0.00549233 -0.00540484 -0.00586226 -0.00546358 -0.00581701 
-0.00581971 0.0254682 -0.00476108 -0.00475261 -0.000611591 -0.000660516 -0.00568515 -0.00156077 -0.00075828 
0.011769 0.0137475 -0.0298016 -0.0213958 -0.0360926 0.0236949 0.0229709 0.0206575 9.06978e-05 
-0.00431905 -0.00507037 -0.00437409 -0.00116752 -0.000981709 -0.00145985 -0.00279317 -0.00359324 -0.00398672 
-0.0527111 -0.0855812 -0.0433868 -0.0808309 0.0543924 0.0687928 -0.019241 -0.0207538 -0.0180702 
0.010018 0.00122784 0.00400188 -0.00448069 0.000377063 -0.0243465 -0.0261876 0.0152097 -0.0334186 
0.0352413 0.0274488 0.0280487 0.00856905 0.00585999 0.0155161 0.0160615 0.008877 0.00801138 
0.00742891 0.00664629 0.00775992 0.000798128 0.000729428 0.00194125 0.00230047 -0.0410333 -0.0356505 
-8.18699e-05 -0.0769648 -0.0419015 0.0116532 0.0109497 0.0523639 0.00274619 0.00150968 0.0283659 
0.0287884 0.0252439 0.0288034 0.0254085 0.0219526 0.0220692 0.018768 0.0638271 0.0611086 
0.00245085 0.000171327 -0.00401042 -0.00431136 -0.00487947 0.0194534 0.0231279 0.103896 0.101141 
0.10195 -0.0129253 -0.0122423 0.00928636 0.00767954 0.00252124 0.00362805 0.00160845 0.00255191 
0.00224155 0.00114473 -0.00399368 0.00391293 -0.00465504 -0.00665745 -0.0036699 -0.00295267 0.00797232 
0.00710357 -0.000357577 0.000879053 0.0254124 -0.00597466 -0.00642027 0.0256096 0.0394547 -0.00324135 
0.0143649 0.0165836 0.0189906 -0.000408777 -0.0129252 -0.0126905 0.0305773 0.0366203 0.0365485 
-0.134961 -0.0321399 -0.025573 -0.000583585 0.00467536 -0.0399107 0.00316638 0.0134599 0.00403272 
0.00434284 -0.0359259 -0.000565986 -0.0477079 0.000310474 0.000547133 -0.0176166 -0.0204612 -0.015221 
-0.018313 -0.0196129 -0.0134392 -0.00858332 0.00811303 0.00456432 -0.0132406 0.00889064 0.00788521 
0.0131429 0.0140236 0.00177594 0.00241678 -0.00659324 -0.00609701 -0.00021913 0.000615329 0.0205267 
-0.00375959 -0.00491907 -0.00644789 -0.00278296 -0.0417621 0.00383305 -0.0110813 -0.0147046 0.0155777 
0.00739195 0.00887264 0.00684786 0.0395987 0.00138534 0.00173447 0.00123185 0.0617333 -0.0548536 
-0.000696944 0.018978 0.0159071 0.0316546 -0.00150146 -0.00255296 0.000708616 -3.69924e-05 -0.0118146 
-0.0127531 -0.013204 -0.0141627 0.0112141 0.0171111 0.00806018 0.013367 0.000479975 0.00979979 
0.0294732 0.0190938 -1.636e-05 -0.000702981 0.000276706 0.00923495 0.016462 0.0165161 -0.00268794 
-0.00198691 0.00167222 0.00100971 0.00148641 0.0143606 0.0156254 0.00994204 -0.0194356 -0.00388117 
-0.0032241 -0.00239693 -0.00318832 -0.00101728 -0.00244152 -0.000198141 -0.000203668 -0.000111283 -0.000571038 
0.000212584 -0.0200271 -0.0174437 -0.0198778 0.0668746 -0.00150674 -0.00285648 0.0669757 0.00291061 
0.00557493 0.00733576 0.00625273 0.0374481 0.049938 -0.00698559 -0.00743752 -0.00794301 -0.00734553 
0.0110124 0.00837784 0.00555854 0.00456207 0.0128247 0.015179 0.0116672 0.00101733 -0.000812827 
0.00391803 0.00209567 -0.0370834 -0.0670339 0.0190075 0.03125 0.0167091 0.0176714 0.0195529 
0.0212055 0.00717089 -0.0151353 -0.0115253 -0.0134179 0.00390123 0.00412306 0.00444189 0.0101304 
-0.0041267 -0.00374443 -0.00120172 -0.00320777 -0.00241121 -0.00196298 -0.000109649 0.000566911 0.002187 
0.00266689 0.00214966 -0.00015395 0.00187898 -0.0528739 -0.0391743 -0.000219674 -0.00456823 -0.00352447 
-0.00384466 -0.00273209 0.000418945 0.00406876 -0.00488331 -0.00383029 -0.00339338 -0.0192989 -0.0228454 
0.0564297 -0.00146043 -0.00208604 -0.00202584 -0.00145056 -0.00693858 -0.000370964 -0.00923993 0.0351228 
0.0291901 -0.00387142 0.0696643 0.0225388 0.0102515 0.00908452 0.011919 0.0199348 0.0204712 
0.0236812 0.0207374 -0.000550511 -0.000617461 0.0104003 0.0134147 0.000862216 6.89506e-06 0.000696551 
0.00375867 -0.0147791 -0.0154842 -0.0127078 0.00240299 0.00213308 0.00187464 0.0130691 0.0149623 
0.016275 -0.000391581 -0.000336203 -0.000430305 0.148762 0.120949 -0.00043407 -0.000550058 -0.00221332 
-0.00290518 0.0265107 0.0184718 0.00890068 0.0145193 0.0322642 0.00571124 -0.0890095 -0.0442942 
0.00812078 -0.0244803 -0.026285 0.00333015 0.00274732 0.000493315 -0.000516184 -0.000373917 -0.0155464 
-0.0164001 -0.0172122 0.000490882 -0.000163129 0.000198165 0.0129547 -0.000568648 0.00315639 0.00432627 
0.00822765 0.012573 0.0101658 0.00590624 -0.0909799 -0.0882257 -0.0024024 -0.00215733 0.00368963 
0.0145883 0.008223 -5.63383e-05 0.00190107 0.00228171 0.0572489 0.00496573 0.0043985 0.000520822 
-0.00357179 -0.00450623 0.0395152 0.0422526 0.0441815 0.0658027 0.101129 0.0865159 0.0157936 
0.0474007 0.0519315 0.0384143 0.0455017 0.0385538 -0.000263162 -0.021115 -0.0390953 -0.0480311 
-0.0392035 -0.0202572 0.00106665 0.000602126 0.0183212 0.00487331 0.025812 0.000377729 -0.000117715 
0.00591476 0.00591578 0.0138301 0.0123963 0.00024371 0.00100586 -0.00111941 0.00384329 0.00439667 
0.00460361 -0.00373826 -0.00330261 -0.00397208 0.0300926 0.00380859 0.00839208 0.00866551 0.00527734 
0.00655727 0.00428338 -0.0110283 -0.0150608 -0.00872737 0.0943238 -0.00561337 -0.00626972 -0.0113195 
0.00164495 0.00294577 -0.00839011 -0.00832914 -0.00701447 0.0290403 0.0325815 0.00126688 0.00225624 
-0.00120175 -0.0263596 -0.0358396 -0.00503101 -0.00961281 -0.0130364 0.00057868 0.0053874 0.02207 
0.0250947 -0.00358962 -0.00321483 3.91597e-05 -9.1394e-05 -7.48766e-05 -0.000155105 -0.0090744 0.00136236 
0.00804906 0.00878002 0.00911644 0.00622168 0.0059894 -0.00510259 0.00137392 0.00414813 -0.000196108 
-0.000403084 0.0014273 0.0439418 -0.020678 -0.0171671 -0.0139714 -0.0143921 0.00820004 0.00893189 
0.00798003 0.040701 0.0251398 0.0227786 0.0293629 0.0358287 0.0251954 0.0311119 0.0383735 
0.00313261 0.0159948 0.0190704 0.0118092 0.0109683 0.0147122 0.0160628 0.000568662 -0.0511239 
-0.0798448 0.000978902 -0.00169767 0.0371458 0.00673769 0.026457 0.0467158 0.066557 0.0286905 
0.0229433 0.0178992 0.0223889 0.0477882 0.0238575 -0.00612179 -0.00658473 -0.00579325 0.00522296 
0.0351197 0.104673 0.0162254 0.0722081 0.0229777 0.0547115 0.06491 -0.0523011 -0.0689633 
-1.47627e-05 -0.0899404 0.00249597 0.025434 0.00672788 -0.0140793 -0.0222761 -0.020782 -0.00479987 
-0.00521179 -0.00982112 0.0471733 -0.000118515 -0.00240276 -0.0115988 -0.0105119 0.0117705 0.00753347 
0.00793688 0.00834473 -0.0384755 -0.0316969 -0.0360269 -0.014649 -0.00178668 -0.00194636 0.0126108 
0.0119891 0.00928433 0.00841901 -0.00120771 -0.003695 -0.00147601 0.0117593 0.00933322 0.0029333 
0.000542315 0.0246192 0.00933315 0.0238536 0.0322226 0.0255888 0.0405262 0.0444997 0.0150563 
0.0129583 -3.59521e-05 0.0506366 0.049454 0.00916149 -0.000337835 -0.000220809 -0.00052022 0.000785969 
0.00079017 0.00734438 0.0257955 0.0190718 -0.000142706 -0.000151322 -0.000275545 -0.000420691 -0.000528625 
0.00317828 0.00584665 -0.0344196 -0.0282056 -0.023304 0.0111883 0.0141678 -0.00179621 -0.00226183 
-0.00251873 0.0140889 0.0530275 0.0524118 -0.0009409 0.0133536 0.0128928 0.00173094 0.0016374 
0.00218795 0.00254569 0.00231888 0.00270169 0.00668267 0.00413526 0.0099177 0.025791 0.036073 
0.0297088 0.028759 0.0361791 0.025817 0.0285313 -0.00345592 -0.00266315 0.00867046 0.0102849 
-0.000703703 -0.00287089 0.00107073 -0.000256291 -0.00336052 -0.00289458 -0.00363287 -0.00427449 -0.00414105 
0.010112 -0.00260947 -0.00821856 -0.00131133 -0.00304831 -0.00890112 -0.00924565 0.00833644 0.0330491 
0.0396674 0.0311336 0.0139165 0.0144967 0.0148546 0.0585757 0.0376138 -0.0718625 -0.0129139 
-0.0103163 -0.0140277 -0.0271941 -0.0269216 -0.0256584 0.0527168 0.053524 0.0140401 0.0153649 
0.0110551 0.0128997 0.00779156 0.0106355 0.0461728 0.0162817 0.0212685 0.0159354 0.0150318 
0.0162957 -0.0184984 0.00213579 -0.00699833 0.00346132 0.00316348 -0.00254662 0.00178679 -0.0316328 
-0.0200148 -0.000346836 -0.000876727 -0.000566591 0.0134049 -0.00262536 -0.00143748 -0.00126428 -0.0301938 
-0.0341458 -0.0247699 -0.0289568 -0.0261609 -0.00882265 -0.0129889 -0.0148282 -0.0119077 -0.0148922 
-0.0176708 -0.0170244 0.015736 0.0150487 0.0142227 0.0146611 0.0262254 0.00863979 -0.00267973 
0.00220741 0.00334825 0.00651553 0.0126027 -0.0052348 0.00879481 0.0121235 0.0232335 0.0360897 
-0.0313563 0.0154294 0.0133014 0.0025169 0.00224564 0.0308948 0.00341407 0.00457367 0.0122341 
0.0567119 0.00086356 0.00957834 0.00515821 0.0175745 -0.00287489 -0.010109 -0.00118478 -0.00313751 
-0.0037832 0.00282288 0.00415443 0.00287757 0.00402051 0.0029845 -0.00112907 -0.00171819 0.0561548 
0.00346947 -0.0104006 -0.00549978 -0.00973636 -0.00731407 -0.0129248 0.00511235 -0.0166144 -0.0138141 
0.035451 -0.0938434 -0.000130476 -0.000402866 -0.000677822 0.0805864 -0.000854963 0.084584 0.0347677 
9.70786e-05 0.0401953 -0.00457407 -0.00551513 -0.00416145 0.025729 0.0275588 0.00418172 0.00540114 
0.0173211 0.0466443 -0.0140229 0.0174921 0.0132147 -0.00081446 -0.000342503 -0.0232778 -0.0240861 
-0.0195773 0.00534522 0.00229782 0.0529426 -0.0138797 0.0583387 -0.0185253 -0.00371432 0.0240115 
0.0252067 0.0319762 0.00298816 0.0193274 0.00543413 0.0135572 0.015176 -0.00213735 -0.00262347 
-0.0436768 -0.00708772 -0.00367258 -0.00462599 0.0246928 0.000667149 0.00025859 0.0413001 0.066114 
0.0271913 0.0148239 0.0110184 0.00820298 0.0113953 0.0223558 0.00352589 0.0061536 -0.00453824 
0.00290059 0.00151825 -0.007023 0.00816508 0.00971649 -0.0035202 0.0491559 -0.00720231 0.00859637 
0.0162183 0.015403 -0.00289344 -0.00174461 -0.000537503 -9.20801e-05 0.00139563 0.042963 0.0371479 
0.0429819 0.0222097 -0.00144612 -0.051381 -0.0105092 0.0250845 0.03374 0.0427065 -0.00074345 
-0.00116168 7.56661e-06 0.00273282 0.0305302 0.0281172 -0.0386898 -0.0731561 -0.00207288 0.0137412 
0.0123344 0.0037073 -0.00447104 -0.0204894 0.00998787 0.000481072 0.000439751 -0.0335813 -0.00777633 
-0.010862 0.055343 0.0719307 0.00406678 0.00432028 0.00760159 -0.0140915 -0.0204455 0.0835756 
0.0253581 0.0081867 0.00943998 0.00951499 -0.000321391 -0.00133257 -0.129525 0.00549744 -0.0193554 
0.00797146 0.0882487 0.000378685 0.0310199 -0.00419259 0.0208868 0.0266975 -0.0088177 -0.0116739 
0.0402983 0.0339845 0.0490796 0.0384349 -0.000392543 -0.000138398 0.00418143 -0.00558282 -0.00571293 
-0.00534676 -0.0530873 0.00225228 0.000297311 0.000702449 0.0034429 -0.000574174 0.0471127 0.0160724 
0.03045 0.0793431 -0.018725 -0.00925409 -0.00275799 0.0260547 0.0339161 -0.0157838 -0.00522404 
-0.000832914 0.0619504 0.062828 0.00134467 -0.00832471 0.00704723 0.0109504 -0.00529751 -0.00949225 
0.000252904 0.000299465 -0.00333482 -0.00679648 -0.00354399 -0.000326788 -0.0124345 -0.000562396 -0.000768265 
-0.00070751 0.0144372 -0.00105155 -0.0476076 -0.0555192 -0.00514034 -0.000711307 0.0011696 0.00180855 
0.0152596 0.0131684 0.00727944 0.0358061 0.0157248 -0.0419939 0.0429621 -0.0687917 0.0113566 
-0.0124341 0.066164 0.0914662 0.0439298 0.0433282 0.0366499 0.0655642 0.0252964 0.0561013 
0.00130044 0.00172531 0.000717465 0.00980614 0.0215385 0.00865164 -0.0906436 0.00493248 0.00505818 
-0.0506499 -0.0140097 0.0223243 0.074606 0.0712037 0.0018834 0.0422871 -0.114938 -0.0270512 
0.00878971 0.0059176 -0.000806631 0.0156634 0.0201481 -0.00643029 -0.00191324 0.0112057 0.0475746 
-0.0276116 0.00978167 0.00895832 0.00443733 0.0167293 0.0202378 0.0444589 0.00854456 0.00553235 
0.0087902 0.0463246 -0.000368335 -0.00544343 0.0060618 0.00694681 0.0381373 0.0572493 -0.0126937 
-0.0170422 -0.00237689 -0.00770573 -0.0208134 0.00393909 -0.0135752 0.0184851 0.0033085 0.0544398 
-0.000599378 0.0143463 -0.00250309 0.071843 0.00329775 0.0504635 0.00958099 0.0111825 0.0129112 
0.0166345 0.0243741 -0.076803 0.000427666 0.00594249 0.00591008 0.0170699 0.0137637 -0.00136595 
0.00133054 -0.0162397 0.00606583 -0.0172619 -0.0151575 0.00175449 -0.000311963 0.00657049 -0.00932885 
-0.00895111 -0.0118134 0.00752032 -0.0230696 -0.0231417 -0.0262967 -0.0260844 0.00602845 -0.00667987 
0.00744855 -0.0198457 -0.0139708 -0.045728 -0.0296268 -0.00732764 0.0494648 -0.0156885 -0.0588665 
0.0283752 -0.0407057 -0.0108313 0.0242634 0.048405 0.0108285 0.0109665 -0.00186093 -0.00768617 
-0.00371582 -0.0228866 0.00555909 0.00529543 0.0416526 -0.00240795 0.00632434 0.0169241 0.0774517 
0.00249929 0.0256436 0.0285512 0.0659962 0.0268401 -0.00327497 0.0154746 -0.00493354 0.0336001 
-0.0242202 -0.0214029 0.00136523 0.0100204 0.0155688 0.0108913 -0.0125422 0.0557859 0.00177231 
0.00292108 0.016891 -0.0166892 0.0378651 0.0353557 0.0498146 0.0161451 0.00839928 0.0108559 
0.0152752 0.0129524 0.0151242 0.00364693 0.0170509 0.00897929 0.00814879 0.0139308 -0.000738191 
0.0281161 -0.0268181 -0.0225486 0.0571117 0.0674365 0.0505789 -0.00388463 0.0660103 0.0471916 
-0.00202647 -0.00338643 -0.00574143 -0.0605845 -0.00800802 0.0673475 0.00583511 0.0300403 -0.00175242 
-0.00187579 -0.0146392 -0.0347282 -0.00149217 0.00236952 0.00708422 0.0579462 0.0077474 0.00787181 
0.0201393 0.0438592 0.00140157 0.0186644 0.0114961 -0.000540426 -0.000712233 0.00116663 0.00148875 
-0.0146528 0.002339 0.0305732 0.00109756 0.00342501 0.00775776 0.0149759 0.00315805 0.000620597 
-0.0284923 0.00858192 0.0193513 0.0167498 -0.0217518 -0.00480628 0.0059639 0.0544551 0.0156272 
-0.000315328 -0.0115567 0.00275237 0.00307188 -0.00449211 -0.0101458 -0.0187937 -0.0292984 -0.00174602 
0.0109048 0.0148513 0.011086 -0.149394 -0.123978 -0.124491 -0.0328787 0.0167554 -0.0764801 
0.00622627 -0.00773361 -0.0104496 0.0115234 0.0132159 0.023875 0.0136931 0.075593 
Strain%20xz%20component 1 8918 double
0.0379887 -2.3233e-08 -1.10844e-08 0.0377719 -1.72406e-06 6.05417e-07 -1.13533e-05 7.69774e-06 0.0182259 
-0.0185674 -0.00941593 -0.00104848 -0.0237246 0.0235499 0.0093959 -0.00249174 0.007613 -0.000576889 
0.00303786 0.000463759 0.000509589 -0.000771643 -1.54965e-07 0.000784948 0.00124911 0.000201154 0.000841926 
2.3833e-05 0.000529595 -0.000347204 -0.00165306 -0.000966775 0.00074886 -0.000252351 -0.00079556 -0.000481242 
0.00110199 -0.00166247 -0.000626318 -0.00183372 0.00127722 0.000919859 0.00222675 -0.000939331 -0.00183846 
0.00022179 0.00158425 0.00387085 0.00102613 -0.00091557 -0.00155157 -0.000603955 0.00347952 -0.000564987 
-0.00357813 -0.00494717 -0.00136769 0.00346479 0.00285914 6.72193e-05 -0.00165913 -0.00110997 0.00442254 
9.36628e-06 -1.96817e-05 5.55844e-06 5.77151e-06 6.74765e-06 5.768e-06 1.11075e-05 2.06671e-07 -3.10985e-06 
9.57199e-07 -7.47182e-06 -5.58229e-06 -1.50958e-05 -9.4276e-06 -7.87532e-06 -1.15818e-05 -9.44157e-06 -7.8235e-06 
-2.58513e-06 -4.46377e-06 -2.79404e-06 -2.95058e-06 1.76518e-06 5.62237e-07 4.39925e-07 3.41138e-06 1.13732e-06 
-3.2243e-06 -0.0207659 -0.00111064 -0.000157559 -0.000205674 -0.000120961 8.83046e-06 -4.16244e-05 -3.0723e-05 
-3.13384e-05 -2.30456e-05 -1.56301e-05 -1.89811e-05 6.18002e-06 -7.93133e-06 -6.94692e-06 5.07697e-06 1.98054e-06 
8.47996e-06 1.78121e-05 1.40243e-05 2.88702e-05 2.14685e-05 2.28948e-05 2.89221e-05 3.17265e-05 3.07441e-05 
2.50382e-05 3.12668e-05 -1.53752e-05 -5.49352e-05 -6.6495e-05 -8.07684e-05 -5.66889e-05 -1.64475e-05 -6.02563e-06 
1.28681e-05 1.88941e-05 2.30321e-05 1.6186e-05 1.8048e-05 1.96469e-05 1.83046e-05 -8.75555e-06 2.10845e-06 
1.98227e-05 8.90554e-07 8.43065e-07 -1.86591e-08 -3.20901e-07 -1.21613e-06 3.28877e-06 1.43797e-05 3.0258e-06 
-1.21892e-06 5.15453e-06 4.60346e-06 -6.67939e-06 -7.54627e-06 2.05254e-06 -5.48466e-06 2.21845e-05 4.1227e-05 
5.14572e-05 0.000540594 0.000866252 0.00838521 -0.00950676 -0.00748245 -0.00713332 -0.00828857 -0.00840728 
-0.00777152 -0.0086301 -0.0086439 -0.0102465 -0.00856736 -0.00838481 -0.0128451 0.0105061 0.0105923 
0.0126675 0.00855415 0.00905226 0.01009 0.00872249 0.00866359 0.00834003 0.0077661 0.0122169 
0.013222 0.0102129 1.68307e-06 5.04278e-06 -9.21698e-06 -1.01741e-05 -6.67555e-06 -4.81011e-06 -1.66045e-06 
-2.1251e-06 -1.10805e-06 -1.90654e-06 2.7228e-06 -1.149e-06 -2.99056e-06 -1.14337e-06 -7.26011e-07 -3.77933e-06 
-4.57877e-06 -3.61175e-06 -6.05503e-06 -2.88065e-06 -2.04902e-06 -2.29333e-06 0.0044327 -8.88033e-05 4.7994e-05 
8.04396e-05 3.09114e-06 -2.95485e-05 1.84756e-05 1.08988e-05 -2.26485e-06 8.66299e-06 -1.58989e-05 2.82866e-06 
-2.40783e-06 -5.42052e-06 5.42844e-07 -6.33702e-06 -7.75519e-06 1.22383e-06 -5.2588e-06 -8.31142e-06 -1.03642e-05 
-1.8111e-06 -1.26897e-05 5.70406e-06 4.09158e-05 -2.76305e-05 3.85022e-05 1.65887e-05 -2.58372e-06 -1.1184e-05 
-1.20354e-05 8.07213e-06 -4.3896e-06 -6.50166e-06 7.49527e-06 -5.84544e-06 -1.32098e-06 -9.21652e-07 -2.34286e-06 
-3.89632e-07 -6.09357e-07 -2.17362e-07 -7.57297e-07 -6.41945e-06 -1.06609e-05 -2.10606e-05 -7.42767e-06 -1.5682e-05 
-1.00434e-05 -9.39719e-06 -4.57525e-05 -6.89507e-06 -2.57855e-05 -8.50232e-05 -0.000153127 5.63235e-06 -0.000365487 
-0.00320332 -0.0134704 0.0117059 0.0104298 0.0104937 0.00859225 0.0084359 0.0101216 0.00923125 
0.00867651 0.00765239 0.00815351 0.009917 0.00812905 0.00689834 -0.00732469 -0.00777978 -0.00758978 
-0.00990682 -0.00856695 -0.00726566 -0.00815872 -0.00863438 -0.00868757 -0.010257 -0.007634 -0.00727976 
-0.0116715 -5.81446e-06 -3.0466e-07 1.97675e-06 1.31637e-07 2.78498e-06 1.20138e-06 -5.09831e-06 2.35016e-06 
1.50417e-06 1.59843e-06 -6.32766e-08 1.45459e-07 1.83395e-08 -1.58524e-07 7.0877e-08 8.93915e-07 1.58409e-06 
6.31379e-07 -2.00732e-06 -7.41899e-07 8.53271e-07 8.56849e-07 2.83404e-08 1.61097e-08 5.92753e-09 1.3325e-06 
3.07406e-07 0.0025524 0.000660139 1.93988e-05 -2.95787e-05 -1.14827e-05 -6.7166e-07 2.51209e-05 2.75477e-06 
-4.54549e-06 -1.114e-06 1.36051e-06 -7.06698e-07 1.08215e-05 -5.16843e-07 -6.14131e-06 3.33506e-07 -2.38137e-06 
-5.95658e-07 -3.03257e-06 -9.00952e-06 -1.40044e-05 -1.0843e-05 -9.41557e-06 -1.18544e-05 -8.22454e-06 -6.79829e-06 
-1.31881e-05 -1.48892e-05 -5.74864e-06 9.53465e-06 4.19441e-05 3.1887e-05 1.20154e-05 1.36726e-05 -1.34293e-06 
-5.83962e-06 -1.15047e-05 -1.2133e-05 -1.07484e-05 -2.83316e-06 -1.78841e-06 -5.89556e-06 1.67673e-06 -2.14544e-07 
8.23748e-07 1.14755e-06 1.1054e-07 1.07734e-06 -1.08666e-05 -8.55497e-06 -2.17252e-05 -2.23655e-05 -1.57957e-05 
-8.36464e-06 1.14256e-05 8.69503e-06 1.13401e-05 9.87691e-06 0.000128129 -0.000213735 -0.00102633 -0.00821082 
0.000488538 -0.000437395 0.0050298 -0.00126426 -0.000648953 -0.00463398 -0.000247427 0.00487646 -0.000158984 
-0.000429055 -0.0054363 0.0002541 0.00471534 0.000460927 -0.000106621 6.04993e-05 -0.00286809 0.00405846 
0.000847896 0.000193226 0.000447906 -0.00329298 0.000929935 -0.000744202 0.00377453 0.00205204 0.00147795 
0.00196109 0.00252151 0.00213133 0.00246711 0.00247245 0.00243694 0.00257007 0.00217126 0.00251251 
-0.00336326 0.00590138 0.00246618 -0.000433394 -0.000340219 -0.00359317 -0.00160082 -0.00199979 -0.00201323 
-0.00203778 -0.00187966 -0.00146231 -0.00340096 -0.00178083 -0.0021844 -0.00460905 -0.00721357 4.99169e-07 
-1.11303e-05 -0.00015973 0.00458966 0.002525 -0.00207514 -0.00293499 -0.00212959 2.15437e-06 1.52391e-06 
1.75152e-06 -3.29852e-08 -6.04585e-06 8.50266e-07 -2.74656e-06 1.77272e-06 2.89952e-06 -1.36326e-06 -1.18962e-06 
-2.63725e-06 -1.98104e-07 6.83007e-07 4.47568e-07 -1.61597e-06 3.17411e-07 -1.36802e-06 -1.40036e-06 3.2484e-07 
-7.21734e-08 5.73497e-07 9.77709e-07 2.79039e-06 0.00036426 7.45421e-06 5.67701e-05 1.04302e-05 -1.14348e-05 
3.70446e-05 2.03219e-05 1.27383e-05 3.39297e-06 2.18781e-06 -1.46965e-06 7.16859e-06 -3.81936e-06 1.9855e-06 
-2.8944e-06 -1.01334e-06 -3.92603e-06 -1.22074e-05 -3.59349e-06 3.57313e-06 -1.58677e-06 -2.48234e-06 2.49046e-06 
3.32343e-06 -5.82544e-06 1.09688e-05 5.2601e-06 3.37013e-05 1.64649e-05 -8.78244e-06 1.45303e-05 -5.05621e-06 
-3.24786e-06 -8.48913e-06 -1.04752e-05 -5.47034e-06 8.94914e-06 -4.41848e-06 -3.92419e-06 -4.48866e-06 1.36641e-06 
1.56879e-06 2.86495e-05 3.08273e-07 -4.54267e-06 9.59708e-06 0.000116082 0.00126869 -1.19931e-05 -3.38557e-05 
-1.48659e-05 -1.68206e-05 1.00749e-05 3.20891e-05 2.26763e-05 3.29581e-05 5.62202e-06 0.000456377 -0.00145342 
0.000288524 -0.000252028 5.94741e-05 -0.000378278 -0.000588169 0.000349779 -0.000429443 0.00083659 5.00348e-05 
-0.000709932 0.000654643 -0.000404936 0.000838811 0.000209521 -0.000507763 -0.000587375 -7.11586e-05 0.000439509 
0.000538016 -5.16975e-05 -0.000585803 0.000428503 0.000153335 -0.000118408 2.89126e-05 -9.38124e-06 -1.02532e-06 
2.39006e-06 2.71844e-05 -2.32116e-05 -4.4351e-05 8.27979e-05 -0.000446725 0.00047682 5.12187e-07 -0.000272618 
-2.3347e-05 -0.000279896 -0.000443949 -2.29875e-05 1.81148e-05 2.15689e-05 -5.25817e-05 -5.52932e-05 -0.000279235 
-0.000379381 -0.000203878 1.08306e-06 4.57639e-06 -5.11873e-05 -2.16483e-06 0.00105218 7.91509e-05 -0.000566634 
0.000498786 -0.00028681 0.000189978 0.000374492 -0.000636871 -0.000152167 -0.000217463 0.000342131 3.52506e-06 
2.92731e-06 -5.56696e-06 -1.19962e-06 4.04521e-06 -3.44404e-06 2.52858e-06 1.95336e-06 -3.44699e-09 -3.66171e-06 
-7.65073e-07 6.85538e-07 3.55994e-07 -1.43886e-06 -8.60202e-08 5.19134e-07 -2.24649e-06 -1.17973e-06 -7.54308e-07 
-1.04031e-06 2.27293e-06 6.08952e-05 5.41261e-06 1.32471e-05 -3.47511e-05 -1.69006e-05 -1.63991e-06 1.88986e-05 
2.81724e-05 -2.65071e-06 1.52325e-06 -8.51158e-06 2.19189e-06 -1.05272e-06 -1.60994e-06 7.41751e-06 -3.46278e-06 
5.05733e-07 -1.12985e-05 -3.91959e-06 8.86442e-06 4.69685e-07 1.05061e-05 8.21241e-06 2.37277e-05 -1.32282e-05 
6.47236e-07 2.53791e-05 2.46667e-05 -1.4125e-05 6.60519e-05 1.10184e-05 -7.72969e-06 -1.13468e-05 -1.22374e-05 
-1.01712e-05 3.81559e-06 8.05675e-06 6.18996e-07 6.91431e-06 -6.91496e-07 2.77738e-06 -0.000147577 4.27243e-05 
-9.28705e-07 -1.64302e-06 -8.99992e-07 5.40464e-07 7.6356e-05 -8.66129e-05 2.76717e-06 6.45785e-05 5.57506e-05 
1.44798e-05 0.000110873 -3.64005e-05 2.71694e-05 -0.000391641 -5.00341e-05 0.000254908 0.000120672 1.80363e-05 
0.00012524 -5.41989e-05 -2.85863e-05 2.10929e-06 -4.55177e-05 5.80024e-05 1.40773e-05 -2.82052e-05 1.62025e-05 
3.09388e-05 4.21468e-05 4.56812e-05 -4.74873e-05 -3.28528e-05 3.649e-06 -0.000100179 3.19649e-05 -3.59851e-05 
4.48578e-06 5.55167e-08 1.45038e-05 -5.9205e-06 1.18362e-05 -0.000109139 -1.95384e-05 8.86126e-05 2.94504e-05 
1.82215e-05 -6.24217e-06 8.44013e-06 1.29144e-05 1.08832e-05 2.29202e-05 3.35242e-05 -1.01047e-05 4.00036e-05 
-6.39942e-05 -3.56755e-05 1.95071e-05 3.08823e-05 -8.54896e-06 2.41108e-05 -7.40073e-05 8.85789e-05 9.41834e-05 
-6.73813e-08 0.000167707 -5.92327e-06 -4.45194e-06 2.26318e-06 0.000156244 5.9986e-05 -8.78958e-05 -2.16565e-05 
1.20018e-05 -3.93697e-05 -3.54905e-06 -5.26385e-06 4.63651e-06 -2.33536e-06 -4.40346e-07 6.41755e-06 3.01322e-06 
-2.90082e-06 -4.44388e-06 5.45035e-07 1.89945e-06 -3.43533e-07 -1.11276e-06 1.25499e-07 -2.88472e-06 1.39298e-06 
6.21012e-07 -5.75545e-07 1.66468e-05 -4.44666e-07 1.42228e-05 1.02679e-05 -2.42604e-05 -5.88307e-06 -2.27254e-05 
-5.08664e-06 1.70506e-05 -7.60689e-06 1.81278e-06 -5.66634e-06 5.39183e-06 -4.6158e-06 1.0975e-06 -5.41188e-06 
1.67687e-06 -1.26925e-06 -1.93687e-05 4.63461e-06 -9.8874e-07 2.49364e-06 1.36678e-06 1.1253e-05 -1.1996e-05 
-7.42809e-05 3.5477e-05 1.93899e-05 2.14435e-05 7.40751e-06 5.12265e-06 1.36351e-05 -1.2107e-06 7.25404e-06 
-4.50911e-06 5.95136e-05 -4.05962e-05 -8.22089e-06 2.42006e-05 1.25768e-05 -3.36894e-05 1.04459e-05 5.02672e-05 
7.72262e-05 -2.22348e-06 1.85313e-05 -7.11061e-05 -3.39875e-05 2.70732e-05 -2.00546e-05 -3.24386e-05 1.70714e-06 
1.62129e-05 2.08576e-06 3.59754e-05 -1.77659e-06 -1.38404e-06 5.55879e-06 2.25695e-06 1.12405e-05 1.10443e-05 
-2.49274e-05 4.72792e-06 1.67912e-05 9.61592e-06 1.35483e-05 -7.76948e-06 -1.39723e-05 6.5295e-05 -2.09107e-05 
2.86886e-05 2.93713e-05 1.05323e-05 5.942e-06 3.39809e-05 1.20071e-05 3.25009e-06 2.16998e-05 3.81312e-06 
1.12984e-06 3.06798e-05 4.01652e-06 3.0419e-06 -1.90721e-05 1.47771e-05 7.49489e-05 8.27653e-05 9.53763e-06 
2.08286e-05 2.0238e-06 7.66573e-07 8.91134e-06 3.91754e-05 4.21018e-05 -1.16532e-05 4.95869e-06 -3.76984e-05 
-6.35041e-05 -5.73274e-07 1.17632e-05 1.53174e-05 6.43176e-05 -5.53844e-05 6.32604e-05 6.23141e-06 -9.63205e-06 
1.54241e-05 -3.99056e-06 -3.02691e-06 8.9463e-06 -3.6744e-07 1.41508e-06 -8.71263e-07 -5.70685e-07 3.30469e-07 
1.40863e-06 -1.28883e-06 2.44506e-06 -1.13284e-07 2.40771e-05 -6.64054e-06 -2.31185e-05 -1.95052e-05 4.47193e-06 
-9.63965e-06 5.00352e-06 -3.19726e-06 -1.20326e-06 3.19286e-06 -4.99448e-06 5.58331e-06 -2.28948e-06 1.61937e-06 
-5.17534e-08 5.91731e-06 7.24192e-06 0.00011394 -5.58587e-05 3.52375e-05 -2.15529e-05 1.17965e-05 7.919e-06 
1.81127e-05 -1.70509e-05 -8.16756e-05 3.12506e-06 -2.16438e-05 -3.00342e-06 -2.61599e-05 -1.6603e-05 -2.76641e-06 
6.36798e-06 1.64124e-05 -2.14875e-05 -2.26102e-05 1.63041e-05 -6.33788e-06 -2.12096e-06 1.19312e-05 -4.89018e-06 
-1.30005e-05 -3.36199e-05 9.58583e-06 3.37572e-05 1.14358e-05 -2.53845e-06 1.17737e-05 3.08704e-06 3.34889e-05 
6.30793e-06 2.0155e-05 -8.71066e-07 -2.77763e-05 5.35032e-06 8.99028e-06 -1.5425e-05 1.98852e-05 -1.63356e-07 
3.70318e-06 4.66517e-05 -3.74084e-05 -3.59442e-06 -2.15384e-05 -1.86942e-05 -3.04283e-05 1.81599e-05 -2.48881e-05 
1.7221e-05 3.81658e-06 -3.01689e-05 -4.40533e-05 6.36466e-06 -7.76644e-06 -8.05966e-06 3.79026e-06 -5.49066e-06 
1.84405e-06 -3.0188e-05 -1.50666e-05 1.70119e-05 3.82142e-05 1.88024e-06 -2.17725e-05 -3.45256e-06 3.25876e-05 
-3.859e-06 -3.02246e-06 -3.82492e-05 -1.79385e-05 1.8849e-05 -2.25367e-06 -9.34915e-06 -1.5395e-05 5.15302e-05 
-1.64153e-05 1.06885e-05 9.50376e-07 -2.18742e-06 6.73888e-06 1.68921e-06 -1.19514e-05 8.45678e-06 -5.32901e-06 
-8.43963e-06 1.00476e-05 4.91e-06 2.01678e-05 -1.71327e-05 4.70647e-05 1.79913e-05 9.54008e-07 2.51408e-06 
9.83467e-07 1.41206e-06 5.01799e-06 2.63695e-06 -3.08517e-06 -2.15934e-06 -2.0903e-06 -7.58784e-07 1.1784e-07 
-8.62859e-07 -1.43013e-06 -9.21636e-07 -3.29559e-08 1.47017e-06 1.15101e-06 6.08925e-07 -6.25019e-08 1.88025e-07 
2.82314e-07 -0.00246411 0.000299068 2.52579e-05 -1.7406e-05 -2.26812e-05 -2.39098e-05 -8.96661e-06 -2.81348e-06 
2.12984e-06 -5.3505e-06 -9.58057e-06 5.25292e-06 3.48575e-06 -7.94105e-06 -1.71755e-06 1.02022e-05 4.79353e-06 
-5.37079e-06 3.83465e-06 -3.18504e-06 -1.7353e-05 3.12174e-06 1.02814e-05 -1.0973e-05 -2.21855e-05 -5.04942e-06 
-9.69349e-06 1.49406e-06 2.25037e-06 1.39164e-05 6.02177e-06 -3.35012e-06 -3.28825e-07 1.41769e-06 4.39613e-07 
-5.06774e-07 -2.63219e-07 -3.22241e-07 -5.29583e-07 1.87185e-06 6.07558e-06 6.78613e-06 2.32507e-05 1.35191e-05 
5.61011e-06 6.48317e-06 1.24775e-05 -6.41442e-07 1.28196e-06 -1.23597e-05 -4.99455e-05 -1.29108e-05 -8.59448e-05 
-0.00402555 0.000749364 -0.00140926 0.000833892 0.000351222 -0.000433703 -0.00074358 -1.62045e-06 -0.000645872 
-0.000311011 -0.000697467 1.70868e-05 -0.000772136 -0.000719123 0.00121307 0.00123486 -0.000459241 -0.00100573 
0.000374824 -0.000268772 -0.00107335 -0.0022565 -0.00111427 -0.00194769 -0.00211322 -0.00175086 -0.00183268 
-0.0021026 -0.00233948 -0.00235398 -0.00198342 -0.00222242 -0.00162106 -0.000863719 -0.0023369 -0.0126384 
0.00131769 0.00260146 0.00371642 0.00248925 0.00222338 0.00160656 0.0013305 0.00167525 0.00188452 
0.00184418 0.00221665 0.00467324 0.000783695 0.00507903 0.00767027 2.96356e-06 0.000126133 0.00823224 
-0.00768525 -0.00332881 -0.00148865 -9.05065e-07 9.48253e-07 4.24573e-06 2.15432e-06 2.36635e-06 -2.1496e-06 
-1.29609e-06 -2.65531e-06 -3.60102e-07 -1.19013e-06 -2.01153e-06 -4.99412e-07 3.1186e-07 -6.57375e-07 8.22324e-07 
1.14557e-07 -1.20457e-07 -5.90938e-07 -7.07509e-07 3.95466e-07 3.20861e-05 4.65269e-05 -0.00039627 -1.16026e-05 
1.24838e-05 -1.11014e-05 -1.82844e-05 -5.77991e-06 2.73849e-06 -3.63335e-06 -1.35821e-06 -2.59765e-06 -3.50343e-06 
1.97596e-06 5.25975e-06 4.0569e-06 -1.82172e-06 -2.32911e-06 -6.61702e-06 4.74973e-07 -1.87942e-05 -4.40627e-06 
9.38172e-07 -4.3705e-05 3.83877e-07 2.20441e-05 2.32771e-06 1.73899e-05 1.4836e-05 2.92368e-07 3.83181e-06 
-1.879e-06 -4.89995e-06 -1.191e-06 -0.000102478 -9.70035e-07 1.29507e-06 1.0525e-06 -0.0003831 -1.54346e-06 
-2.85961e-05 -4.0788e-06 -2.54796e-07 5.5321e-05 4.0342e-05 1.59165e-05 -1.08606e-05 -3.27092e-05 -3.53295e-05 
-7.25606e-05 -0.000326401 -0.000230656 7.53367e-05 0.000142804 0.000104442 7.53055e-05 -3.33878e-06 9.74455e-05 
-7.03669e-05 6.78221e-05 2.17952e-05 1.44292e-05 6.86083e-05 5.54185e-05 5.78256e-05 -0.000155714 -9.76699e-05 
-1.37875e-05 2.98551e-05 -0.000260058 -0.000106954 -0.0012123 0.000135701 -1.64109e-05 -4.3253e-05 -2.12714e-05 
-7.77471e-06 -4.8543e-05 2.96216e-05 3.83482e-05 4.44201e-05 1.84048e-05 3.59321e-05 3.92307e-05 -0.000261997 
-0.000307897 -0.000166758 -5.4257e-05 -0.000159028 -0.000261594 -0.000232264 -0.00022606 -0.000202827 -0.000118371 
0.000297065 -4.54525e-05 0.000384513 9.61143e-07 -9.08258e-05 0.000111253 -5.82867e-05 0.000512509 -7.51414e-07 
0.000142057 6.46618e-05 -2.11335e-05 0.000240132 -4.82166e-06 -2.24474e-06 3.16392e-06 -2.69239e-06 -4.99806e-06 
-8.46959e-07 8.9714e-07 -3.22952e-06 3.73658e-07 2.99474e-07 3.88245e-07 -2.16113e-07 9.74099e-08 -4.96574e-07 
2.88964e-07 2.44788e-05 -4.09151e-06 -3.60884e-06 3.46256e-05 -3.23958e-06 -1.51849e-05 5.49533e-06 -9.35839e-06 
3.37149e-06 -2.62218e-06 1.25553e-07 -2.69998e-06 1.67007e-06 -1.14091e-06 2.1692e-06 3.87447e-06 4.45309e-06 
-6.07791e-06 -9.67824e-07 -1.19436e-06 1.01346e-05 -1.02099e-05 -2.36863e-05 6.07155e-05 -0.000177966 3.45525e-05 
1.24193e-05 1.52782e-05 1.66627e-05 6.43417e-06 -3.91742e-06 -3.24123e-06 -5.97232e-06 1.02514e-05 1.3773e-07 
0.000116489 9.04718e-06 -7.59509e-05 -1.37369e-05 4.46033e-05 -2.15634e-05 -8.03809e-06 2.51711e-06 2.23129e-05 
-1.50616e-05 -3.58799e-05 1.40347e-05 2.65957e-05 1.24792e-05 -1.17893e-05 1.55728e-05 2.75918e-05 2.82918e-05 
-1.11119e-05 -1.46493e-05 -1.78968e-05 3.64277e-05 2.52377e-05 5.90225e-05 1.71957e-05 -1.80202e-05 1.00514e-05 
-5.86644e-07 2.78135e-06 7.65346e-06 2.61241e-05 1.15763e-05 1.98558e-05 2.42889e-05 -8.66046e-06 -4.73648e-06 
-1.41169e-05 -7.15895e-06 -1.32339e-05 3.68912e-06 -1.67189e-05 -0.000123532 3.86825e-05 -3.26498e-05 2.15115e-06 
2.54196e-06 6.09388e-06 -1.64072e-05 3.9786e-05 -0.000372039 5.05638e-05 -6.73896e-06 2.79821e-06 1.70485e-06 
-8.17704e-06 2.92818e-05 4.23985e-08 -0.000200121 0.000108641 9.62728e-06 -4.20354e-06 1.77478e-05 7.04272e-05 
4.77144e-05 -1.14555e-05 0.000290912 -1.24252e-05 -3.68514e-05 -5.49789e-06 2.8109e-05 9.23017e-05 -9.25247e-06 
-4.82247e-05 1.33305e-05 -3.55921e-06 -2.09068e-06 1.47134e-07 -2.04501e-06 -2.24689e-06 7.09252e-07 -9.33989e-07 
-4.10576e-07 2.14244e-06 1.00901e-06 -5.22548e-05 5.98451e-07 4.26605e-07 2.69113e-06 1.28877e-06 -4.7346e-06 
4.02573e-06 -1.90877e-06 -1.7782e-07 9.88889e-06 1.64933e-06 -8.26159e-06 1.02793e-05 -4.58956e-06 -9.49944e-07 
-7.192e-05 2.09036e-05 -7.16413e-06 -5.25754e-06 -7.79907e-06 -5.33358e-06 -2.37161e-05 7.29379e-06 -1.45763e-05 
-4.15981e-06 -7.21341e-05 2.7192e-05 2.35119e-05 -7.84178e-05 1.82727e-05 7.36343e-05 -3.50527e-05 1.01867e-05 
-4.88165e-05 2.35089e-05 8.07136e-06 9.34059e-06 1.43067e-05 6.50588e-07 1.43419e-05 4.07622e-05 -5.45473e-06 
-2.46095e-05 -6.2184e-05 0.000113522 6.62357e-05 -5.77886e-06 -3.98737e-05 3.16486e-05 -3.33211e-06 -3.21499e-05 
-2.37044e-05 1.17786e-05 -5.11692e-05 6.43535e-05 2.15517e-06 -3.33127e-05 -3.46031e-05 -1.14916e-06 -1.27849e-05 
-1.62509e-05 -1.47067e-05 -2.3195e-06 7.27541e-06 -1.3172e-06 -1.90469e-05 -1.81112e-05 9.46225e-06 3.76e-06 
1.62607e-06 -1.977e-06 7.42212e-05 1.10306e-06 1.49556e-05 3.20644e-05 -7.72857e-05 4.64859e-06 4.74619e-05 
8.80304e-06 -6.51175e-05 3.15505e-06 1.32475e-05 4.78141e-05 6.67051e-06 4.64037e-05 -7.43008e-05 6.11996e-06 
1.34277e-06 -1.2758e-06 1.62802e-06 -1.89323e-06 3.77655e-07 -4.97238e-07 1.84778e-05 -2.3609e-05 -3.73981e-05 
-7.27629e-06 1.05166e-05 -7.47731e-06 -3.50433e-07 4.43715e-06 -1.25146e-05 -6.50883e-07 2.84377e-05 -5.09952e-05 
-5.7605e-06 -1.81846e-06 -2.31519e-05 -1.39112e-05 -4.21564e-06 -2.27976e-05 4.51527e-05 4.18573e-05 -1.10195e-05 
1.82723e-05 7.89251e-07 -1.37225e-05 -1.59903e-05 1.89371e-05 4.49597e-07 1.94593e-05 2.85823e-05 1.56666e-05 
1.71844e-05 1.77792e-05 2.99997e-05 -1.24556e-06 -7.02818e-07 -5.11515e-05 3.74867e-05 1.78852e-05 1.15053e-05 
0.000120053 -7.16576e-06 -9.96786e-06 -6.28377e-07 -5.86885e-06 2.0432e-05 1.08332e-05 1.59779e-05 1.1234e-05 
1.72136e-05 -2.17733e-05 1.22064e-05 5.91556e-06 1.09632e-06 -1.74855e-05 -1.32009e-05 -8.76003e-06 -7.41183e-07 
-5.39356e-05 -5.85048e-06 5.08093e-07 -1.1542e-05 6.92873e-07 -2.46448e-06 1.11547e-05 -3.64427e-05 -5.27318e-06 
2.26061e-05 1.1809e-05 -4.57568e-06 -5.59319e-06 -1.24053e-05 -5.35076e-05 -2.06561e-05 9.7686e-05 4.36242e-06 
3.0688e-05 -5.04994e-05 1.07276e-05 5.89127e-06 -2.23482e-07 2.27821e-05 -2.46755e-05 2.78594e-05 -1.99443e-06 
7.90945e-06 1.09644e-05 -8.32707e-06 3.0604e-05 -1.09894e-05 2.18252e-05 1.80786e-05 5.40671e-08 7.78328e-08 
-1.00533e-07 0.00429223 0.00064397 0.000720272 -1.63806e-08 1.28398e-08 2.25703e-08 0.000137391 -2.27308e-08 
-1.2903e-09 2.20374e-08 0.000163206 -2.36709e-08 3.69468e-09 1.64073e-08 2.74372e-08 -1.42365e-08 -1.36651e-08 
-4.81965e-10 1.40091e-08 -0.000886014 -0.005427 0.021942 0.0215676 -3.27937e-08 5.25625e-09 8.51614e-09 
5.76229e-08 -4.27407e-09 -7.87328e-10 -3.61559e-08 1.28185e-09 3.95122e-08 -4.73506e-09 5.86508e-10 -4.49339e-08 
-4.18702e-10 4.5359e-08 -1.51668e-09 2.70675e-09 3.40335e-09 -4.40432e-08 3.37135e-08 -9.85547e-09 -7.33537e-09 
2.74432e-09 -3.47389e-08 -1.4611e-08 5.65328e-09 -1.00002e-07 -2.21109e-05 -5.95985e-06 4.22598e-06 1.62736e-05 
1.94121e-05 1.30311e-05 7.83195e-06 9.12229e-06 6.49553e-07 -1.43001e-05 -6.78797e-06 -9.58749e-06 -1.59603e-05 
-1.79258e-05 -1.54512e-05 -1.17175e-05 -9.797e-06 -1.18237e-05 -4.41015e-06 -7.72801e-07 -2.43978e-06 -7.03955e-07 
2.32849e-06 5.16476e-06 5.31394e-06 2.69512e-06 -9.8251e-07 -4.68869e-06 0.00203299 -0.0179299 -0.000138796 
-0.0010159 -0.000554672 -0.000320333 -2.23562e-05 1.04318e-05 -6.5571e-05 -7.53689e-05 -8.19391e-05 -7.3833e-05 
1.55728e-05 3.09586e-05 -1.31392e-05 -3.75862e-05 -3.76281e-05 5.32403e-05 5.80292e-05 4.22959e-05 2.49165e-05 
9.90115e-06 5.97896e-05 7.73117e-05 7.86938e-05 9.74828e-05 9.03648e-05 -2.47547e-05 -5.57532e-05 -0.00010379 
-0.000124446 -0.000106842 -0.000103535 -7.22715e-05 -8.73159e-06 2.3335e-05 3.55325e-05 3.02961e-05 8.60274e-06 
5.45332e-05 5.8822e-05 5.38171e-05 2.57884e-05 -1.42173e-06 1.48207e-05 -2.73675e-06 9.72019e-07 4.24572e-06 
3.3859e-06 2.51563e-06 6.25926e-07 -7.61565e-06 -2.3603e-05 -3.97548e-05 -5.95198e-05 -5.19094e-05 -6.44331e-05 
-1.90182e-05 3.52355e-05 6.03991e-05 0.000153996 0.000185229 0.00026967 0.000299084 0.000495951 0.00198494 
0.00741388 0.00946728 -0.0125839 -0.00941337 -0.00822613 -0.0106048 -0.0109342 -0.0077442 -0.011467 
-0.0109653 -0.0115902 -0.0108619 -0.00816577 -0.0136988 -0.0181086 -0.0129499 0.0148475 0.0130487 
0.0129024 0.0122527 0.0116234 0.0106136 0.0116117 0.0113961 0.0106561 0.00832166 0.0112032 
0.0114731 0.0135607 0.0140889 0.0172685 7.56747e-06 1.21897e-05 -1.50984e-05 -1.92249e-05 -2.19337e-05 
-1.95046e-05 -6.91186e-06 -1.91378e-06 1.00817e-05 -3.22118e-07 6.28966e-06 4.17562e-06 1.43083e-06 6.83707e-06 
2.39259e-07 -2.91795e-06 -9.19865e-06 -3.72413e-06 -7.58299e-06 -6.77223e-06 -4.04328e-06 -2.03596e-06 -6.91079e-07 
0.00750897 0.00662372 0.000827155 0.000498534 0.000186419 1.24733e-05 0.000109745 6.89933e-05 3.7758e-05 
2.24857e-07 1.2258e-05 2.72137e-05 1.13475e-06 -1.53341e-05 7.94964e-06 -2.34554e-05 -4.51137e-05 -3.87331e-05 
-2.84684e-05 -4.8877e-05 -5.82866e-05 -3.00634e-05 -6.2439e-05 -4.63758e-06 0.000125819 0.000167459 0.000123464 
0.00011017 2.79203e-05 -2.7769e-05 -5.78469e-05 -5.4307e-05 -2.72431e-05 -3.38578e-05 -2.92747e-05 -7.80459e-06 
-1.24854e-05 1.06531e-05 1.78288e-06 -3.1931e-06 -4.63671e-07 7.41751e-07 -2.61914e-07 -4.39769e-07 1.9826e-06 
2.07898e-05 2.16003e-05 3.40284e-05 3.93058e-05 2.42743e-05 -9.05251e-06 -7.77351e-05 -6.98634e-05 -0.000109592 
-0.000169672 -0.000318587 -0.000393065 -0.00011462 -0.00198395 -0.0193728 0.00426115 0.0129892 0.0113534 
0.0115696 0.0106671 0.0109813 0.0114971 0.0113487 0.0115698 0.0112372 0.00849324 0.0108518 
0.0113052 0.00711863 0.0139263 0.0154971 -0.0107427 -0.00600566 -0.0072386 -0.00815449 -0.0117319 
-0.0109789 -0.0075254 -0.0110344 -0.0111559 -0.0111204 -0.0116382 -0.00702962 -0.0113303 -0.0180836 
-0.0186456 -7.95811e-07 -9.66921e-07 0.00738979 0.00157936 -0.0194419 -0.00330352 -2.3233e-08 -1.10844e-08 
0.0186646 -2.54545e-08 -0.00095747 4.47083e-09 0.0020392 3.90415e-09 0.00168342 -0.0144097 0.0178633 
-0.0158412 0.0157854 -0.014912 0.0143553 4.4756e-10 0.00212111 -0.0124205 0.0174171 -0.0155048 
0.0162493 -0.015266 0.0157112 -0.00206924 9.10459e-10 -0.0124081 0.0159107 -0.01627 0.0154778 
-0.016413 0.0142372 -0.0165308 0.0116853 -0.0123224 0.0150832 -0.0145835 0.0162013 -0.0158131 
0.0158742 -0.0159662 0.0139059 -0.00228706 -8.89063e-09 8.41321e-09 4.09098e-05 -0.000891166 0.000143391 
-0.00144735 0.00358788 -6.58795e-06 -5.90965e-06 -1.16834e-05 1.10896e-05 4.08133e-06 -3.27513e-06 5.02077e-06 
4.78185e-06 -6.7364e-07 4.1786e-06 2.92064e-06 4.08966e-06 4.52086e-06 5.63144e-06 3.63229e-06 -5.11856e-06 
-2.73954e-07 -3.28972e-06 -1.93367e-05 -7.58467e-06 -3.35991e-06 -2.76169e-06 1.91914e-06 2.93778e-06 4.95317e-06 
1.19507e-05 -2.72561e-06 -5.43933e-06 6.48725e-06 2.92867e-06 -6.88681e-06 3.54417e-07 4.24398e-06 -6.88551e-06 
-3.79668e-06 5.36965e-06 -3.50393e-06 -2.71436e-06 -1.04067e-06 -2.36059e-06 -1.4008e-06 -3.61461e-06 2.27025e-06 
-1.13418e-06 2.4351e-06 2.89612e-06 -1.51976e-06 2.38693e-06 6.60551e-06 7.62004e-07 2.36049e-06 -6.59787e-07 
-2.69529e-06 -2.64468e-06 -3.81854e-06 -9.37875e-06 3.97269e-08 7.93447e-07 -5.61987e-06 -2.23519e-06 2.02513e-06 
-2.03035e-06 -1.29294e-06 2.47996e-06 5.33218e-07 -1.4234e-06 -7.89147e-08 -3.62551e-07 8.86144e-07 -7.06557e-07 
-4.8425e-07 2.00692e-06 -1.17173e-06 1.89218e-06 -1.95107e-06 8.84618e-08 2.8351e-06 -1.06769e-06 -2.18697e-06 
-2.06441e-06 7.42993e-08 3.10806e-06 0.0158196 -0.0162147 -0.000436014 -0.000212745 0.000201331 0.00442548 
-0.000275581 4.11186e-05 0.000117892 -5.10582e-05 3.32111e-05 -0.000131906 -9.06031e-05 1.8053e-05 -0.000105734 
4.58547e-05 -4.68973e-05 -5.08317e-05 5.27444e-05 3.54363e-05 6.76468e-05 2.38411e-05 2.55401e-05 3.4832e-05 
-5.19583e-06 1.37645e-05 -1.37183e-05 -3.27201e-05 -9.86405e-06 -4.67466e-05 -2.76396e-05 -9.62393e-06 -2.33014e-05 
6.57544e-06 8.30102e-06 -1.78001e-05 1.95329e-05 2.61816e-05 3.08652e-05 -3.09464e-07 5.96674e-06 2.51384e-05 
-2.56767e-05 -9.19111e-06 -2.49055e-05 -1.3555e-05 -5.63852e-06 -3.46649e-05 1.01971e-05 2.48062e-05 1.59219e-05 
8.23981e-06 2.29039e-05 2.05897e-05 -1.01587e-05 -5.05978e-06 1.69801e-05 -1.95915e-05 1.64435e-07 -1.8945e-05 
-4.89483e-06 -1.20153e-05 -4.23905e-05 -4.34755e-06 1.43464e-05 -2.23767e-06 6.80752e-06 9.15038e-06 -1.09756e-06 
1.56865e-06 -5.0033e-07 -1.222e-06 1.4184e-05 1.45022e-05 -1.94652e-05 2.70036e-05 6.18059e-06 4.07535e-08 
-1.19205e-05 -1.76541e-05 2.04551e-05 -1.54302e-05 -5.15484e-05 -9.59802e-05 -6.73498e-06 -1.39962e-05 -7.69776e-05 
3.2894e-05 2.28942e-05 2.25386e-05 4.26903e-05 5.66462e-05 7.21157e-05 2.32673e-05 -1.99208e-05 4.34999e-05 
-4.13932e-06 1.15986e-05 8.2271e-05 2.46964e-05 1.90136e-05 5.15384e-05 -2.22044e-06 4.54849e-06 3.61728e-05 
-1.14975e-05 -8.07119e-06 -4.74482e-06 -1.85674e-05 -6.31189e-06 -3.25987e-05 -1.31e-05 -2.76464e-05 -4.11499e-05 
-3.39768e-06 1.07075e-05 -1.71758e-05 7.13502e-06 1.44086e-05 -3.51402e-06 -3.17195e-06 1.26315e-06 1.12311e-05 
-1.97235e-06 -8.29011e-06 -7.02784e-06 -1.15679e-05 1.05714e-05 -7.62228e-06 -4.6104e-06 2.04129e-05 3.53203e-07 
6.36324e-07 8.64902e-07 2.32225e-07 7.15457e-07 -3.41178e-06 -6.41846e-07 -2.61866e-06 -4.47206e-06 2.34473e-06 
-3.32082e-06 -1.42457e-07 -8.95947e-06 1.25255e-05 -3.1516e-05 -2.54155e-06 1.51581e-05 8.15391e-06 1.18639e-05 
5.11573e-05 2.00722e-05 -1.13985e-05 4.92896e-05 2.22126e-05 -2.14039e-05 1.57344e-05 1.35647e-05 -2.83144e-05 
1.35097e-05 -6.92529e-06 -4.1476e-05 1.64986e-05 3.31167e-05 -5.10656e-05 4.37017e-06 1.02966e-05 -4.87575e-05 
9.35128e-06 1.46293e-05 -7.30612e-05 -1.73517e-05 6.5199e-05 -0.000259701 -5.59763e-05 2.79691e-05 -0.000255702 
0.00108403 0.00799235 -0.000552279 -0.0176301 0.0101305 0.000647079 -0.000374409 -0.000394141 -0.000752967 
0.00136534 -0.000421431 -0.000886269 -0.00484841 -0.00451853 -0.00151525 0.000861511 -0.00106106 0.000463494 
-0.000408301 -0.00210306 0.00133621 0.00132591 0.00334808 6.84537e-05 0.00135497 0.000114559 0.000319434 
-0.00230639 -0.00130415 -0.000925022 0.0018244 0.000884377 -0.000401194 0.000516677 -0.000971455 -0.000657246 
0.00254332 0.00310157 0.000171824 -0.000316666 -0.00128209 0.000903884 -0.004028 -0.00172023 0.000657424 
0.00173472 -3.24835e-05 -0.00140544 0.000204906 -0.00358371 0.000917708 -0.00196001 -0.00335524 0.00085452 
0.00089526 0.00332999 0.000870532 -0.00363678 -0.000366278 0.000264032 0.00378705 0.00262991 -0.00173039 
0.00331433 0.000408628 -0.000709042 0.000348322 -0.000828962 0.000274034 0.00177917 0.00253854 0.000459853 
0.00150747 0.0027596 0.00203877 0.00263281 -0.0104616 -0.00154645 -0.0059403 -0.000701517 -0.00683466 
-0.00661372 0.00431951 -0.00732898 -0.00643721 0.00226697 -0.00659859 -0.00564854 0.00231765 -0.00596706 
-0.00570226 0.00293591 -0.00724405 -0.0063878 0.00295539 -0.0062369 -0.0072187 0.00321944 -0.00601711 
-0.00664188 0.00330812 -0.00602408 -0.00696898 0.00335818 -0.00573548 -0.00659463 0.00317071 -0.007613 
-0.00745424 0.00313934 -0.00783308 -0.00971378 0.00297812 -0.0168111 -0.0142855 0.0021926 -0.0229994 
-0.00771239 0.0140082 0.00551117 0.00874748 0.00682997 -0.00236036 0.00745191 0.00934871 -0.00188978 
0.010001 0.00727469 -0.00161733 0.00729223 0.00898361 -0.00369897 0.00700677 0.00772626 -0.00321978 
0.00664123 0.0085052 -0.00313714 0.0068442 0.00836673 -0.00335378 0.00682128 0.00792268 -0.00344271 
0.00743233 0.00915363 -0.00309535 0.00572971 0.00853309 -0.00425298 0.00877772 0.00752567 -0.00218853 
0.00730667 0.00829068 -0.00243099 0.00682991 0.00179728 -0.00289989 0.0100898 0.003743 1.3099e-05 
0.00240889 1.29888e-06 1.22085e-06 -0.0105558 -1.86708e-06 1.80143e-05 -0.000163288 0.000504947 0.000209979 
1.25705e-05 0.00781288 0.00308084 0.0036437 -0.0113712 -0.0026032 -0.0126453 0.00960745 -0.00949113 
0.00341034 -0.00831181 0.0135773 -0.000620851 -0.000722654 0.00122496 -1.75387e-06 0.00108912 3.84018e-06 
2.08535e-06 -4.40155e-07 -1.48173e-07 -3.00031e-06 -3.30266e-07 5.76099e-07 5.11228e-06 -3.75381e-06 2.25877e-06 
-3.51241e-06 -8.0856e-06 -5.51711e-06 -7.87979e-06 -5.44187e-06 5.97647e-06 -6.82354e-06 4.32862e-07 2.94866e-06 
-4.17223e-06 -2.85213e-06 6.37403e-06 4.02782e-06 4.92841e-06 7.35754e-06 3.21768e-06 -2.43695e-06 3.76457e-06 
3.12013e-06 2.24421e-06 5.72567e-06 1.2314e-06 3.81506e-06 2.60667e-06 -9.95445e-07 3.87078e-06 -8.5759e-08 
-1.496e-07 -1.50204e-07 -4.04254e-07 3.3293e-06 2.44939e-06 1.04556e-07 1.50133e-06 1.90969e-06 2.13285e-06 
1.88518e-07 4.81047e-06 3.07143e-07 -2.96663e-06 2.68831e-07 -3.07249e-06 -2.20536e-06 -3.10147e-06 -3.95291e-06 
-1.51736e-06 3.4277e-07 -1.96537e-06 -1.62736e-06 -1.62302e-06 -3.4389e-06 -7.2264e-07 -2.02484e-06 -1.30448e-06 
4.99821e-07 -1.05671e-07 -6.7347e-07 1.89923e-06 -1.05834e-06 -1.19975e-07 -3.24366e-06 0.00107593 -0.000128837 
9.12788e-05 -4.88139e-05 -0.000347429 -2.25667e-05 0.0001164 -1.57933e-05 2.5239e-05 4.05711e-05 2.67451e-05 
6.87673e-05 5.84427e-05 5.43144e-05 5.56333e-05 2.45445e-05 4.76648e-05 6.69438e-06 7.19029e-06 3.85538e-05 
-1.45475e-05 2.01527e-05 -2.56559e-05 4.38025e-06 -1.98499e-05 2.82097e-06 3.3018e-06 -1.67521e-05 -1.46143e-05 
2.32281e-05 1.42096e-05 2.01847e-05 4.44217e-06 1.70024e-05 1.37125e-05 -2.09924e-05 -1.03853e-06 -6.0745e-06 
-7.10114e-06 -3.0035e-05 -8.72233e-06 8.64062e-06 -4.76324e-07 -1.98458e-05 1.57564e-05 2.42897e-06 1.96589e-05 
-1.49142e-05 1.64245e-05 -3.6868e-06 -1.78899e-05 -4.18431e-06 -9.93825e-07 -1.54978e-05 -3.27406e-05 -1.62351e-05 
5.14424e-06 -1.2711e-06 -1.13859e-05 6.75873e-06 -2.61084e-06 5.76934e-06 -7.89214e-06 5.48497e-07 -7.36469e-06 
-3.88057e-06 1.35385e-06 -3.71316e-06 4.72678e-06 1.45191e-05 -1.47507e-06 1.47625e-05 1.91807e-05 1.46478e-05 
-3.94947e-05 -1.01159e-05 -1.67785e-05 2.67476e-05 -3.67198e-05 -3.24463e-05 -4.77929e-06 8.90619e-06 -3.50552e-05 
3.90643e-05 3.62374e-05 0.000104553 3.89167e-05 2.32107e-05 5.1018e-05 -1.02338e-05 3.51953e-05 -3.55545e-05 
-1.49875e-05 1.4073e-05 2.30479e-05 1.2993e-05 6.574e-06 3.05615e-05 -6.59303e-06 -8.04877e-07 1.16727e-05 
-2.42952e-05 -1.00185e-05 -2.66921e-05 -2.00098e-05 -2.23769e-05 -2.52373e-05 -7.22271e-07 -1.16904e-05 -1.28245e-05 
7.11087e-06 -6.59188e-06 1.10489e-05 -5.88767e-06 1.20939e-05 -1.00579e-06 -4.19062e-07 7.25783e-07 -2.99087e-06 
1.88101e-06 -7.50158e-06 -1.69057e-08 -7.00845e-07 4.77944e-06 -1.76507e-06 -4.06498e-05 0.00288698 -0.000100094 
-9.76429e-06 -2.21188e-06 1.38398e-06 -6.12775e-06 1.1526e-06 -2.66916e-06 1.65745e-05 -1.78987e-05 3.29341e-06 
0.000185171 0.00176674 -1.03141e-05 0.00547449 0.00300463 -2.2628e-05 -2.26078e-05 -8.47515e-06 -7.02936e-05 
3.97734e-05 3.09281e-05 -7.60636e-05 7.73859e-06 2.01652e-05 -1.78802e-05 -1.01891e-07 1.82668e-05 2.91995e-05 
4.74741e-06 3.549e-05 -8.68309e-06 -1.36288e-06 9.10748e-05 -3.30848e-05 -3.89231e-05 0.00028463 -9.23411e-05 
-2.72906e-05 -2.01854e-06 0.0025909 0.00241122 0.000993975 0.00152832 0.000668709 -0.000574942 0.00106333 
-0.000915262 0.00297863 1.10732e-05 0.00404991 -0.00226597 -0.000808472 0.000134014 -0.000593775 0.000260829 
-0.000473779 -0.00093163 -0.000206913 -0.00101462 0.000981703 -0.000149883 -0.00130513 0.00164227 4.92167e-05 
0.00247558 -3.58798e-05 -0.000408578 0.00138735 -0.00141754 0.000288458 0.000152545 -0.00259029 -0.000230097 
-0.00166515 0.0012006 0.000605099 -0.000676312 0.00190415 -3.40726e-05 0.00199226 0.000198994 -0.000333465 
0.00189644 -0.000224903 0.00063206 0.000236111 -0.00167413 -0.000123729 -0.000522609 -0.0010779 -0.000775528 
-0.000993892 0.000745732 -5.15549e-05 0.000318208 0.00010757 7.53948e-05 0.000964872 -7.4155e-06 0.000857002 
4.28325e-06 -9.80288e-05 0.000558391 0.000303986 -0.000365389 -0.000103882 -0.000937545 0.000653847 -8.51744e-05 
-0.000914451 0.00150925 0.00071773 0.00167028 0.000849684 0.000539203 0.000410443 0.00146171 0.000819318 
0.00121966 0.00100253 -0.000165633 0.00114728 0.00118302 -0.000184645 0.00106553 0.00135314 -0.000185236 
0.00102656 0.00140174 -0.000155159 0.000900047 0.00149299 -0.000160515 0.00070889 0.00171852 -0.000220434 
0.000669709 0.00169481 -0.00015726 0.000551668 0.00136403 -2.1797e-05 0.0027649 0.000998085 -7.35018e-07 
4.48228e-07 -0.00274431 -0.000671352 -0.00111866 -0.0013566 -0.00233796 -0.00273313 -0.000326501 -0.00307737 
-0.00217612 -0.000304743 -0.00166901 -0.00230527 -0.000130241 -0.00197501 -0.00211817 5.4028e-06 -0.00184114 
-0.00211093 3.4923e-05 -0.00191724 -0.00227464 -6.82757e-05 -0.0019795 -0.00228153 -7.41267e-05 -0.00217031 
-0.00329629 -0.000149519 -0.00343257 -0.00182861 -0.000157305 -0.00228466 -0.00172071 -0.000410835 0.000621803 
-0.00140278 0.000112057 1.09011e-05 3.01348e-05 -2.4649e-05 -0.000239712 0.00014849 -0.00025398 -1.46079e-05 
-1.58568e-05 3.96388e-05 3.07466e-05 0.000961827 0.00105908 0.00151908 0.000707893 -0.000138296 -0.000577147 
-0.00144647 -0.000465763 -0.000536257 -0.000629141 2.29135e-06 1.40673e-06 1.52032e-06 -1.56177e-07 -9.44187e-06 
-6.54139e-06 -2.16934e-06 -3.39142e-06 -1.03188e-06 -5.2457e-06 0.000403293 -0.000759737 4.8884e-05 -0.000380865 
5.58852e-05 0.000253866 4.36858e-05 -1.91428e-06 -0.00052824 0.00124075 -0.000312908 0.000802148 -0.00512067 
-0.000705874 0.000128512 -4.53698e-05 4.2398e-05 0.00012597 2.8179e-05 0.000233645 0.000101021 0.00151032 
-0.00189362 0.000341402 0.000741747 0.000222205 -1.21633e-05 -0.0010581 -0.00100013 0.000114117 -2.61241e-06 
-5.90295e-06 -6.24785e-07 5.71188e-06 2.5847e-06 1.49793e-06 -3.40761e-06 -4.17102e-06 3.08338e-06 -2.85615e-07 
-1.14491e-06 2.76921e-06 -2.81671e-06 -3.05575e-07 -8.98496e-06 -4.46503e-06 2.67926e-06 4.39157e-06 -1.97312e-06 
8.00741e-07 3.12706e-06 -2.70726e-06 1.68629e-06 -3.98559e-06 -2.68896e-07 5.61254e-07 -2.52414e-06 -2.21471e-06 
4.14419e-07 3.29586e-07 -1.99408e-06 -1.26755e-06 -1.4328e-06 1.65578e-06 4.37779e-07 -5.92166e-07 1.35758e-06 
-1.35307e-07 -3.18082e-06 -3.5793e-06 -1.50882e-06 -8.41748e-07 1.22294e-06 5.36344e-07 1.04573e-06 1.11308e-06 
-1.25573e-06 -3.52644e-06 -1.73763e-06 4.53295e-08 9.88478e-07 1.89533e-06 -3.58076e-06 1.42842e-06 1.60471e-07 
-1.86128e-06 1.3423e-06 -1.61396e-06 1.40532e-07 -4.64273e-06 -1.74432e-06 -1.85916e-06 0.000393557 0.000189217 
-7.83217e-06 3.42972e-06 6.33282e-06 5.97723e-06 -4.31699e-05 8.17253e-05 5.51161e-06 8.40492e-05 3.17721e-05 
5.56565e-05 7.37707e-05 -5.66586e-06 -2.28276e-06 4.5323e-05 2.9897e-05 7.99684e-06 3.50712e-05 1.86308e-05 
-3.69963e-07 3.50106e-05 1.92765e-05 -3.34748e-06 2.04953e-05 1.20577e-05 1.90716e-05 -4.08292e-06 -8.19823e-06 
2.40801e-05 -5.63144e-06 -1.78287e-05 6.48252e-07 9.32022e-06 1.54678e-05 -1.65174e-05 8.22827e-06 -4.8097e-06 
-9.46117e-06 2.11555e-07 -1.18122e-06 1.06459e-05 -2.00198e-05 -1.27131e-05 1.23621e-05 -1.11991e-05 1.94986e-05 
-1.35069e-05 7.39566e-06 8.71254e-06 -1.7711e-05 5.73942e-06 -1.69805e-05 -1.22258e-05 -3.15695e-06 -3.56227e-06 
5.38971e-06 -2.331e-05 -4.14033e-06 9.84268e-06 1.00005e-06 6.8151e-06 -2.52162e-06 1.97422e-05 -6.80836e-07 
-3.67019e-07 -4.84974e-06 -2.60303e-06 1.32668e-05 -9.7461e-06 1.38758e-05 1.05898e-05 6.00222e-06 -6.67999e-06 
-1.37204e-05 5.63396e-05 1.43216e-05 2.39455e-05 4.16937e-06 -2.61278e-05 3.52522e-05 -5.27061e-05 -6.16761e-06 
3.12058e-05 -4.27557e-05 -6.03825e-06 2.34747e-05 4.57785e-06 -4.83596e-06 -2.84472e-05 2.59023e-05 2.57865e-05 
-1.05265e-05 -2.96849e-05 4.0264e-05 4.71134e-06 -3.07115e-06 5.12239e-06 -2.13092e-05 2.72426e-05 -3.38924e-05 
-2.58897e-05 9.46233e-06 7.21402e-06 -1.02379e-05 -3.98869e-06 -1.29922e-05 -2.71445e-06 -2.69855e-05 -4.08743e-06 
2.1321e-05 -8.23027e-06 -7.24418e-07 1.10205e-06 8.14985e-06 8.09148e-06 1.01744e-06 8.36931e-07 2.2354e-06 
-8.60775e-08 5.46656e-06 6.23854e-06 -2.35357e-06 -6.94491e-05 -0.000263581 9.68173e-05 1.9627e-05 7.3114e-05 
-8.14521e-08 -7.63485e-07 5.21447e-07 5.01414e-06 -0.012369 -1.22471e-05 9.72971e-06 -0.000119675 0.00011124 
-0.000231902 0.000190585 7.98811e-05 0.000310483 -0.000138291 -0.000171606 3.50198e-06 -4.36002e-06 -3.37716e-05 
8.03847e-05 -1.64328e-05 7.14201e-05 -3.21205e-05 -4.58784e-05 9.61846e-05 -1.24093e-05 0.000355671 0.000409564 
-0.000504258 -0.000353242 5.77254e-05 3.27019e-05 -0.000598105 0.000337507 0.000369683 -0.000308977 3.80261e-05 
-8.65411e-05 -2.8714e-05 -0.000512894 -0.000215793 9.59385e-05 -7.3629e-05 0.000120926 0.000165849 -0.000211277 
9.9276e-05 -6.76671e-05 0.000210702 6.39549e-05 -0.00020864 -0.000116234 1.6062e-05 -0.000304834 -0.000130267 
7.57254e-06 0.000232165 -9.02706e-05 -7.19194e-06 0.000138082 -0.000219084 -4.27096e-05 0.000177771 0.000276424 
-1.90676e-05 -4.28573e-05 -0.000116731 2.97762e-05 -0.000228564 -0.000154209 2.12698e-05 0.000199675 0.000121194 
1.46769e-05 0.000227977 -0.000197809 -9.489e-06 -0.00019733 -9.11827e-05 0.000111415 0.000191262 0.000114076 
-1.45144e-07 -0.000222341 -0.000190073 -1.47609e-05 1.79693e-05 0.00018838 -1.02232e-05 5.62613e-05 3.86846e-05 
-0.000110864 -0.000387147 -7.68547e-05 -3.67767e-05 -0.000390911 0.000532113 -6.06743e-05 5.61772e-06 1.30465e-05 
6.01634e-05 2.11301e-05 6.92011e-05 7.6223e-06 2.36723e-05 -4.45372e-05 -4.653e-06 2.56155e-05 2.36849e-05 
-2.55292e-05 -2.31578e-05 2.92611e-05 -9.44727e-05 -0.000168203 3.01027e-05 -0.000133921 -0.00023581 7.8265e-05 
0.000170155 4.54387e-05 -0.000188483 5.37981e-05 1.45395e-05 -0.00082082 0.000295435 -0.000246124 -8.0106e-05 
-0.000214061 1.26415e-05 3.65877e-05 -4.841e-05 3.96704e-05 4.31461e-05 -1.11798e-05 2.94082e-05 2.93463e-05 
-2.06077e-05 3.5136e-06 2.02062e-05 -4.13971e-05 2.25811e-05 1.1639e-05 -4.10462e-05 9.51092e-06 -1.55741e-05 
-0.00013408 -0.000153631 2.9609e-05 -0.000269006 -4.17211e-05 -7.77985e-05 0.000295208 -0.000187781 -0.000295535 
-8.29311e-06 -0.000114856 5.83844e-05 0.000187723 8.3932e-06 -4.18425e-05 4.75079e-05 6.02699e-05 6.67343e-05 
4.03595e-05 2.48422e-05 -2.9534e-05 8.00226e-05 -9.43418e-06 2.92305e-05 -1.39868e-06 7.89964e-06 -1.00739e-05 
4.61217e-05 -1.91319e-06 -4.98661e-05 -0.000147421 0.000179609 0.000103712 7.58321e-05 0.000122648 -5.36975e-05 
-9.8369e-05 9.70998e-05 5.70333e-05 1.53953e-07 2.34295e-06 -1.01019e-06 -2.69092e-06 5.5605e-05 -1.14659e-06 
4.78129e-06 0.000126624 4.72972e-05 -6.78767e-05 -2.05842e-06 3.71392e-05 -0.000190799 -9.33194e-05 -2.14546e-05 
-7.59885e-06 6.82082e-05 1.4505e-05 -1.34651e-05 -0.000145379 -0.000185519 -0.000369572 0.000358114 -6.03382e-05 
-3.45424e-05 -0.000390192 -0.000491685 -0.000448839 0.000291889 6.56789e-05 -2.91088e-05 8.09185e-05 -3.89826e-06 
0.00024804 9.01387e-05 0.000186751 -0.000160371 5.45943e-05 -1.96485e-05 1.12796e-05 2.57111e-05 -5.04412e-07 
-1.0986e-05 3.75461e-07 -0.000199166 0.000200459 0.00065498 0.000211064 1.30661e-05 7.35491e-05 -8.37214e-07 
-9.58631e-06 5.52074e-06 -5.93582e-06 1.55684e-06 7.11202e-06 1.00724e-05 -4.10938e-06 2.76963e-06 -4.86109e-06 
2.43579e-06 -2.42965e-06 -5.99214e-06 -5.71186e-08 7.77085e-06 5.21644e-06 -4.97332e-07 -4.88197e-06 -2.78859e-07 
7.40331e-06 -3.65111e-06 -2.60198e-06 1.30358e-06 -3.5346e-06 -3.80274e-06 -2.27337e-06 -1.44737e-06 -5.16005e-07 
-6.63732e-07 -2.81806e-07 2.02946e-06 9.88003e-07 -2.94962e-06 -9.84186e-07 -1.88712e-06 -3.78496e-06 -5.88757e-06 
-1.89858e-06 -2.33753e-06 2.73533e-06 1.38446e-06 -2.38403e-06 2.94571e-06 -3.78958e-07 -1.4592e-07 1.91676e-06 
-7.83581e-07 -3.11204e-07 1.76091e-06 3.38542e-06 5.34841e-07 2.78113e-06 -1.59385e-06 -0.000147575 1.03828e-05 
5.27758e-06 -1.69564e-07 -7.1075e-05 1.79411e-06 1.141e-06 -2.04826e-05 0.000122581 -4.53151e-05 9.69532e-05 
-4.04634e-05 -4.09725e-05 5.63606e-05 -2.29663e-05 -1.5047e-05 2.08243e-05 2.51193e-05 2.71188e-06 1.26361e-05 
-6.67258e-06 3.94355e-06 4.47816e-05 -1.58437e-06 1.79379e-07 1.34914e-05 1.64647e-05 1.57349e-05 -1.20763e-05 
-1.41366e-05 7.63393e-06 -3.65886e-06 1.58785e-05 -1.2028e-05 1.64903e-05 4.13781e-06 -8.85325e-06 -3.8896e-07 
3.08387e-06 4.16634e-06 -8.936e-06 -5.22643e-06 1.5572e-05 -1.2618e-05 -2.27076e-05 5.75567e-07 -6.027e-06 
1.63556e-05 -1.56378e-05 -2.29866e-07 -9.0383e-07 -2.22911e-05 7.8188e-06 -2.45067e-05 -5.66392e-06 -1.15147e-05 
-7.73771e-06 3.44353e-05 -3.30405e-07 7.36578e-06 -3.53852e-08 8.41614e-06 -1.43441e-05 -1.56677e-05 3.21213e-05 
-1.26246e-05 -1.12658e-06 -1.11159e-05 1.74031e-05 2.82867e-05 -2.12524e-05 -3.28662e-06 -6.31964e-06 1.64341e-06 
-1.57445e-05 -2.99601e-05 0.000116908 -8.17996e-05 -7.99284e-07 -1.31526e-05 -6.6051e-05 1.72813e-05 1.59334e-05 
1.87758e-05 -1.19544e-05 1.29691e-05 -1.0233e-05 3.12138e-05 -2.88935e-05 -3.40529e-06 1.04702e-05 7.84026e-06 
1.08981e-05 -1.3812e-05 1.00061e-06 1.33528e-05 -2.91819e-05 5.56279e-08 1.20637e-05 4.63962e-06 2.10601e-06 
2.29772e-06 3.18035e-06 5.47638e-06 2.98233e-05 -9.01634e-05 -3.70964e-05 -0.000147895 -6.69481e-05 8.63825e-05 
3.08133e-06 9.37924e-05 7.34283e-06 -5.4458e-05 0.000140899 0.000107903 -4.75166e-05 1.72517e-05 4.56456e-05 
-2.83788e-05 7.7009e-05 -5.75503e-05 -6.00293e-05 8.19433e-06 6.11158e-05 -0.000323608 -0.000238971 5.4797e-05 
-7.58674e-05 4.42197e-06 -3.49295e-06 -8.31014e-05 -0.00012485 0.000161335 -0.000133407 -3.04321e-05 3.49816e-05 
6.16635e-05 0.000101749 -2.84472e-05 4.80736e-05 4.78977e-05 1.32537e-05 -5.79719e-05 -2.77923e-05 -4.64119e-05 
-5.26597e-05 -1.07824e-05 -4.81579e-06 9.12677e-06 -2.1746e-05 6.36081e-06 -1.27122e-05 4.73009e-05 8.03557e-06 
3.04819e-05 3.84791e-05 9.854e-06 -1.43087e-05 -3.95586e-06 2.34124e-05 -2.59141e-05 2.56555e-05 1.02336e-06 
2.1859e-05 -1.28844e-05 -2.0355e-06 2.55869e-06 2.96964e-05 6.73336e-06 3.86428e-06 5.15035e-05 5.51173e-06 
1.09374e-05 1.90487e-05 -5.97631e-06 -4.46155e-05 -2.60849e-05 3.94708e-07 -4.0985e-05 -3.46231e-05 -3.09627e-05 
-4.47211e-05 -9.92989e-05 -4.83274e-05 -3.13191e-05 -1.48668e-05 4.14171e-05 -2.54641e-05 -1.02438e-05 -1.30999e-05 
-3.81568e-05 -2.14333e-05 6.98196e-05 -5.74928e-05 5.04726e-05 2.14205e-05 -2.39186e-05 -0.000164067 0.000136806 
3.87933e-05 -8.99391e-05 4.23911e-05 4.96159e-07 4.46188e-05 0.000219191 -0.000254249 9.04857e-05 0.00014467 
0.000373986 2.06301e-05 5.59404e-05 1.4604e-05 -0.000148038 -5.13894e-05 -8.70349e-05 -2.57357e-05 2.98929e-05 
3.02177e-05 -2.07234e-05 4.1885e-05 5.58617e-05 -3.61897e-05 1.56672e-05 2.76423e-05 -2.23673e-06 4.78086e-05 
2.1708e-05 -1.58473e-05 2.36242e-05 2.86765e-06 -8.2426e-05 -5.34334e-05 -1.0301e-05 -0.000138679 5.02035e-05 
-1.45504e-05 -4.74441e-05 -1.25114e-05 0.000166404 6.90564e-06 2.55451e-06 3.96105e-06 2.36567e-05 -3.20255e-06 
3.40171e-06 -2.84481e-06 9.93568e-06 -0.000230259 -9.96458e-05 -8.06685e-05 -5.69896e-05 -1.81022e-05 -6.22846e-06 
-5.23781e-05 -3.35446e-06 3.27418e-06 9.16976e-06 -9.22331e-05 6.08836e-05 -2.86317e-05 -9.20522e-05 9.82355e-05 
0.00014791 9.29056e-05 -8.49951e-06 -3.11388e-05 -4.02756e-05 1.03962e-05 5.72298e-07 -2.20208e-05 -3.17339e-05 
-4.71488e-05 7.09803e-05 4.72717e-06 -1.96422e-05 3.36194e-05 -2.59187e-05 5.2006e-05 1.49907e-05 4.10583e-05 
7.3421e-06 -0.000424547 -0.0019208 1.20367e-05 -5.9226e-05 -2.12223e-05 -2.68343e-05 1.70074e-05 -4.1235e-05 
-9.48352e-05 7.43872e-07 -1.26802e-05 -5.59423e-05 0.000101087 0.000278905 6.23967e-06 4.04867e-05 2.5869e-05 
-3.7558e-05 -0.000119439 -0.000136639 -4.52609e-06 6.70091e-06 -4.63877e-06 -1.14233e-06 1.88741e-05 -9.55218e-06 
3.82474e-05 3.28992e-05 1.54148e-05 -2.14404e-06 2.93331e-05 7.08657e-05 3.24472e-06 4.9571e-05 -2.89804e-05 
-3.1638e-05 8.98348e-05 -8.61441e-05 1.18858e-06 1.36891e-05 -1.05939e-05 -0.000116101 0.000176634 -7.46209e-05 
-7.79525e-05 -3.79414e-05 2.38009e-05 9.60619e-06 3.60174e-05 9.35437e-05 -3.96589e-05 2.13433e-05 -3.21923e-06 
-1.81049e-05 1.95159e-05 1.57883e-05 2.00487e-05 -1.1817e-06 -3.65929e-06 -2.24456e-05 -3.57449e-06 -8.50866e-06 
6.63826e-06 1.48558e-06 -9.26882e-06 3.98911e-06 -1.27558e-06 -2.7692e-06 8.68095e-06 -1.89994e-06 -4.16644e-06 
-7.61897e-06 -4.14108e-06 -7.95404e-06 2.42303e-06 -1.29326e-06 -2.01334e-06 5.05675e-08 -1.75354e-06 1.9275e-06 
-6.27245e-06 -4.21692e-06 2.17506e-06 -1.45535e-06 -5.49951e-06 -8.67561e-07 -4.15793e-06 -1.14932e-06 0.00103322 
-0.00103213 -2.5805e-06 4.65948e-06 2.29065e-06 -2.25205e-06 -2.29202e-06 3.4161e-06 7.66501e-05 -5.11243e-05 
-2.734e-05 4.41855e-05 -6.64609e-05 -8.44175e-06 1.19736e-05 0.000106702 3.66503e-06 -1.06079e-05 5.32898e-05 
1.1714e-05 1.83626e-05 2.77526e-05 -1.75972e-06 -1.1628e-05 1.20856e-05 5.02004e-06 8.80052e-06 -2.03854e-06 
-3.97764e-06 0.000793735 -0.00181973 1.33747e-05 -1.17931e-05 6.78193e-06 -7.77418e-06 5.47474e-06 8.05931e-06 
-1.32566e-05 9.85179e-06 -1.01498e-06 -2.02973e-06 -6.78534e-07 5.57037e-06 9.3952e-06 -1.229e-05 -1.6637e-05 
2.44221e-06 -1.07496e-05 1.70918e-05 -1.03375e-05 -6.47513e-06 1.18225e-05 -1.71308e-05 1.60677e-05 -1.1856e-05 
-1.25103e-05 1.69075e-05 1.46154e-06 -4.89539e-06 -4.69841e-05 2.14141e-05 -1.79137e-05 2.67035e-05 -6.29794e-06 
-5.29814e-05 -9.73417e-05 6.74478e-05 6.97887e-06 4.99761e-05 0.000182663 1.01281e-05 1.73155e-05 -9.47016e-05 
1.1129e-05 -3.07885e-05 1.64299e-05 2.90602e-05 -1.30447e-05 -2.33766e-05 1.94978e-05 -1.27901e-05 9.77537e-07 
7.61127e-05 1.41941e-05 2.45028e-05 1.0875e-05 3.3593e-05 -5.02271e-05 -0.000141187 5.79217e-06 0.000175336 
6.52668e-05 -3.83904e-05 0.000152592 -6.62041e-05 2.98687e-05 8.76317e-05 -8.24362e-05 -1.52487e-06 -5.91421e-06 
1.24539e-05 0.000153741 -5.33036e-07 6.61727e-06 -7.84567e-05 -4.09916e-05 9.90192e-06 6.24121e-05 3.53991e-05 
-4.5564e-05 2.909e-05 -2.58334e-05 1.64177e-05 -3.74561e-05 -7.30084e-06 9.04184e-05 -5.37381e-06 1.32805e-05 
-3.571e-05 3.07758e-05 -2.05249e-05 -3.07695e-05 -9.67661e-06 -1.26413e-05 -1.9227e-05 -7.48053e-06 -3.84097e-06 
1.01568e-05 3.13817e-06 0.000756952 -0.00114983 -4.39423e-06 3.32259e-06 -7.95658e-06 -8.08351e-06 1.69895e-05 
1.12943e-05 -3.0602e-06 4.8221e-05 3.1881e-06 5.11628e-06 2.4811e-05 -2.64796e-05 -3.20137e-05 -5.24945e-05 
-5.41566e-05 -4.09423e-05 1.80436e-05 1.5425e-05 6.3939e-06 4.25453e-05 -2.89031e-05 1.10005e-05 1.59181e-06 
2.91475e-06 4.10125e-06 -1.24348e-05 -6.96258e-05 4.69097e-05 -4.45196e-07 5.44146e-06 -0.000173587 -3.60015e-05 
-4.59766e-06 -8.3708e-05 -2.94892e-05 -6.19611e-05 1.27678e-05 -4.78076e-05 1.04322e-05 -2.87165e-05 1.41819e-05 
2.29697e-05 -1.09995e-05 -1.35716e-05 -6.14968e-05 -7.31019e-06 1.80716e-05 0.00017851 5.02947e-06 6.51209e-06 
-4.68175e-06 3.87074e-06 4.3241e-05 -6.89067e-05 -2.17237e-06 -2.76691e-06 4.71451e-05 -1.20786e-06 -1.65416e-05 
-6.94108e-05 4.01874e-05 9.92905e-09 8.26134e-05 -3.99661e-06 -5.93827e-05 0.000117454 3.91986e-05 4.83484e-05 
-9.43996e-05 -2.1221e-05 5.19649e-05 -0.000317089 -0.000225748 3.82219e-05 1.58705e-05 -1.43055e-05 0.000125122 
6.05059e-05 3.37946e-05 1.81401e-05 1.61077e-06 4.43588e-05 -3.25476e-05 1.67158e-05 3.12958e-05 0.000106127 
4.63381e-05 3.42191e-05 9.99957e-06 -1.21204e-05 -0.000111558 2.19303e-06 -1.82304e-05 7.01878e-06 1.83985e-05 
-1.92563e-05 -5.76168e-05 -4.6415e-05 7.31169e-06 2.91634e-05 -4.08356e-05 -6.41496e-05 1.36354e-05 0.000137098 
-3.55029e-05 8.65006e-05 -1.1694e-05 5.18709e-05 -5.54528e-05 -0.000100849 -5.03817e-05 -0.000115726 -5.10917e-05 
0.000102291 0.000103889 -5.53998e-05 -3.71178e-06 5.10982e-05 -3.29763e-05 6.43063e-05 2.24568e-06 1.9007e-05 
-3.18324e-05 -6.23231e-05 2.24213e-05 2.20492e-05 4.07058e-05 -2.23503e-05 6.79765e-07 -1.5221e-05 6.7538e-06 
2.71214e-05 -1.04222e-05 0.00125599 -0.00114859 3.90354e-06 2.92983e-06 -5.64876e-06 -1.27837e-05 -8.83478e-06 
-5.90137e-07 -5.76747e-06 6.54592e-06 -6.74146e-06 -5.05622e-06 2.09636e-06 -9.99947e-07 2.24687e-06 -6.31128e-07 
-4.7739e-06 2.97002e-06 7.50607e-06 -7.73603e-06 -2.48259e-05 -2.39734e-05 -1.30966e-06 3.59286e-05 2.6105e-05 
1.52026e-05 -2.00864e-06 0.00140126 -0.000834777 -5.05483e-06 -1.22222e-05 3.79185e-05 2.83052e-06 -1.1086e-05 
-1.54098e-05 -3.83842e-05 -3.78034e-05 -3.01221e-05 0.00166345 -0.00116818 1.77573e-05 1.60355e-06 2.91194e-05 
8.9654e-06 -1.6345e-05 2.18316e-05 -2.09696e-05 4.80853e-05 -4.48247e-05 -1.78377e-05 4.64339e-05 1.68352e-06 
1.67321e-05 -1.98255e-07 2.04215e-05 6.24496e-05 -4.4691e-05 -6.20987e-05 -2.33159e-05 -1.66232e-05 3.26698e-05 
1.85216e-05 1.70088e-05 5.47863e-05 -0.000104505 1.65572e-05 1.19866e-05 5.93183e-05 -0.000148529 1.43318e-05 
1.73116e-05 -2.11752e-06 0.000137333 -0.00010498 3.73208e-05 5.14501e-05 0.00118956 -0.00111779 1.40161e-05 
2.97812e-05 0.00130507 -0.00079029 4.5954e-06 -1.38141e-05 6.70391e-06 -1.36401e-05 2.01438e-05 3.42708e-06 
1.4096e-05 6.03118e-05 -2.59811e-05 7.62083e-05 -2.52172e-05 -1.68148e-05 7.085e-05 -4.29253e-05 -2.57562e-05 
-3.80503e-05 -8.9994e-05 2.44519e-05 3.07586e-05 -5.17939e-05 3.10261e-06 -9.63941e-06 -2.67401e-05 -1.46991e-05 
0.000122955 2.31999e-05 -5.08698e-05 -2.11359e-05 3.19902e-05 1.96631e-05 0.00177023 -0.000787367 -3.21108e-05 
-7.04476e-05 -1.51857e-05 -4.61221e-07 -1.03802e-06 8.9968e-06 -1.31061e-05 2.5986e-05 -2.28144e-05 0.000141019 
2.71412e-06 2.27805e-06 -1.0722e-06 3.85522e-05 3.80158e-05 -1.65223e-05 0.00150266 -0.00148947 3.94032e-05 
-1.54965e-05 2.35695e-05 0.000958495 0.00273426 1.49696e-05 -1.21497e-05 3.54574e-05 2.12821e-05 4.20359e-05 
3.57848e-05 7.58595e-06 1.19539e-05 -0.00205314 -1.9859e-05 -3.86957e-05 -9.49656e-05 1.11615e-05 -3.24144e-05 
-2.29866e-05 1.21721e-05 4.84869e-05 1.78552e-05 -1.70227e-05 -4.31617e-07 5.46369e-06 1.43192e-05 -1.51655e-05 
-2.09559e-05 2.94087e-05 1.07469e-05 -2.19908e-05 5.78378e-06 -2.44732e-05 4.82237e-05 -3.76563e-05 -3.0669e-05 
-3.39147e-06 9.15391e-06 -6.31821e-06 1.62805e-05 -5.48055e-06 -9.75889e-06 -5.17445e-06 -2.0027e-05 1.43669e-05 
4.48936e-05 -2.23121e-05 3.1135e-05 5.10882e-05 4.90338e-05 -2.58118e-05 4.16669e-06 -8.13462e-05 -5.16095e-06 
-1.13039e-05 -3.50039e-05 -2.49503e-05 -8.01375e-05 3.18419e-05 3.55973e-05 9.47697e-05 6.64219e-06 -9.23523e-07 
9.09133e-06 -7.63965e-06 -4.92891e-05 2.97081e-05 -1.80546e-05 -2.13594e-06 -7.31209e-05 5.51318e-05 -9.78783e-06 
1.64501e-06 4.777e-05 6.008e-05 -6.63487e-05 -3.23509e-05 1.62881e-05 -2.33141e-05 2.10295e-05 0.000101473 
-0.0001022 -9.87808e-06 -1.03991e-05 -8.21276e-06 -4.09642e-06 -1.54121e-05 2.01892e-05 -6.49081e-07 1.07493e-05 
-1.92169e-06 1.91082e-05 1.88566e-06 -1.84238e-06 -2.20583e-06 -5.49837e-06 -5.03548e-06 2.11376e-06 -4.24039e-06 
-1.19814e-06 2.43453e-06 -6.18062e-07 -6.10122e-06 1.53554e-06 -1.8961e-06 -3.03424e-06 2.87085e-06 -2.62054e-06 
-6.55631e-07 -6.93237e-06 8.02295e-06 -2.7409e-06 1.47868e-06 3.00087e-06 1.43232e-06 -1.20933e-06 -2.83288e-06 
-8.49463e-07 -1.69944e-06 -2.12474e-08 -6.27451e-07 -5.59312e-07 -4.59685e-07 8.08711e-07 -8.10519e-07 -2.55705e-06 
1.6313e-06 -1.26617e-07 -1.50077e-06 -2.0992e-06 5.68569e-07 -9.04923e-07 -1.68062e-06 -3.22055e-06 -5.67287e-06 
-5.65805e-07 -3.28359e-07 -3.31652e-06 -2.82145e-06 1.34547e-06 -7.31279e-08 -1.41298e-06 6.1199e-07 -9.51019e-07 
-1.03591e-06 1.00353e-06 -4.1225e-07 -2.19506e-06 -8.8488e-07 9.39761e-08 -2.90919e-06 -1.1719e-06 -2.19098e-07 
-0.0100487 -0.00126425 0.00451625 0.000401058 -0.000267703 -0.000627981 5.69171e-05 -0.00016576 -0.000160574 
-5.16498e-05 -3.98349e-05 -0.000109508 3.84583e-05 5.38121e-05 8.52376e-06 1.48913e-05 -1.26949e-05 1.02918e-05 
-1.06776e-05 -5.00153e-06 2.28274e-06 1.55214e-06 8.79744e-07 -2.26122e-05 -5.68655e-06 -1.23417e-05 -6.26085e-06 
-3.64135e-06 8.52402e-06 -8.67767e-06 1.55623e-06 -2.54155e-06 -4.39762e-06 2.78898e-06 2.10288e-06 -3.57054e-06 
-3.00937e-06 -1.35425e-05 -2.76191e-06 5.25617e-06 7.86381e-06 7.28846e-06 -3.43551e-06 -8.38884e-06 -1.25189e-06 
6.25654e-07 -3.37325e-06 1.29847e-05 -6.98267e-06 -9.67071e-06 1.07989e-05 -2.19191e-06 5.76654e-06 7.158e-06 
-7.62296e-06 -8.55196e-06 1.53853e-05 -6.40016e-06 -4.67331e-06 2.29208e-05 1.19462e-05 -1.1817e-05 1.7231e-05 
-3.79744e-05 -1.66704e-05 1.48214e-05 -6.54776e-06 -1.4054e-06 1.70127e-06 1.27296e-05 -4.08333e-06 -3.26635e-05 
-1.29555e-05 2.42492e-05 -4.13791e-05 3.04041e-05 2.4553e-05 -2.48705e-05 1.82714e-05 1.33977e-05 -1.08121e-05 
3.31313e-06 1.00282e-05 2.81864e-06 -2.89215e-06 1.34638e-06 4.97431e-06 -4.21814e-06 -3.15998e-06 8.51061e-06 
-2.76881e-06 -7.61697e-06 9.07217e-06 -5.28123e-07 -1.23381e-05 -7.73766e-06 -3.53197e-06 -5.73994e-07 1.08278e-05 
7.08003e-06 -1.60328e-06 2.0101e-05 -1.07085e-05 -1.03727e-05 2.43123e-06 -0.00184992 -2.94248e-07 -1.98393e-06 
2.84437e-06 -2.65355e-07 2.43056e-06 8.53572e-07 -2.40296e-07 2.40192e-06 2.44144e-07 3.03192e-07 2.80068e-06 
6.02486e-07 -2.15074e-06 -1.67113e-06 -2.87763e-06 2.56419e-06 -1.20501e-05 -9.59837e-06 3.47042e-06 -1.80656e-05 
-3.94279e-06 -2.21599e-05 -1.26059e-05 1.45295e-05 -5.58274e-05 -8.2028e-06 1.15925e-05 -7.1865e-05 -6.66638e-06 
1.24747e-05 -3.75338e-05 -3.58259e-05 3.54433e-05 3.98523e-05 -7.09452e-06 5.28799e-05 7.21765e-05 5.67015e-06 
6.87277e-05 3.64535e-05 4.03723e-05 7.16668e-05 3.91813e-06 5.6112e-05 6.13351e-05 -1.5515e-05 7.7589e-05 
7.28032e-05 5.25787e-05 -0.000885935 0.000643146 -0.010125 -0.00344279 -0.00154816 0.021819 -0.00115957 
-0.00755314 0.00134726 7.119e-05 0.000916597 0.00688601 0.00281867 -0.00146267 -0.000245412 0.00577035 
-0.00236426 -0.00369227 -0.000580597 2.02511e-05 -0.00653945 -0.00267939 0.00123156 0.00491642 -0.00480252 
0.00141516 0.00152571 0.00647507 -0.00202882 -0.00113634 0.00151565 0.000143314 -0.00616457 -0.00146644 
-0.000398056 0.00444198 -0.00430896 0.00162022 0.00163739 0.00642433 -0.00185294 -0.00202105 0.00117193 
-0.000278534 -0.00336369 -0.0003388 0.000487009 -0.00443438 -0.00244632 0.00112793 0.00194714 0.00162424 
0.00143513 0.000137306 0.00296148 -0.0007763 -0.00131961 0.00114754 -0.000107941 -0.00508597 -0.00144393 
0.000385182 -0.00135374 -0.00527605 0.00133402 0.00340083 0.00845695 0.0088669 0.00738847 -0.00465489 
0.0076542 0.00671035 -0.00308656 0.00744924 0.00645525 -0.00293645 0.00805587 0.00664169 -0.00292988 
0.00760469 0.00650758 -0.00285086 0.00693549 0.00720041 -0.0028833 0.00707314 0.006472 -0.00310469 
0.00679556 0.0066247 -0.00301271 0.00715309 0.00680211 -0.00282452 0.00561797 0.00640841 -0.00265627 
0.00608091 0.00761697 -0.00238418 0.00633755 0.00886758 -0.0018781 0.00469799 0.0175721 -0.00325196 
-0.00681806 0.00130941 -0.0143622 -0.0123784 -0.00797625 -0.0087321 0.00294755 -0.00468333 -0.00325801 
0.00311703 -0.0103827 -0.00735699 0.00430384 -0.00665888 -0.0100258 0.00173564 -0.0059475 -0.00689921 
0.00253463 -0.00599405 -0.00721653 0.00222215 -0.00640339 -0.00635461 0.00199251 -0.00617035 -0.00663298 
0.00232201 -0.00571681 -0.00678175 0.00242587 -0.00618734 -0.00723136 0.00242668 -0.00518165 -0.00338312 
0.00498082 -0.00912523 -0.00851852 0.00412067 -0.0117306 -0.00637655 0.00592097 -0.00511328 -0.00217124 
-4.6118e-06 -1.88777e-06 -1.78075e-06 1.13648e-05 -5.32205e-06 3.71493e-06 0.000776781 1.01091e-05 -0.00267462 
-6.80487e-05 -0.00271134 0.0096549 -0.00416837 -0.00511952 -0.000545428 -0.00505754 0.0112282 -0.0113802 
0.00294023 -0.0170247 0.00309101 0.00268362 0.00215536 0.000402832 2.92346e-06 -0.00283798 4.98436e-06 
-3.50779e-06 9.77843e-07 9.10216e-07 1.52395e-06 8.14162e-07 5.21658e-06 2.96817e-07 5.02864e-06 -2.22738e-06 
6.58096e-08 2.1765e-06 -7.2744e-08 -5.86257e-07 4.86855e-06 1.44023e-06 2.73292e-06 3.33754e-06 -3.24578e-06 
-2.29944e-06 2.00573e-06 -1.71545e-06 -1.69308e-06 5.23577e-06 5.62347e-06 -3.44737e-06 6.87231e-07 3.03572e-06 
-2.82916e-06 -8.10692e-07 1.6131e-06 -2.0072e-06 2.26015e-06 1.95896e-06 -2.27808e-06 2.12158e-06 1.61871e-06 
3.67326e-07 -2.50754e-06 -5.69941e-08 -1.44769e-06 -1.69312e-06 1.49061e-06 1.50519e-06 -1.16483e-06 2.97721e-07 
-1.266e-06 -2.3661e-06 -3.10325e-06 1.12334e-06 1.99895e-06 -5.96058e-07 1.40962e-06 -8.85045e-07 -2.29814e-06 
-2.61982e-06 9.51823e-06 2.3048e-05 -5.63729e-05 0.00014379 -9.91252e-05 0.00035074 -0.000155687 9.86805e-07 
0.000272616 -0.000712477 -0.000136447 0.000102812 0.000111825 -4.36051e-05 6.12325e-05 -1.17379e-06 5.65511e-05 
8.93748e-07 -1.25729e-05 1.89748e-05 -1.50453e-06 8.8903e-06 -4.35687e-05 1.00684e-06 2.21684e-05 1.50247e-06 
1.19023e-05 8.3667e-06 -1.07324e-05 -9.08014e-06 -2.25258e-06 6.45289e-06 2.39722e-06 -4.05297e-07 -1.24529e-05 
-3.27722e-07 1.02665e-05 4.34398e-06 -2.00896e-06 -7.73415e-06 -1.14502e-05 -1.60792e-05 -9.47503e-06 6.17992e-06 
-1.16545e-06 -6.5214e-06 -1.11974e-05 3.2464e-07 2.30358e-06 1.00192e-05 -1.08811e-05 -1.42242e-05 1.2469e-08 
-1.16913e-05 -4.5992e-06 5.08751e-06 8.14936e-08 -4.64391e-06 -5.62789e-06 1.71296e-06 -1.66247e-05 9.87138e-06 
-2.05312e-05 -1.4196e-05 1.8763e-05 1.98703e-05 -1.27036e-06 -3.79278e-05 3.82827e-06 6.23007e-06 -6.69523e-06 
-9.85068e-06 9.06308e-06 -7.92123e-05 4.11252e-05 1.84984e-05 -4.93705e-05 5.13119e-05 2.63187e-05 -2.30187e-05 
1.04159e-05 -1.00157e-05 3.3206e-05 -6.70085e-06 -1.03751e-05 -1.18017e-05 2.30093e-06 4.08748e-06 1.67509e-05 
-6.94265e-06 4.09252e-06 5.32587e-06 -1.00173e-05 -1.24869e-05 -5.10747e-06 -1.86738e-05 1.50908e-06 7.11427e-06 
-1.31948e-06 -2.5587e-06 -2.75634e-06 4.28196e-06 -5.80838e-06 5.10099e-06 3.39264e-06 -0.000460593 -0.000269228 
-3.73344e-06 1.13406e-06 6.01014e-06 -1.27588e-05 -6.72384e-06 3.605e-06 2.73094e-06 -0.000385024 0.00371351 
2.12738e-06 5.34076e-06 0.000388437 -1.77321e-05 -1.63414e-05 7.53217e-06 3.61461e-05 -2.53525e-05 7.81324e-06 
5.08163e-05 -5.22107e-05 -1.25825e-05 3.78258e-05 -7.60043e-05 -3.08474e-05 3.45933e-05 -2.99589e-05 8.26425e-07 
6.14732e-05 -1.32711e-05 1.03745e-06 6.57279e-05 4.28413e-05 -1.66205e-06 4.16013e-05 0.000129161 -4.40753e-05 
1.60748e-05 0.000287857 -0.000147008 -1.99436e-05 -2.07945e-05 0.00351734 0.00171974 -0.00203843 0.000838894 
0.000224952 0.00364355 -3.4841e-05 0.000431429 -0.00057796 0.00116062 0.00017626 -0.000360683 0.0017095 
-0.000306984 0.000143448 0.00017432 -6.98945e-05 -0.000281589 0.000240467 5.31809e-05 -0.000653447 0.000541938 
0.000253881 -0.000705661 0.000475994 -2.5886e-05 6.82039e-05 0.0001148 -0.000269078 -0.000267672 0.000260268 
2.43471e-05 -0.000656761 0.000517889 0.000235693 -0.000145566 0.00122402 -0.00020307 -0.00012929 0.0010584 
0.000128743 -0.000166068 0.000604925 -0.000206931 -0.00108972 0.000267186 9.18554e-05 -0.00103523 0.000110933 
-0.000150031 -0.0010534 0.00123658 -0.00018034 0.0006686 0.0011736 1.00043e-05 -1.14578e-05 -0.00688519 
-0.000205049 2.3543e-05 -0.00116246 -0.000796317 -0.00433395 -0.00119249 -0.000874456 -0.00175575 -0.000963477 
-0.000108613 -0.00195354 -0.000886116 2.48646e-05 -0.00174319 -0.000888901 0.000147451 -0.00141797 -0.00113502 
0.000165894 -0.00139103 -0.00117969 0.000184568 -0.00122391 -0.00122902 0.000156439 -0.00109506 -0.00119994 
0.00019198 -0.000849255 -0.00145115 0.000226368 -0.000783559 -0.00174114 0.000202325 -0.000963937 -0.00125487 
5.4397e-05 0.000376319 0.000640837 -1.08104e-05 0.00176987 0.000417652 0.000319008 -0.00111239 0.00139312 
5.32154e-05 0.000128749 0.000860795 0.00137644 0.000528795 0.00072985 -9.11496e-05 0.000465767 0.000549242 
-0.000229471 0.000550875 0.000515462 -0.000260602 0.000503967 0.000583796 -0.000228937 0.000471046 0.000619587 
-0.000217003 0.000916911 0.000604123 -0.000250683 0.00164673 0.0016392 5.90943e-05 0.00126755 0.000770438 
0.000317095 0.00394505 0.00263437 6.36082e-05 -2.77395e-06 4.88207e-06 3.54153e-06 4.60679e-06 -0.00170019 
-0.000302536 0.000187276 0.000272277 0.000366309 0.000609006 0.000118468 0.00127673 0.000442546 3.88657e-05 
-3.28689e-05 0.000367564 -3.617e-05 3.86007e-05 2.46097e-05 0.000384475 -0.000455158 0.000642962 -0.000280098 
-4.53383e-06 -3.70881e-06 1.21728e-05 8.23586e-06 -7.47257e-07 -2.92172e-06 1.03759e-06 0.0011173 -9.19441e-06 
4.61142e-06 -0.000850589 0.00261644 -9.27201e-05 0.000757242 0.000314251 3.43667e-05 -9.49391e-05 -0.00290964 
-0.000279571 -0.000192537 -0.000248969 -0.000229633 -2.35503e-05 0.000568794 -0.000324755 -3.34938e-07 1.53434e-06 
2.93463e-06 -7.73362e-06 -9.34179e-08 -2.69316e-06 6.49375e-07 -4.91612e-06 4.59074e-06 -1.17288e-06 -1.92024e-06 
2.83974e-06 5.7263e-07 -7.17004e-06 -6.51392e-07 1.00693e-06 -1.116e-06 1.69415e-06 3.23811e-06 -3.78881e-06 
-9.38043e-07 1.24758e-06 -3.25077e-06 -9.74756e-07 7.08983e-07 -5.02221e-06 2.75241e-07 -1.009e-06 -5.2867e-07 
-5.25477e-07 -1.98565e-07 9.73766e-07 -7.18001e-07 5.16865e-07 1.14068e-06 6.98997e-07 3.30056e-06 -1.594e-06 
3.64104e-07 -1.96722e-06 -8.13286e-07 2.02044e-06 2.12277e-06 2.48079e-06 9.62439e-05 -6.08981e-05 -9.7896e-07 
1.71269e-05 -1.53198e-06 2.03685e-06 -4.55781e-07 0.000151203 -0.000149299 0.000145362 7.57526e-05 8.522e-05 
-2.01446e-05 -2.18144e-05 -2.47992e-05 7.59997e-06 -9.99852e-06 1.78861e-06 1.40873e-06 8.00935e-06 -6.68084e-07 
9.05686e-06 2.27254e-06 7.23141e-06 6.12136e-07 -2.06767e-05 -7.24769e-06 -4.62839e-06 1.26627e-06 -4.83106e-07 
1.33659e-05 7.6865e-06 4.95789e-06 -8.33652e-06 -8.81558e-06 -4.01796e-06 -8.65983e-07 1.31145e-05 -1.21232e-05 
-1.65959e-05 -6.27525e-06 -8.00357e-07 1.28537e-06 -1.70163e-05 1.10752e-05 -5.6452e-06 1.8884e-06 -6.10282e-06 
4.94514e-07 6.31244e-06 -7.452e-06 -1.11674e-06 -1.71259e-06 1.48541e-05 -7.19343e-06 1.11459e-05 2.58604e-06 
-8.96959e-06 9.05305e-06 -2.69027e-05 1.09471e-05 8.87827e-05 -1.45206e-05 -1.30573e-05 -5.8012e-05 -0.000107433 
-8.32168e-06 -8.74869e-05 -3.14442e-05 -0.000129765 -0.000262295 -2.2295e-06 -0.00012207 4.64145e-05 5.76563e-06 
-3.09671e-05 4.58699e-05 2.49023e-05 -3.34179e-05 -3.85579e-06 9.25626e-06 -5.62408e-06 -3.56291e-05 -3.18624e-06 
9.30042e-06 1.48593e-05 -8.39992e-06 -4.2793e-06 5.98853e-07 2.15591e-06 -7.43181e-06 -8.78661e-06 -1.29474e-05 
5.76498e-06 -4.26669e-07 6.42591e-05 -1.53156e-05 1.19575e-05 3.80019e-06 -5.37352e-06 9.10636e-06 -0.000135586 
0.000134954 -2.94091e-06 2.18944e-05 3.96231e-08 -9.80444e-06 -2.62535e-06 -4.00848e-05 -6.53071e-07 2.7928e-05 
-4.74855e-05 3.90214e-05 5.58183e-05 3.14547e-05 -3.17091e-05 3.31167e-05 -0.000212062 6.10308e-05 8.5993e-07 
-4.15251e-06 3.80608e-06 -1.62195e-06 -6.90178e-05 0.000243868 -9.5872e-05 6.57359e-05 -5.26712e-05 -1.78218e-05 
5.2014e-06 6.38081e-07 1.87277e-05 4.38455e-06 1.7746e-05 5.41053e-05 -7.97179e-06 -6.49656e-05 0.000115574 
-1.20803e-05 -4.42556e-05 1.60506e-05 3.23137e-05 -7.78428e-05 2.46489e-05 1.38714e-05 -2.41279e-05 2.66256e-05 
4.77485e-05 -5.53823e-05 5.34871e-05 2.40488e-05 -5.36691e-05 4.39233e-05 9.18714e-06 -3.54682e-05 1.16901e-05 
6.25581e-06 -0.000170577 0.000126143 -5.12854e-05 0.000103819 -0.000419699 6.18436e-06 -0.00029975 0.00056123 
0.000601427 6.01093e-05 -5.87804e-06 -1.16156e-05 -1.84977e-05 -5.93482e-05 -2.96357e-05 -2.33155e-05 -1.75252e-05 
-2.13658e-05 -2.63339e-05 1.21003e-05 -4.91717e-05 1.24799e-05 -7.47493e-05 -3.60209e-05 1.75556e-05 -5.59336e-06 
-6.27693e-05 1.53599e-05 2.96975e-05 -8.06821e-05 3.23028e-06 2.73238e-05 -7.9691e-05 0.000191568 -9.59612e-06 
0.00040267 -1.45588e-05 -7.22926e-05 -2.2592e-05 0.000131517 7.3706e-07 6.0152e-06 -1.0481e-05 5.33471e-05 
2.02459e-05 9.536e-06 -1.60062e-05 -3.6472e-05 7.29627e-06 -4.69734e-05 -9.7696e-06 -4.9773e-05 -9.38694e-05 
-2.97014e-05 -0.000104548 -7.88854e-05 -1.0725e-05 -0.000213238 -0.000136101 -5.89614e-05 0.000217611 7.13489e-05 
-0.000139191 -0.000246533 8.30092e-06 -0.000110665 4.61465e-05 -5.27404e-05 3.5633e-05 0.000148406 3.51249e-05 
9.85635e-06 -5.13862e-05 0.000287379 -0.000141049 -0.000193781 -0.00013209 8.17263e-05 -4.42465e-05 0.000103526 
3.1815e-05 8.7154e-06 5.58242e-05 2.90497e-05 -6.2897e-06 0.000310029 -0.00102271 0.000172192 0.000224899 
5.49163e-05 -0.000110365 5.28699e-06 -3.87134e-05 -2.30892e-06 -1.1866e-05 8.94542e-06 -3.45877e-06 -3.11489e-06 
0.000208211 2.86159e-06 5.14235e-06 1.82727e-06 -1.02926e-05 -2.037e-05 -7.98612e-05 0.000140671 0.000136531 
-4.86902e-06 -1.42362e-06 5.58931e-07 -3.00438e-06 6.32392e-05 -0.000228014 9.07087e-07 3.09475e-07 4.04839e-06 
-2.43721e-05 7.12862e-05 0.000492808 -0.000140893 -8.74111e-05 0.000414005 -2.96516e-06 2.60414e-06 3.96231e-05 
-6.09119e-05 6.20651e-06 1.7157e-05 -3.96591e-05 -2.84535e-05 -5.86147e-05 0.000117993 -1.71091e-05 -6.92074e-05 
0.00017119 9.89467e-05 -0.0001253 -6.15428e-05 7.3493e-05 0.000537092 -0.000238116 8.94121e-05 -0.000232113 
0.000318912 -7.77616e-05 -0.000167618 -1.33737e-05 -0.000410061 -3.855e-05 -6.10316e-05 0.000295876 4.67985e-05 
0.000439068 0.000123393 -5.06027e-05 -4.26967e-06 1.08559e-06 0.000127006 0.000191434 5.98898e-06 0.00013993 
-4.73086e-05 0.000197325 -0.000145127 9.17486e-06 -0.000251149 -0.000134744 0.000176256 0.000106521 -7.46952e-05 
-0.000157722 4.08e-06 2.01655e-06 1.43541e-06 2.91947e-06 -9.50676e-07 -1.86592e-06 -6.70802e-06 -1.70159e-06 
-1.14168e-06 1.55169e-07 -3.28042e-06 -1.39301e-06 -4.53734e-06 5.03296e-09 -1.22431e-06 -1.99319e-06 -1.93856e-06 
-1.68792e-06 5.6581e-07 -4.49162e-06 1.27162e-06 1.24988e-06 1.53376e-06 3.30363e-06 2.06124e-06 6.40974e-06 
4.77437e-06 4.54807e-05 -0.000124468 7.43224e-06 1.51654e-06 -5.87443e-06 -6.01421e-06 -1.31799e-05 2.18713e-05 
-8.35335e-06 5.11254e-06 -4.94976e-06 -1.67424e-06 4.01628e-06 -1.01499e-06 6.45665e-06 -5.42771e-06 -5.53349e-07 
-1.02465e-06 -2.15904e-06 6.11001e-06 -7.38685e-06 -1.41343e-05 -1.69058e-06 -8.27344e-06 6.13681e-06 -8.48104e-06 
-2.00797e-05 -1.00037e-05 -1.68469e-06 1.33332e-05 7.97627e-07 1.94126e-05 -7.40833e-06 -8.10292e-08 -8.65283e-07 
-1.17838e-06 -7.97372e-06 2.20023e-05 -1.55331e-05 2.12635e-06 -5.47615e-05 2.76258e-05 0.000150189 8.11271e-05 
8.60028e-05 -0.000278468 -3.0078e-05 -1.71015e-05 -4.75578e-05 3.73487e-05 -9.17469e-06 -1.78632e-05 -9.57345e-06 
2.44984e-05 -6.84368e-06 -1.18752e-05 5.12409e-06 7.67719e-06 -8.72318e-06 -9.86848e-06 -9.51863e-06 5.3882e-06 
-1.35715e-05 -1.47304e-05 0.000154016 0.000205514 5.13002e-05 -1.75771e-05 2.14048e-05 5.76767e-06 -5.79412e-06 
-1.3523e-05 4.98534e-07 -1.26843e-06 -2.88265e-06 -4.85275e-05 1.2405e-05 3.09774e-05 5.32572e-06 0.000331224 
7.70881e-05 5.63509e-05 8.56021e-05 -0.000351265 5.35112e-05 -2.42706e-05 -8.87474e-05 -3.43335e-05 -1.64265e-06 
6.63121e-05 6.11451e-05 -6.11474e-05 -5.82404e-06 1.61313e-05 -7.24459e-06 1.80408e-06 -1.86709e-05 0.00032619 
2.60159e-05 -8.23196e-06 -4.20257e-05 2.39278e-05 1.17735e-05 1.35923e-05 -2.99729e-07 8.13467e-06 -2.54871e-06 
-6.13767e-06 1.9774e-05 3.87487e-05 -3.34486e-06 2.14537e-06 2.24057e-05 4.46721e-07 1.423e-05 2.08587e-05 
-1.85814e-05 -4.30249e-06 2.43463e-05 -3.8521e-06 -4.57121e-05 5.33652e-05 8.72936e-06 -1.61056e-05 -2.83409e-05 
9.96855e-05 -8.88807e-05 2.06235e-05 0.000154189 0.000168513 1.17394e-05 3.81381e-05 0.000107883 -6.46884e-06 
6.07398e-06 5.99503e-05 -5.84801e-06 -5.06206e-05 -8.72506e-05 2.8647e-05 7.32814e-06 -1.87142e-05 2.27564e-05 
-5.84657e-05 -1.00105e-05 8.57604e-06 6.01278e-06 -1.04082e-05 -5.04392e-06 -1.98308e-06 -2.39997e-05 -6.83055e-07 
4.65518e-05 -4.27523e-05 -9.9697e-05 -4.04599e-05 3.877e-05 -3.27733e-05 7.73912e-05 -3.33958e-05 -4.18429e-06 
-2.61774e-05 -5.10252e-05 -1.54807e-06 -9.55773e-06 7.19125e-06 -0.000104415 -0.000101271 6.86919e-05 -3.91639e-05 
-6.30856e-05 0.000198341 0.000409074 -5.90605e-06 -1.24603e-05 -4.02103e-05 -2.92806e-05 -4.41752e-05 4.68533e-05 
-3.89899e-05 -3.07994e-06 -4.82918e-06 -1.242e-06 -7.53052e-06 0.000284839 -2.64319e-05 1.81145e-05 -2.35586e-05 
-0.000103467 2.22196e-06 2.35018e-06 -9.5499e-07 5.12097e-05 -3.58097e-05 6.78684e-05 -3.66038e-05 3.75841e-07 
9.70685e-06 -4.18856e-05 0.000119539 4.50652e-05 -0.000139806 3.77723e-06 -6.2899e-06 9.26003e-06 9.9999e-06 
-7.50204e-06 9.11964e-05 -2.10186e-05 -4.77041e-05 1.43936e-05 -6.49212e-06 7.9373e-05 2.36652e-05 2.40456e-06 
-6.39018e-06 -0.000195509 6.3607e-06 6.83096e-06 3.27306e-06 3.58501e-05 8.90167e-05 1.68305e-05 4.92818e-05 
3.30486e-06 0.000149969 -4.54364e-05 -1.78962e-05 0.00015528 -1.46265e-06 3.18643e-06 5.27187e-05 1.67614e-05 
-0.000238755 1.66059e-05 -6.5295e-05 -0.000124337 0.000124374 -3.55517e-05 -2.07603e-05 2.87511e-05 -4.14359e-06 
4.03236e-05 -7.46886e-05 7.17001e-06 1.96824e-07 2.66633e-06 -1.7959e-06 -0.000107097 -7.81776e-05 -9.44634e-06 
-6.84728e-05 8.05284e-06 5.01194e-05 3.46783e-05 3.10738e-05 -0.00013401 -4.9952e-06 -7.41014e-05 1.80479e-06 
-1.83093e-05 0.000113677 9.61676e-05 -9.46286e-05 1.19717e-05 -1.55504e-05 -0.000229769 1.61632e-05 -5.365e-06 
1.23347e-06 0.000213037 -1.43174e-05 -4.2938e-06 4.2187e-05 -0.000114878 -0.000116529 -9.72399e-05 9.2141e-05 
7.34333e-05 -8.04827e-05 -8.12861e-05 -3.51736e-05 -3.78114e-05 -1.48698e-05 -1.1907e-06 4.65025e-05 -1.51618e-05 
-1.38936e-07 -4.97817e-05 -4.27042e-06 -8.77543e-07 -2.5688e-06 -1.32096e-06 3.23718e-06 1.05428e-06 -3.73549e-06 
-1.0967e-05 -3.55701e-06 1.11841e-05 -1.36556e-06 8.47629e-06 -9.35447e-06 7.04495e-05 -4.53709e-05 1.51194e-05 
1.60533e-05 -3.20367e-06 -2.63142e-06 2.074e-06 -2.5701e-06 1.07273e-05 -4.44796e-07 1.84656e-05 -1.50818e-06 
-1.00784e-06 -4.38136e-06 1.95763e-06 -3.86521e-06 8.66447e-07 -6.65147e-06 -3.36712e-05 -2.65929e-06 -3.85888e-06 
-4.04141e-07 -6.96112e-06 -2.73e-05 -2.04287e-06 -1.85745e-06 1.13619e-05 -1.33011e-05 4.16614e-06 -2.35964e-05 
9.68971e-06 -1.95233e-05 -5.51706e-07 3.82373e-06 -3.41172e-06 9.84489e-05 -0.0002518 -7.68782e-05 1.83728e-05 
-4.14698e-05 -5.38658e-05 -2.73669e-05 -3.40846e-06 -4.13446e-06 -3.85034e-06 -2.3742e-05 1.79916e-06 -6.25142e-06 
1.90477e-06 -2.45297e-05 4.40531e-05 9.16682e-06 -1.46263e-05 -4.87544e-05 -1.11828e-05 3.13985e-05 -8.37438e-06 
-0.000130101 2.57631e-05 -2.29931e-05 4.18384e-05 3.64592e-05 2.57652e-05 -0.000109657 -4.39419e-05 2.81146e-05 
-7.65909e-05 4.41876e-05 -3.18082e-05 2.38932e-05 -2.38196e-05 -1.66168e-05 -3.23083e-06 -1.39385e-05 -7.3773e-05 
3.73939e-05 3.50603e-06 1.2465e-05 -1.39363e-05 9.98644e-06 -2.02842e-05 1.44235e-05 -1.00054e-05 -1.59258e-05 
8.33095e-06 1.48459e-05 -7.26381e-06 5.99601e-06 6.59169e-06 -1.13853e-05 -1.11926e-05 2.77675e-05 -2.92147e-05 
-4.0813e-06 -1.58389e-05 3.45645e-05 -3.20769e-05 5.565e-05 -4.81602e-05 9.0785e-05 -0.000182381 2.16611e-05 
6.82115e-05 3.55229e-05 1.37401e-05 -5.3412e-05 -4.0904e-06 -8.23047e-08 2.84868e-06 -4.97814e-06 -4.62635e-06 
2.20826e-06 -7.66236e-05 -1.48439e-05 -0.000131848 3.8471e-05 5.07248e-06 -4.81358e-05 1.15418e-05 -2.95966e-05 
9.08502e-06 -4.28242e-05 1.378e-05 -2.97652e-05 -2.04528e-06 -6.24532e-05 -2.56678e-05 7.63791e-05 -8.40789e-05 
-0.000139003 3.33201e-05 -5.41792e-06 -3.92147e-05 -1.81043e-05 -2.99191e-05 -5.46337e-05 -2.89507e-05 2.14932e-05 
1.57901e-05 -1.30713e-05 -1.62584e-05 2.29302e-05 -8.42146e-06 1.48021e-06 -3.68399e-06 -1.22699e-05 -5.25908e-05 
3.5171e-05 -1.51208e-06 4.65257e-05 -2.53662e-05 -6.21923e-05 -7.09162e-06 4.83093e-05 -3.8308e-05 9.867e-05 
-8.28314e-05 4.72926e-06 1.72002e-05 -1.23403e-05 -9.86396e-06 3.11542e-05 -2.14486e-05 4.69563e-05 4.34963e-06 
1.23806e-05 7.75819e-05 1.26974e-05 4.46788e-06 5.76137e-06 4.34199e-05 3.43421e-05 1.10751e-05 -1.69138e-05 
-5.89551e-05 -5.51867e-05 0.000210119 -1.58965e-05 2.23913e-06 6.75306e-06 -3.729e-06 7.23712e-07 1.28574e-05 
3.30851e-05 -4.6914e-05 2.11742e-05 5.98607e-05 -6.03538e-05 -3.62322e-06 -1.81573e-06 -6.7614e-06 0.00011101 
6.68513e-06 4.64743e-05 2.47868e-06 -3.84931e-05 -4.42782e-05 5.84508e-05 9.76885e-05 3.52799e-05 2.42381e-05 
2.3891e-06 -1.2195e-05 4.5906e-06 -1.43335e-05 -5.67397e-05 -6.92567e-05 -4.43791e-05 -6.47124e-05 1.30297e-05 
-2.70038e-05 4.94362e-06 4.99665e-05 8.22798e-05 -0.000150433 0.00016929 -1.38523e-05 -1.44039e-05 -8.3743e-06 
7.50289e-06 -1.24401e-05 -9.42272e-06 -7.32938e-06 1.94026e-05 -2.63971e-05 -2.2004e-06 -1.07117e-05 4.94388e-06 
1.03262e-05 2.69706e-06 -6.18031e-06 -1.84003e-05 -1.18408e-05 -0.000102341 2.45451e-05 -0.000146122 -1.5752e-05 
4.10396e-06 3.46703e-05 7.86709e-06 -3.21171e-05 -4.72539e-05 -1.52071e-05 1.10444e-06 2.13132e-05 -5.57769e-06 
5.19675e-05 -5.4598e-06 1.28141e-05 6.9455e-05 -6.82154e-05 -4.79015e-05 4.76007e-05 3.79092e-05 -9.27834e-07 
-2.09284e-05 -1.29616e-05 8.43917e-07 2.95236e-07 1.38903e-05 8.42987e-05 -8.1663e-05 -2.39084e-06 7.04896e-05 
1.92059e-05 -2.04844e-05 -3.02393e-06 -2.03572e-05 2.29544e-05 0.000124015 5.37479e-05 -5.28579e-05 1.03957e-05 
4.90537e-05 5.87145e-05 1.49753e-05 2.58707e-05 8.65324e-05 4.40439e-05 1.69298e-05 -0.000110719 2.39078e-05 
3.98552e-05 -1.38925e-05 2.11075e-05 -6.03289e-05 -3.18783e-05 -1.24845e-06 6.67271e-06 -3.12213e-06 1.68553e-06 
-1.66814e-05 4.98806e-06 -1.43648e-05 2.09779e-05 3.50115e-05 1.77348e-05 -9.90801e-06 -6.09056e-05 -1.81228e-05 
0.000138278 2.25935e-05 2.56731e-05 -4.44763e-05 2.7863e-05 -3.19143e-05 1.51128e-05 -1.78076e-05 -5.75182e-06 
-2.53821e-05 -2.69154e-05 6.86086e-05 -1.86177e-05 -3.36419e-05 2.67676e-06 1.13586e-05 1.77128e-05 -7.26012e-05 
1.38676e-05 -5.09261e-05 6.82525e-05 -5.8151e-05 -4.10138e-05 2.27008e-05 1.33427e-05 3.47677e-05 9.41527e-05 
-5.11751e-05 1.80131e-05 -6.96116e-05 -3.41951e-05 -5.39915e-06 5.89584e-06 1.87692e-05 -2.26667e-05 6.1063e-07 
-1.18339e-05 -4.81094e-05 1.98961e-05 3.55368e-05 2.71176e-05 9.36943e-06 8.01189e-06 3.01803e-05 -6.3583e-07 
4.64194e-05 -4.16098e-05 -1.4874e-05 -2.77295e-06 -8.49589e-05 5.31664e-05 3.68168e-05 -3.57683e-05 -3.84996e-05 
6.71247e-06 1.30774e-05 1.20405e-05 2.46682e-05 -3.55001e-05 2.60318e-05 2.85189e-05 7.48046e-05 -1.11216e-05 
0.000119707 -5.90035e-05 -1.94537e-05 1.31631e-05 -3.1886e-05 -5.83327e-05 9.3383e-05 1.60609e-05 -2.13601e-05 
3.21862e-05 -6.7571e-05 -1.70992e-05 5.39002e-05 -3.83669e-05 8.76003e-06 -2.15668e-05 6.16234e-05 0.000130853 
-9.05419e-05 1.65213e-06 0.00338737 -0.0130645 -7.03301e-07 3.25366e-07 -3.46557e-06 2.88712e-06 -6.80971e-06 
6.39996e-06 -1.16458e-05 1.10218e-05 -1.4887e-05 1.42312e-05 -1.83207e-05 -0.000154785 -0.000374102 -0.000506011 
-0.000140197 7.75084e-05 -5.6549e-06 -0.000263451 0.00751308 -0.000129898 6.14777e-05 -1.869e-05 2.7899e-05 
0.000175519 -0.000196021 0.00017795 -0.000182097 -0.000115517 -3.46101e-05 -0.000175849 5.12257e-05 -4.57492e-05 
2.40745e-05 -2.65885e-05 -3.89013e-05 7.3082e-05 -0.000131359 0.000143392 0.000103406 -0.000109277 8.15796e-05 
0.00115062 4.5617e-06 1.4824e-05 -0.0171179 0.00893333 -0.00109841 -0.000831561 -0.000345957 -0.000155011 
-8.4357e-05 -6.98995e-06 -7.26933e-05 -2.75383e-05 3.28992e-05 -2.6773e-05 -5.39033e-05 2.42106e-05 -3.57678e-05 
1.96907e-05 -1.00956e-05 3.80465e-07 -2.78981e-05 3.788e-06 -3.37699e-05 2.81364e-05 -4.12575e-06 7.89403e-06 
-2.14137e-05 2.894e-05 -1.73631e-05 3.59825e-05 -1.19765e-05 3.54401e-05 2.07523e-06 1.00237e-05 5.12621e-06 
1.5429e-05 1.37283e-05 9.17946e-06 2.00553e-05 4.08544e-07 1.13713e-05 3.41959e-06 5.74938e-05 -3.08904e-05 
4.75016e-05 -7.4433e-05 1.56914e-05 -7.70522e-05 -3.28624e-05 -1.06097e-05 -1.44415e-05 -4.43157e-06 -2.72072e-05 
8.13636e-06 -3.10981e-05 3.00972e-05 -2.17852e-05 3.70465e-05 -9.82641e-06 3.22792e-05 6.70649e-06 7.83278e-06 
-2.54136e-06 1.53253e-05 8.96122e-07 1.78018e-05 9.44142e-06 1.64249e-05 -8.86112e-06 6.92825e-06 -1.72561e-05 
1.134e-05 -4.34891e-05 2.40938e-05 -2.21869e-05 -6.84264e-05 -1.05541e-05 -4.73356e-06 2.97821e-05 3.28391e-05 
-0.000145868 3.94576e-05 -7.64228e-06 -1.39999e-06 -3.37968e-06 -1.94927e-05 8.26862e-06 -2.547e-06 -3.90632e-06 
-1.23968e-06 -1.49767e-06 -1.59146e-06 -5.4879e-06 4.47758e-06 -1.36235e-06 6.19235e-07 -6.50341e-07 -1.76411e-06 
-4.48682e-06 -3.22246e-06 -9.51721e-06 -7.04682e-06 -1.66464e-05 -3.84956e-06 -3.67734e-06 -3.47615e-06 -5.00956e-06 
-1.30082e-05 -8.83847e-06 -1.14294e-05 -5.39449e-06 -4.29047e-06 -2.0912e-06 -1.87463e-06 -3.29497e-06 -4.67631e-06 
-8.61178e-07 -2.06535e-06 2.78903e-06 -2.69974e-06 -2.58076e-06 -2.65756e-06 -1.11584e-06 3.15088e-06 8.49293e-07 
-1.44048e-07 -1.92966e-06 1.50099e-05 1.06723e-05 -6.99905e-06 -1.20575e-05 -2.49704e-06 -0.00525891 -0.00155854 
-0.0023975 0.000250615 -0.000375852 -4.34621e-05 -4.69434e-05 -0.000161399 0.000184721 7.71029e-05 5.91017e-05 
-0.000427709 -0.000192274 -0.000124925 -5.63831e-05 -8.66248e-05 -0.000119437 0.000458056 8.91306e-05 5.95861e-05 
8.30344e-05 0.000240467 0.000342439 0.00227521 0.00565723 -0.000534942 -0.00545199 0.00439947 -0.000324619 
-0.000115699 -0.000206391 -0.000234412 -0.000215065 9.65065e-05 -0.000327625 7.69511e-06 -0.000419416 -8.16354e-05 
5.84308e-05 -0.00010497 -8.22905e-05 9.21617e-05 -4.91395e-05 0.000120584 9.98006e-05 3.70532e-05 -0.000566635 
3.05464e-05 -0.000816308 -0.000368888 0.000352975 0.00025494 -0.00230228 0.00122043 -0.000486577 9.62587e-05 
0.000821363 -0.000824297 0.00211241 0.00375241 0.00355559 -0.00368346 0.0014919 -0.000863232 -0.000786007 
0.00111505 -0.000762032 0.00150734 -0.00111984 0.00112105 -0.00128153 0.00107243 -0.00176393 0.00058739 
-0.000970479 0.000748389 0.00415431 0.00370437 -5.64382e-05 0.00195355 0.00455303 -0.000976116 -0.00689129 
-0.00106542 0.000721502 0.00115859 -0.00341322 0.000516733 -0.000810906 -0.00105188 -0.000857914 0.000862762 
0.000778735 -0.000825969 -0.000991615 -0.0010482 -0.000925615 0.0022597 0.000727433 0.000898057 0.000838344 
-0.00100655 -0.000962306 0.000931845 -0.00102037 -0.00197449 -0.000511133 -0.000972499 0.000798835 -2.40701e-06 
1.21423e-06 -3.83795e-06 -3.16363e-08 -3.43931e-06 -6.11244e-06 -1.07768e-06 0.00675496 8.7053e-07 1.67141e-06 
-3.11342e-06 1.48712e-06 0.000144481 8.92394e-05 6.35254e-05 0.00603357 -8.09363e-05 1.77001e-05 0.000194577 
-0.000661813 0.00107483 0.000160579 7.01896e-05 4.25037e-05 -0.000124073 -4.35731e-07 -2.87999e-05 -1.42109e-05 
-9.15218e-05 -0.000387286 0.00104413 -1.97129e-06 8.50151e-07 -1.14362e-08 -0.000929882 0.00698539 -0.00328289 
5.29965e-06 -7.42367e-07 2.12605e-06 0.000882703 -0.00159169 -6.64587e-06 2.1332e-06 1.01304e-05 -0.000159611 
-8.16785e-05 0.000488463 0.00725962 0.00201154 6.50344e-07 -5.17682e-07 5.88395e-06 -1.4148e-06 -1.01022e-06 
-0.0031299 -0.00028633 0.000648438 0.00107426 2.40457e-05 1.60297e-06 2.1409e-05 -8.70453e-07 -4.16103e-06 
7.31121e-06 -1.73282e-06 -5.94767e-06 -5.3939e-05 3.90224e-05 4.0987e-06 -4.52453e-05 -0.000298923 0.000557271 
-0.000377361 1.32254e-05 9.8325e-06 -3.31184e-05 -5.14121e-06 -0.000245456 -0.000201352 7.00227e-06 4.70003e-05 
6.67635e-05 -8.68964e-06 0.000833118 0.00145868 0.000259069 -4.37964e-05 1.92773e-05 -0.000292266 6.12374e-05 
-1.39014e-05 4.67989e-06 -2.77522e-05 -2.18524e-07 -2.14121e-06 1.21684e-06 3.63851e-05 6.82652e-06 6.22716e-05 
-1.29091e-05 -3.66157e-07 -3.75249e-05 1.42791e-05 1.23355e-05 -1.78096e-06 1.75564e-06 7.80944e-07 2.67304e-06 
1.47189e-06 -1.8449e-06 3.29909e-07 -1.43883e-06 9.46216e-06 3.87916e-06 6.11065e-06 3.37592e-05 1.87008e-05 
4.82019e-06 -1.53291e-06 2.63061e-05 -2.36909e-05 -1.27882e-06 -2.97421e-06 -4.62089e-06 0.000583404 0.000417047 
0.000402671 -2.28995e-06 1.13031e-06 -4.58698e-06 1.73411e-06 3.98431e-06 2.63196e-05 -1.55723e-05 -8.43719e-06 
1.28696e-05 -1.41882e-05 4.51243e-06 -4.69713e-05 1.16301e-05 2.43343e-05 -4.53972e-06 8.78558e-06 -1.77816e-05 
-3.11887e-05 -1.21777e-05 -2.27722e-06 -0.00145602 0.00390759 0.00407516 -0.00310469 -0.000290176 -0.000217289 
7.27984e-05 -3.48969e-05 3.48033e-06 -5.2595e-06 -4.44828e-07 -7.7179e-07 -0.00011849 0.000419602 -0.011927 
0.0102883 0.00330789 -0.000311105 -8.62167e-06 6.92639e-06 -4.39506e-06 1.19402e-06 -5.53268e-06 1.05576e-05 
8.78777e-06 -4.74858e-06 -5.29885e-06 1.34951e-06 0.0131083 -0.00685785 -0.000462137 1.47421e-05 7.75711e-05 
2.25414e-05 -3.00134e-06 1.88049e-06 1.71091e-06 -4.38101e-07 -3.99225e-05 1.2765e-05 -1.09952e-05 -4.0357e-06 
-1.28427e-05 -1.38127e-05 8.12847e-05 8.9403e-05 5.318e-05 8.89595e-05 -0.000264089 0.000117025 0.00022611 
0.000258099 5.70888e-05 -3.00752e-05 -2.36305e-05 -7.2599e-05 5.4246e-05 2.15757e-05 -1.08525e-05 -6.01106e-05 
4.42827e-05 1.38369e-05 -2.09154e-05 3.41386e-08 -2.09621e-06 2.93479e-07 -6.63532e-08 -2.88013e-07 2.93192e-06 
2.07809e-05 -0.00104496 -0.000267316 -0.000471089 0.000813634 -0.000160154 -0.000689553 3.25758e-05 5.67329e-05 
-4.27334e-05 -3.33371e-05 -3.34605e-06 1.51328e-05 9.77159e-06 -1.41274e-05 -1.83341e-05 -1.48125e-05 -0.00673571 
0.000130559 -2.25909e-06 2.20117e-06 -7.10306e-07 7.22512e-07 1.71285e-05 3.60427e-06 0.000132759 0.00740141 
1.49725e-06 -2.9427e-05 -1.28921e-05 -0.0101441 0.00154465 0.000779956 -3.47153e-06 -1.54991e-06 -1.38441e-06 
1.07107e-05 9.80556e-06 1.57919e-05 1.57692e-05 -1.05874e-06 1.53114e-05 1.13785e-06 5.11549e-06 -3.01913e-06 
-7.89143e-06 1.7997e-06 5.6193e-06 -0.000118395 0.000151709 1.64524e-05 -7.50121e-07 -1.33941e-05 3.12914e-05 
1.48764e-06 2.34621e-06 -2.60574e-06 0.000201568 -0.00573156 -0.00148278 -1.42743e-06 1.10108e-06 1.06008e-05 
-1.03637e-05 -1.79313e-06 4.09278e-06 1.25545e-06 2.15432e-06 2.61604e-07 1.65379e-05 -1.14107e-05 2.155e-06 
4.65182e-06 8.75171e-07 0.000965686 -0.002201 2.38622e-06 -2.95258e-05 1.60199e-05 5.20448e-06 2.68045e-05 
-3.62789e-05 2.46948e-05 -3.70167e-05 9.76071e-06 -4.29368e-06 -1.43854e-06 5.37039e-06 1.29983e-05 -0.000337021 
0.000330019 -8.86489e-06 1.43583e-05 -8.14491e-05 -0.000104305 -1.06167e-06 -1.85902e-05 -0.000600806 -0.00834802 
0.00761408 -4.31502e-05 5.96299e-05 2.66286e-05 1.01774e-05 1.52457e-05 -2.41008e-06 7.32155e-05 0.000157891 
2.5891e-05 1.34636e-05 -4.84938e-07 1.16246e-06 -1.79101e-06 -1.09429e-05 3.99e-05 8.70854e-06 1.08147e-05 
5.66667e-07 4.85306e-06 -1.71332e-05 1.65631e-05 1.43026e-05 8.91318e-06 6.24491e-06 -1.11924e-05 -0.00620044 
-2.59522e-06 1.88363e-06 -1.46835e-06 -2.20863e-06 -1.26368e-05 4.29587e-06 5.7363e-06 -1.48434e-05 -0.000198974 
-0.000211918 2.44278e-05 0.00118815 -0.000943516 -0.00639219 8.7367e-06 -1.21224e-05 -5.82595e-06 -5.75315e-07 
7.88878e-05 7.82901e-05 0.00043329 0.00717028 -5.03273e-06 -1.13689e-05 4.78785e-05 -5.5807e-05 -2.90161e-05 
-2.34868e-05 4.01506e-05 4.23247e-05 -0.00137411 -0.00146122 0.000659831 -4.98169e-06 3.3766e-05 -6.93953e-05 
0.000425327 -8.39912e-05 -2.17891e-06 5.10595e-06 -8.34488e-06 -0.00138323 0.00207426 -0.0026004 0.00120396 
-1.83068e-06 1.52449e-06 -3.06456e-06 -1.18452e-06 -6.47425e-05 -3.31204e-05 -5.59666e-06 -5.89638e-05 0.000196211 
0.000339589 -4.65029e-05 1.92897e-05 1.3068e-05 -1.60169e-05 -5.19526e-05 -2.25968e-05 -2.93505e-07 6.61443e-07 
-1.53846e-05 -2.97788e-06 -4.47472e-06 1.02326e-06 -2.58374e-05 -0.000101888 -0.000116553 7.87693e-05 -0.000120551 
0.000225108 -0.00011797 0.000300691 -3.82014e-06 2.64282e-06 -5.57613e-06 6.43411e-07 4.12934e-06 1.46216e-05 
-1.72258e-05 3.3799e-05 -2.83211e-05 -1.09181e-05 0.00259721 -3.29763e-06 -4.61959e-06 0.000227914 0.000131831 
-6.0679e-05 1.06975e-06 8.93814e-07 -0.00408394 0.000884976 -0.00512957 -2.8392e-05 3.03179e-06 1.79541e-05 
7.65115e-05 -3.17929e-06 -2.48947e-06 -1.51804e-06 -9.07125e-05 -4.05758e-05 3.57534e-06 1.17907e-06 7.56995e-07 
1.13747e-06 9.37919e-07 -3.97442e-06 4.49719e-06 -0.000662763 0.000150939 0.000656404 -0.00131238 -1.02549e-05 
-7.18137e-07 -3.17965e-06 2.2426e-05 0.000119251 5.52422e-05 -0.000694558 -2.61072e-06 3.39206e-05 -4.37746e-06 
8.99035e-05 2.97566e-05 -6.7909e-05 -2.96121e-05 -0.000130444 5.37164e-05 -8.23266e-05 0.000147211 -0.000178662 
-1.47598e-05 0.000162364 -5.21512e-05 -1.17045e-05 9.60335e-05 0.000202295 0.00762598 0.000385036 -0.000494047 
3.90869e-05 -0.000114379 0.000153098 4.62938e-05 2.47126e-05 -1.11878e-05 3.24724e-06 -2.27777e-05 -1.06295e-05 
-2.90799e-06 3.87204e-06 2.01235e-06 6.07699e-06 -6.17792e-07 -6.5598e-07 2.43702e-06 -1.72108e-05 4.09746e-05 
-3.07047e-05 5.7934e-05 -0.000554016 0.00141861 -0.00135403 -6.33398e-05 -5.79472e-06 5.87135e-07 2.13817e-06 
-5.66801e-05 1.24802e-05 0.000152226 0.000103707 -3.78097e-05 1.93535e-05 3.10266e-06 -5.92211e-06 -1.24381e-06 
0.00082629 -1.42648e-05 -7.70168e-05 -4.51307e-05 1.97938e-05 -9.49767e-05 2.02906e-07 4.4476e-06 4.97804e-05 
3.94468e-05 -1.00816e-05 -0.00011803 5.37934e-05 -5.60477e-05 1.65515e-06 -7.23693e-05 2.26913e-05 -3.43255e-05 
-1.28461e-06 3.9568e-06 -9.81535e-05 -7.35988e-05 0.000131161 7.78039e-05 -8.35868e-05 -0.000108364 5.225e-05 
3.17168e-05 7.4484e-06 -8.24863e-06 -2.65897e-05 1.36221e-06 0.000122593 0.000148161 -4.71678e-05 0.000121158 
-0.000114692 0.000178486 -2.49032e-05 5.18985e-06 -0.000175512 2.80133e-05 0.000114422 7.05231e-05 2.12966e-06 
-3.68976e-06 6.15929e-07 6.46895e-05 4.28508e-05 -2.93897e-05 4.06892e-07 -1.56422e-06 -2.81598e-07 1.65581e-05 
1.62581e-05 0.000110501 -1.47542e-05 -5.11157e-05 7.88141e-05 4.55175e-05 7.1419e-07 -3.05432e-06 3.96725e-06 
2.78099e-07 0.00162587 -0.0001941 0.000951282 4.51782e-05 -3.39841e-05 3.26394e-05 -7.8261e-05 -6.70637e-05 
0.00015794 1.37393e-06 -5.45657e-06 -2.55032e-06 -3.45723e-06 -5.08717e-05 1.46746e-05 1.79332e-05 2.05754e-06 
0.00687654 6.38055e-05 -3.06706e-05 2.55823e-05 -8.14628e-06 2.14711e-05 8.99813e-07 0.000158763 5.61644e-06 
6.01118e-06 1.26937e-06 -5.14901e-06 -2.99711e-06 -2.30646e-05 5.88304e-06 -0.000111093 -6.34418e-05 -0.000287605 
0.000109997 -0.000139273 -5.43526e-05 0.00010748 -0.000941415 0.0014178 0.00100701 3.39947e-06 -0.000117768 
0.000159944 9.80327e-06 -8.5621e-07 -6.00381e-05 -3.03514e-05 5.18159e-05 -4.775e-06 -2.31394e-05 0.000122612 
-4.45961e-06 -1.11077e-05 4.90337e-06 -2.61458e-06 1.47183e-05 -8.03958e-06 9.67427e-06 4.34461e-06 0.00141772 
-0.000153618 -0.000993936 -9.76594e-06 3.75735e-06 -4.90043e-06 9.31779e-06 4.13798e-06 7.44469e-06 3.11287e-06 
-2.16943e-06 -7.89825e-05 0.00055335 -0.00123815 -3.76303e-07 -4.30929e-07 5.42876e-06 2.48603e-06 -7.2829e-06 
1.5263e-06 1.22829e-06 -6.01203e-07 -2.89493e-06 0.000269267 0.00170379 0.00664926 -0.00976941 0.00209872 
-9.76415e-07 -1.62727e-06 -1.37989e-05 -2.42811e-05 7.58722e-06 6.83949e-06 -3.64966e-05 -4.94294e-05 6.32802e-06 
1.20598e-05 2.54852e-06 9.55243e-05 5.25982e-05 -1.13343e-05 3.84171e-05 -5.56024e-05 0.000278938 5.64028e-06 
1.67816e-07 5.02272e-08 -1.05299e-05 -1.66412e-05 8.70419e-07 -4.66952e-05 1.09597e-05 -0.00292391 -1.79357e-05 
2.26862e-05 -1.65082e-05 -9.285e-06 4.25197e-05 -4.02408e-05 3.44461e-05 -9.89183e-06 1.79212e-05 -1.00976e-05 
-3.65352e-05 2.71347e-06 1.79823e-05 1.02216e-05 2.69651e-06 2.40506e-06 5.30566e-06 -8.72798e-06 8.66846e-06 
-1.37119e-05 3.42514e-08 -9.14827e-05 1.7027e-05 -4.19494e-05 1.26752e-05 4.29985e-05 1.03045e-05 7.68746e-05 
6.30294e-06 -7.43112e-05 2.0413e-05 -2.55422e-05 -1.98687e-05 -9.86471e-06 -7.60656e-06 -2.47236e-06 2.65475e-06 
3.35564e-06 1.04308e-05 1.19686e-05 -0.000862849 -4.0453e-05 -0.00182905 1.94077e-05 -4.14017e-06 -9.96234e-06 
2.47944e-05 -4.54279e-06 -3.44678e-05 3.16776e-05 -3.00551e-05 9.04156e-06 2.70272e-06 4.52267e-06 3.57413e-05 
-0.000492547 -0.000261795 6.04766e-06 9.07383e-06 2.26989e-05 1.26002e-05 -1.17671e-06 -1.24545e-05 -5.73428e-05 
4.14497e-05 -0.000232002 -0.000580657 -0.00344515 -0.000945723 -6.6565e-05 6.97812e-06 1.32783e-05 -6.12997e-05 
8.43255e-05 -7.72781e-05 -1.87282e-06 7.72792e-05 -0.000167618 8.98948e-05 -1.71167e-05 -1.60133e-06 2.94395e-05 
-2.53551e-05 4.46371e-05 -8.07613e-05 -4.34889e-05 4.98606e-06 -0.000250783 2.59624e-06 4.30365e-06 3.59822e-06 
-4.47966e-06 5.9959e-06 1.68127e-06 -6.59087e-06 -1.99381e-06 1.9505e-05 -8.1046e-06 -6.85309e-06 -5.64061e-06 
-3.9138e-05 -1.95923e-06 -9.84432e-06 1.04739e-05 1.56869e-06 -5.20903e-05 -8.80069e-05 0.000102115 -1.60732e-06 
-0.000120174 5.70642e-05 5.13186e-05 4.68131e-05 -5.27647e-06 -0.000139349 0.000168927 0.000364717 -0.00118315 
-0.000962422 1.59942e-06 2.74836e-06 1.44776e-05 0.00112976 3.68829e-05 -0.00963003 0.00981482 0.00635639 
-0.00429239 7.54381e-05 0.000757082 -0.000323617 -6.3782e-05 0.000429298 0.000120599 6.03404e-05 0.000321146 
-0.000207667 6.4484e-05 3.04431e-05 -0.000105224 0.0087306 -0.000608819 -0.00806112 0.00177527 0.00637423 
-0.00640323 0.000842115 3.96759e-05 3.26132e-06 -5.47542e-05 -7.17372e-07 0.00117219 0.00111158 -0.00130405 
-5.11468e-05 -4.16043e-05 -1.29575e-05 6.0388e-05 0.000211015 -4.82843e-06 0.00010529 -0.00013741 0.00248204 
-0.00163252 -0.00162701 -9.74162e-06 -3.26715e-06 -3.22304e-07 -3.22961e-06 -4.44149e-06 -0.00016204 -3.31701e-05 
-6.81485e-05 7.25665e-05 9.60553e-06 6.63033e-05 0.00138169 -1.41165e-06 -2.25683e-07 -0.000636354 0.000863468 
-0.000461135 0.0014338 0.0110032 0.0110887 0.00542077 0.0136118 2.57965e-05 -1.68168e-06 1.36846e-07 
-5.23298e-06 7.51755e-06 5.08352e-05 -1.07357e-05 1.76485e-05 -1.50111e-06 -0.000224309 -3.21778e-05 0.00110493 
0.000963614 0.000130302 -2.57969e-05 0.000101078 0.000916211 0.000742162 -0.000125637 0.000156705 1.94005e-06 
9.41243e-06 -6.54317e-06 2.58735e-06 -5.46945e-06 -3.83641e-06 -3.06116e-06 0.000123617 0.000125045 -0.000113409 
-0.000103897 -5.69009e-06 -3.75877e-06 -1.94579e-05 -3.87514e-06 -9.89871e-06 -1.20262e-05 -6.13011e-06 -4.32384e-06 
-2.19138e-05 2.13605e-06 5.08856e-06 0.000136858 -8.15485e-05 -0.000181928 2.75882e-05 1.61033e-05 -5.07155e-06 
-8.75923e-05 -8.69135e-07 -2.90698e-08 -2.5894e-07 4.33787e-05 1.97332e-05 -1.00689e-05 2.52136e-05 1.14236e-05 
2.09798e-06 7.55019e-07 8.20721e-08 -1.2002e-06 -1.71487e-06 3.63894e-06 -9.70342e-05 -0.000338816 -0.000193881 
-4.00032e-06 -1.19316e-05 -1.11052e-05 -6.71588e-06 2.36349e-05 1.28126e-05 2.1877e-07 1.94863e-05 3.61796e-06 
-4.12037e-05 -2.48481e-05 -4.57591e-07 -1.2126e-06 -3.09916e-06 9.20199e-06 -0.000159665 0.000139728 0.000106573 
6.19222e-07 -1.72994e-06 6.24937e-06 -9.42223e-06 6.78206e-06 -1.15245e-05 6.32982e-05 1.7432e-05 -1.0809e-06 
6.98164e-07 -9.13187e-07 -0.000116134 -9.44031e-05 3.15429e-06 -1.78959e-06 -5.87236e-07 0.000582052 -1.16489e-06 
7.65081e-06 1.45784e-05 -8.73883e-05 8.70129e-05 -1.2825e-05 0.000173467 1.40142e-06 5.45438e-07 2.43048e-06 
-5.42688e-05 1.1445e-05 0.00551362 4.91575e-05 -1.26368e-06 0.000109246 -1.15002e-05 -0.000122791 2.82177e-05 
7.17776e-06 -1.45031e-05 1.70047e-05 1.8147e-06 -6.84378e-06 -5.89512e-06 2.24689e-06 -1.76135e-06 -0.00654396 
-1.51433e-06 1.54253e-08 -5.62459e-06 1.74968e-06 -2.56942e-05 3.41709e-05 -8.5511e-05 3.63993e-05 2.13143e-05 
2.7332e-06 -5.7728e-07 1.925e-06 2.25065e-07 -3.97245e-06 1.57691e-05 -9.98446e-06 3.53452e-05 1.53904e-06 
4.44196e-06 -1.22423e-05 -0.00157115 1.15659e-05 -6.29625e-06 -8.57385e-05 0.000177599 -1.21902e-05 4.24578e-05 
-3.88808e-06 -5.58585e-06 7.04955e-08 1.07442e-06 3.11225e-05 -6.36327e-06 -0.00050347 -0.0108855 1.07085e-07 
6.78536e-06 2.32328e-05 9.6051e-07 2.21946e-06 -4.18986e-06 -2.14583e-06 -4.04626e-06 -3.25248e-06 -1.65039e-06 
1.28724e-05 -2.32996e-05 4.96123e-05 3.81974e-05 1.44908e-05 -5.47487e-05 0.00155338 -0.00153057 0.000492636 
-0.000796709 0.00146434 0.00087705 -0.00584464 -0.00636169 0.00300501 -6.21717e-07 -1.26154e-06 8.06018e-07 
3.36269e-07 0.000376653 1.75477e-06 -0.000250865 -0.000452581 -0.00185016 0.000530947 0.00944222 -0.00136051 
-0.000348377 -0.000118558 0.00031129 7.80672e-06 2.59571e-05 -3.30337e-06 1.2829e-06 1.89178e-06 -0.00017528 
5.07852e-06 -1.75733e-06 -1.9981e-06 4.49615e-05 -6.85846e-05 -0.000289002 -0.000420636 -2.26519e-06 -0.00808785 
0.000306087 0.00768105 -0.00746577 -7.39772e-05 8.15392e-05 9.30507e-06 2.06749e-05 -5.72347e-07 4.09051e-05 
-6.50809e-05 0.00096706 -0.00140722 0.00142165 5.21853e-05 1.39287e-05 0.00152255 0.000211547 0.000112894 
0.00138772 1.35031e-06 6.24337e-06 1.18863e-06 -0.00633951 0.000300937 -0.00147957 7.27923e-05 0.00968882 
1.53258e-05 1.92015e-05 4.07693e-05 -5.17612e-05 1.12219e-05 -0.00319193 -0.000115238 0.000539528 -2.70761e-06 
-2.83944e-06 2.29822e-05 2.18427e-05 -8.6562e-06 0.000161357 -2.22158e-05 1.15318e-05 5.70732e-05 -3.82608e-05 
2.27408e-05 -7.2664e-05 1.35948e-05 -2.31768e-05 -6.42096e-05 -4.28011e-06 9.3586e-07 2.25571e-05 2.44419e-05 
-1.11668e-05 4.00066e-06 3.38872e-05 0.000124797 -3.4833e-05 0.000122154 0.000254347 -6.05902e-05 0.00124222 
4.4128e-05 -1.02738e-05 2.33457e-05 -0.00657972 0.00219097 8.98979e-05 -1.25646e-05 -0.000117582 1.73808e-05 
-1.35467e-05 2.97784e-05 -2.98718e-05 -3.79793e-05 1.37143e-05 -1.14769e-05 6.522e-06 3.02433e-07 1.46923e-05 
0.00148737 0.00108454 -0.000316406 5.50841e-05 -2.30053e-06 -2.08947e-07 -1.55131e-06 -7.85934e-07 2.46722e-06 
-1.55995e-06 1.06856e-05 2.33427e-06 2.48537e-05 -0.000300336 -0.000168534 0.000120294 0.000191229 -1.07504e-05 
-3.11106e-05 7.14887e-05 -1.44731e-05 2.29501e-05 1.96266e-05 -1.93797e-05 2.22895e-06 -1.46034e-06 -1.39541e-07 
-2.28674e-05 -3.66763e-07 -1.42917e-06 8.78258e-06 0.00026063 1.73643e-06 -1.57019e-06 6.7428e-07 0.000158749 
-1.49968e-05 -9.73106e-05 0.000106214 -8.26015e-05 -1.8195e-05 -0.000117915 0.000118524 -4.22604e-06 1.07974e-05 
0.00101241 -1.26573e-05 9.36782e-06 -0.00103312 0.00843786 -2.04736e-05 5.08844e-05 6.12977e-05 5.0502e-05 
0.00824029 0.00113264 -0.0113543 2.71804e-05 2.3468e-08 1.72187e-05 -9.34262e-06 -6.58688e-05 -2.58371e-05 
-6.3034e-05 8.73122e-06 -1.16684e-05 0.0102084 -2.19443e-05 2.89588e-05 6.87084e-06 5.43129e-05 1.57614e-05 
-4.04232e-05 3.49107e-07 2.36034e-05 7.45623e-06 1.28823e-05 0.000693758 0.0252805 -0.011265 6.51188e-05 
7.03909e-05 -3.86714e-05 -1.00426e-06 -1.78865e-05 -8.06817e-07 -0.00755754 8.94816e-06 3.20534e-05 -3.10321e-06 
1.87954e-05 3.37327e-05 -2.89381e-05 2.96135e-05 -0.000148439 1.54389e-05 -6.59385e-05 -1.066e-05 -1.29287e-05 
-2.33363e-05 -0.00150864 0.000236278 -0.00616574 -2.28242e-06 5.69913e-06 -2.6645e-06 2.03271e-06 2.47248e-06 
-3.48661e-06 -1.77802e-06 -1.73156e-06 1.94718e-06 -4.71799e-06 -2.51195e-06 7.47644e-06 -4.48036e-06 -1.52273e-06 
1.84374e-05 -4.57029e-06 3.97611e-05 9.96703e-08 2.82662e-06 -8.67971e-06 -2.8637e-05 -3.04057e-05 0.000129225 
-1.94773e-05 1.32745e-05 -5.90882e-07 0.000215718 -0.000193355 -0.00010444 -3.61443e-05 0.000112046 0.000167174 
-1.40397e-05 -0.000151565 -0.00012065 -0.00028949 0.000122591 -1.44355e-05 -8.19999e-05 -0.000101087 0.000115769 
-0.00691757 -3.0355e-05 -4.43823e-05 1.94761e-05 5.12242e-06 2.39703e-07 -0.0010061 -0.000571455 4.99332e-06 
7.77315e-06 -3.68955e-06 1.21315e-05 5.41183e-05 3.84485e-05 4.84754e-05 1.82838e-05 -4.48923e-05 3.58358e-05 
-2.5383e-05 -4.1399e-05 1.32701e-05 -5.04792e-05 3.48743e-05 2.73876e-05 1.34823e-07 0.000207806 -1.84675e-06 
2.43388e-06 -3.1798e-05 -0.000124196 2.84814e-05 2.4839e-05 -3.43347e-05 -5.47009e-06 -0.00843149 0.00682482 
-1.26054e-05 1.34795e-05 -2.30399e-05 -3.44373e-05 -4.82407e-05 -0.000423885 -2.09271e-05 -0.0076297 0.000797587 
0.000495535 0.000190085 -0.000102245 0.000133012 0.00155404 -4.87937e-05 -5.36598e-06 0.00124209 -1.78127e-05 
4.58159e-05 -2.06279e-05 2.65798e-05 -4.85079e-05 4.20701e-05 -1.8212e-06 -0.000185771 0.00112681 0.000537294 
0.000952514 -2.88204e-06 2.83852e-06 -2.38642e-06 1.30366e-06 -0.000127679 -7.42962e-05 3.71592e-05 2.72617e-05 
1.06795e-06 2.32761e-06 9.43761e-07 -0.00816268 -6.26007e-06 1.50758e-06 -0.000257661 1.75392e-05 -0.00115921 
-0.00017006 5.68585e-05 8.61173e-05 -0.00102841 1.3981e-06 7.0203e-07 2.14234e-06 2.21302e-06 3.3915e-07 
-4.30716e-06 -1.16915e-05 1.36326e-06 -1.18065e-06 -6.12705e-05 0.000103626 5.31511e-06 -6.07984e-06 2.96515e-06 
2.46467e-06 -1.83238e-06 -3.79425e-06 -0.00102781 -8.15206e-06 -3.82723e-06 3.88534e-06 -6.66827e-08 -8.46795e-07 
-1.84022e-06 0.000106709 8.67729e-06 5.4814e-05 3.75925e-06 -3.60821e-06 -0.000622459 0.000229729 1.36612e-05 
-0.000994732 0.000830536 0.000105303 -0.000142625 3.20906e-06 4.81361e-07 7.52428e-06 -5.80161e-06 -8.55484e-07 
7.0562e-07 1.79775e-05 -4.86027e-06 1.8983e-05 -3.4732e-06 5.89641e-06 1.40991e-05 -2.16116e-06 1.13506e-05 
8.61525e-05 -1.81884e-06 0.000226464 -0.000290121 -0.000580269 0.000186103 6.61775e-05 -4.9583e-05 2.81106e-07 
8.07843e-07 -2.25234e-06 -3.74834e-06 7.42926e-06 8.33018e-06 -1.55082e-06 1.09002e-05 -1.42319e-05 5.87892e-06 
4.37346e-05 -0.000578246 0.00160964 -0.00535251 0.0014491 0.00130616 5.64492e-05 -1.11698e-05 -1.39851e-05 
-0.0112384 -2.59852e-06 -0.000227583 9.95382e-06 1.91258e-06 0.000107561 -1.57616e-05 7.63747e-06 2.09152e-05 
6.20348e-05 -7.83064e-06 -9.73823e-05 1.60386e-06 -8.55064e-06 0.000174731 -0.000108555 -2.47825e-05 -1.22492e-05 
-1.01023e-05 -8.21245e-06 -1.19727e-05 9.88024e-07 -2.56888e-06 1.06957e-06 2.09009e-06 2.26128e-06 -1.2227e-05 
5.20252e-07 0.000201726 -3.82915e-05 3.93731e-05 -1.62973e-05 -0.00120673 1.37498e-05 -5.54091e-06 4.73555e-05 
-1.73753e-05 5.68523e-06 3.56597e-05 4.41475e-05 1.44549e-05 -2.76329e-05 4.10692e-05 4.68191e-05 2.25696e-06 
0.000297149 -1.33684e-06 -1.75823e-06 7.10932e-06 -1.25954e-05 -4.46731e-05 0.000658667 -0.00154566 -0.00277782 
-0.000110352 0.000227843 -2.84024e-05 6.04271e-05 2.52642e-05 1.17525e-07 -3.45469e-07 -9.87611e-06 -3.8161e-09 
-1.08492e-06 1.38814e-06 -1.30908e-05 3.71631e-06 -3.08486e-06 1.16853e-06 6.60581e-06 5.18619e-06 2.12772e-06 
-1.00463e-06 3.90819e-06 8.17362e-08 -4.41939e-06 3.20073e-05 -1.17379e-05 -0.000527912 -0.00105258 -3.84105e-06 
2.92298e-05 1.34221e-05 5.2941e-07 1.78275e-06 -0.000152237 -0.000249717 -1.01826e-05 2.87929e-05 1.50979e-05 
-0.00967675 0.00736311 0.0030187 -3.90039e-06 3.76057e-06 0.00253561 -9.99586e-05 0.000118404 -1.55187e-06 
-1.26333e-06 -0.0014308 -8.5577e-07 6.0994e-05 6.43662e-08 -9.02978e-07 0.000185889 -4.41449e-05 1.9204e-05 
1.47862e-05 -1.99189e-05 -0.000313928 -3.19062e-05 8.9272e-06 -2.03292e-05 -1.08626e-05 1.21712e-05 -2.88643e-05 
4.37401e-05 -5.38473e-05 -1.91965e-06 -9.06632e-08 -5.5855e-06 -1.85077e-06 1.58669e-07 -3.74985e-05 -3.17683e-05 
2.45942e-05 -3.20384e-05 -1.57068e-05 4.05496e-05 0.000327195 -1.07668e-05 -0.000154672 0.000208644 -7.93314e-07 
8.09863e-06 -2.60615e-05 -3.42787e-05 -0.0014403 4.87175e-06 -1.1681e-06 6.17628e-08 0.00733484 2.36027e-05 
1.46289e-05 -2.26867e-08 -4.63561e-05 7.38416e-06 7.54532e-06 -2.09234e-06 -8.25561e-06 5.00314e-06 1.70051e-06 
2.02101e-06 1.38779e-05 -2.7411e-06 -1.69582e-05 -6.39556e-05 -7.1444e-05 1.55139e-05 -3.23024e-05 -0.000118628 
0.000386921 -5.37998e-05 -2.77787e-06 -4.28338e-05 -2.99183e-05 -1.7382e-05 4.4509e-05 1.15474e-05 5.34671e-07 
2.04915e-05 -2.27425e-06 3.68214e-07 8.45092e-08 -3.37054e-05 -1.39619e-05 2.31497e-05 -0.000103122 -8.78427e-06 
1.17703e-06 -2.02389e-06 1.59608e-06 1.82375e-07 -4.37827e-06 2.49779e-07 -3.59898e-07 1.56416e-06 -2.54071e-06 
2.9976e-06 4.71785e-05 -7.66466e-06 6.53154e-05 0.0023059 -9.40043e-06 -1.09156e-05 0.000828854 -1.12244e-05 
4.88323e-05 1.86258e-05 -4.67893e-05 -0.00133409 -0.000652398 -2.73387e-06 -6.28271e-06 3.64311e-06 3.80975e-06 
2.40743e-05 -5.64559e-06 -3.84054e-07 -3.88181e-07 -4.16698e-05 -1.69525e-05 -2.67228e-05 1.37462e-05 1.52341e-05 
-2.44014e-05 -1.89051e-05 -0.000281916 0.000651475 1.12413e-05 -2.15588e-05 6.59788e-05 3.16988e-06 -8.82177e-06 
1.05534e-05 -5.93388e-06 -4.025e-06 -2.27212e-05 -1.10664e-05 -1.88663e-06 1.54907e-06 -2.58566e-06 4.50888e-05 
-2.61947e-06 -1.99807e-06 -4.64996e-06 2.25682e-05 -1.84681e-06 2.37516e-06 -2.7078e-06 1.71e-07 6.75059e-08 
8.35761e-07 1.06515e-06 -2.62935e-06 -1.69455e-05 0.000937076 -0.000436591 2.21573e-06 -1.40252e-05 -2.00867e-06 
-2.42829e-06 1.23947e-06 -1.29414e-06 1.47815e-05 4.74108e-07 -7.90934e-06 3.46147e-08 0.000117642 -0.000106403 
-3.94662e-05 -7.00403e-07 -2.87038e-07 -1.01861e-05 3.51218e-06 3.16594e-05 3.228e-06 1.40453e-05 0.000132297 
1.21647e-05 3.8911e-06 0.00676765 -1.69988e-05 0.000154476 -0.000146488 -2.62221e-05 1.622e-05 -3.23628e-06 
4.87146e-05 2.78991e-05 -7.37755e-06 1.2571e-05 5.41407e-05 0.000116518 7.59641e-09 2.82121e-05 -3.98292e-05 
-1.01511e-06 5.26354e-05 2.34547e-05 3.13894e-05 1.34881e-06 3.84854e-08 7.78728e-07 3.19537e-05 -0.000117359 
-1.79788e-05 -1.70637e-06 -2.33211e-08 1.8098e-06 0.00264413 -0.00272407 -2.67087e-06 1.63842e-06 -1.55752e-05 
8.82081e-06 -4.9557e-05 6.3784e-06 -9.22349e-06 -2.78126e-05 9.92272e-06 9.56977e-06 0.00111866 -0.00293198 
9.6789e-08 -4.52372e-05 0.000153748 2.51284e-05 4.02149e-06 -5.81319e-05 -7.49569e-08 -4.07022e-06 2.16975e-05 
-7.81766e-06 3.0788e-05 -1.82027e-05 -1.25284e-05 1.93514e-06 -0.0079937 2.14909e-06 -2.52945e-06 -0.00138189 
-9.49371e-05 7.39274e-05 5.70943e-05 4.26803e-05 0.00223036 0.00107488 -4.89498e-06 1.59535e-05 1.57498e-05 
0.00308752 0.00665983 -9.86055e-06 -1.01611e-05 3.11036e-05 0.00882701 1.30458e-05 2.61268e-05 1.23417e-05 
-2.24298e-05 -6.82851e-06 -8.43944e-05 0.000133635 6.1963e-06 7.74718e-05 -0.000571359 -0.000126565 -0.000141582 
1.24261e-05 0.00604791 -0.000584373 -0.000775415 0.010616 -2.09699e-06 -0.000386686 2.18184e-06 -1.29357e-05 
5.08364e-05 -0.000654792 -2.37226e-06 -4.0587e-06 -6.27539e-05 1.30869e-07 -4.92951e-05 -5.2591e-06 -3.90042e-06 
2.93273e-05 8.05203e-06 -4.87063e-05 2.02755e-06 1.73197e-06 2.32107e-06 -3.66785e-06 2.14323e-06 1.22042e-05 
-2.33777e-05 -8.56853e-06 -3.8259e-06 -7.4524e-07 6.94309e-05 -0.00033601 -2.62432e-05 -5.02071e-06 2.02371e-06 
1.30745e-05 1.81881e-06 0.0102938 -0.00283698 -0.00901813 -0.00687455 7.63505e-06 7.38474e-06 -7.19681e-06 
-6.42887e-06 1.5959e-06 -2.96628e-06 1.84158e-05 -1.07506e-06 -8.96035e-07 -3.23821e-05 2.07509e-06 -0.000899183 
-0.00027914 -8.0371e-05 -0.00100864 -0.000554984 0.000120531 1.87248e-05 -3.6585e-05 -2.03708e-05 -1.67575e-05 
-0.000180241 -4.83499e-06 -2.20409e-06 -3.09633e-06 2.04448e-06 1.15463e-06 -1.73447e-06 2.64053e-05 -5.41462e-05 
5.1344e-05 -4.69971e-05 2.40267e-05 -7.10066e-06 1.91411e-05 -1.88866e-05 0.000115503 0.00015883 2.77509e-07 
-2.43081e-07 9.32552e-05 -0.000619533 -0.000150122 8.28697e-05 0.000197796 -0.000347217 1.53545e-07 7.80809e-06 
-2.6319e-05 1.57205e-05 6.05629e-05 -3.7931e-05 -5.53865e-05 -2.79122e-06 -4.89371e-05 3.51465e-05 -0.000273176 
-6.88823e-05 -6.3453e-05 2.52063e-05 1.20749e-05 4.40233e-05 3.58865e-05 7.66503e-05 -4.54906e-07 -0.000911739 
-0.00228372 -5.519e-06 -2.01887e-05 0.00122754 -0.00109271 -0.00118258 0.000632585 -0.000160056 -0.000346499 
0.000471738 -5.07718e-05 0.000275597 0.00108716 -0.000400557 6.42094e-08 -1.39276e-07 2.1945e-06 -1.80943e-06 
0.00198375 -0.00119869 -3.49834e-05 -0.00134437 5.50412e-05 0.00108149 0.00060911 -5.67011e-05 -0.000208923 
1.45561e-07 9.40931e-05 8.54349e-07 2.3503e-05 8.83181e-06 -2.1647e-07 -2.85944e-05 3.19981e-05 2.21367e-05 
4.698e-06 3.95341e-06 -0.000138297 -1.40362e-06 7.81363e-06 1.42313e-05 1.32644e-05 -5.82679e-05 -2.88972e-05 
-1.63644e-05 -1.93311e-05 2.29052e-05 1.34497e-05 -6.75073e-05 0.000555729 -1.0571e-05 -1.81728e-05 -4.77117e-06 
9.71728e-06 8.68518e-06 -1.92766e-05 -3.33622e-05 2.38094e-05 -1.68447e-05 -7.01201e-05 1.95582e-05 -2.41982e-06 
-4.39539e-07 7.97651e-05 -2.78576e-06 -4.90051e-06 3.15338e-05 -7.22607e-05 7.94949e-05 -7.1382e-05 5.72322e-05 
-3.51798e-05 -3.62937e-06 0.000869777 0.000981247 -3.89036e-05 -6.23531e-06 1.97118e-06 -1.66324e-07 -4.27682e-07 
-7.50464e-07 -2.87202e-06 -2.9323e-05 2.05674e-05 -2.78827e-06 1.0901e-06 1.43698e-06 2.74196e-06 1.1777e-06 
-6.03049e-06 -2.99541e-05 -0.000394874 0.000128762 0.000181028 1.42925e-05 -4.96432e-05 9.52491e-07 -1.21046e-06 
1.8825e-06 8.25157e-06 0.00667422 0.00110518 7.93757e-07 0.000110281 -3.74799e-05 2.2124e-06 3.25424e-06 
-5.50101e-06 1.31307e-06 -5.08406e-06 2.07987e-06 4.5181e-06 -1.92632e-05 2.59443e-05 -0.000266878 0.00187895 
-0.000164247 -1.52777e-05 -0.000264194 0.00015569 2.20941e-05 3.60688e-06 4.70087e-06 2.92076e-05 4.04563e-05 
7.19996e-06 4.13682e-06 -3.19369e-06 -2.57405e-06 3.72826e-06 2.39776e-05 4.14407e-06 6.74645e-06 -1.10127e-06 
3.92379e-05 -4.42897e-07 -4.10771e-07 -3.34061e-05 -5.64076e-07 5.36927e-06 1.75785e-05 6.40565e-06 -7.60809e-06 
7.2802e-05 -8.25991e-06 7.00682e-05 -0.00010169 -0.00010749 0.00652186 -2.44721e-05 0.000195492 -1.42803e-05 
-1.21422e-05 9.5201e-06 -0.000426357 0.00029241 0.000373571 -0.00624757 -0.00126067 8.6574e-05 -2.49358e-05 
-1.62807e-05 -4.04462e-05 -4.24453e-05 1.23124e-05 0.000992543 0.000146192 -1.57714e-05 -4.88729e-05 3.29499e-06 
1.28021e-05 -2.40803e-05 -0.000103898 5.94741e-05 4.66706e-07 1.15306e-06 6.55433e-06 2.54505e-06 -0.000229578 
-8.27148e-05 -7.78557e-07 1.243e-05 1.09216e-05 0.000127805 9.66837e-07 5.29478e-06 1.38433e-05 -2.05038e-05 
-8.99288e-06 -8.84036e-05 0.000172629 9.33277e-05 -8.31042e-05 8.51212e-06 -0.000105461 7.07506e-05 -8.12102e-05 
-0.00016655 8.48176e-05 -1.59485e-05 -3.70428e-05 7.1008e-06 0.000108797 0.00027657 8.8302e-05 2.00831e-06 
-1.08188e-07 -0.000138012 -2.39513e-05 -4.62343e-05 4.14923e-07 -1.12875e-05 -3.34834e-05 7.13512e-05 -2.99843e-05 
-9.9355e-07 6.3124e-06 -4.82661e-05 -3.63074e-05 2.01803e-05 1.59338e-05 3.1853e-06 1.81958e-06 -6.96873e-06 
0.00135805 -3.98903e-05 -9.13993e-06 7.11715e-06 -4.09533e-06 -3.24204e-07 5.29561e-06 -1.22405e-05 -2.2322e-07 
6.06196e-07 -1.36669e-05 -3.44894e-05 -4.22154e-06 -4.47227e-06 -3.15984e-05 3.49665e-06 2.81484e-06 0.0073747 
1.25441e-06 -8.88664e-05 -0.000100446 0.000186432 7.28635e-05 7.95248e-05 -3.28205e-06 -0.000223675 -1.50505e-05 
8.92561e-05 -0.0124656 -6.11543e-06 -2.79344e-06 -4.91946e-06 0.00742578 -6.92113e-07 -0.000775953 5.03446e-06 
-4.97228e-07 -1.01076e-05 -5.60226e-06 -9.80738e-06 -5.54362e-06 -9.48411e-06 -2.55843e-05 -4.0539e-05 5.57636e-05 
2.63727e-06 -0.00741136 -5.04797e-05 2.36982e-05 -1.63024e-05 5.13494e-06 -4.29246e-06 -0.000117778 4.48806e-05 
5.08435e-05 -4.47216e-05 1.11732e-05 -0.0073911 -0.000144087 -0.0076573 -0.000169851 5.71748e-06 3.59216e-05 
2.92858e-05 3.97859e-07 5.45019e-06 -0.000122377 3.86088e-05 -4.27073e-05 -2.72592e-05 1.27733e-06 -1.92429e-06 
0.000258932 -1.45016e-06 -6.32124e-07 2.37935e-06 2.88794e-05 -2.38871e-06 -8.95986e-08 3.81055e-06 0.00683483 
-1.18065e-05 2.14042e-06 3.40047e-06 -2.38838e-05 -5.5359e-05 -3.17056e-06 4.51628e-05 -1.75639e-05 -2.93143e-06 
-5.82057e-06 1.29595e-06 -6.79905e-05 -1.42697e-05 2.77852e-05 -8.51898e-06 -0.00141991 -2.82562e-05 -7.11549e-06 
5.62895e-06 0.000173776 -4.50589e-06 2.69309e-06 -1.14988e-06 -6.11848e-06 -1.54799e-05 -3.10752e-05 -3.45191e-05 
1.85388e-05 3.28842e-05 7.66938e-05 -0.007375 -0.00187418 -1.87933e-05 -2.07243e-05 5.6826e-05 1.668e-06 
-3.76121e-06 8.66678e-05 -7.72941e-06 -0.000225327 5.4212e-05 0.00151839 -0.000638896 -2.61023e-06 9.96201e-06 
1.06321e-05 2.1777e-06 1.3634e-05 0.000111596 -2.18701e-05 1.11369e-06 -5.34575e-06 2.85254e-05 0.00157811 
0.00115672 0.00014023 -0.000370842 -5.80776e-05 -7.70443e-06 -3.35531e-05 -0.000397793 0.000608549 -0.000760738 
5.5401e-05 4.59797e-06 1.27747e-05 1.77444e-05 4.19352e-07 2.21701e-06 0.00171923 -2.86265e-05 -0.00908956 
5.34908e-05 -0.000204389 -8.1724e-08 -0.000560645 1.45918e-06 -5.65003e-06 5.37959e-06 2.7277e-05 3.56956e-06 
-9.80645e-05 1.60102e-05 0.000184818 0.000215082 3.72326e-07 -8.8597e-07 5.27039e-05 1.27331e-06 -1.48285e-06 
-1.58114e-06 -5.4848e-05 -1.25296e-05 5.17762e-07 -1.51049e-05 6.6848e-07 7.28953e-06 8.65105e-05 0.000901437 
0.00075555 -0.00579876 -0.000175903 0.000189986 -4.14052e-10 -0.00817234 0.00697083 8.55095e-05 4.07564e-05 
1.02117e-05 -0.00644791 -0.00139783 4.11632e-06 1.22753e-05 2.08184e-05 3.14498e-06 5.04126e-06 -5.7891e-06 
-2.58612e-06 -1.34488e-06 -1.22832e-05 -5.74869e-05 -4.1097e-06 2.01265e-06 1.22422e-05 4.62331e-06 1.2992e-06 
-5.70372e-07 -1.04449e-06 -4.03172e-06 0.00105034 -0.000345203 -1.41824e-06 2.48246e-05 -4.49207e-05 -4.21869e-06 
2.3409e-05 1.07633e-05 9.76519e-05 0.000991129 -1.79266e-06 2.71363e-05 -8.36577e-06 -0.00219574 -8.51846e-06 
-1.12144e-05 0.000984377 0.000184775 -4.60646e-06 0.00231385 0.00343316 0.00731938 0.000110578 0.00733902 
-2.46328e-06 2.07888e-06 -5.18911e-06 -2.54331e-05 -8.22199e-05 3.90847e-06 -0.000447177 5.54837e-06 1.7911e-06 
-0.000445416 -3.41537e-06 4.39378e-05 0.0069439 -0.00565085 6.8216e-06 -0.000126259 0.00146485 0.000195284 
-2.30812e-05 -1.61905e-05 -3.46955e-07 2.83994e-05 4.83093e-06 2.02827e-06 -2.39267e-07 5.18048e-06 0.000953955 
4.66126e-05 2.32446e-05 1.49406e-05 6.87619e-06 -6.62223e-06 -5.89021e-05 -0.0012548 -1.32018e-05 -6.92338e-05 
-1.89858e-05 -7.326e-05 -2.37713e-06 -4.61236e-06 0.000139885 1.62063e-05 -2.31501e-05 -4.73663e-05 3.71051e-05 
7.58119e-05 1.55821e-05 -2.48832e-05 -0.000564483 4.70154e-05 -0.000180427 0.00105097 1.01993e-05 2.09582e-05 
0.000111079 2.93417e-05 -0.000154732 -5.67372e-05 -3.20303e-06 -4.72542e-05 5.49646e-05 -1.59325e-05 -0.00011779 
2.59441e-05 -4.096e-05 -0.00185425 -2.98097e-05 3.83504e-05 4.87483e-05 5.11138e-07 1.17588e-05 -6.4822e-06 
-2.22575e-05 7.70977e-06 2.45676e-05 -3.17208e-05 3.84066e-06 -8.52594e-07 -2.34786e-06 1.99859e-05 7.97273e-06 
3.83025e-06 -1.07473e-05 1.29388e-05 -1.47096e-05 -4.15521e-06 -2.34401e-05 -0.000109578 1.48446e-05 -2.56248e-06 
-4.32031e-06 0.000217243 -0.000161039 6.74402e-05 3.33005e-05 1.32273e-05 -0.00664981 1.09067e-05 0.000136593 
0.000477338 0.00437872 0.00239584 2.91202e-05 0.00652596 1.46338e-05 -3.14418e-06 -7.34022e-05 0.000110424 
6.44947e-05 -5.31045e-05 5.7871e-05 -1.0018e-05 0.000924712 0.000143975 -9.60707e-06 6.54888e-06 -0.00684755 
-1.93209e-07 -3.85854e-05 0.000255342 -0.00635981 0.000141899 -9.87924e-06 6.42038e-05 -5.65441e-06 -0.000249003 
-7.19079e-05 0.000158036 4.77661e-05 -2.40704e-05 0.000144888 -7.32173e-06 0.000242249 -0.0071462 4.47848e-06 
-9.63414e-07 2.59519e-05 -8.90805e-06 7.75478e-05 -9.33375e-06 -1.92053e-05 -1.60718e-06 3.27089e-05 -4.0992e-05 
6.7232e-05 3.00533e-05 2.07265e-05 7.54122e-05 5.46884e-06 9.3077e-05 -2.01063e-05 -5.28769e-05 -1.97482e-05 
-5.00975e-05 -2.53515e-06 -2.29872e-05 -0.00132973 -0.0007322 -5.37152e-05 -6.95914e-06 -0.00121375 -0.000144208 
-1.12351e-07 -0.000912167 -2.81853e-06 7.28822e-05 -2.61728e-06 -0.00654868 -2.72685e-05 0.00181363 -4.89335e-07 
-1.40534e-05 1.60168e-05 0.000149998 -8.02082e-06 -2.73012e-05 -3.92714e-06 0.000291997 1.26678e-05 -1.40464e-07 
-1.89022e-05 0.000950174 -1.559e-06 0.000199533 1.05219e-05 -2.09122e-05 1.98139e-05 -1.54661e-06 2.85724e-06 
4.21173e-06 -5.05949e-05 -0.000341311 -2.30503e-05 6.0898e-05 1.38887e-05 -4.26903e-05 -3.73774e-06 9.56809e-07 
8.67359e-05 -5.0302e-05 1.64911e-05 3.50601e-05 -0.000294839 -9.12537e-05 -2.43625e-05 0.00114665 -1.88378e-05 
3.01101e-07 6.12814e-05 7.89722e-06 -0.000224643 -0.000467456 1.233e-05 -2.48442e-05 -5.76494e-05 1.04952e-06 
5.25678e-05 -0.00010754 -6.74553e-05 -0.00759584 -0.00225139 -0.0145754 2.02369e-05 1.20018e-05 0.00186967 
-7.68326e-06 -1.74858e-06 6.60309e-06 -7.00439e-05 6.29971e-05 2.86375e-05 -1.64761e-06 -0.00019848 
Strain%20yy%20component 1 8918 double
0.524928 0.339949 0.333593 0.535302 0.333309 0.333327 0.333351 0.333346 0.190569 
0.155254 0.367277 0.443491 0.138251 0.207339 0.385659 0.451093 0.223757 0.195726 
0.195506 0.183645 0.16721 0.166996 0.179671 0.184046 0.166408 0.167587 0.182344 
0.178015 0.16595 0.165075 0.164187 0.169324 0.165789 0.166926 0.17003 0.192983 
0.201682 0.270176 0.25507 0.163333 0.14966 0.145328 0.176948 0.172828 0.171969 
0.149985 0.142213 0.171845 0.173107 0.172871 0.143203 0.151383 0.172524 0.173768 
0.174007 0.172917 0.151778 0.172109 0.172596 0.171859 0.172891 0.145643 0.156604 
0.172805 0.333254 0.333387 0.33369 0.334128 0.334582 0.335023 0.335417 0.335634 
0.335723 0.33571 0.335507 0.335213 0.334859 0.334456 0.334052 0.333706 0.333365 
0.333159 0.332981 0.332861 0.332859 0.332884 0.332972 0.333075 0.333182 0.333276 
0.333331 0.586693 0.338012 0.31603 0.302706 0.294791 0.290773 0.289349 0.289271 
0.290065 0.29162 0.293521 0.29568 0.298122 0.301056 0.303933 0.307068 0.310119 
0.313086 0.315871 0.318267 0.320265 0.321408 0.321809 0.321395 0.319971 0.317478 
0.313457 0.308497 0.302564 0.296595 0.292332 0.29107 0.293203 0.29816 0.30376 
0.310036 0.315379 0.320188 0.323819 0.327063 0.32945 0.331304 0.332646 0.333359 
0.333419 0.333334 0.333581 0.334038 0.334706 0.335626 0.336847 0.338224 0.339303 
0.338535 0.333943 0.325471 0.314225 0.303262 0.294058 0.289451 0.287604 0.289077 
0.297601 0.31146 0.342679 0.426961 0.219321 0.197157 0.188476 0.198519 0.195153 
0.179161 0.189295 0.185147 0.197054 0.171412 0.140845 0.129145 0.107005 0.159346 
0.164181 0.183929 0.181414 0.203386 0.190352 0.194253 0.197836 0.187489 0.206815 
0.24177 0.221634 0.333265 0.333419 0.333831 0.334437 0.335012 0.335471 0.33571 
0.335714 0.335535 0.335169 0.334714 0.334181 0.333721 0.333319 0.333068 0.332907 
0.332864 0.332911 0.33302 0.333153 0.333264 0.333324 0.422202 0.346927 0.311402 
0.298287 0.292137 0.289665 0.289792 0.290969 0.293151 0.295762 0.298841 0.30249 
0.30636 0.310367 0.314059 0.317351 0.319819 0.321458 0.321849 0.320874 0.318436 
0.313799 0.307236 0.30002 0.293696 0.291455 0.294104 0.299639 0.306607 0.313417 
0.319104 0.32391 0.327717 0.330441 0.332268 0.333216 0.333467 0.333343 0.333491 
0.333864 0.334427 0.335146 0.336098 0.337326 0.338807 0.339358 0.336635 0.329832 
0.320178 0.309464 0.29964 0.292476 0.288386 0.28723 0.289214 0.293822 0.309287 
0.334553 0.585793 0.262893 0.241189 0.227142 0.200525 0.197571 0.213014 0.19118 
0.187539 0.170715 0.176899 0.182965 0.150146 0.0869157 0.101554 0.135722 0.164765 
0.152846 0.178558 0.171413 0.187902 0.191391 0.195027 0.220286 0.207573 0.231783 
0.279833 0.333277 0.333534 0.333935 0.334342 0.334764 0.335095 0.33537 0.335502 
0.335507 0.335392 0.335173 0.3349 0.334573 0.334218 0.333898 0.333611 0.333376 
0.333189 0.333065 0.333004 0.333 0.333029 0.333094 0.333174 0.33325 0.333324 
0.333349 0.433433 0.357126 0.333475 0.319245 0.310849 0.306031 0.303031 0.301925 
0.300914 0.301075 0.302014 0.303164 0.3046 0.306364 0.308129 0.310079 0.311922 
0.313701 0.315173 0.316415 0.316914 0.317158 0.316784 0.315715 0.314032 0.31171 
0.308759 0.305518 0.302117 0.299452 0.298777 0.300585 0.303304 0.30775 0.312177 
0.316569 0.320348 0.323718 0.326418 0.328561 0.330196 0.331584 0.332443 0.333033 
0.333694 0.33398 0.334323 0.334694 0.33469 0.333265 0.331124 0.327224 0.321428 
0.315196 0.310745 0.308564 0.309578 0.313023 0.320326 0.353427 0.390905 0.370012 
0.342527 0.326758 0.300362 0.291514 0.289672 0.293842 0.310338 0.292649 0.287108 
0.287082 0.29164 0.309099 0.291667 0.287534 0.285062 0.286689 0.288886 0.292655 
0.290356 0.290344 0.294656 0.308741 0.345061 0.370756 0.384641 0.364034 0.342285 
0.325497 0.31259 0.302918 0.294691 0.287707 0.279139 0.269246 0.255348 0.236469 
0.265287 0.433347 0.272137 0.226882 0.245012 0.259076 0.269045 0.277672 0.285661 
0.294197 0.302906 0.313384 0.32788 0.347977 0.372627 0.389585 0.364441 0.333473 
0.334109 0.333542 0.395334 0.273734 0.44828 0.276504 0.446801 0.333514 0.334068 
0.3346 0.335087 0.335482 0.335714 0.335761 0.335676 0.335423 0.335098 0.334733 
0.334344 0.333969 0.333641 0.333388 0.333201 0.333047 0.332972 0.332964 0.332998 
0.33307 0.333161 0.333263 0.333521 0.34612 0.33562 0.326713 0.321112 0.316096 
0.312904 0.310853 0.3096 0.30901 0.308826 0.309211 0.309761 0.31038 0.311286 
0.31217 0.313009 0.313779 0.314097 0.314165 0.313829 0.313197 0.312311 0.310969 
0.30948 0.307934 0.306314 0.304345 0.30234 0.301861 0.303767 0.307441 0.31178 
0.316111 0.31997 0.323038 0.325637 0.327612 0.329128 0.330281 0.331359 0.332218 
0.332987 0.347766 0.333501 0.333255 0.332995 0.293928 0.341721 0.327738 0.324802 
0.320875 0.318006 0.318334 0.321411 0.324928 0.327468 0.330136 0.355543 0.41534 
0.310116 0.301865 0.296749 0.290937 0.288154 0.284104 0.282879 0.283234 0.283924 
0.282618 0.280729 0.281065 0.281385 0.282807 0.282896 0.282422 0.282712 0.284699 
0.288255 0.293098 0.300994 0.315743 0.344167 0.348413 0.32348 0.313484 0.30477 
0.297591 0.291177 0.284465 0.277676 0.27494 0.289056 0.302512 0.33342 0.368124 
0.261761 0.265194 0.272555 0.280275 0.287965 0.295875 0.304572 0.314314 0.325796 
0.338185 0.348737 0.351761 0.331113 0.328816 0.329324 0.339968 0.333857 0.281145 
0.317091 0.294366 0.330408 0.304406 0.385666 0.324139 0.377123 0.395497 0.334337 
0.335086 0.335787 0.336293 0.336502 0.336408 0.336107 0.335632 0.335094 0.334546 
0.334031 0.33356 0.333235 0.333013 0.332835 0.332719 0.332728 0.332799 0.33293 
0.333085 0.333546 0.310369 0.332912 0.332217 0.328677 0.325435 0.322218 0.319548 
0.317627 0.315917 0.314964 0.314451 0.313931 0.313588 0.313591 0.313642 0.313698 
0.313693 0.31344 0.312817 0.311818 0.31061 0.309298 0.307775 0.306462 0.305418 
0.304906 0.304029 0.303144 0.301922 0.302485 0.309065 0.315459 0.320518 0.324837 
0.327951 0.329921 0.330936 0.331319 0.331661 0.33214 0.332536 0.287973 0.299709 
0.333068 0.332553 0.3315 0.33539 0.350908 0.323246 0.327835 0.326837 0.331383 
0.331868 0.3297 0.343848 0.33349 0.370028 0.320356 0.313584 0.307491 0.302653 
0.299465 0.296611 0.294831 0.294555 0.294463 0.293487 0.292073 0.291979 0.293396 
0.294275 0.294771 0.295389 0.297486 0.300303 0.304575 0.310125 0.318067 0.307762 
0.321468 0.304363 0.299212 0.294727 0.295127 0.302524 0.311141 0.359241 0.385497 
0.282395 0.286523 0.291864 0.298036 0.305362 0.312901 0.321367 0.329542 0.335473 
0.338041 0.32888 0.327979 0.325467 0.321188 0.314309 0.3096 0.386281 0.28046 
0.333259 0.338922 0.326403 0.326809 0.365011 0.314694 0.339202 0.336672 0.37075 
0.329004 0.300256 0.336119 0.337094 0.337731 0.337943 0.337515 0.336725 0.335856 
0.335008 0.33419 0.333461 0.33293 0.332608 0.332506 0.332249 0.332228 0.332442 
0.332566 0.332928 0.338066 0.331224 0.295517 0.327844 0.327952 0.327434 0.325931 
0.324233 0.322535 0.320216 0.320096 0.318856 0.317758 0.316777 0.316038 0.315545 
0.314944 0.314086 0.31282 0.311108 0.309001 0.306835 0.304335 0.302064 0.300879 
0.300097 0.325367 0.331678 0.334905 0.336081 0.336238 0.335321 0.33431 0.333778 
0.330175 0.32533 0.345558 0.317638 0.311474 0.325267 0.329621 0.3377 0.347778 
0.320108 0.3324 0.339971 0.368572 0.315143 0.313443 0.311071 0.307545 0.305311 
0.30564 0.306262 0.304933 0.301789 0.30482 0.305877 0.306327 0.307146 0.309044 
0.311211 0.314298 0.318619 0.307922 0.305841 0.313888 0.322086 0.349849 0.366926 
0.364228 0.364305 0.315344 0.332434 0.296898 0.301311 0.305832 0.311424 0.317142 
0.322962 0.327278 0.334851 0.333546 0.321536 0.354749 0.336162 0.326162 0.327225 
0.293432 0.319726 0.323605 0.315395 0.330803 0.32203 0.330678 0.316399 0.357952 
0.351564 0.323274 0.3264 0.323989 0.319208 0.323718 0.326944 0.293367 0.337962 
0.339028 0.340239 0.340059 0.338756 0.337126 0.335976 0.334637 0.333424 0.332548 
0.332059 0.33178 0.331477 0.331763 0.3388 0.325976 0.32708 0.328557 0.328572 
0.327565 0.325668 0.324525 0.321992 0.321116 0.31904 0.318426 0.317433 0.316113 
0.314302 0.311957 0.308195 0.338765 0.346418 0.343901 0.343645 0.340675 0.33792 
0.323348 0.314331 0.33743 0.351004 0.346684 0.330122 0.340082 0.317328 0.322613 
0.320574 0.315426 0.314744 0.318467 0.318733 0.314254 0.317747 0.317222 0.316909 
0.318687 0.320326 0.321625 0.324021 0.319129 0.335829 0.353684 0.329626 0.350035 
0.314566 0.318825 0.33593 0.354019 0.301866 0.343025 0.333917 0.338239 0.304697 
0.321104 0.326582 0.32602 0.324549 0.327426 0.323862 0.343494 0.321966 0.324074 
0.310424 0.321647 0.341793 0.34397 0.338583 0.335622 0.33374 0.332155 0.331205 
0.331114 0.330118 0.33077 0.331221 0.336037 0.330434 0.327324 0.321219 0.346326 
0.341479 0.331177 0.345649 0.328588 0.329982 0.329751 0.325865 0.325815 0.328425 
0.326755 0.317375 0.33687 0.33075 0.323039 0.319425 0.33157 0.342302 0.332897 
0.32976 0.328313 0.329691 0.325318 0.333897 0.334444 0.326677 0.333136 0.333634 
0.334138 0.33466 0.335164 0.33546 0.335556 0.335449 0.335176 0.33479 0.334373 
0.333944 0.333561 0.333298 0.333119 0.333024 0.33301 0.333069 0.333158 0.333262 
0.333349 0.364191 0.353177 0.327669 0.314129 0.307461 0.304389 0.302711 0.302744 
0.303403 0.304222 0.305989 0.308148 0.310352 0.312361 0.314262 0.315639 0.316444 
0.316333 0.315472 0.313904 0.311438 0.308624 0.304871 0.301255 0.299721 0.301184 
0.305077 0.310055 0.315409 0.319796 0.323659 0.32694 0.329204 0.331085 0.332326 
0.333471 0.333654 0.333833 0.334138 0.334651 0.334268 0.333862 0.332477 0.329343 
0.324341 0.318866 0.313713 0.310185 0.30858 0.309296 0.312687 0.321686 0.356615 
0.431194 0.344251 0.299116 0.288171 0.306248 0.299838 0.292731 0.269295 0.293706 
0.292788 0.293348 0.269493 0.293618 0.293413 0.294339 0.292973 0.292369 0.295049 
0.297355 0.305564 0.302129 0.374689 0.367211 0.343516 0.326494 0.314335 0.305461 
0.298055 0.291279 0.284228 0.276195 0.266431 0.25327 0.235849 0.271499 0.381275 
0.24924 0.228687 0.243309 0.257534 0.269763 0.278963 0.287267 0.29489 0.303902 
0.315098 0.328112 0.345925 0.371842 0.374791 0.400136 0.33411 0.336261 0.480377 
0.453888 0.288758 0.266122 0.333752 0.333016 0.335125 0.335769 0.336065 0.335963 
0.335631 0.335126 0.334589 0.334016 0.333542 0.3332 0.33299 0.332892 0.332889 
0.332975 0.333106 0.33327 0.333464 0.328698 0.329381 0.338846 0.33939 0.321652 
0.317128 0.314294 0.312464 0.311026 0.310522 0.310654 0.311217 0.311993 0.312722 
0.313459 0.313818 0.313683 0.312931 0.311504 0.30997 0.308551 0.307457 0.306027 
0.303893 0.302493 0.304281 0.30892 0.314425 0.319624 0.323359 0.326221 0.328389 
0.329904 0.331161 0.332216 0.332546 0.333472 0.331455 0.333445 0.305807 0.329967 
0.330254 0.33066 0.326421 0.323197 0.319716 0.318337 0.319879 0.322521 0.325173 
0.327743 0.377116 0.398303 0.309565 0.297134 0.290567 0.287835 0.287377 0.287358 
0.286753 0.285701 0.285452 0.285869 0.287043 0.286809 0.287108 0.289988 0.293755 
0.29909 0.313897 0.359693 0.305927 0.325846 0.346335 0.336605 0.326364 0.316388 
0.308433 0.300734 0.293925 0.287307 0.281059 0.275244 0.27462 0.291868 0.292914 
0.414943 0.278098 0.273147 0.280294 0.288336 0.29609 0.304589 0.314287 0.325536 
0.338339 0.349535 0.354825 0.334347 0.349236 0.265423 0.266619 0.351903 0.332181 
0.296056 0.398541 0.387713 0.306214 0.329838 0.337159 0.336219 0.336691 0.335933 
0.335076 0.334182 0.333438 0.332886 0.332588 0.332462 0.332495 0.332655 0.332893 
0.333086 0.323873 0.327073 0.333476 0.292662 0.328468 0.329884 0.320656 0.318713 
0.31708 0.315881 0.315114 0.314702 0.314447 0.314257 0.313825 0.312862 0.311201 
0.308907 0.306173 0.304101 0.303191 0.303397 0.303623 0.301771 0.302785 0.310438 
0.318567 0.325503 0.329737 0.331495 0.332381 0.332475 0.332527 0.323183 0.332788 
0.30873 0.325618 0.329367 0.324046 0.320358 0.331503 0.346633 0.337064 0.30384 
0.300916 0.300623 0.29987 0.29901 0.298426 0.297826 0.298065 0.298891 0.300263 
0.302778 0.305902 0.309712 0.315084 0.314065 0.389595 0.330079 0.3239 0.317432 
0.311112 0.305196 0.300222 0.296398 0.293747 0.294926 0.303206 0.311942 0.292424 
0.287032 0.305439 0.312962 0.321286 0.329811 0.336478 0.340429 0.365082 0.321199 
0.331009 0.347526 0.326101 0.301484 0.319632 0.334653 0.299206 0.334784 0.331601 
0.327628 0.281531 0.333001 0.376462 0.37053 0.356915 0.328185 0.330136 0.325359 
0.314495 0.337869 0.377939 0.314936 0.375302 0.299502 0.337739 0.297934 0.283937 
0.355917 0.339819 0.338484 0.334655 0.333446 0.332486 0.331939 0.331797 0.331847 
0.332058 0.332541 0.324846 0.318143 0.321473 0.323473 0.325238 0.319809 0.31842 
0.317398 0.316413 0.315317 0.313838 0.311337 0.307656 0.303465 0.297841 0.325199 
0.331621 0.340533 0.339295 0.338448 0.336841 0.33542 0.34919 0.326518 0.313667 
0.337431 0.318342 0.334301 0.325883 0.319774 0.337972 0.323291 0.327861 0.312307 
0.330648 0.314807 0.311734 0.310582 0.310197 0.310803 0.312092 0.313913 0.316457 
0.319874 0.319932 0.371794 0.315269 0.322267 0.318303 0.314065 0.309664 0.30791 
0.308267 0.306242 0.309812 0.317425 0.317279 0.31145 0.328375 0.331843 0.323278 
0.323177 0.296837 0.33604 0.295066 0.339039 0.323693 0.325505 0.327728 0.329719 
0.318801 0.335101 0.358912 0.334496 0.327615 0.329803 0.354667 0.326833 0.324723 
0.338436 0.330444 0.302084 0.312243 0.36455 0.336436 0.361775 0.343513 0.334058 
0.307852 0.33354 0.330649 0.330998 0.322818 0.326878 0.323225 0.32585 0.347763 
0.32474 0.328702 0.321277 0.319754 0.318158 0.316339 0.313773 0.34896 0.346071 
0.34213 0.338931 0.332225 0.339976 0.325273 0.341215 0.324266 0.347659 0.348862 
0.324144 0.324155 0.328087 0.329279 0.322647 0.321711 0.322033 0.323547 0.324677 
0.326349 0.358742 0.360598 0.331081 0.332194 0.319762 0.31643 0.314922 0.316808 
0.340781 0.326292 0.322887 0.331273 0.324432 0.35014 0.340968 0.326681 0.340656 
0.328571 0.331719 0.329005 0.341967 0.335599 0.32789 0.321798 0.318554 0.320822 
0.354939 0.337816 0.338956 0.324283 0.326176 0.349658 0.33354 0.341076 0.332779 
0.33026 0.331897 0.331221 0.329686 0.330605 0.337169 0.319608 0.345483 0.331619 
0.337154 0.333687 0.322342 0.327263 0.332348 0.349323 0.335395 0.347621 0.331321 
0.336228 0.332826 0.330367 0.340004 0.327415 0.344438 0.337976 0.391662 0.393057 
0.2426 0.211664 0.203989 0.192744 0.183364 0.183257 0.182511 0.190075 0.182697 
0.182349 0.182759 0.18848 0.181018 0.181242 0.179527 0.179636 0.184227 0.182138 
0.185702 0.190559 0.204996 0.229524 0.389167 0.37326 0.184944 0.154761 0.150294 
0.17077 0.185363 0.182867 0.170235 0.144414 0.168294 0.183843 0.18325 0.169912 
0.145406 0.170428 0.183367 0.184519 0.185446 0.170828 0.172796 0.18407 0.184212 
0.185103 0.171949 0.149821 0.16257 0.223987 0.333289 0.333316 0.333518 0.333898 
0.334358 0.334807 0.335234 0.335538 0.335699 0.335722 0.335622 0.335372 0.335031 
0.33466 0.334258 0.333877 0.333527 0.333258 0.333057 0.332913 0.332854 0.332866 
0.332929 0.333021 0.333127 0.333228 0.333305 0.333326 0.535369 0.360975 0.327055 
0.30743 0.297651 0.292355 0.289799 0.289167 0.289483 0.290681 0.292451 0.294514 
0.29685 0.299611 0.302466 0.305459 0.308571 0.311656 0.314574 0.317163 0.319366 
0.320908 0.321733 0.321783 0.320883 0.318962 0.315672 0.311045 0.305534 0.299393 
0.294044 0.291274 0.291791 0.295349 0.300857 0.306954 0.312826 0.317914 0.32208 
0.32556 0.328396 0.330499 0.332036 0.333052 0.333456 0.333415 0.333314 0.333434 
0.333792 0.334352 0.335144 0.336235 0.337565 0.33895 0.339322 0.336875 0.330246 
0.320036 0.30848 0.297966 0.291037 0.287671 0.286978 0.289984 0.302929 0.321166 
0.367146 0.513027 0.205079 0.184596 0.172433 0.201522 0.197445 0.163481 0.191788 
0.188221 0.183269 0.177463 0.139391 0.140119 0.0793002 0.161081 0.0805116 0.129485 
0.155453 0.168987 0.178955 0.185318 0.188974 0.193083 0.197404 0.166853 0.206174 
0.21263 0.227395 0.211678 0.210794 0.333247 0.33336 0.333602 0.334128 0.334734 
0.335263 0.335611 0.33573 0.335642 0.335365 0.33495 0.334449 0.33395 0.333507 
0.333188 0.332977 0.332876 0.332881 0.332961 0.333087 0.333211 0.333297 0.33333 
0.513714 0.372825 0.320832 0.303116 0.294126 0.290402 0.289461 0.290164 0.291943 
0.294371 0.297233 0.300611 0.304409 0.308386 0.312275 0.315797 0.318719 0.320836 
0.321852 0.321572 0.319897 0.316429 0.310743 0.303615 0.296458 0.291957 0.292091 
0.296582 0.303048 0.310115 0.316439 0.321699 0.325995 0.329215 0.331498 0.332866 
0.333399 0.333449 0.333326 0.333398 0.333661 0.334137 0.334777 0.335612 0.336707 
0.338112 0.339353 0.338579 0.333849 0.325387 0.314822 0.304166 0.295488 0.289809 
0.286949 0.286738 0.291022 0.298698 0.318457 0.355358 0.538755 0.287954 0.230402 
0.211893 0.204571 0.199945 0.196311 0.193814 0.190168 0.186147 0.151783 0.173097 
0.161043 0.111035 0.073235 0.287134 0.0646702 0.10916 0.157148 0.143535 0.176208 
0.181658 0.15752 0.189976 0.193892 0.198847 0.202928 0.212709 0.230465 0.284539 
0.225935 0.333318 0.333346 0.449424 0.170195 0.397802 0.178753 0.24471 0.247719 
0.212484 0.176737 0.15664 0.149744 0.151062 0.143831 0.146717 0.169267 0.165301 
0.163219 0.163957 0.15999 0.167895 0.140649 0.145213 0.166335 0.161218 0.163571 
0.163431 0.162193 0.166276 0.145083 0.140518 0.166848 0.160535 0.163605 0.162875 
0.161615 0.164063 0.160236 0.16745 0.167527 0.159395 0.163899 0.161451 0.162285 
0.164053 0.162756 0.171112 0.149732 0.151815 0.161213 0.195118 0.148239 0.14838 
0.148564 0.15691 0.333319 0.333299 0.333344 0.333478 0.333623 0.333406 0.333822 
0.334033 0.333741 0.334239 0.334458 0.334142 0.334669 0.334891 0.334547 0.335052 
0.335245 0.334929 0.335375 0.335492 0.335242 0.335555 0.335602 0.335425 0.335604 
0.335585 0.335499 0.335534 0.335437 0.335448 0.335336 0.335182 0.335295 0.335047 
0.334879 0.335033 0.334711 0.334516 0.334733 0.334334 0.334139 0.334395 0.33398 
0.333805 0.334064 0.333661 0.333496 0.333752 0.33338 0.333275 0.33349 0.333176 
0.333091 0.333284 0.333027 0.332972 0.333131 0.332942 0.332936 0.333036 0.332931 
0.332947 0.332995 0.332962 0.333001 0.333016 0.333036 0.333084 0.333063 0.333126 
0.333177 0.333133 0.333213 0.333261 0.33321 0.333292 0.333323 0.333288 0.333336 
0.333333 0.333355 0.333337 0.40451 0.471396 0.375824 0.352142 0.337955 0.374925 
0.326196 0.318881 0.34209 0.311645 0.307356 0.325099 0.303337 0.301084 0.314479 
0.298586 0.297764 0.308026 0.296346 0.296289 0.304248 0.295759 0.296074 0.302309 
0.295579 0.296265 0.301195 0.296417 0.29731 0.300878 0.297832 0.298857 0.30148 
0.299501 0.300645 0.302532 0.301418 0.302827 0.303839 0.303748 0.305141 0.305463 
0.306049 0.307567 0.307226 0.308598 0.310078 0.309125 0.311028 0.312463 0.311021 
0.313381 0.314729 0.31284 0.3155 0.316653 0.314509 0.317294 0.318252 0.315849 
0.318549 0.3191 0.316777 0.319238 0.319398 0.317112 0.31922 0.318998 0.317061 
0.31846 0.317748 0.316339 0.316889 0.315646 0.314979 0.314481 0.312529 0.312982 
0.311002 0.308599 0.310298 0.306886 0.304057 0.307225 0.302332 0.299504 0.303753 
0.298131 0.296189 0.300515 0.29584 0.295199 0.298824 0.29605 0.297106 0.299472 
0.298531 0.300883 0.301643 0.303097 0.305793 0.305416 0.308006 0.311051 0.309949 
0.313272 0.315878 0.31445 0.317785 0.320151 0.318534 0.321874 0.32369 0.322123 
0.325083 0.326678 0.325125 0.327754 0.328937 0.327578 0.329777 0.330701 0.329451 
0.331393 0.332058 0.330953 0.332512 0.332843 0.332069 0.333176 0.333227 0.332778 
0.333651 0.333869 0.334021 0.334342 0.333834 0.334533 0.334971 0.334148 0.33517 
0.335747 0.33451 0.335794 0.336406 0.334751 0.336153 0.335679 0.334578 0.332341 
0.332487 0.330272 0.326286 0.329489 0.323209 0.31793 0.324518 0.314602 0.309498 
0.318216 0.307059 0.302776 0.312598 0.301485 0.29943 0.309096 0.299738 0.299178 
0.308405 0.300794 0.302017 0.310379 0.305828 0.310507 0.31516 0.335901 0.352544 
0.375017 0.409841 0.368937 0.383738 0.317052 0.287388 0.272561 0.265554 0.357726 
0.257394 0.254117 0.333913 0.244843 0.244755 0.318782 0.242638 0.240241 0.283221 
0.240913 0.240002 0.283642 0.240694 0.23906 0.282107 0.25031 0.249203 0.302938 
0.237629 0.239347 0.304337 0.238132 0.237919 0.27991 0.238534 0.238014 0.277237 
0.239331 0.236753 0.278907 0.248854 0.250097 0.303345 0.239986 0.240327 0.301401 
0.238345 0.238791 0.280768 0.239123 0.239071 0.278056 0.23865 0.23863 0.277944 
0.240618 0.240883 0.279105 0.241339 0.242247 0.299104 0.238891 0.240154 0.281492 
0.24037 0.241484 0.282121 0.242346 0.244208 0.285644 0.248483 0.249395 0.292315 
0.266665 0.273249 0.32925 0.275723 0.28637 0.35469 0.391283 0.426511 0.350239 
0.367832 0.372649 0.327616 0.334341 0.351485 0.313383 0.315707 0.332594 0.302761 
0.303569 0.318167 0.294594 0.295357 0.307217 0.287794 0.287303 0.298031 0.280936 
0.281147 0.290436 0.272025 0.273441 0.28289 0.260746 0.264721 0.273635 0.241758 
0.25133 0.261838 0.206385 0.228897 0.245205 0.195632 0.21047 0.238425 0.493769 
0.352236 0.229612 0.209065 0.196185 0.222543 0.233458 0.229128 0.241832 0.234352 
0.250661 0.256096 0.25352 0.262822 0.264923 0.262143 0.272156 0.273055 0.272584 
0.279581 0.28053 0.28121 0.287845 0.288326 0.289421 0.295986 0.296424 0.297768 
0.303882 0.306362 0.307309 0.31645 0.318434 0.319333 0.331958 0.342236 0.338013 
0.357524 0.374568 0.360443 0.396675 0.439844 0.380145 0.428628 0.317387 0.3333 
0.351093 0.333411 0.333537 0.347416 0.336168 0.336578 0.325058 0.317749 0.325693 
0.333883 0.374079 0.46969 0.327534 0.254158 0.282674 0.525872 0.464074 0.305986 
0.249206 0.405457 0.529935 0.416549 0.423066 0.284052 0.333582 0.405825 0.333507 
0.333739 0.333988 0.334219 0.333795 0.334458 0.334698 0.334335 0.334905 0.335101 
0.334839 0.335281 0.335429 0.335287 0.335528 0.3356 0.335606 0.335621 0.335619 
0.335738 0.335588 0.335519 0.335716 0.335412 0.335292 0.335555 0.335145 0.334984 
0.335261 0.334822 0.334642 0.334911 0.334466 0.334273 0.334534 0.334101 0.333927 
0.334162 0.333774 0.333621 0.33381 0.333501 0.333385 0.333509 0.333293 0.333201 
0.333294 0.333123 0.333062 0.333122 0.333022 0.332996 0.333011 0.332985 0.332985 
0.332966 0.332997 0.333021 0.33298 0.333048 0.333087 0.333037 0.333126 0.333173 
0.333117 0.333214 0.333261 0.333207 0.333607 0.333748 0.333126 0.352339 0.341079 
0.335339 0.328193 0.340191 0.323555 0.319425 0.33032 0.316257 0.313921 0.323365 
0.31136 0.309826 0.318132 0.308187 0.307614 0.314285 0.306532 0.306044 0.311663 
0.305403 0.305449 0.310095 0.305119 0.305584 0.309209 0.30547 0.306032 0.308807 
0.306247 0.306926 0.308979 0.307192 0.308065 0.30946 0.308392 0.309279 0.310045 
0.309719 0.310667 0.310813 0.311136 0.312028 0.311729 0.312449 0.313323 0.312637 
0.313689 0.314416 0.313432 0.314598 0.315207 0.313997 0.315261 0.315473 0.314169 
0.31533 0.315455 0.314048 0.315105 0.314961 0.313588 0.314479 0.313959 0.312795 
0.313319 0.312456 0.311671 0.311738 0.310568 0.310252 0.309791 0.308376 0.308727 
0.307519 0.305935 0.307103 0.305024 0.303294 0.305323 0.302368 0.301018 0.303256 
0.30082 0.300494 0.301767 0.301387 0.302331 0.302669 0.304086 0.305425 0.305407 
0.307592 0.309833 0.309537 0.311909 0.314152 0.313974 0.316035 0.318243 0.318103 
0.31976 0.321657 0.321582 0.322971 0.324579 0.324388 0.325638 0.326946 0.326694 
0.32774 0.328807 0.328442 0.329366 0.330187 0.329739 0.33075 0.33144 0.330864 
0.331884 0.332308 0.331809 0.332694 0.332996 0.332628 0.341204 0.37156 0.354297 
0.334525 0.333744 0.333902 0.3338 0.333959 0.333403 0.333821 0.33378 0.333145 
0.287423 0.281848 0.340684 0.365877 0.314649 0.329359 0.327489 0.325962 0.32318 
0.326323 0.321122 0.318095 0.3228 0.316647 0.314509 0.314628 0.313718 0.317768 
0.315222 0.315856 0.319478 0.31771 0.319419 0.322739 0.32098 0.324232 0.325567 
0.332072 0.331672 0.362088 0.375182 0.445638 0.418627 0.373058 0.304357 0.297084 
0.291791 0.285297 0.305624 0.287482 0.285642 0.299264 0.279466 0.280841 0.294756 
0.278777 0.28172 0.289496 0.275151 0.269665 0.286123 0.269088 0.272722 0.283867 
0.27758 0.274378 0.283008 0.276001 0.276232 0.284205 0.273391 0.27753 0.28379 
0.271846 0.267736 0.281889 0.267384 0.271209 0.281177 0.276656 0.272926 0.281282 
0.275043 0.274604 0.28296 0.274373 0.274691 0.282657 0.272941 0.274616 0.283395 
0.270859 0.268909 0.282853 0.275241 0.275544 0.283898 0.279749 0.279334 0.287037 
0.282722 0.284235 0.290402 0.288515 0.295499 0.29671 0.299633 0.302919 0.306528 
0.318788 0.34234 0.353545 0.355427 0.362475 0.349342 0.346524 0.316371 0.324694 
0.3064 0.313592 0.318358 0.297859 0.304325 0.30911 0.290766 0.296907 0.301204 
0.283476 0.290139 0.29447 0.275293 0.282553 0.287857 0.265409 0.27424 0.280963 
0.256385 0.266143 0.275658 0.276907 0.265194 0.279415 0.292583 0.288661 0.333446 
0.333556 0.371413 0.399532 0.244662 0.253438 0.253893 0.260928 0.263085 0.263474 
0.2714 0.268521 0.274043 0.279706 0.276493 0.282319 0.287725 0.284172 0.290225 
0.295981 0.292048 0.298856 0.304641 0.300338 0.30834 0.314978 0.30938 0.319735 
0.328019 0.319796 0.33417 0.342712 0.33163 0.348521 0.359417 0.343288 0.360855 
0.365488 0.350277 0.332863 0.332544 0.332128 0.325365 0.330876 0.327456 0.331212 
0.330225 0.328605 0.329795 0.349333 0.363535 0.328184 0.338027 0.328478 0.271222 
0.251393 0.268981 0.329227 0.297206 0.333153 0.333275 0.333253 0.333406 0.333526 
0.333482 0.333328 0.333376 0.333401 0.348837 0.289445 0.285259 0.295059 0.334176 
0.341441 0.331043 0.319135 0.330703 0.318182 0.295775 0.370597 0.393662 0.329277 
0.316561 0.324276 0.33882 0.326787 0.329009 0.326162 0.296125 0.304091 0.418467 
0.370659 0.34601 0.383813 0.414764 0.418088 0.357783 0.411106 0.301631 0.334172 
0.334492 0.334818 0.335114 0.334714 0.335418 0.33565 0.335433 0.335865 0.335996 
0.336056 0.336093 0.336124 0.336397 0.336086 0.336024 0.336454 0.335892 0.335742 
0.336253 0.335541 0.335349 0.335879 0.335115 0.3349 0.335359 0.334656 0.334429 
0.334817 0.334198 0.333983 0.334295 0.333773 0.333593 0.333801 0.333447 0.333314 
0.333393 0.333206 0.333108 0.333124 0.333019 0.332946 0.332921 0.332889 0.332855 
0.332777 0.33285 0.332852 0.332724 0.332878 0.332908 0.332761 0.332957 0.333008 
0.332866 0.333071 0.333127 0.333006 0.333501 0.333826 0.333962 0.306633 0.299647 
0.332923 0.333228 0.333226 0.332552 0.334027 0.330327 0.32795 0.325374 0.330022 
0.323521 0.321024 0.326786 0.319451 0.317775 0.32355 0.316478 0.315317 0.320685 
0.314405 0.313774 0.318444 0.312852 0.312565 0.316685 0.312026 0.311942 0.315336 
0.311705 0.31186 0.314657 0.311635 0.311861 0.314154 0.311709 0.312 0.313727 
0.312001 0.312417 0.313572 0.312461 0.312888 0.313604 0.312933 0.313352 0.313691 
0.313331 0.313699 0.313748 0.313574 0.313714 0.313613 0.313431 0.313425 0.313163 
0.312969 0.312783 0.312354 0.312204 0.311899 0.311244 0.311223 0.310801 0.309977 
0.310025 0.309392 0.30852 0.308729 0.308039 0.307067 0.307508 0.306788 0.305873 
0.306466 0.305623 0.305012 0.305259 0.304206 0.304455 0.303843 0.302831 0.303577 
0.302209 0.30212 0.302358 0.302378 0.303397 0.302039 0.306438 0.308284 0.305616 
0.311329 0.313583 0.312312 0.316079 0.318282 0.318139 0.32041 0.322342 0.322792 
0.323943 0.325411 0.326501 0.32645 0.327701 0.328991 0.32826 0.329231 0.330445 
0.329468 0.330217 0.331135 0.330377 0.330954 0.331503 0.331198 0.331732 0.331919 
0.331924 0.332354 0.33272 0.33234 0.28466 0.27389 0.296957 0.291273 0.294852 
0.333294 0.333272 0.333026 0.332887 0.359621 0.3324 0.332265 0.333565 0.326992 
0.340664 0.339934 0.353997 0.36663 0.324077 0.322199 0.329451 0.329 0.322623 
0.324293 0.326543 0.328225 0.329203 0.328609 0.329618 0.331561 0.335736 0.317027 
0.347071 0.354747 0.334394 0.338595 0.390523 0.3603 0.347181 0.320976 0.32062 
0.319259 0.321565 0.307395 0.304311 0.301722 0.299543 0.310301 0.296897 0.295342 
0.304963 0.293906 0.291606 0.301137 0.290136 0.289574 0.297956 0.28875 0.288974 
0.295651 0.289129 0.289057 0.294645 0.289105 0.288767 0.294619 0.287991 0.286973 
0.293962 0.286158 0.286271 0.292787 0.286237 0.286694 0.291917 0.287677 0.288117 
0.292691 0.288318 0.288448 0.293899 0.2888 0.288963 0.294522 0.28908 0.289125 
0.295091 0.290228 0.291584 0.296351 0.293004 0.294424 0.298833 0.2962 0.298807 
0.302401 0.301412 0.305418 0.307317 0.309373 0.316448 0.327189 0.314272 0.302915 
0.306433 0.317957 0.322583 0.298074 0.301033 0.305902 0.292103 0.295229 0.301557 
0.286662 0.289699 0.296573 0.286058 0.2865 0.294106 0.296709 0.289423 0.298193 
0.308149 0.306651 0.363765 0.377047 0.351478 0.388841 0.405767 0.273979 0.277564 
0.279705 0.283446 0.284138 0.286226 0.290011 0.288931 0.293175 0.297136 0.294789 
0.300839 0.305162 0.301545 0.309006 0.313802 0.308947 0.318205 0.323742 0.316864 
0.328241 0.333591 0.325236 0.337411 0.341751 0.332596 0.343021 0.344595 0.340327 
0.331322 0.32838 0.328557 0.326082 0.326179 0.33023 0.326398 0.330953 0.330506 
0.32453 0.336558 0.326619 0.32523 0.319703 0.319943 0.323785 0.320369 0.309936 
0.314015 0.317685 0.310924 0.31204 0.301847 0.31602 0.393709 0.397412 0.272155 
0.272952 0.280943 0.28338 0.333197 0.333264 0.333338 0.332843 0.31122 0.33334 
0.332089 0.34797 0.344563 0.342787 0.333383 0.324294 0.305262 0.299108 0.327885 
0.327151 0.325757 0.327373 0.328452 0.358671 0.373213 0.320603 0.309907 0.31278 
0.379513 0.383951 0.330218 0.323191 0.35656 0.340684 0.342505 0.337273 0.333186 
0.33325 0.306101 0.3662 0.380708 0.376495 0.336761 0.330241 0.330028 0.328396 
0.328084 0.333172 0.29787 0.296481 0.320801 0.379655 0.300477 0.335057 0.335566 
0.335982 0.336388 0.336691 0.336629 0.336983 0.337109 0.337421 0.33721 0.337144 
0.337839 0.336956 0.33677 0.337719 0.336433 0.336151 0.337122 0.335771 0.335453 
0.336285 0.335082 0.334757 0.335429 0.334386 0.334088 0.334592 0.333761 0.333493 
0.333835 0.333254 0.333079 0.333198 0.332928 0.332816 0.332765 0.332762 0.33267 
0.332558 0.332546 0.332491 0.332373 0.332477 0.332492 0.332244 0.33258 0.332629 
0.332324 0.332672 0.332758 0.33251 0.332915 0.333008 0.33275 0.332293 0.334601 
0.331872 0.331335 0.289243 0.291051 0.333053 0.330323 0.328362 0.328596 0.326865 
0.327801 0.326657 0.324956 0.327426 0.32428 0.322893 0.32647 0.322071 0.321041 
0.32495 0.320229 0.319349 0.32328 0.318115 0.317689 0.321311 0.317558 0.317316 
0.320146 0.316715 0.316433 0.319446 0.31589 0.315703 0.318268 0.315197 0.315177 
0.317244 0.314809 0.314823 0.316371 0.314582 0.314609 0.315809 0.314303 0.314305 
0.315284 0.313866 0.31373 0.314575 0.313078 0.312767 0.313499 0.311921 0.311414 
0.311996 0.310383 0.309789 0.310073 0.30874 0.308091 0.307904 0.306847 0.306118 
0.305541 0.304933 0.304355 0.303115 0.303771 0.303373 0.301325 0.302905 0.30289 
0.300221 0.302361 0.301987 0.302334 0.301799 0.300926 0.309307 0.320058 0.322747 
0.325982 0.328136 0.328874 0.329756 0.33135 0.33342 0.331948 0.332924 0.335638 
0.333064 0.333552 0.336159 0.333142 0.333301 0.335738 0.332862 0.332991 0.334758 
0.33276 0.332979 0.334001 0.331906 0.33329 0.299489 0.29447 0.330228 0.32884 
0.326469 0.321696 0.348212 0.355092 0.314598 0.314121 0.305671 0.30791 0.326514 
0.325979 0.332259 0.333724 0.334614 0.334698 0.338298 0.357619 0.340194 0.321847 
0.320316 0.332727 0.33245 0.341909 0.349037 0.370531 0.376294 0.311607 0.308971 
0.308109 0.306649 0.314281 0.305402 0.304091 0.312303 0.302244 0.301256 0.309259 
0.300125 0.29997 0.306407 0.300193 0.300059 0.305491 0.30032 0.299941 0.305944 
0.299253 0.298642 0.305611 0.297036 0.296929 0.303332 0.298506 0.299109 0.303296 
0.2997 0.300118 0.305335 0.300359 0.300652 0.306105 0.301048 0.301375 0.30672 
0.302312 0.303388 0.308109 0.304514 0.305922 0.310097 0.307461 0.309573 0.312723 
0.311759 0.314502 0.316425 0.301639 0.303613 0.309432 0.310216 0.311765 0.313138 
0.300779 0.300379 0.306505 0.308836 0.305023 0.309812 0.323978 0.322834 0.321225 
0.353886 0.360238 0.345186 0.377091 0.369072 0.37666 0.369277 0.366061 0.372811 
0.365022 0.3131 0.308867 0.31414 0.334957 0.337805 0.330893 0.291849 0.29441 
0.295842 0.296728 0.299693 0.298891 0.302147 0.305658 0.303391 0.308565 0.312208 
0.308388 0.315246 0.319233 0.314129 0.322413 0.326122 0.319927 0.328492 0.331349 
0.328478 0.325209 0.300968 0.319483 0.334556 0.33501 0.335481 0.326531 0.333521 
0.333976 0.334235 0.333048 0.316207 0.314452 0.318215 0.329017 0.316343 0.330185 
0.335999 0.332986 0.332689 0.352843 0.361431 0.34359 0.340949 0.33746 0.32767 
0.320595 0.33611 0.323898 0.330201 0.328553 0.327825 0.332866 0.297022 0.290756 
0.28669 0.297465 0.333094 0.316899 0.317246 0.320579 0.324525 0.325208 0.314688 
0.317404 0.148969 0.151479 0.330373 0.333299 0.334908 0.324412 0.323766 0.334378 
0.331622 0.333638 0.315274 0.313728 0.357624 0.352768 0.331856 0.368325 0.363651 
0.362145 0.349324 0.357228 0.317804 0.325226 0.324937 0.32235 0.323315 0.327097 
0.325893 0.327691 0.322922 0.325894 0.325546 0.321785 0.321719 0.358005 0.319318 
0.319886 0.320328 0.323569 0.319458 0.318622 0.329664 0.323976 0.327017 0.332859 
0.32282 0.287226 0.288063 0.294106 0.293033 0.362156 0.317063 0.321952 0.33698 
0.337564 0.338005 0.338384 0.338495 0.338916 0.339072 0.339697 0.338993 0.338725 
0.340153 0.338147 0.337675 0.339373 0.336957 0.336458 0.337976 0.335968 0.335466 
0.336519 0.334855 0.334381 0.335291 0.333831 0.333416 0.334031 0.33302 0.332727 
0.332994 0.332494 0.332333 0.332305 0.332188 0.332156 0.331903 0.332005 0.161841 
0.184346 0.331866 0.331867 0.331614 0.331987 0.332119 0.331625 0.343706 0.346536 
0.31839 0.318916 0.327698 0.329131 0.327483 0.327418 0.328065 0.327297 0.327753 
0.327366 0.326439 0.328513 0.325994 0.325099 0.32797 0.324199 0.32296 0.326576 
0.322902 0.174783 0.194322 0.322355 0.321713 0.325063 0.320468 0.319894 0.323239 
0.319469 0.318941 0.321581 0.317909 0.317524 0.320011 0.31723 0.316956 0.31877 
0.316471 0.316172 0.317961 0.31549 0.315076 0.316821 0.314172 0.313499 0.315296 
0.312343 0.311472 0.313147 0.309633 0.308512 0.310179 0.300127 0.298805 0.297817 
0.297225 0.331781 0.33487 0.338988 0.340354 0.34298 0.33927 0.339874 0.345141 
0.339913 0.339928 0.343831 0.338517 0.338043 0.34205 0.336697 0.336168 0.339164 
0.323383 0.32428 0.323331 0.33437 0.310183 0.311316 0.337689 0.334002 0.317185 
0.317843 0.358834 0.350101 0.342609 0.342116 0.34215 0.319156 0.330676 0.329475 
0.351541 0.339213 0.342425 0.345785 0.312847 0.314439 0.315655 0.318047 0.31703 
0.323137 0.315849 0.314276 0.32169 0.311478 0.310421 0.317909 0.310065 0.310197 
0.315125 0.312081 0.312426 0.316583 0.312497 0.311876 0.318612 0.309625 0.308085 
0.316459 0.309546 0.181725 0.18367 0.311331 0.311791 0.315975 0.311604 0.311766 
0.317488 0.311686 0.312022 0.317023 0.313014 0.313872 0.317745 0.314789 0.315782 
0.319577 0.316581 0.318055 0.320949 0.319366 0.321408 0.325898 0.322798 0.315585 
0.317129 0.318004 0.337743 0.342232 0.33762 0.332077 0.331463 0.359613 0.358238 
0.354412 0.350207 0.330982 0.33445 0.332794 0.327722 0.351499 0.356265 0.304913 
0.307047 0.313133 0.315743 0.318153 0.320814 0.316577 0.326306 0.335347 0.336087 
0.336949 0.334887 0.35515 0.360586 0.332469 0.303144 0.298816 0.299324 0.304452 
0.321998 0.34158 0.348225 0.348664 0.330993 0.319884 0.319126 0.352343 0.335003 
0.339676 0.33723 0.342694 0.332775 0.344588 0.30693 0.305757 0.326442 0.356185 
0.318263 0.318427 0.336815 0.335204 0.330207 0.322378 0.322296 0.328194 0.328732 
0.331888 0.328395 0.32548 0.324813 0.324055 0.328216 0.326771 0.328824 0.32539 
0.326662 0.324919 0.303175 0.320026 0.321659 0.326477 0.325873 0.342117 0.34679 
0.32123 0.344196 0.348912 0.320843 0.322938 0.354944 0.333243 0.346992 0.320478 
0.327036 0.325449 0.325272 0.318538 0.301007 0.30309 0.325496 0.308264 0.311016 
0.320271 0.322309 0.324457 0.312477 0.342751 0.347618 0.342023 0.34198 0.338747 
0.337828 0.337177 0.186236 0.188101 0.335864 0.335077 0.337168 0.334222 0.333549 
0.334662 0.332819 0.332328 0.332904 0.331889 0.331636 0.331701 0.331582 0.331445 
0.331137 0.332189 0.306352 0.329405 0.32944 0.329686 0.32918 0.3305 0.32942 
0.32842 0.331029 0.19016 0.191563 0.330792 0.333642 0.333263 0.328064 0.327498 
0.325984 0.324651 0.328963 0.324229 0.192949 0.2136 0.322113 0.321051 0.325201 
0.31978 0.319299 0.311111 0.309079 0.332365 0.337316 0.33966 0.345023 0.3437 
0.341196 0.339806 0.343741 0.334628 0.328611 0.350179 0.351701 0.322527 0.321485 
0.327446 0.329549 0.332282 0.323099 0.318992 0.338021 0.346535 0.341567 0.313124 
0.339609 0.314384 0.348592 0.349922 0.331329 0.332977 0.19565 0.19829 0.322167 
0.323858 0.198764 0.202213 0.32383 0.323435 0.329837 0.32164 0.321373 0.327769 
0.321475 0.32217 0.325837 0.323864 0.324428 0.327146 0.324486 0.324218 0.327017 
0.313786 0.338055 0.35246 0.323657 0.323099 0.315782 0.316105 0.317939 0.316649 
0.31841 0.346003 0.343016 0.327733 0.338227 0.340197 0.203745 0.231156 0.331186 
0.328483 0.320654 0.318376 0.317742 0.319669 0.348588 0.326084 0.34019 0.348865 
0.338348 0.330937 0.331274 0.343938 0.324209 0.322779 0.213942 0.250305 0.346931 
0.345425 0.320343 0.240611 0.260624 0.337939 0.34077 0.320695 0.320484 0.322306 
0.324811 0.325055 0.324391 0.106226 0.330603 0.323691 0.324161 0.325977 0.324431 
0.32629 0.319462 0.327535 0.322147 0.335633 0.334323 0.332562 0.340971 0.341226 
0.340414 0.333382 0.332454 0.331075 0.33058 0.33118 0.328367 0.331009 0.330178 
0.331102 0.318453 0.32932 0.340368 0.34312 0.330833 0.32989 0.328603 0.328439 
0.325722 0.326931 0.326592 0.334928 0.338185 0.323578 0.336086 0.335683 0.342868 
0.320431 0.321606 0.322434 0.338583 0.338295 0.334159 0.332335 0.330252 0.330415 
0.33791 0.331976 0.332302 0.336183 0.334848 0.334305 0.332655 0.332395 0.324787 
0.32474 0.331367 0.325559 0.326063 0.331206 0.32965 0.328468 0.334415 0.33034 
0.330027 0.32702 0.328422 0.330411 0.330444 0.330534 0.328949 0.327409 0.333342 
0.333329 0.33327 0.333748 0.333536 0.333379 0.334293 0.333988 0.333883 0.334832 
0.334546 0.334407 0.335302 0.335062 0.334911 0.335574 0.335455 0.335311 0.335622 
0.335619 0.335513 0.335469 0.335561 0.335501 0.335155 0.335339 0.335312 0.334749 
0.334973 0.334982 0.334283 0.334542 0.33458 0.333841 0.33407 0.334162 0.333452 
0.333651 0.333758 0.333195 0.333315 0.333432 0.33302 0.333098 0.333206 0.332956 
0.332978 0.333071 0.33297 0.332948 0.333018 0.333046 0.332995 0.333041 0.333154 
0.333091 0.333115 0.33326 0.333203 0.33321 0.333328 0.3333 0.333303 0.333339 
0.385664 0.369891 0.395788 0.334379 0.353935 0.361461 0.313757 0.320837 0.338021 
0.303306 0.306701 0.319616 0.298737 0.300104 0.310173 0.297132 0.297339 0.305607 
0.296882 0.296406 0.303258 0.297957 0.296966 0.302527 0.299579 0.298386 0.302941 
0.301557 0.30006 0.303712 0.304234 0.302518 0.305062 0.307219 0.305365 0.307034 
0.310322 0.308402 0.309228 0.313128 0.311385 0.311391 0.315728 0.314164 0.313394 
0.317615 0.316464 0.315059 0.318846 0.318053 0.316104 0.318957 0.318806 0.316532 
0.318046 0.318553 0.316031 0.316041 0.317241 0.314817 0.312508 0.314735 0.312806 
0.307924 0.31105 0.310149 0.302568 0.305982 0.306732 0.297769 0.300694 0.302849 
0.296009 0.296951 0.300132 0.297917 0.2966 0.300074 0.302427 0.299806 0.302935 
0.308295 0.30494 0.30746 0.314311 0.311022 0.312777 0.319335 0.316555 0.317681 
0.323655 0.321308 0.32182 0.327208 0.325361 0.325433 0.329749 0.328395 0.328155 
0.33159 0.330693 0.33026 0.332703 0.332219 0.331767 0.333743 0.333491 0.333412 
0.333763 0.333581 0.333557 0.334129 0.333863 0.333753 0.334637 0.334296 0.333991 
0.335345 0.334895 0.334374 0.33644 0.335813 0.336435 0.33629 0.334184 0.334355 
0.335738 0.333417 0.32944 0.332648 0.331224 0.322251 0.326711 0.327106 0.314426 
0.319307 0.321665 0.307119 0.311589 0.316091 0.301787 0.305086 0.311529 0.298919 
0.300702 0.308849 0.2988 0.299045 0.308217 0.30185 0.30039 0.309881 0.309528 
0.306182 0.31539 0.350215 0.336084 0.462233 0.372164 0.374068 0.424127 0.294163 
0.301416 0.2616 0.268302 0.319395 0.251888 0.261685 0.292866 0.251061 0.259372 
0.294552 0.244756 0.24542 0.295329 0.24927 0.241917 0.289959 0.240751 0.241493 
0.276779 0.242579 0.250312 0.276497 0.242874 0.242752 0.286994 0.249275 0.24279 
0.28587 0.241535 0.240531 0.276959 0.242369 0.250098 0.277099 0.241089 0.242473 
0.28637 0.24224 0.241652 0.287666 0.24392 0.240272 0.287444 0.240286 0.241945 
0.285662 0.242712 0.242054 0.287101 0.245592 0.243028 0.288595 0.259771 0.248158 
0.292893 0.276162 0.261528 0.29225 0.428491 0.399111 0.377976 0.355026 0.370263 
0.337683 0.329254 0.351871 0.317205 0.314888 0.33301 0.305276 0.305361 0.318996 
0.297782 0.297587 0.308628 0.290864 0.291083 0.300777 0.284474 0.28464 0.293705 
0.277878 0.277796 0.28689 0.270766 0.267914 0.279718 0.261273 0.256616 0.270649 
0.248249 0.239535 0.259051 0.232015 0.20285 0.243592 0.205361 0.215648 0.245244 
0.337985 0.471054 0.195879 0.185685 0.221786 0.197406 0.230477 0.242074 0.230816 
0.235043 0.253652 0.249003 0.250388 0.265 0.262557 0.265442 0.273109 0.271576 
0.273451 0.281363 0.279428 0.282366 0.287647 0.287002 0.290466 0.295987 0.294836 
0.298503 0.306792 0.304127 0.308663 0.321354 0.316088 0.320731 0.339401 0.334042 
0.334767 0.381237 0.357169 0.35594 0.438929 0.403946 0.376563 0.350462 0.475717 
0.333242 0.333359 0.333073 0.334245 0.33567 0.335135 0.316256 0.326522 0.359444 
0.325574 0.44881 0.554213 0.52176 0.395404 0.302311 0.289186 0.271188 0.306176 
0.278484 0.25147 0.446967 0.413377 0.303938 0.342602 0.332779 0.327812 0.333961 
0.33367 0.333353 0.333036 0.332642 0.33338 0.335161 0.334859 0.335612 0.335428 
0.335445 0.335784 0.335736 0.335918 0.335674 0.335749 0.336012 0.335371 0.335536 
0.335798 0.334938 0.335159 0.335373 0.334462 0.334705 0.334854 0.333969 0.334206 
0.334306 0.333555 0.333756 0.333783 0.333257 0.333396 0.333368 0.333067 0.333155 
0.333097 0.332971 0.333011 0.33294 0.332965 0.33296 0.332891 0.333031 0.332992 
0.332933 0.333142 0.333082 0.333038 0.333284 0.333215 0.333193 0.333408 0.333355 
0.333367 0.329034 0.330516 0.322567 0.329048 0.334295 0.345583 0.33367 0.346074 
0.349405 0.320692 0.340061 0.314958 0.318328 0.325002 0.310903 0.312728 0.319111 
0.308679 0.309577 0.315337 0.307705 0.307731 0.313152 0.307262 0.306954 0.311585 
0.307414 0.307023 0.310688 0.308346 0.307541 0.310532 0.309682 0.308667 0.310883 
0.311126 0.310082 0.311601 0.312517 0.311533 0.312357 0.313836 0.31293 0.313126 
0.314652 0.31401 0.313689 0.314949 0.314609 0.313841 0.314574 0.31464 0.313364 
0.313441 0.313864 0.312268 0.311903 0.312678 0.310768 0.310017 0.31119 0.309246 
0.308057 0.309442 0.307966 0.305485 0.307309 0.306699 0.302659 0.304475 0.304879 
0.30135 0.302038 0.302874 0.302943 0.302146 0.303146 0.307127 0.305233 0.306479 
0.31229 0.309784 0.311693 0.317507 0.314805 0.317079 0.321487 0.319306 0.321572 
0.324835 0.322954 0.324873 0.327606 0.325973 0.327349 0.329509 0.328353 0.329195 
0.331054 0.33015 0.330603 0.332201 0.331621 0.331751 0.332642 0.347483 0.338018 
0.333793 0.333646 0.33281 0.332792 0.334042 0.333804 0.333473 0.282299 0.340211 
0.331211 0.331852 0.334665 0.328065 0.332216 0.332417 0.331095 0.330376 0.325414 
0.327803 0.327578 0.321038 0.323763 0.324818 0.316847 0.319379 0.314474 0.316135 
0.318709 0.314564 0.315188 0.318732 0.316323 0.315857 0.320835 0.31946 0.317791 
0.323323 0.325484 0.321113 0.325778 0.328064 0.418147 0.379802 0.400468 0.439487 
0.3574 0.387069 0.294237 0.30076 0.285371 0.288809 0.302328 0.282003 0.284033 
0.293569 0.277486 0.277049 0.288782 0.276654 0.278237 0.288107 0.278956 0.277947 
0.287319 0.277937 0.278622 0.286558 0.276646 0.275742 0.286479 0.27503 0.277496 
0.286195 0.277555 0.277097 0.285801 0.280341 0.280264 0.285762 0.278527 0.277951 
0.286068 0.277779 0.277701 0.287483 0.280037 0.28061 0.288942 0.284513 0.284648 
0.29107 0.291752 0.28705 0.295408 0.30867 0.296594 0.304619 0.327232 0.395055 
0.367962 0.291515 0.300537 0.304548 0.345136 0.357921 0.345603 0.341728 0.331252 
0.340945 0.32793 0.31946 0.331 0.316541 0.309482 0.321048 0.307805 0.301478 
0.312306 0.299997 0.294033 0.304557 0.293158 0.286999 0.297393 0.286234 0.279693 
0.290684 0.278958 0.271609 0.284201 0.271309 0.2623 0.277854 0.264888 0.255747 
0.273744 0.261638 0.282225 0.281691 0.280312 0.290401 0.413717 0.440768 0.25584 
0.26629 0.285131 0.270169 0.265262 0.278912 0.273054 0.276561 0.287141 0.281808 
0.284252 0.295082 0.289859 0.292221 0.303917 0.298041 0.300281 0.314428 0.307515 
0.309311 0.326689 0.31892 0.31968 0.344035 0.332051 0.331593 0.360964 0.348826 
0.343429 0.372028 0.365094 0.352782 0.334523 0.334218 0.334064 0.33475 0.366619 
0.359598 0.348251 0.352302 0.254434 0.248647 0.270273 0.261938 0.255378 0.264868 
0.269834 0.329935 0.329403 0.321314 0.320265 0.310478 0.332276 0.361221 0.383183 
0.333492 0.333637 0.331851 0.333125 0.33341 0.333551 0.333469 0.28591 0.297428 
0.33443 0.362763 0.421591 0.391304 0.359003 0.404213 0.31715 0.335285 0.409938 
0.373659 0.401262 0.298991 0.306759 0.296436 0.29603 0.311856 0.33372 0.33283 
0.330599 0.331004 0.336526 0.336593 0.336015 0.335623 0.336121 0.33633 0.336924 
0.335497 0.335799 0.336319 0.334802 0.33513 0.3355 0.334072 0.334416 0.334628 
0.33348 0.333747 0.333815 0.333044 0.333232 0.333158 0.332797 0.332903 0.332735 
0.332691 0.332731 0.332524 0.332708 0.332693 0.332477 0.33283 0.332766 0.332574 
0.333006 0.332924 0.332769 0.33319 0.333085 0.332986 0.323663 0.325296 0.327945 
0.328531 0.33361 0.333211 0.332832 0.279833 0.286523 0.325405 0.32918 0.334048 
0.334134 0.322579 0.321336 0.316645 0.317688 0.314982 0.315669 0.319521 0.313889 
0.314141 0.317798 0.313305 0.31327 0.316409 0.313155 0.312942 0.315447 0.313337 
0.312992 0.314878 0.313567 0.313221 0.314566 0.313819 0.313478 0.314373 0.313774 
0.313624 0.314109 0.313196 0.313333 0.313418 0.312009 0.312399 0.312102 0.310181 
0.310888 0.310102 0.308096 0.308862 0.307546 0.306435 0.307092 0.305062 0.305469 
0.305876 0.303357 0.304802 0.305523 0.303139 0.303878 0.305 0.303456 0.302179 
0.302931 0.302416 0.303626 0.302928 0.302181 0.309832 0.307484 0.306454 0.316515 
0.313636 0.314668 0.32246 0.31987 0.322448 0.326433 0.324607 0.327738 0.328762 
0.327384 0.330703 0.330307 0.329266 0.331955 0.331147 0.330404 0.332413 0.331827 
0.331197 0.332483 0.318854 0.320476 0.32168 0.333116 0.333143 0.332517 0.301721 
0.306242 0.326234 0.327235 0.324566 0.326077 0.324681 0.322114 0.32118 0.326693 
0.319444 0.32012 0.32183 0.328391 0.327202 0.330493 0.339026 0.368915 0.336557 
0.336368 0.336654 0.337116 0.296716 0.300254 0.294031 0.294477 0.29364 0.293848 
0.300826 0.292998 0.293284 0.300184 0.292258 0.29259 0.299423 0.291844 0.292099 
0.298758 0.291524 0.291418 0.298153 0.291837 0.291673 0.297933 0.29255 0.292262 
0.298432 0.293802 0.293247 0.299553 0.296167 0.295011 0.301575 0.299422 0.297518 
0.30428 0.30395 0.301103 0.307754 0.31205 0.322961 0.309698 0.310524 0.394945 
0.397085 0.333364 0.328736 0.325162 0.320567 0.326704 0.317012 0.313301 0.320398 
0.309852 0.306215 0.31407 0.303097 0.299822 0.307968 0.297181 0.294093 0.302507 
0.291966 0.289162 0.298014 0.287698 0.285176 0.294658 0.285444 0.285556 0.293733 
0.288436 0.297937 0.298378 0.302205 0.308871 0.307524 0.290483 0.28646 0.283727 
0.280318 0.289402 0.305148 0.30099 0.31381 0.309004 0.30894 0.323584 0.318168 
0.31693 0.334184 0.328362 0.325419 0.342909 0.338083 0.333077 0.347589 0.345255 
0.338663 0.383258 0.369801 0.320526 0.322327 0.322532 0.320476 0.330315 0.334847 
0.330636 0.329769 0.360288 0.350425 0.343377 0.355742 0.321839 0.32425 0.327118 
0.324329 0.294488 0.295377 0.302723 0.301206 0.312414 0.322474 0.331001 0.340313 
0.336273 0.33223 0.297761 0.293915 0.295642 0.302157 0.3355 0.335012 0.334528 
0.328108 0.33081 0.331864 0.332195 0.327336 0.3288 0.273916 0.28681 0.274021 
0.332581 0.332074 0.332789 0.333263 0.367344 0.392049 0.333356 0.333285 0.329113 
0.326233 0.359724 0.380116 0.38043 0.373099 0.359112 0.329398 0.329804 0.329051 
0.327996 0.330701 0.328848 0.327168 0.326983 0.327628 0.310642 0.315953 0.346487 
0.348017 0.306309 0.313475 0.309445 0.396546 0.383356 0.378031 0.320362 0.313718 
0.306504 0.312287 0.322223 0.31414 0.383229 0.384307 0.295515 0.297761 0.343995 
0.342263 0.336247 0.342545 0.333929 0.332949 0.288516 0.29517 0.285217 0.278527 
0.27562 0.371274 0.365945 0.359692 0.298918 0.306202 0.299232 0.294824 0.347748 
0.339282 0.337541 0.337832 0.33438 0.334917 0.333416 0.333849 0.334056 0.332679 
0.332986 0.332957 0.332264 0.332423 0.332207 0.332134 0.332187 0.331867 0.332188 
0.33215 0.331812 0.332377 0.332269 0.331949 0.332722 0.332579 0.332299 0.326006 
0.326252 0.315997 0.316316 0.318719 0.31934 0.320372 0.321176 0.322417 0.322056 
0.323111 0.324243 0.317478 0.317918 0.320607 0.316573 0.316806 0.319091 0.315903 
0.316061 0.317914 0.315312 0.315427 0.316911 0.314529 0.314772 0.315902 0.31329 
0.313788 0.31467 0.311189 0.312055 0.312683 0.30823 0.309425 0.309551 0.304839 
0.306257 0.305564 0.301073 0.302157 0.300696 0.298518 0.29828 0.309775 0.32156 
0.31721 0.317635 0.328274 0.324598 0.329094 0.334866 0.332811 0.336474 0.335311 
0.334426 0.339829 0.335397 0.334982 0.338829 0.334654 0.334621 0.337551 0.333956 
0.333978 0.33604 0.350537 0.364452 0.323691 0.325048 0.325753 0.327919 0.306808 
0.307192 0.336633 0.337096 0.33796 0.321412 0.322477 0.331865 0.328844 0.367309 
0.328063 0.325183 0.317099 0.319815 0.334655 0.333672 0.336776 0.323724 0.321672 
0.331173 0.329144 0.326876 0.305747 0.306141 0.312933 0.334126 0.325867 0.33801 
0.307814 0.307988 0.314295 0.305131 0.305429 0.312052 0.304242 0.304554 0.311153 
0.304153 0.304074 0.310381 0.304862 0.3045 0.310496 0.306226 0.305575 0.311428 
0.308443 0.307197 0.313001 0.311273 0.309744 0.315171 0.315038 0.313045 0.318165 
0.300644 0.316122 0.317053 0.378898 0.374646 0.309604 0.315264 0.30842 0.323125 
0.320186 0.323845 0.317915 0.314975 0.320134 0.312567 0.309844 0.315998 0.307479 
0.305113 0.311677 0.304099 0.302491 0.308581 0.302458 0.301473 0.307621 0.30002 
0.300839 0.30708 0.301838 0.306586 0.307819 0.310671 0.314641 0.319103 0.313801 
0.319282 0.315397 0.31229 0.308576 0.314319 0.332445 0.329323 0.336102 0.334157 
0.330203 0.298952 0.335864 0.324553 0.325285 0.32647 0.322602 0.325726 0.294804 
0.292166 0.335525 0.336033 0.336731 0.335345 0.337561 0.293237 0.299471 0.299845 
0.288547 0.338774 0.338068 0.338016 0.28252 0.327228 0.326532 0.319662 0.325192 
0.326567 0.328104 0.32927 0.326026 0.318804 0.329736 0.330651 0.318513 0.3169 
0.320488 0.341107 0.337502 0.333333 0.326814 0.296139 0.301251 0.301126 0.301964 
0.355343 0.366249 0.333542 0.334916 0.333732 0.326961 0.325609 0.327068 0.320899 
0.323995 0.334132 0.333746 0.3209 0.321848 0.332115 0.332648 0.32866 0.3481 
0.339578 0.366374 0.35629 0.346847 0.324508 0.327481 0.328319 0.328426 0.316893 
0.324854 0.327806 0.337758 0.337241 0.338745 0.330271 0.333715 0.333869 0.300796 
0.297443 0.299381 0.313436 0.306564 0.306934 0.319198 0.320667 0.319525 0.371045 
0.371383 0.362542 0.327434 0.32176 0.319841 0.319821 0.320687 0.337477 0.336373 
0.335518 0.372168 0.320102 0.367422 0.367827 0.353692 0.345456 0.339066 0.332702 
0.332047 0.332969 0.329512 0.336157 0.329157 0.359461 0.309512 0.306694 0.303744 
0.332811 0.349786 0.333456 0.334175 0.331244 0.331298 0.331436 0.331378 0.330786 
0.320625 0.321359 0.324199 0.325259 0.324019 0.324337 0.324118 0.327953 0.326909 
0.3549 0.351415 0.333929 0.322274 0.323158 0.325784 0.323784 0.326119 0.327066 
0.327772 0.319318 0.319851 0.322072 0.318073 0.318579 0.320538 0.316687 0.317233 
0.318947 0.314988 0.31577 0.317338 0.312412 0.313768 0.315258 0.307626 0.309617 
0.297165 0.300097 0.330537 0.330364 0.33115 0.339876 0.336685 0.327558 0.344396 
0.34517 0.342392 0.342882 0.347331 0.33956 0.340364 0.343956 0.3372 0.337987 
0.340345 0.335871 0.331169 0.338622 0.339259 0.318578 0.318799 0.348481 0.342293 
0.344773 0.28964 0.318425 0.318988 0.324792 0.342654 0.341247 0.359611 0.325978 
0.324954 0.324983 0.317406 0.317988 0.324757 0.327751 0.321016 0.321468 0.32616 
0.292581 0.321508 0.32734 0.327986 0.328957 0.316449 0.316685 0.323336 0.316251 
0.316057 0.322194 0.317049 0.316544 0.321834 0.318743 0.317999 0.322795 0.320646 
0.319621 0.324092 0.323244 0.321788 0.325432 0.364523 0.360801 0.364788 0.366751 
0.360218 0.355324 0.326295 0.331351 0.331507 0.331808 0.330874 0.332311 0.332833 
0.331622 0.291282 0.319024 0.317088 0.315358 0.313223 0.31805 0.312286 0.311528 
0.315575 0.312545 0.312802 0.315801 0.315365 0.312612 0.326707 0.33738 0.339505 
0.344117 0.329031 0.327319 0.317299 0.320036 0.325606 0.323141 0.324595 0.32618 
0.31375 0.326966 0.33272 0.319782 0.332813 0.331667 0.331548 0.323874 0.324988 
0.32554 0.330109 0.355467 0.349288 0.319812 0.334685 0.302671 0.304935 0.344006 
0.349932 0.339688 0.34003 0.340446 0.327175 0.329361 0.328064 0.326414 0.336038 
0.337567 0.340575 0.336158 0.347552 0.335473 0.327634 0.328153 0.328858 0.338777 
0.33635 0.337372 0.359826 0.329375 0.329893 0.33009 0.340471 0.340098 0.341581 
0.334633 0.333328 0.304834 0.313325 0.354746 0.334557 0.335082 0.335889 0.341228 
0.340583 0.331419 0.329717 0.327072 0.329806 0.323523 0.320308 0.320715 0.322159 
0.318085 0.316055 0.317408 0.320847 0.312568 0.314329 0.322968 0.348274 0.320627 
0.322089 0.322909 0.318672 0.353395 0.352137 0.357391 0.359761 0.322003 0.317368 
0.336858 0.337682 0.336747 0.338902 0.344349 0.342922 0.32201 0.32271 0.331807 
0.323685 0.32449 0.325266 0.310963 0.342228 0.350658 0.327611 0.356939 0.352313 
0.327617 0.328168 0.339289 0.340636 0.33084 0.331012 0.326103 0.326124 0.331992 
0.327618 0.327164 0.331073 0.327865 0.327667 0.331486 0.327781 0.327395 0.330375 
0.329115 0.330808 0.331465 0.332021 0.329771 0.354138 0.342353 0.338967 0.338412 
0.319195 0.317916 0.318828 0.321264 0.35193 0.348136 0.323538 0.322498 0.329244 
0.330167 0.332343 0.318758 0.330698 0.331214 0.32816 0.328958 0.33545 0.333572 
0.324208 0.322675 0.32096 0.324283 0.32099 0.323367 0.331402 0.325028 0.325986 
0.326812 0.331371 0.333066 0.345034 0.349062 0.32023 0.354301 0.347798 0.331728 
0.338378 0.344983 0.347039 0.351097 0.344474 0.34556 0.331723 0.329024 0.337142 
0.338731 0.335895 0.335778 0.329652 0.336988 0.332385 0.327586 0.32866 0.331035 
0.328833 0.342837 0.344808 0.330505 0.32977 0.327845 0.32502 0.321738 0.335206 
0.331171 0.32022 0.354502 0.328213 0.329195 0.329742 0.327002 0.339536 0.327859 
0.325989 0.318615 0.317986 0.336278 0.342277 0.325889 0.328905 0.343517 0.329363 
0.329225 0.331907 0.3434 0.346263 0.326961 0.325398 0.342106 0.342598 0.332233 
0.334333 0.334819 0.342714 0.329963 0.335085 0.33689 0.339413 0.344804 0.346942 
0.33578 0.334821 0.334681 0.335098 0.336954 0.339129 0.349315 0.339817 0.343754 
0.335879 0.335609 0.352682 0.334793 0.33951 0.325085 0.333758 0.331508 0.341538 
0.334284 0.333315 0.592034 0.463312 0.333332 0.333398 0.333528 0.333713 0.333947 
0.334225 0.334561 0.334919 0.335377 0.335864 0.28739 0.288342 0.291347 0.295713 
0.300194 0.308472 0.321844 0.337911 0.371332 0.286987 0.287537 0.336476 0.337087 
0.317214 0.311806 0.306206 0.301259 0.288655 0.33779 0.322964 0.338543 0.339158 
0.339451 0.339136 0.337845 0.335512 0.332142 0.327806 0.296482 0.293053 0.290596 
0.594348 0.333448 0.333458 0.461731 0.375407 0.343399 0.324808 0.312464 0.305836 
0.299918 0.295967 0.292913 0.291425 0.289784 0.289339 0.289426 0.291223 0.292331 
0.293292 0.294549 0.296894 0.298468 0.299939 0.301757 0.306714 0.308712 0.31179 
0.313602 0.315011 0.316665 0.317856 0.319115 0.32011 0.320979 0.321773 0.321909 
0.32173 0.321235 0.320524 0.319338 0.318057 0.315864 0.311285 0.307917 0.304916 
0.301237 0.298188 0.294894 0.292777 0.291527 0.291785 0.293464 0.295918 0.298832 
0.301625 0.305184 0.30836 0.311792 0.314468 0.317337 0.319725 0.322146 0.325633 
0.327447 0.328663 0.330005 0.330933 0.33186 0.33247 0.333033 0.333295 0.333474 
0.289787 0.29042 0.303194 0.305139 0.289445 0.295704 0.310232 0.321454 0.313644 
0.291142 0.323903 0.333262 0.333333 0.333328 0.333256 0.333307 0.33353 0.333759 
0.333971 0.334285 0.334509 0.334807 0.335241 0.335451 0.335567 0.33568 0.335723 
0.335732 0.335721 0.335646 0.335403 0.335199 0.335023 0.334788 0.334586 0.334317 
0.334111 0.333881 0.333526 0.333338 0.333234 0.33311 0.333019 0.332936 0.332877 
0.332851 0.332859 0.332893 0.332938 0.332994 0.333047 0.333115 0.33317 0.33323 
0.333272 0.333309 0.333393 0.335024 0.335529 0.333709 0.332857 0.0773188 0.0859711 
0.0925649 0.0903625 0.0952684 0.0954525 0.0974621 0.0987518 0.0993461 0.100877 0.100764 
0.10224 0.101802 0.102712 0.101624 0.102164 0.10155 0.1016 0.0995702 0.0978263 
0.0974262 0.0939714 0.0954902 0.0883115 0.0865114 0.0952678 0.0660804 0.0809288 0.0881834 
0.0903049 0.094772 0.0939652 0.0979978 0.096776 0.100259 0.099039 0.101992 0.100667 
0.101946 0.101653 0.102106 0.101653 0.100519 0.101124 0.100334 0.100364 0.0968663 
0.0983636 0.0892149 0.0956242 0.0770543 0.0917468 0.0861439 0.193278 0.0730995 0.298584 
0.101358 0.145001 0.140952 0.163123 0.155547 0.172606 0.185482 0.177006 0.183258 
0.178982 0.205145 0.183867 0.191299 0.18808 0.195207 0.191857 0.218806 0.19587 
0.204501 0.200143 0.210328 0.206737 0.241891 0.227281 0.239322 0.211832 0.0661516 
0.0963566 0.0824225 0.0914383 0.0744296 0.0801367 0.0933786 0.0920043 0.100485 0.101434 
0.0999094 0.101031 0.101141 0.100181 0.0987533 0.0748654 0.0994452 0.0987037 0.101653 
0.093578 0.0963202 0.0976909 0.0943434 0.0890391 0.0889598 0.101324 0.100522 0.333457 
0.333476 0.333588 0.333595 0.333724 0.333916 0.333812 0.262839 0.333284 0.333566 
0.332988 0.333323 0.273564 0.280921 0.273232 0.253127 0.288724 0.295341 0.28901 
0.278749 0.277043 0.276564 0.357838 0.352175 0.356276 0.310474 0.311592 0.312801 
0.379183 0.375119 0.362435 0.334341 0.334506 0.334242 0.237534 0.295876 0.244584 
0.334718 0.334883 0.334967 0.255895 0.259645 0.333907 0.333715 0.334059 0.284499 
0.285246 0.278847 0.281466 0.246763 0.333117 0.333513 0.333272 0.33302 0.332769 
0.329803 0.311253 0.295539 0.284673 0.301658 0.3001 0.307721 0.306174 0.329501 
0.330775 0.33059 0.342781 0.3449 0.344299 0.346122 0.310626 0.326727 0.316716 
0.334361 0.323772 0.320672 0.324729 0.321454 0.296089 0.292098 0.297127 0.297446 
0.297806 0.303678 0.279327 0.279432 0.284367 0.29328 0.298621 0.288281 0.326702 
0.325747 0.325572 0.324487 0.332554 0.332603 0.332724 0.340948 0.346274 0.338947 
0.345107 0.292179 0.296972 0.295422 0.300297 0.332937 0.333 0.332932 0.333 
0.336271 0.336197 0.337184 0.30565 0.305406 0.301666 0.301947 0.307488 0.300492 
0.29018 0.317906 0.316831 0.316202 0.336835 0.337453 0.337549 0.345705 0.363764 
0.33646 0.33438 0.334575 0.334792 0.335055 0.341118 0.34061 0.339626 0.311193 
0.310802 0.312798 0.312443 0.304153 0.302039 0.306316 0.304339 0.306295 0.311118 
0.308895 0.316803 0.33299 0.428971 0.379771 0.531212 0.421123 0.380834 0.370616 
0.371373 0.361398 0.334937 0.335122 0.335147 0.332958 0.312237 0.31235 0.555701 
0.473198 0.465084 0.323272 0.31413 0.314354 0.312404 0.30592 0.308877 0.305293 
0.308191 0.33419 0.334459 0.334357 0.433918 0.384176 0.404844 0.337486 0.332639 
0.335893 0.334099 0.334326 0.334569 0.297144 0.294922 0.295516 0.301322 0.316636 
0.316765 0.318959 0.325196 0.327997 0.321291 0.323405 0.302015 0.311393 0.307663 
0.314111 0.311397 0.322822 0.324657 0.323858 0.325388 0.32536 0.327488 0.326717 
0.319537 0.306154 0.307246 0.308821 0.33566 0.335873 0.335626 0.335824 0.339587 
0.340528 0.309521 0.310236 0.323585 0.28156 0.277034 0.277887 0.323213 0.324934 
0.3253 0.326659 0.309256 0.308735 0.310212 0.308477 0.313111 0.297467 0.287435 
0.280768 0.333036 0.332982 0.333 0.335624 0.335167 0.34381 0.339734 0.303449 
0.304246 0.304164 0.301788 0.404881 0.38326 0.38487 0.335784 0.33549 0.335907 
0.307456 0.3087 0.30828 0.325215 0.326885 0.327553 0.309689 0.310026 0.312782 
0.312997 0.325154 0.323719 0.318043 0.318204 0.319909 0.299304 0.296879 0.295983 
0.332367 0.332172 0.33257 0.286337 0.280207 0.291513 0.331117 0.334209 0.333499 
0.333488 0.333944 0.33843 0.336672 0.337383 0.333818 0.333482 0.334227 0.333883 
0.334201 0.334483 0.269726 0.263782 0.3341 0.301747 0.301688 0.306867 0.329274 
0.329024 0.328507 0.328559 0.305481 0.31116 0.312022 0.31205 0.312852 0.306972 
0.319655 0.325549 0.326577 0.327455 0.308355 0.30082 0.29937 0.283653 0.296905 
0.297446 0.32423 0.324792 0.308316 0.308962 0.315199 0.306098 0.315645 0.320132 
0.31867 0.318146 0.316556 0.315896 0.334429 0.323045 0.322097 0.321868 0.332388 
0.332993 0.33272 0.333347 0.333653 0.328013 0.329858 0.329636 0.299358 0.334983 
0.333322 0.33339 0.333063 0.33206 0.332678 0.310897 0.311747 0.309741 0.32826 
0.328033 0.327115 0.313138 0.32017 0.305487 0.320907 0.322422 0.320169 0.33299 
0.315865 0.325783 0.315385 0.31362 0.333962 0.301728 0.325028 0.324398 0.323973 
0.308845 0.312922 0.313663 0.334394 0.33082 0.32539 0.297775 0.290837 0.297722 
0.297663 0.317128 0.308003 0.30981 0.307933 0.31908 0.271111 0.305383 0.279768 
0.333849 0.333781 0.333623 0.333579 0.312007 0.304922 0.310306 0.30366 0.284015 
0.284431 0.289331 0.302558 0.297154 0.302925 0.297439 0.290804 0.3342 0.33404 
0.308757 0.333335 0.333465 0.33334 0.335594 0.340311 0.296524 0.298682 0.291268 
0.314693 0.316936 0.310861 0.334083 0.334178 0.333986 0.307233 0.31401 0.314589 
0.313961 0.320884 0.322489 0.320067 0.241506 0.334415 0.334293 0.326906 0.326841 
0.324476 0.336789 0.3374 0.243685 0.239498 0.290912 0.337329 0.317605 0.312328 
0.320797 0.33086 0.331284 0.330705 0.296385 0.290363 0.292697 0.33304 0.333089 
0.33308 0.337353 0.337098 0.337991 0.296387 0.285219 0.29404 0.25848 0.320828 
0.321826 0.323549 0.324587 0.343202 0.34211 0.279669 0.317125 0.318291 0.322493 
0.321111 0.324443 0.325621 0.315114 0.324569 0.320357 0.336323 0.338073 0.333443 
0.336384 0.319565 0.324735 0.325992 0.350488 0.28878 0.304272 0.300709 0.293295 
0.323452 0.32703 0.328274 0.331344 0.332261 0.332582 0.333532 0.305284 0.301761 
0.30437 0.304055 0.303114 0.299965 0.332538 0.332277 0.332746 0.330596 0.329762 
0.329883 0.32902 0.253677 0.265789 0.262968 0.274618 0.312338 0.311061 0.313103 
0.343536 0.349647 0.345613 0.309099 0.302511 0.308131 0.340234 0.341781 0.341736 
0.261697 0.310476 0.33672 0.336292 0.340898 0.288714 0.310812 0.309759 0.294076 
0.299957 0.293913 0.356663 0.358011 0.350005 0.3019 0.300239 0.302223 0.301187 
0.335966 0.335451 0.333853 0.330357 0.332559 0.31064 0.317642 0.309118 0.305169 
0.303727 0.306307 0.319687 0.321777 0.320479 0.357377 0.362485 0.351165 0.353597 
0.363422 0.36881 0.287855 0.28738 0.357735 0.367214 0.341963 0.346938 0.332508 
0.332367 0.331831 0.32361 0.324098 0.3243 0.33335 0.333405 0.333408 0.301566 
0.304718 0.295834 0.299341 0.325378 0.323271 0.324256 0.333534 0.333677 0.333443 
0.33357 0.368876 0.342855 0.351955 0.338018 0.342698 0.34547 0.352669 0.36103 
0.356009 0.335293 0.335449 0.335299 0.335431 0.316073 0.314321 0.312195 0.311463 
0.328056 0.365446 0.364256 0.332978 0.330829 0.331914 0.333559 0.276487 0.313247 
0.315641 0.312435 0.314877 0.30846 0.31444 0.314543 0.318956 0.296153 0.293271 
0.295839 0.359047 0.365058 0.363397 0.293075 0.297181 0.296485 0.334016 0.347847 
0.351193 0.306045 0.359498 0.328753 0.328025 0.326951 0.326136 0.318127 0.320056 
0.320894 0.318665 0.332802 0.333461 0.332172 0.332833 0.312412 0.307663 0.326782 
0.32809 0.321643 0.33456 0.335612 0.33415 0.335077 0.288169 0.295405 0.334616 
0.334389 0.29265 0.34196 0.352981 0.334637 0.333182 0.333339 0.332962 0.333651 
0.333295 0.333338 0.333289 0.333058 0.297702 0.30114 0.295295 0.298671 0.234908 
0.333666 0.310974 0.309357 0.306385 0.318253 0.316982 0.313531 0.328909 0.306235 
0.301872 0.30592 0.353031 0.355442 0.348874 0.351247 0.305714 0.309276 0.310312 
0.333333 0.333337 0.315031 0.314011 0.31385 0.32669 0.327075 0.246192 0.317771 
0.318795 0.317055 0.320053 0.313174 0.315565 0.326435 0.325697 0.328116 0.333025 
0.334415 0.314079 0.314142 0.315665 0.335485 0.33559 0.335418 0.30911 0.30674 
0.309831 0.333258 0.317945 0.312164 0.330432 0.329249 0.330921 0.334271 0.332827 
0.33052 0.329237 0.322041 0.31997 0.319009 0.303785 0.319241 0.31913 0.316899 
0.316699 0.311501 0.310104 0.359491 0.363376 0.37214 0.313942 0.313941 0.313242 
0.323982 0.323018 0.319046 0.304055 0.305151 0.303895 0.305038 0.314754 0.302201 
0.278344 0.286483 0.31279 0.299826 0.295932 0.307493 0.30597 0.312805 0.311599 
0.329548 0.32294 0.280241 0.267016 0.260466 0.239554 0.325445 0.323726 0.328717 
0.332641 0.286337 0.365395 0.372368 0.369952 0.320681 0.319259 0.319136 0.295153 
0.300105 0.293447 0.365587 0.37313 0.332833 0.353191 0.332261 0.332666 0.33263 
0.333086 0.333072 0.332719 0.328047 0.328608 0.325955 0.296124 0.300803 0.29547 
0.299687 0.318746 0.318227 0.317629 0.317084 0.315293 0.321784 0.320452 0.297482 
0.310283 0.325488 0.297614 0.299636 0.293439 0.294808 0.301903 0.296092 0.257586 
0.388963 0.319625 0.322088 0.321857 0.29159 0.284902 0.303192 0.300862 0.444366 
0.408981 0.296298 0.305527 0.313871 0.346319 0.351355 0.344612 0.349058 0.324498 
0.326358 0.369886 0.362079 0.32088 0.293886 0.234017 0.2153 0.258349 0.192822 
0.292841 0.278853 0.330779 0.332069 0.33507 0.335559 0.353677 0.363753 0.345263 
0.344921 0.327232 0.326163 0.328271 0.285876 0.288227 0.292039 0.293528 0.447383 
0.411161 0.408845 0.309 0.311689 0.330127 0.32971 0.329143 0.285317 0.289613 
0.290053 0.331716 0.333581 0.285795 0.28138 0.333015 0.333165 0.289225 0.234751 
0.279812 0.258565 0.359908 0.500445 0.203778 0.21929 0.323228 0.324681 0.326728 
0.329102 0.328853 0.327768 0.334677 0.334423 0.335385 0.314371 0.318007 0.314254 
0.307737 0.325146 0.321157 0.324582 0.319091 0.31409 0.322525 0.320692 0.332382 
0.314658 0.308804 0.336029 0.336848 0.336555 0.337466 0.319019 0.319968 0.319736 
0.320277 0.319768 0.334477 0.312955 0.319163 0.341118 0.340025 0.341705 0.307543 
0.309913 0.307883 0.310172 0.312591 0.312802 0.309083 0.306194 0.305408 0.325521 
0.322352 0.336052 0.336394 0.335866 0.29944 0.30177 0.313754 0.313926 0.313673 
0.335921 0.336287 0.336249 0.333266 0.333205 0.333273 0.301109 0.290083 0.29738 
0.303401 0.317872 0.315853 0.313065 0.3111 0.302646 0.333492 0.306914 0.312388 
0.302217 0.308284 0.333467 0.333927 0.334342 0.334538 0.296106 0.289904 0.29456 
0.33246 0.332651 0.304023 0.308947 0.307861 0.286172 0.283528 0.289277 0.332837 
0.332924 0.33281 0.323971 0.332519 0.313869 0.316163 0.333152 0.277823 0.30517 
0.307162 0.306162 0.306649 0.310931 0.311629 0.31207 0.333009 0.332998 0.332988 
0.322701 0.321112 0.373212 0.302335 0.301786 0.301127 0.296473 0.312311 0.316046 
0.316886 0.315468 0.313986 0.314431 0.314846 0.316213 0.333257 0.333201 0.251766 
0.323353 0.330475 0.331412 0.331221 0.327959 0.328631 0.326596 0.327287 0.343325 
0.332713 0.332803 0.332909 0.332998 0.324179 0.303837 0.334622 0.336526 0.315976 
0.316451 0.318077 0.245935 0.317171 0.317633 0.320205 0.316997 0.319886 0.305768 
0.332085 0.332339 0.331413 0.331651 0.310328 0.314995 0.387954 0.44207 0.312945 
0.312818 0.314037 0.33351 0.33465 0.3344 0.334849 0.311651 0.33485 0.33504 
0.331944 0.332323 0.334042 0.334515 0.332629 0.334236 0.38218 0.381561 0.435006 
0.277615 0.282838 0.282087 0.34065 0.332427 0.346339 0.315345 0.333886 0.334035 
0.334139 0.274392 0.310982 0.284383 0.326816 0.250392 0.292108 0.303671 0.295579 
0.347315 0.338849 0.348435 0.30144 0.295752 0.333759 0.333542 0.333798 0.320113 
0.316575 0.335534 0.320658 0.317024 0.321881 0.278567 0.280729 0.277764 0.293105 
0.277611 0.28801 0.290735 0.350173 0.343062 0.3302 0.329378 0.330396 0.32714 
0.327377 0.289694 0.293882 0.290273 0.330075 0.268149 0.247382 0.263673 0.319777 
0.313923 0.331993 0.33188 0.332367 0.316846 0.328688 0.300933 0.302786 0.263474 
0.301998 0.302622 0.33257 0.333022 0.337365 0.377408 0.408315 0.373576 0.335538 
0.335639 0.299878 0.296699 0.301153 0.35847 0.363224 0.335875 0.34004 0.334403 
0.338497 0.328393 0.327669 0.32823 0.32776 0.334855 0.335139 0.325215 0.322197 
0.323012 0.320096 0.327584 0.330991 0.337834 0.335739 0.33923 0.324834 0.325186 
0.314743 0.312464 0.315793 0.357399 0.357068 0.333715 0.338108 0.331454 0.336206 
0.297771 0.299243 0.306716 0.327565 0.328092 0.31416 0.315091 0.339741 0.341357 
0.265475 0.270635 0.27306 0.323013 0.331913 0.332255 0.332127 0.331798 0.331516 
0.33536 0.312604 0.307841 0.307827 0.343121 0.3371 0.347617 0.341707 0.328757 
0.330257 0.33076 0.332208 0.284508 0.291323 0.286835 0.336606 0.337078 0.336321 
0.32691 0.32515 0.311147 0.309621 0.325466 0.333046 0.332971 0.333018 0.323537 
0.321714 0.32217 0.330371 0.328066 0.298921 0.299518 0.302037 0.333579 0.335822 
0.233919 0.336801 0.338172 0.245496 0.292793 0.323437 0.322226 0.324977 0.296255 
0.292952 0.233484 0.298013 0.320594 0.310177 0.311656 0.31731 0.333863 0.335712 
0.339094 0.334097 0.333545 0.399533 0.314177 0.319905 0.319536 0.325107 0.328189 
0.333278 0.30166 0.308324 0.31397 0.308513 0.284425 0.482283 0.332979 0.302568 
0.301972 0.302693 0.302284 0.302809 0.335672 0.284641 0.30526 0.294721 0.301786 
0.319965 0.323051 0.308728 0.314294 0.300051 0.298064 0.301894 0.30694 0.329664 
0.328378 0.283908 0.2781 0.272503 0.332957 0.330898 0.331098 0.334697 0.335573 
0.335213 0.333117 0.333161 0.333124 0.308326 0.333921 0.329756 0.330688 0.330609 
0.29854 0.302181 0.330524 0.309674 0.306123 0.306224 0.323434 0.321359 0.325418 
0.313507 0.310386 0.309091 0.334532 0.334473 0.291908 0.298853 0.292311 0.318777 
0.315959 0.314328 0.291148 0.28627 0.286394 0.327397 0.326669 0.327133 0.245881 
0.299196 0.304171 0.309828 0.312478 0.333763 0.333787 0.283371 0.280971 0.316914 
0.318614 0.317424 0.319093 0.311431 0.312459 0.303055 0.301455 0.294697 0.334282 
0.332082 0.333318 0.29607 0.306997 0.313754 0.300098 0.335599 0.355976 0.333066 
0.333025 0.306769 0.302717 0.32565 0.316362 0.309244 0.313544 0.207524 0.227853 
0.322977 0.333309 0.334398 0.33656 0.337938 0.290918 0.281743 0.298243 0.388069 
0.397214 0.379765 0.279288 0.282848 0.274901 0.308708 0.335494 0.245636 0.317947 
0.329637 0.324614 0.326595 0.326227 0.327799 0.328719 0.32567 0.294937 0.294483 
0.298218 0.333181 0.33321 0.333092 0.333139 0.299242 0.314929 0.31923 0.319807 
0.333216 0.333359 0.33336 0.240319 0.330743 0.3328 0.304678 0.305036 0.368291 
0.300243 0.334072 0.330698 0.285955 0.334744 0.335291 0.335626 0.336008 0.335122 
0.335434 0.330937 0.331704 0.331131 0.34177 0.339387 0.329904 0.33073 0.33163 
0.331794 0.332022 0.335537 0.300593 0.333078 0.332999 0.333182 0.332849 0.332593 
0.332647 0.284375 0.325061 0.327881 0.313342 0.313946 0.282452 0.342738 0.317503 
0.32794 0.313376 0.307061 0.301342 0.312027 0.314998 0.314048 0.31525 0.312837 
0.314023 0.327484 0.316252 0.316723 0.333378 0.333301 0.314164 0.316497 0.318269 
0.315117 0.315804 0.33761 0.324452 0.329695 0.338403 0.338453 0.334334 0.332326 
0.33419 0.333986 0.334819 0.33514 0.335279 0.335313 0.314744 0.315119 0.314374 
0.333498 0.363229 0.307664 0.31394 0.332891 0.335248 0.337621 0.343515 0.342266 
0.297787 0.333094 0.284413 0.3123 0.336778 0.347522 0.357173 0.323761 0.344835 
0.329452 0.328893 0.328606 0.331328 0.327926 0.320709 0.322977 0.332672 0.330903 
0.331641 0.330245 0.335908 0.332804 0.332966 0.335649 0.335367 0.312767 0.317518 
0.333322 0.330872 0.306354 0.32749 0.326046 0.34234 0.311222 0.312119 0.296819 
0.303005 0.302581 0.30957 0.309184 0.319418 0.313852 0.319625 0.320095 0.316763 
0.382813 0.312373 0.31359 0.312682 0.313223 0.263733 0.252964 0.280614 0.261818 
0.302233 0.398221 0.38071 0.283963 0.276549 0.338637 0.339342 0.339255 0.337513 
0.336734 0.336563 0.295913 0.334184 0.315975 0.330344 0.317933 0.333973 0.33158 
0.330395 0.338496 0.338224 0.31445 0.320108 0.318238 0.348708 0.359332 0.314923 
0.325429 0.327413 0.328988 0.333082 0.347111 0.34214 0.31636 0.312658 0.315756 
0.404211 0.293536 0.245168 0.333259 0.333003 0.247861 0.3817 0.383105 0.332991 
0.333445 0.280055 0.335049 0.315151 0.332924 0.33293 0.33299 0.332371 0.308925 
0.302738 0.309608 0.278774 0.283609 0.326423 0.326272 0.325641 0.303564 0.303092 
0.327661 0.330255 0.330581 0.330328 0.335711 0.337313 0.320787 0.296581 0.292055 
0.344055 0.327689 0.321983 0.321434 0.332224 0.337303 0.352984 0.349141 0.319421 
0.337544 0.339171 0.339759 0.232452 0.331664 0.331243 0.331367 0.287688 0.30324 
0.33448 0.323904 0.323782 0.290395 0.316026 0.31538 0.302943 0.295971 0.337367 
0.33392 0.337246 0.333779 0.318442 0.323714 0.316582 0.321449 0.296912 0.323537 
0.34164 0.329804 0.330197 0.331301 0.329634 0.310035 0.317076 0.316057 0.316375 
0.315696 0.333293 0.333246 0.333197 0.313111 0.31095 0.3121 0.326997 0.313809 
0.337739 0.337092 0.33664 0.312817 0.313161 0.333409 0.333469 0.333347 0.333506 
0.331651 0.325539 0.319782 0.321917 0.245331 0.300924 0.303682 0.23743 0.299097 
0.301538 0.303141 0.303439 0.271074 0.267503 0.333386 0.334875 0.333399 0.332052 
0.333816 0.331021 0.328847 0.327597 0.3226 0.321335 0.322228 0.323641 0.32197 
0.32683 0.325075 0.371264 0.370774 0.337499 0.316243 0.33314 0.328955 0.328806 
0.323932 0.328716 0.337668 0.341058 0.341588 0.332273 0.331585 0.333849 0.328886 
0.336839 0.336193 0.338366 0.338725 0.338107 0.339045 0.332893 0.332803 0.332152 
0.332227 0.332544 0.322139 0.32463 0.370438 0.381263 0.332546 0.314506 0.316938 
0.314879 0.317387 0.333239 0.318993 0.328003 0.326706 0.327801 0.330782 0.330357 
0.30515 0.315276 0.314945 0.326897 0.328076 0.316013 0.298901 0.319893 0.33552 
0.331664 0.31267 0.305147 0.35122 0.322946 0.325854 0.324588 0.313219 0.313985 
0.310542 0.320274 0.335997 0.33547 0.32673 0.325575 0.318191 0.336437 0.333655 
0.332711 0.346572 0.34161 0.345028 0.332947 0.333212 0.333104 0.322275 0.323978 
0.328493 0.33302 0.332907 0.332993 0.325504 0.356419 0.332907 0.333076 0.319326 
0.318768 0.353796 0.337009 0.314483 0.32132 0.308996 0.306989 0.29122 0.247769 
0.282792 0.327021 0.323578 0.3085 0.311165 0.299051 0.335281 0.335411 0.32884 
0.327263 0.3323 0.329418 0.330645 0.33059 0.454675 0.333672 0.335098 0.279321 
0.315419 0.317356 0.317742 0.288441 0.267962 0.252684 0.319428 0.320155 0.318527 
0.246206 0.293689 0.322187 0.323677 0.324616 0.42934 0.318432 0.32624 0.327009 
0.312141 0.312244 0.285953 0.289314 0.31525 0.352687 0.357336 0.344349 0.336544 
0.308545 0.29156 0.239718 0.285116 0.296957 0.332947 0.33496 0.342518 0.353538 
0.396981 0.427541 0.336048 0.336188 0.323669 0.307735 0.327552 0.33549 0.31509 
0.325066 0.30647 0.312299 0.305237 0.333039 0.323005 0.320133 0.333839 0.323124 
0.321763 0.309803 0.312495 0.31251 0.33175 0.297203 0.304251 0.301539 0.309749 
0.307524 0.310472 0.296732 0.245162 0.293458 0.307255 0.327256 0.32567 0.334306 
0.324614 0.325895 0.321386 0.327073 0.324615 0.307048 0.290723 0.32934 0.252276 
0.279151 0.29699 0.292249 0.29565 0.288108 0.33072 0.336091 0.320697 0.337386 
0.344614 0.306747 0.306522 0.333323 0.333309 0.333297 0.333164 0.308169 0.328002 
0.299524 0.301951 0.301596 0.329027 0.329843 0.315745 0.304558 0.304212 0.333356 
0.333495 0.308712 0.283253 0.279825 0.284691 0.281408 0.285333 0.306438 0.306114 
0.30768 0.299024 0.328834 0.330438 0.321932 0.319283 0.320931 0.318724 0.280455 
0.302141 0.290007 0.2832 0.29535 0.294173 0.288787 0.281761 0.335033 0.341535 
0.326743 0.335185 0.300785 0.395791 0.414635 0.368152 0.349449 0.342946 0.360108 
0.353908 0.339621 0.346025 0.349807 0.349492 0.333168 0.334539 0.334132 0.31243 
0.379444 0.394322 0.355298 0.367222 0.326536 0.303794 0.303294 0.336069 0.344029 
0.332944 0.336797 0.311941 0.326454 0.322498 0.329721 0.331749 0.336042 0.313551 
0.313561 0.349669 0.319691 0.313374 0.335118 0.33117 0.331683 0.31234 0.307647 
0.308247 0.314771 0.318879 0.323532 0.323779 0.312739 0.311151 0.312665 0.325638 
0.319748 0.326182 0.320171 0.345701 0.34695 0.343025 0.331463 0.329322 0.331859 
0.332612 0.296491 0.323313 0.326089 0.310507 0.318905 0.340027 0.335007 0.317014 
0.32045 0.332216 0.289979 0.287026 0.323335 0.332476 0.332027 0.332572 0.3326 
0.332362 0.306943 0.315195 0.317195 0.333058 0.333024 0.333082 0.332746 0.332792 
0.315947 0.320087 0.357453 0.370412 0.359107 0.358295 0.34637 0.336025 0.335802 
0.336294 0.320054 0.263546 0.273325 0.318044 0.337637 0.34043 0.33395 0.333799 
0.334922 0.335123 0.33467 0.334827 0.329994 0.327362 0.331392 0.266229 0.261577 
0.268993 0.321798 0.276555 0.277852 0.280031 0.313613 0.313396 0.32822 0.332029 
0.332937 0.301656 0.332043 0.332731 0.313056 0.314757 0.313981 0.315697 0.31372 
0.303809 0.332214 0.331903 0.373675 0.334701 0.333898 0.331736 0.334559 0.325779 
0.327558 0.328794 0.320338 0.315982 0.316251 0.280427 0.332038 0.236113 0.315368 
0.321807 0.321374 0.281925 0.279074 0.285822 0.264585 0.275324 0.319332 0.315438 
0.288284 0.297905 0.324222 0.322305 0.279063 0.294967 0.285421 0.286171 0.312031 
0.310279 0.330699 0.319434 0.322941 0.333188 0.332901 0.334851 0.334544 0.377063 
0.370861 0.335131 0.297232 0.295983 0.333862 0.303067 0.299523 0.298896 0.311166 
0.304217 0.329399 0.326975 0.327524 0.328802 0.328356 0.334762 0.327622 0.330632 
0.349939 0.343334 0.307613 0.302526 0.311868 0.32279 0.332031 0.316108 0.333638 
0.331551 0.2835 0.293 0.306345 0.312888 0.32403 0.322457 0.324618 0.304672 
0.284568 0.337511 0.335773 0.319485 0.320914 0.313909 0.338077 0.338361 0.329988 
0.305076 0.311615 0.303306 0.310211 0.332571 0.328908 0.333866 0.310215 0.331799 
0.331276 0.328658 0.328218 0.329682 0.32642 0.32666 0.335487 0.335632 0.273406 
0.331997 0.343136 0.347436 0.348117 0.353387 0.343519 0.339331 0.335583 0.339079 
0.290843 0.43608 0.333249 0.333222 0.333336 0.3521 0.333061 0.306765 0.322528 
0.3356 0.305885 0.339098 0.338433 0.338248 0.303737 0.304616 0.328271 0.324657 
0.301967 0.230315 0.331558 0.306845 0.309139 0.313614 0.335533 0.285119 0.290575 
0.328509 0.337803 0.331826 0.258645 0.342364 0.277655 0.357839 0.334956 0.322335 
0.319143 0.316932 0.301136 0.325747 0.309198 0.326045 0.324468 0.331692 0.331215 
0.347563 0.330628 0.311142 0.311269 0.316763 0.333239 0.33313 0.323889 0.295091 
0.326941 0.313717 0.313934 0.328493 0.327046 0.274974 0.32602 0.307116 0.309278 
0.314009 0.316119 0.354417 0.337583 0.340955 0.309375 0.286981 0.313836 0.389224 
0.323256 0.322003 0.340433 0.331356 0.316412 0.318677 0.319418 0.304471 0.309365 
0.308164 0.309605 0.316416 0.293962 0.271875 0.327197 0.330784 0.329421 0.335893 
0.33619 0.348968 0.347167 0.284557 0.324063 0.260822 0.300811 0.31346 0.337257 
0.341524 0.333442 0.313656 0.330854 0.303684 0.335165 0.335354 0.33152 0.231909 
0.269641 0.336718 0.336925 0.327215 0.295198 0.298781 0.234284 0.245374 0.240765 
0.285184 0.302386 0.298142 0.298631 0.333449 0.335756 0.292472 0.331763 0.29303 
0.298492 0.32906 0.333352 0.373411 0.335416 0.302178 0.321046 0.315489 0.309285 
0.337099 0.337239 0.341815 0.355197 0.333333 0.333625 0.304827 0.313198 0.314074 
0.315385 0.309511 0.312661 0.319231 0.318318 0.331529 0.314988 0.329821 0.226613 
0.255062 0.369879 0.368322 0.370096 0.332581 0.196359 0.218828 0.378728 0.378116 
0.315152 0.287631 0.299935 0.314346 0.335353 0.325065 0.326761 0.333387 0.317649 
0.335546 0.335454 0.302583 0.306196 0.304019 0.333167 0.315283 0.333676 0.333138 
0.33327 0.307988 0.330267 0.281046 0.28094 0.314897 0.301728 0.299147 0.300948 
0.320477 0.320849 0.328395 0.281535 0.321221 0.319554 0.315671 0.247395 0.335009 
0.296602 0.304162 0.303181 0.335003 0.25072 0.243247 0.296052 0.343891 0.272626 
0.334681 0.33477 0.334819 0.319789 0.325488 0.30687 0.322982 0.333423 0.334054 
0.288098 0.323879 0.326223 0.316541 0.305788 0.296801 0.331663 0.332619 0.352477 
0.328135 0.325498 0.318567 0.345479 0.308479 0.289434 0.317979 0.328357 0.281956 
0.332405 0.294041 0.298741 0.309457 0.320819 0.317646 0.27957 0.301911 0.330352 
0.301306 0.323705 0.331664 0.31244 0.317193 0.314147 0.300798 0.31414 0.336456 
0.33272 0.302699 0.340305 0.400081 0.39472 0.323776 0.418495 0.32566 0.312008 
0.352268 0.31531 0.359333 0.316432 0.333752 0.310076 0.329942 0.329751 0.324997 
0.331392 0.302628 0.409805 0.34242 0.328212 0.326917 0.330327 0.330013 0.321222 
0.344186 0.313474 0.325842 0.297135 0.290342 0.332477 0.321388 0.327137 0.336109 
0.338763 0.321696 0.333258 0.309451 0.314585 0.31054 0.318104 0.32865 0.32881 
0.329013 0.328862 0.328615 0.287107 0.3041 0.339715 0.242513 0.333022 0.305542 
0.351365 0.245176 0.278972 0.320283 0.24899 0.325951 0.333904 0.352113 0.387222 
0.30362 0.328427 0.329332 0.330066 0.38147 0.317604 0.331431 0.311424 0.31909 
0.332596 0.347278 0.349548 0.295653 0.29016 0.315164 0.340745 0.312496 0.358393 
0.324163 0.329381 0.335233 0.331635 0.319839 0.311089 0.336128 0.269736 0.322813 
0.331237 0.304511 0.337102 0.32589 0.325066 0.319146 0.328017 0.345956 0.35249 
0.332454 0.330072 0.32524 0.343349 0.305963 0.324815 0.342206 0.331741 0.33185 
0.315381 0.315133 0.321782 0.309225 0.309181 0.328214 0.306923 0.309888 0.309305 
0.335429 0.277034 0.313183 0.299713 0.341441 0.29744 0.344134 0.237695 0.33667 
0.303551 0.317421 0.359345 0.329262 0.314267 0.308423 0.28896 0.304652 0.30563 
0.34401 0.273532 0.332044 0.33726 0.334806 0.302916 0.331486 0.332342 0.332354 
0.303064 0.333563 0.357804 0.296321 0.331309 0.304654 0.319975 0.333498 0.334642 
0.317668 0.327583 0.311407 0.317763 0.380484 0.350386 0.341726 0.338524 0.31928 
0.333388 0.289966 0.299362 0.289543 0.287572 0.339579 0.290182 0.322618 0.304445 
0.326765 0.317795 0.319434 0.309319 0.350742 0.397661 0.316409 0.300943 0.256425 
0.309674 0.322766 0.336514 0.346474 0.345267 0.302361 0.31488 0.307947 
Strain%20yz%20component 1 8918 double
-0.100877 0.141096 -0.147703 0.0977365 -1.06019e-06 3.13053e-07 4.75524e-06 9.9887e-07 -0.0172677 
0.0150593 0.024877 -0.0375559 0.0156113 -0.0197039 -0.016001 0.0493257 0.0632173 0.0625134 
0.0647683 0.0594502 0.068173 0.0704346 0.0585832 0.0594409 0.0697823 0.0695099 0.0591917 
0.0588118 0.069718 0.0676277 0.0679231 0.0586035 0.0701696 0.0732275 0.0762666 0.0653123 
0.06101 0.0468705 -0.0544656 -0.124635 -0.114073 -0.113046 -0.0679063 -0.0686371 -0.0690045 
-0.101307 -0.101717 -0.069043 -0.0691259 -0.0695526 -0.104265 -0.103079 -0.0676549 -0.068664 
-0.0664958 -0.0674106 -0.104093 -0.0673838 -0.0708831 -0.0748178 -0.0764095 -0.108495 -0.119389 
-0.0983455 1.14368e-05 -1.36867e-05 -7.09448e-06 -2.16317e-06 2.0458e-06 5.61356e-06 -2.15948e-06 1.36634e-05 
1.52561e-05 -3.25481e-06 9.2248e-06 -5.98996e-06 3.68576e-06 -3.05808e-07 2.16671e-06 -3.43196e-06 1.03645e-06 
-7.36619e-06 -6.75126e-06 3.42516e-06 -5.22098e-06 2.87176e-06 -2.44854e-06 -3.31171e-07 -1.37347e-06 -6.48526e-07 
2.46158e-06 0.0419387 -0.000438524 -0.000732388 -0.000180158 -0.000191555 -0.000199843 -0.000146485 -0.000104784 
-9.65889e-05 -8.53287e-05 -6.68635e-05 -6.58423e-05 -7.73854e-05 -5.48245e-05 -6.01342e-05 -5.47325e-05 -6.04503e-05 
-4.64717e-05 -5.52243e-05 -3.89145e-05 -4.38637e-05 -3.21553e-05 -3.08427e-05 -2.86002e-05 -9.05048e-06 -2.05782e-06 
3.47751e-05 5.32816e-05 6.57358e-05 5.92163e-05 3.77167e-05 3.58255e-05 -8.97811e-06 -8.96522e-06 -3.45437e-05 
-2.78578e-05 -1.88887e-05 -1.24971e-05 -1.92184e-05 -3.60884e-06 -9.94776e-06 -1.36396e-06 4.61103e-07 1.32194e-05 
1.59986e-05 -9.71547e-07 1.39749e-06 -5.95401e-07 -2.25042e-06 -3.44512e-06 -2.06969e-05 -2.59844e-05 -1.88811e-05 
-9.07461e-06 2.54928e-05 7.78051e-05 0.000109138 9.05995e-05 4.64299e-05 5.49207e-05 6.2217e-05 5.1412e-05 
0.000256823 -0.00035763 1.33123e-05 0.0350717 -0.00445308 -0.00430617 -0.00427605 -0.00509163 -0.00492157 
-0.00452059 -0.0051349 -0.00540168 -0.0057873 -0.00480704 -0.0046196 -0.00932974 0.0137624 0.00750883 
0.0076104 0.00435722 0.00447016 0.00534303 0.00487627 0.00488454 0.00451573 0.00443209 0.00726699 
0.00822666 0.00370878 -1.11313e-05 8.52234e-07 2.51416e-06 -4.6223e-07 2.41024e-06 -3.03599e-07 -2.10961e-06 
2.33096e-06 -3.09054e-06 5.2417e-06 -3.93656e-07 -2.91062e-06 -1.3346e-07 -8.52646e-07 6.07171e-07 -1.12445e-06 
8.33144e-07 -2.98805e-06 7.03964e-08 1.63805e-06 -1.01278e-06 -2.45723e-07 -0.035201 -0.00127956 0.000235451 
-5.76726e-05 -6.96354e-05 -3.30052e-05 4.0009e-06 -2.33078e-05 -8.25757e-06 -6.80727e-06 -4.27501e-06 -5.94454e-07 
1.24719e-05 1.03839e-05 6.85364e-06 3.57009e-06 1.23501e-05 -3.35778e-06 -1.57257e-05 -1.52583e-05 -2.62661e-05 
-6.19291e-05 -8.70092e-05 -6.99897e-05 -6.92486e-05 -3.28609e-05 4.41434e-05 5.81076e-05 4.39275e-05 4.55487e-05 
5.3671e-05 3.0228e-05 2.02863e-05 1.02746e-05 7.11114e-06 9.95214e-06 3.45392e-06 2.62383e-06 6.53546e-07 
6.57534e-08 3.91139e-07 3.71509e-06 1.29284e-06 8.20642e-06 2.98105e-05 2.44873e-05 -2.32294e-05 -4.23674e-05 
-4.0693e-05 -5.00345e-05 -6.87557e-05 -7.77931e-05 -7.52247e-05 -8.46666e-05 1.22297e-05 0.00035376 -3.2583e-05 
-0.00257912 -0.0320275 0.00206756 0.00507485 0.00547449 0.00421298 0.00411339 0.0056378 0.00474258 
0.00471312 0.00440759 0.00459413 0.00635835 0.00747276 0.0105399 -0.00787903 -0.00486646 -0.00503029 
-0.00586979 -0.00492395 -0.00425143 -0.00486859 -0.0047286 -0.0045972 -0.00623098 -0.00407083 -0.00456305 
-0.004576 -1.45829e-06 -9.86578e-07 7.54164e-07 -1.37319e-06 -4.7303e-06 -3.8635e-07 -4.59036e-06 -7.45124e-06 
-6.1548e-06 -1.55927e-06 2.06962e-06 -4.07257e-06 -1.7254e-06 1.91743e-06 1.30622e-06 -1.56283e-07 3.07836e-06 
3.44336e-06 2.9615e-06 9.30186e-07 -7.02633e-07 2.5417e-06 1.52661e-06 -3.80875e-07 1.08583e-06 7.69152e-07 
-9.38686e-08 0.00206087 0.00148473 8.27671e-06 4.63659e-05 5.56435e-05 1.9366e-05 5.28519e-06 3.53149e-06 
1.37257e-05 9.61842e-06 1.77663e-05 3.56352e-06 5.83071e-06 3.54008e-06 5.8526e-06 2.9238e-06 1.16314e-05 
5.33987e-06 2.48754e-06 -6.52509e-06 -1.11032e-05 1.4579e-05 6.38252e-06 3.24921e-06 -1.00492e-05 -1.38769e-05 
3.87322e-06 -4.4923e-06 -2.23194e-05 -1.73086e-06 3.43572e-05 -9.51394e-06 -1.66891e-05 2.24188e-06 5.5296e-06 
-1.55321e-06 -3.43388e-06 -2.68169e-06 7.95408e-06 7.66902e-06 3.26993e-06 -6.92271e-06 -5.34815e-06 -3.67751e-06 
1.08959e-06 -1.08777e-07 -4.19548e-07 1.09704e-05 1.28186e-05 1.98155e-06 -5.58787e-06 -5.67138e-06 -7.56413e-06 
-5.32912e-06 -2.9587e-05 -2.88456e-05 -2.91985e-05 -1.65826e-05 -3.86494e-05 0.000457218 0.00698844 0.00915244 
0.00946988 0.0109484 0.0107231 0.00914355 0.00840281 0.00939048 0.0127609 0.00978633 0.00882771 
0.00928204 0.0101905 0.0130419 0.00840197 0.00865528 0.00788347 0.00707043 0.00913557 0.0132362 
0.00736821 0.00766337 0.00855747 0.0104886 0.0152534 0.0178508 0.000300788 0.000762711 0.000910935 
0.00155212 0.00152615 0.00117286 0.00139007 0.00142604 0.00139153 0.00132062 0.00123166 0.000782126 
-0.00156853 -0.00970918 -0.00383159 -0.0008319 -0.000982499 -0.001085 -0.000974164 -0.00103788 -0.00120694 
-0.00145839 -0.00147751 -0.000762036 -0.00289147 -0.0012212 -0.000855586 0.000580957 0.00566849 -6.47168e-07 
4.36884e-06 6.53967e-05 0.00606708 0.000809425 -0.00685101 0.000373472 0.00548056 -5.01718e-08 2.00115e-06 
-1.2157e-06 4.86855e-08 7.28351e-07 -5.47729e-06 -9.47209e-06 -1.27143e-06 1.67317e-06 -1.58284e-07 -1.4473e-06 
1.40992e-06 5.68327e-07 -1.23338e-06 4.0585e-07 3.04512e-06 2.5593e-06 -9.24318e-08 -1.14338e-06 7.99751e-08 
1.31648e-06 1.39683e-07 -1.78429e-07 -1.02712e-06 -0.000415058 6.08796e-05 4.57118e-05 6.10185e-05 -7.86258e-07 
9.00773e-07 1.10312e-05 2.20544e-06 1.0604e-05 7.46031e-07 -1.07872e-06 3.50424e-06 2.85237e-06 1.18363e-06 
-1.22971e-06 7.66333e-06 7.93672e-07 1.13949e-06 -4.76445e-06 -1.51253e-06 3.67144e-06 -2.89679e-06 -1.79123e-06 
-4.31578e-06 5.25551e-06 -1.53068e-05 -1.4171e-06 1.62559e-05 1.44055e-05 -5.89661e-06 2.22187e-05 1.16888e-05 
3.12839e-06 1.15228e-05 2.77166e-06 -5.61416e-07 -9.22355e-06 -1.0074e-06 2.09793e-06 -4.64895e-06 -6.20509e-07 
1.12545e-06 0.00140328 1.58489e-06 -3.18403e-06 1.40421e-05 0.000487946 9.45096e-05 -7.01782e-06 -7.78016e-05 
2.67396e-05 -1.87363e-05 -2.74141e-05 -2.25549e-05 -1.1738e-06 -2.12893e-08 -2.26348e-06 0.000282886 -0.00190897 
0.00288984 0.00199327 -0.00213956 0.000396629 -0.000856382 0.00252436 0.00187131 -0.000471051 -0.00210092 
-0.000408651 0.00268779 0.00201411 -0.000333744 -0.00124724 -0.00121474 -0.000416603 0.00165022 -0.000252603 
-0.00105639 -8.31947e-05 -0.000212869 0.0015388 -0.000122787 -7.6322e-05 -2.46784e-05 -5.85474e-05 -1.72021e-05 
3.27962e-05 4.64975e-05 -1.6388e-05 -3.46526e-05 0.000215309 -7.25048e-05 0.000578038 5.99779e-07 -0.000414395 
0.000372166 -0.000499079 -0.00033508 -0.0001151 -0.000124644 -0.000116992 -0.000165808 -0.000167207 -0.000200541 
-3.62164e-05 -0.00026046 0.000460223 -7.11303e-06 -1.48178e-05 -8.94519e-06 0.00278713 -7.48274e-05 -0.000412276 
0.000559575 -0.000204265 -0.000531811 -0.000337282 -0.000440755 0.000204112 -0.000938964 0.000333712 -1.35944e-08 
-1.46831e-06 3.09118e-06 -1.07046e-06 -6.14193e-06 -8.4738e-07 1.33738e-06 3.69119e-06 6.28924e-09 -7.10817e-07 
2.80956e-07 -1.54619e-06 -4.53947e-07 -6.25038e-08 1.26546e-06 3.51412e-08 -1.29796e-06 -8.9606e-08 9.22474e-08 
-1.76382e-06 -1.04393e-06 8.67886e-05 4.92943e-07 4.37627e-05 3.13605e-05 -2.95101e-07 3.70039e-07 4.90387e-06 
5.12709e-06 1.7647e-06 8.78238e-06 1.54257e-06 3.39808e-06 -4.58667e-06 2.08974e-06 3.63125e-06 5.68847e-06 
1.82982e-06 -6.28451e-06 3.11678e-06 -4.55969e-06 -2.5936e-06 1.09213e-06 1.44688e-07 -1.14047e-05 -4.23861e-06 
1.099e-05 9.91759e-06 3.453e-06 -7.15877e-05 -3.93042e-05 3.57941e-05 3.24536e-05 6.00661e-06 -1.51728e-05 
5.13986e-06 -6.70518e-07 -5.29744e-06 -5.94246e-06 5.8208e-07 -3.38643e-06 1.14531e-06 -0.000118906 2.10333e-05 
5.19297e-07 1.39147e-07 -1.54641e-05 -5.74827e-05 0.00010009 2.67866e-06 -5.19783e-06 -4.96223e-05 6.00045e-06 
1.40523e-05 0.00018545 -8.83674e-05 -2.84208e-05 0.000153488 -2.80788e-05 -1.34651e-05 -0.00017575 -7.65289e-05 
-2.13873e-05 -2.28995e-05 -0.000135533 -0.000166307 -8.09049e-05 -0.000143563 -2.37699e-05 -0.000112197 -6.4442e-05 
-0.000195574 -5.876e-05 -8.8995e-05 -0.000155784 -7.14071e-05 -8.69623e-05 -0.000162253 -3.39035e-05 -1.0632e-05 
-1.29509e-05 1.65889e-05 2.26494e-05 2.43074e-05 -3.8656e-06 -9.40807e-05 -1.2804e-05 3.04163e-05 0.000343991 
-1.4514e-05 -1.81417e-05 1.31171e-05 2.18609e-05 1.16835e-05 1.67947e-05 4.43516e-05 7.26089e-05 -2.99513e-07 
4.63082e-05 -4.946e-07 -1.44275e-05 1.12511e-05 -1.81574e-05 -3.51668e-05 2.9965e-05 4.01297e-05 6.56579e-05 
1.35877e-06 0.000238742 -1.83998e-05 1.49017e-06 -0.00016952 -0.000102769 0.000201955 7.95894e-05 -3.67601e-06 
4.57981e-06 -1.02636e-05 4.04485e-06 9.57638e-07 -4.60376e-07 -4.54722e-06 -1.76119e-06 2.19523e-06 -2.65294e-06 
6.3268e-07 3.74829e-07 1.48676e-06 6.25735e-07 -9.07839e-07 -1.18998e-06 4.6539e-07 3.66587e-07 -3.83778e-06 
-2.93187e-07 1.03526e-06 -1.85372e-05 5.19246e-07 3.05493e-06 -5.04434e-05 -2.4431e-06 4.12755e-05 7.34318e-06 
4.66609e-06 3.78072e-06 -1.63585e-06 8.52926e-06 -8.81685e-07 -1.68663e-06 8.22165e-07 1.81846e-06 9.49362e-06 
6.73692e-06 -1.70449e-06 1.34957e-06 -3.5309e-06 -9.51931e-06 -8.00671e-06 -5.05794e-06 -1.01854e-05 -2.96298e-05 
2.9084e-05 -2.13463e-05 2.09334e-05 -9.09324e-06 -1.68702e-05 -6.92573e-06 -1.37444e-07 -4.86947e-06 3.57658e-06 
4.72794e-05 -4.95353e-05 1.92597e-05 1.67284e-05 5.50289e-06 -5.97638e-06 2.14262e-06 2.46985e-05 -9.00039e-05 
-8.65484e-05 3.57376e-06 2.69052e-06 1.38636e-05 -5.6761e-05 3.78712e-05 -5.48018e-06 -1.36345e-06 2.48701e-05 
-5.42403e-06 -1.07344e-05 -8.46815e-06 2.35977e-06 -6.41537e-06 -1.44046e-05 -1.00567e-05 2.14036e-06 3.05554e-05 
-6.75989e-06 -4.73978e-06 9.36513e-06 -1.86877e-05 -9.82676e-05 2.73134e-05 -0.000110367 -5.73845e-05 1.2793e-05 
0.000163185 5.78224e-05 3.06968e-05 -1.21451e-05 -4.82316e-06 2.91923e-05 1.18285e-05 5.65591e-06 1.19434e-05 
2.78861e-05 -7.10698e-06 3.35824e-06 4.86402e-07 -1.81313e-05 3.21428e-05 1.01055e-05 8.98288e-05 5.08059e-06 
1.37713e-05 -1.61789e-05 1.52928e-05 4.84937e-06 -9.7093e-06 -1.8491e-05 7.35478e-06 -3.52524e-05 -2.93725e-05 
-3.63226e-05 1.11348e-05 1.94555e-05 1.8454e-05 -1.54642e-07 -1.29394e-05 -5.70914e-06 4.31019e-05 -9.2653e-06 
5.78349e-06 3.56441e-06 -1.33365e-05 -2.29002e-06 1.2179e-05 -2.45958e-07 3.22466e-06 -8.5863e-07 3.42907e-07 
2.86703e-06 1.44454e-06 5.81809e-07 -1.55433e-06 5.04097e-06 -8.22797e-06 2.411e-05 -1.47989e-05 2.59462e-05 
1.22175e-05 6.55244e-06 -2.08135e-06 5.20821e-06 2.1879e-05 4.99723e-06 1.38501e-05 9.07811e-06 1.24019e-06 
-7.60271e-06 -1.29754e-06 7.79883e-07 5.45411e-05 -1.16294e-05 4.1181e-05 -2.35794e-05 1.45661e-05 1.04795e-05 
2.01193e-05 3.24344e-05 -1.51761e-06 2.25709e-05 -1.0798e-05 1.57053e-06 1.78606e-05 -1.70462e-05 -2.55295e-05 
1.64107e-06 -3.27697e-05 4.2145e-05 -9.91499e-06 -5.25316e-06 4.36337e-06 -6.16646e-06 9.8929e-07 1.05513e-05 
1.86954e-05 8.64496e-06 3.10665e-05 1.06617e-05 8.89581e-06 -4.67301e-05 -7.26177e-05 1.34894e-05 -5.24933e-05 
4.89911e-06 1.5051e-05 3.92699e-06 1.57138e-05 4.67772e-05 1.16912e-05 -3.85893e-06 -4.06987e-05 7.9483e-06 
3.11776e-05 1.82686e-05 3.63337e-05 1.46555e-05 -8.89883e-06 2.20606e-06 -8.57011e-06 -1.43183e-05 -2.20424e-05 
2.87223e-05 -9.95629e-06 -3.15609e-05 2.81726e-05 -9.21435e-06 6.82249e-06 3.62452e-06 -3.16254e-06 -7.06611e-06 
5.25957e-07 2.23154e-05 -9.91782e-06 -1.13706e-05 -4.54517e-05 4.013e-05 -6.73826e-06 -3.61833e-06 2.01129e-05 
1.22696e-05 -2.27292e-05 2.07022e-05 -5.76099e-06 1.21309e-05 -3.39888e-05 5.05129e-05 -1.41297e-06 3.02797e-05 
3.51164e-05 5.36558e-06 5.45652e-06 -6.66756e-06 1.07636e-06 1.03078e-07 2.18887e-05 -1.06304e-05 9.2555e-06 
1.40721e-05 -1.45305e-05 4.84676e-06 -3.77562e-07 2.10768e-05 -8.96713e-06 3.28335e-05 -3.3285e-06 3.81303e-06 
-8.40738e-07 9.53819e-07 5.25763e-07 7.0206e-07 3.79352e-06 1.09109e-06 -2.37244e-09 1.05172e-06 -2.74439e-07 
-4.06297e-07 -3.97096e-07 -1.14172e-06 -2.40778e-07 2.27291e-07 1.47236e-07 -4.98264e-07 -5.75691e-08 1.50692e-07 
-2.57089e-07 -0.0176318 -0.000234932 -2.79615e-05 -2.0788e-05 -1.19025e-05 5.16375e-06 1.95331e-05 8.49045e-06 
-4.5791e-06 -7.6636e-06 5.71048e-06 7.32659e-06 -5.84843e-06 -4.49908e-06 6.45428e-06 6.53093e-06 2.54327e-06 
7.03793e-07 1.46865e-08 -5.76179e-06 3.01725e-06 1.28789e-05 4.56702e-06 -5.78206e-06 3.25587e-05 1.08544e-05 
-1.63119e-05 -1.65515e-06 5.66058e-06 1.60264e-06 -1.47097e-06 -5.48147e-06 2.48361e-06 2.578e-06 2.60892e-07 
-4.54932e-07 -8.20289e-07 8.13549e-07 3.75283e-08 5.14469e-06 -2.41892e-07 -9.83622e-07 -1.17883e-06 6.88085e-06 
9.33211e-06 5.24818e-06 1.12807e-05 2.05965e-05 1.19242e-05 -1.59315e-06 5.97064e-07 -3.38984e-05 -0.000559879 
0.000202445 -0.0268129 -0.0224037 -0.0195661 -0.00586174 -0.00997281 -0.00729087 -0.0216575 -0.00774585 
-0.00607434 -0.00793197 -0.0212176 -0.00876131 -0.0079991 -0.00796353 -0.00728352 -0.00918899 -0.00820031 
-0.0102338 -0.00834154 -0.0224032 0.00189662 -0.00026526 -0.0007828 -0.000783159 -0.000973087 -0.00134934 
-0.00118551 -0.00139973 -0.00125792 -0.0010513 -0.00122004 -0.000920183 -0.000405409 -0.000183638 0.0136795 
0.00126678 0.00098987 0.0022151 0.00281117 0.000977813 0.001306 0.000915325 0.000994701 0.00110452 
0.00105813 0.00102851 0.00287733 0.000102786 -0.00177376 -0.0115968 -5.48912e-06 -0.000260387 0.00954094 
-0.00940387 -0.00148657 0.00236765 8.7646e-07 2.91387e-07 -1.22557e-07 2.17326e-06 2.19216e-06 -2.25126e-07 
-7.03236e-07 2.38059e-09 -7.78774e-07 -1.51156e-07 9.34159e-07 4.19359e-07 1.31158e-07 -8.75238e-07 4.51744e-07 
8.70173e-07 -1.5086e-07 2.23345e-06 -2.92592e-07 3.72749e-06 -8.21976e-06 3.72593e-05 -2.77402e-05 -7.07848e-06 
9.91343e-06 -5.18167e-07 -6.88159e-07 -8.90212e-06 -3.06173e-06 -3.25105e-06 3.83877e-06 -1.96549e-06 -7.40952e-06 
-6.02297e-06 8.14405e-06 1.34895e-06 1.43784e-07 1.52772e-06 3.8821e-06 -6.15928e-06 2.66996e-06 4.46453e-06 
-1.93322e-05 1.82253e-05 -1.41462e-05 -6.57762e-06 2.83696e-06 8.53911e-06 -2.58032e-06 3.85129e-06 2.11278e-06 
1.06237e-06 1.94192e-06 4.31326e-06 -0.000282783 8.39698e-07 -1.33291e-06 -2.60412e-06 0.000362379 1.12292e-05 
-8.21181e-05 4.84474e-06 5.39973e-06 7.60306e-05 -2.945e-05 1.24635e-05 2.04477e-05 -4.01843e-06 -1.36128e-05 
-1.16971e-05 -0.000623631 -0.000992117 0.000393991 0.00109705 -0.000130673 8.87013e-05 0.000474456 0.00102777 
0.000821423 0.000185683 0.00041784 0.000852374 8.84807e-05 0.00103961 0.00105083 0.00102935 0.00014118 
0.000150255 -0.000564072 0.000953275 0.000140109 0.000474818 -8.59299e-05 6.00491e-05 4.67821e-05 -1.22337e-05 
-3.10688e-06 -2.63237e-06 2.619e-05 1.61972e-05 -8.63851e-05 -0.000202018 4.72748e-05 3.1892e-05 0.000215809 
-0.000440715 0.000153126 -3.09447e-05 1.8995e-05 -0.000143306 -0.000173023 -0.000140019 -0.000145557 -0.000166038 
2.43251e-05 0.000352057 0.000946165 -3.88155e-06 -0.000578483 -0.000240997 1.42184e-05 0.000596861 1.51833e-06 
-0.000151068 0.00136321 -0.00130229 5.36488e-05 -1.87229e-06 1.45236e-06 -4.35541e-06 1.72584e-06 -1.51149e-06 
-3.0081e-07 -7.75789e-07 2.04942e-07 6.90246e-07 8.73841e-07 1.41604e-06 1.28656e-06 4.82076e-07 9.57425e-07 
-2.07719e-07 -4.24593e-05 8.00433e-06 2.82493e-06 3.66758e-05 4.37676e-05 1.66043e-06 4.92131e-06 -2.34641e-06 
2.67921e-06 -6.68459e-06 7.48735e-06 -3.74936e-06 -7.70933e-06 -7.96613e-07 -4.18189e-06 1.55246e-05 -1.13896e-06 
8.16642e-06 1.61943e-05 1.01877e-05 -3.46611e-05 -1.8617e-05 -3.28559e-05 2.32981e-05 1.43391e-05 1.05006e-05 
2.49376e-05 -8.07902e-06 4.73434e-05 8.8605e-07 4.20754e-06 8.52171e-07 8.86301e-07 -6.39568e-06 -1.58977e-06 
9.26997e-05 1.03189e-05 1.56751e-05 4.10483e-05 -3.52501e-06 -1.12544e-05 -0.000385638 -1.65179e-06 4.63534e-05 
9.98602e-05 2.4621e-05 4.62821e-05 2.76206e-06 6.61253e-05 2.25451e-05 5.28938e-05 7.20167e-05 5.46244e-05 
6.1362e-05 7.89854e-05 0.00010393 -0.000146974 2.57601e-05 -0.000198365 8.66621e-06 3.86414e-05 2.58007e-05 
1.38332e-05 8.4865e-07 -4.33586e-06 -1.74453e-05 -3.39895e-05 2.99408e-05 -7.48488e-05 1.40082e-05 -4.26797e-06 
1.17883e-05 2.45693e-05 -8.6569e-06 -5.45269e-06 2.83106e-06 0.000115453 5.98308e-05 -7.86277e-05 9.9518e-07 
2.17447e-05 -0.00016209 -1.73353e-05 5.56663e-05 -9.8492e-06 -7.42222e-05 -6.85453e-06 -1.56888e-06 -5.90512e-06 
9.79941e-07 -0.000133968 -1.15483e-06 -0.000165747 4.74461e-05 -3.50463e-05 -1.11925e-05 -6.81853e-06 6.73404e-05 
2.47385e-05 4.34143e-05 -0.000153097 -3.34096e-05 1.62205e-05 -0.000153452 -0.000125806 4.4701e-05 -5.09528e-05 
4.09639e-05 2.09911e-05 -2.00331e-06 3.75493e-06 -1.27548e-06 4.42659e-07 -1.64675e-06 -5.51374e-07 -5.07414e-07 
-2.19869e-07 -4.9381e-08 -1.72084e-05 8.67404e-06 -2.94947e-06 4.19299e-07 9.20419e-07 -8.61816e-07 2.43318e-06 
2.4124e-06 -8.70194e-06 9.99847e-07 5.9719e-06 8.63094e-06 5.73793e-06 4.01106e-06 9.65643e-06 0.000215529 
3.4304e-05 -5.52466e-05 6.64897e-06 6.33067e-06 1.91342e-06 -1.61184e-05 -0.000144472 6.38616e-06 -4.10869e-06 
-3.31952e-06 1.8848e-05 4.57263e-05 -5.02433e-05 -9.59823e-05 -3.98236e-06 -4.17118e-05 -4.47675e-06 1.84155e-07 
-6.25283e-05 3.87792e-05 -7.33813e-06 2.60953e-06 4.09114e-06 6.79456e-06 1.22826e-05 1.15498e-05 1.99528e-05 
4.89752e-06 0.000184149 4.34813e-05 4.71519e-05 -5.69296e-06 1.10008e-05 1.09874e-05 -2.32779e-05 -3.49877e-05 
-2.71059e-05 4.33175e-05 -2.04634e-05 4.3991e-05 -1.47616e-06 -4.02233e-05 5.90721e-05 1.7174e-05 2.55706e-05 
6.19607e-06 -3.33769e-05 -8.64253e-07 -7.35548e-06 -5.13716e-07 -1.94139e-05 -6.09273e-06 -2.62398e-05 1.29588e-06 
6.77906e-05 -2.72822e-05 0.000106029 -5.80816e-06 8.62223e-06 1.40063e-05 -8.02307e-06 1.40448e-05 -3.92486e-06 
1.84341e-06 -4.1303e-06 -4.50309e-05 -3.82057e-05 -2.54743e-05 -1.19369e-06 -4.23305e-05 -3.22469e-05 1.13161e-05 
1.45446e-05 -3.72971e-06 4.78184e-06 1.95005e-06 5.86641e-06 -9.21468e-06 -8.8024e-06 1.09221e-05 -2.00346e-07 
-7.67967e-06 8.9954e-06 -9.95747e-06 -3.29158e-06 7.3263e-06 -1.90519e-06 5.2708e-06 1.57031e-06 6.19853e-06 
-1.08332e-05 -1.17156e-05 6.39927e-05 1.69397e-05 1.52424e-06 6.98097e-05 -1.67913e-05 8.15537e-06 3.34707e-05 
-1.13323e-05 1.14855e-05 -1.78196e-05 5.16605e-06 2.24176e-05 -1.32829e-05 -4.40264e-06 -2.28294e-05 -1.24888e-05 
1.62484e-05 3.12468e-05 1.00387e-05 3.29999e-06 -3.73629e-07 1.11176e-05 4.74607e-06 2.34402e-05 -7.91339e-05 
-4.00149e-05 2.87788e-06 3.54613e-05 6.39178e-06 -8.92327e-06 2.8096e-05 -2.80499e-05 -1.78923e-06 -5.62451e-05 
-8.49474e-06 -1.56776e-05 1.9107e-06 -4.91482e-06 -4.49059e-06 -5.12438e-07 -1.76789e-05 9.73447e-06 -7.15906e-06 
3.18884e-05 -3.70456e-06 1.07854e-05 -6.12392e-06 2.46396e-06 1.45675e-05 -1.43472e-05 2.49223e-05 3.08833e-06 
-1.0313e-06 -3.14424e-05 9.95329e-06 5.56267e-06 2.14213e-06 8.5837e-06 1.03487e-05 -4.42528e-05 -7.96867e-06 
-4.09684e-05 5.6112e-05 6.38577e-06 -1.03638e-05 -9.72826e-06 -2.40333e-05 1.90795e-06 -1.9732e-05 6.45851e-06 
-6.99543e-06 6.71513e-06 5.37393e-05 6.1273e-05 -2.28607e-05 -9.03291e-07 -3.8571e-06 0.0315079 -0.0370388 
0.128602 0.060296 0.0691399 0.0575894 0.0926896 0.0938159 0.0977099 0.0539776 0.095018 
0.0943206 0.095515 0.0530481 0.09684 0.0927791 0.0913134 0.0908904 0.0912467 0.0963873 
0.101752 0.105481 0.0635324 0.0548266 0.0731684 -0.0787771 -0.124483 -0.116809 -0.114913 
-0.106352 -0.094784 -0.0958402 -0.0974264 -0.100621 -0.100693 -0.0950521 -0.0973032 -0.102288 
-0.103198 -0.0966996 -0.096093 -0.095552 -0.0923677 -0.0992031 -0.0972084 -0.096162 -0.100642 
-0.102163 -0.108616 -0.10959 -0.124098 -0.132262 1.9892e-05 7.08884e-06 -1.30557e-05 -9.12083e-06 
-5.11624e-06 -5.11569e-06 4.60567e-07 2.93708e-05 3.90837e-05 2.71811e-05 4.24943e-07 -6.03548e-06 -2.84309e-06 
1.8931e-06 6.43154e-06 4.46168e-06 -6.47221e-07 -1.65658e-05 -1.81391e-05 -1.10332e-05 6.66718e-07 2.98067e-06 
-7.07723e-07 -3.42341e-06 -3.86695e-06 -1.54545e-06 -5.14192e-08 2.24581e-06 -0.038602 0.0206606 -0.00151585 
-0.000715954 -0.00041174 -0.000315341 -0.000190853 -0.000151641 -0.000140478 -0.000126331 -0.000120623 -0.000101069 
-8.45941e-05 -8.16458e-05 -8.62466e-05 -9.03126e-05 -8.71312e-05 -8.45925e-05 -8.93965e-05 -7.62106e-05 -5.96985e-05 
-4.99782e-05 -5.80478e-05 -5.13275e-05 -2.56758e-05 1.01481e-05 5.43149e-05 8.61602e-05 0.000140186 0.000174948 
0.000115621 2.62996e-05 4.26912e-05 -3.07412e-05 -8.79325e-05 -8.12087e-05 -5.35561e-05 -2.66011e-05 -2.05119e-05 
-3.15681e-05 -1.89601e-05 -8.56172e-06 7.95682e-06 7.8914e-06 2.64444e-05 1.45478e-05 -2.44093e-06 3.66964e-06 
3.68943e-06 3.84912e-06 2.73796e-06 6.02842e-06 1.09772e-05 2.43794e-05 2.41607e-05 -7.35277e-06 -2.01006e-05 
-3.58052e-05 -3.68498e-05 -2.73489e-05 -5.42617e-05 -5.53169e-05 -0.00012915 -0.000388648 0.000235951 -0.0017425 
0.00246442 -0.00589531 -0.00998835 -0.0039913 -0.00429903 -0.00600675 -0.00602952 -0.0050755 -0.00631842 
-0.00638591 -0.0063216 -0.00636798 -0.00553489 -0.00755451 -0.0119944 0.0246661 0.00858666 0.0117413 
0.00795429 0.00653158 0.00602017 0.00646677 0.00597194 0.00633995 0.00634943 0.00435552 0.00737892 
0.00699641 0.00561656 0.00830954 -0.029384 -3.22148e-06 8.52189e-06 1.67204e-05 6.32706e-06 -1.03677e-05 
-3.87424e-06 -1.81762e-05 -1.97662e-05 -3.79627e-06 -5.5096e-06 -7.77404e-06 5.30892e-07 1.39497e-06 3.44898e-06 
9.12275e-06 9.5027e-06 2.67887e-06 2.27922e-06 4.71856e-06 4.71455e-07 -1.01954e-06 -1.65069e-06 4.42435e-06 
0.00953489 -0.00753212 0.000339904 0.000162104 4.39452e-05 7.89459e-05 5.44374e-05 2.05014e-05 -6.28545e-06 
1.01436e-05 2.29771e-05 1.3823e-05 1.84423e-05 3.10614e-05 2.69423e-05 1.48146e-05 2.48603e-05 1.92355e-05 
-1.39004e-05 -1.8893e-05 -1.90117e-05 -4.0725e-05 -0.000126836 -0.000153141 -0.000143413 -0.000145343 5.84527e-05 
0.000120572 9.33103e-05 7.37614e-05 7.69454e-05 6.82452e-05 2.84433e-05 1.27046e-05 9.44357e-06 -9.0792e-06 
-3.04159e-06 -6.38217e-06 7.10221e-07 2.57096e-06 -3.03682e-06 -2.46261e-06 -1.09718e-06 -2.03241e-06 1.85754e-06 
2.1052e-06 7.29978e-06 -2.72977e-05 -2.43171e-05 -1.99779e-05 -1.30718e-05 -5.07858e-05 -0.000103437 -7.49865e-05 
-3.46309e-05 -1.47302e-05 -6.90174e-05 0.000119025 -0.000669197 -0.0221515 0.0422174 0.0179777 0.00520019 
0.00636726 0.00625857 0.00578224 0.00573573 0.00675258 0.00606915 0.00634117 0.00392874 0.0060817 
0.00880033 0.00960062 0.00919497 -0.0367964 -0.0126255 -0.00767126 -0.00549574 -0.00532976 -0.00668938 
-0.00594487 -0.00468009 -0.00573683 -0.00614222 -0.00671355 -0.00579543 -0.00446901 -0.00635364 -0.0111679 
0.0418093 -2.35611e-06 -3.47632e-07 0.0255344 0.0012541 -0.00733478 0.00946326 0.0427237 -0.0485003 
0.00448267 -0.0345207 -0.0360577 -0.0297031 -0.0314046 -0.0320215 -0.0361893 0.000434404 0.0003186 
-3.71555e-05 0.000881494 0.00091935 0.000817394 -0.0265253 -0.0299651 0.000580627 -0.000415009 0.00128145 
-9.79353e-05 -0.000243897 0.000599182 -0.0316326 -0.0284572 0.00209935 2.80865e-05 0.00056483 -2.42827e-05 
-9.74395e-05 0.0019528 -0.000392229 0.000450397 -0.000510712 8.59813e-05 0.000302973 0.000227551 -0.000468774 
0.000265557 -0.000338991 -0.000347189 -0.0317027 -0.0261983 -0.0380856 -0.0241238 -0.0289815 -0.0296201 
-0.0317992 -0.0347247 3.22873e-06 1.06978e-05 -1.34266e-06 -2.74561e-06 -1.52706e-06 -3.36041e-06 -5.14509e-07 
2.59866e-06 4.45474e-06 -2.18691e-06 -2.69982e-06 2.63118e-06 -5.74394e-06 -7.08401e-06 -8.65755e-06 6.09408e-06 
-5.90826e-06 -8.7381e-06 -2.81428e-06 3.05836e-06 6.82608e-08 1.6532e-06 2.2752e-06 -7.1308e-06 1.75891e-07 
-6.46315e-06 -1.99167e-06 -1.03936e-05 4.96944e-06 -3.29952e-06 3.34268e-06 -5.67792e-06 5.97222e-06 -7.4255e-06 
-3.92424e-06 -8.44025e-06 3.94401e-07 -2.83104e-06 -5.96243e-06 4.19204e-06 2.56711e-06 2.18548e-06 4.84433e-06 
3.24326e-06 5.45919e-06 -4.83194e-06 3.1206e-06 3.05313e-06 2.20333e-06 -1.46936e-06 1.04513e-06 -5.17054e-07 
-1.4599e-06 2.70591e-07 2.49975e-07 3.22245e-06 4.38055e-06 5.39187e-06 -3.24325e-06 1.42479e-06 -2.05588e-06 
3.29626e-06 -2.50229e-06 3.662e-06 2.36728e-06 4.55234e-06 -6.20611e-07 1.31149e-06 3.24595e-06 -2.13575e-06 
-9.17125e-07 -1.49139e-06 -1.29775e-06 6.86109e-07 -2.1782e-06 -1.4875e-06 1.76856e-06 2.34533e-06 5.71341e-07 
9.05111e-08 -3.19015e-06 8.40971e-07 -0.00573593 0.0205455 0.00815325 -0.00237088 0.000409946 0.00612328 
-0.000292924 3.93991e-05 0.00104888 -4.68934e-05 3.32669e-05 -5.0873e-05 -4.35457e-06 0.000129092 -1.26001e-05 
-4.7867e-05 3.92017e-05 8.61889e-05 -6.82147e-05 -7.21804e-05 3.24209e-05 -5.16356e-05 -6.51934e-05 2.17826e-05 
-4.40857e-05 -3.49787e-05 -4.26796e-06 -3.4342e-05 -8.96416e-06 -1.61482e-05 -1.80087e-05 2.32085e-05 -2.22073e-06 
-1.82259e-05 -6.10616e-06 1.13773e-05 -1.55529e-05 -2.47605e-05 1.77057e-05 -2.31668e-05 -2.94725e-05 -6.65202e-06 
-3.04653e-05 -1.54933e-05 -8.99461e-06 -2.94998e-05 -1.45447e-05 8.56837e-06 9.2663e-06 -1.69898e-05 1.12583e-05 
-7.02461e-06 -2.19566e-05 -2.5134e-06 -2.75848e-05 -1.46843e-05 -1.30639e-05 -2.83405e-05 -2.79274e-05 -8.18754e-06 
-4.23774e-05 -3.73376e-05 6.71554e-06 3.3354e-05 9.28936e-07 7.157e-06 4.93856e-06 -4.97891e-06 -6.53307e-06 
-7.57555e-06 -9.34398e-06 -6.0075e-07 -9.70502e-06 -2.48219e-05 -2.27277e-06 -1.25561e-05 -5.01339e-05 7.73895e-06 
3.32782e-05 4.752e-05 -1.76571e-05 1.68084e-05 4.07159e-05 -2.51688e-05 2.05252e-05 2.58219e-05 1.48907e-05 
5.71734e-05 3.41207e-05 4.3377e-05 6.58731e-05 0.000118426 -2.55865e-05 -8.72472e-05 -5.84788e-05 4.22834e-05 
-5.91487e-05 -3.26359e-05 4.45929e-05 -9.83951e-06 -3.14827e-05 -3.85818e-06 -1.50246e-05 -1.397e-05 -2.03722e-05 
-2.50558e-05 -1.50979e-05 -1.434e-05 -2.9216e-05 -2.34433e-05 1.50148e-06 -2.86488e-05 -1.88168e-05 9.32265e-06 
2.20659e-05 1.08792e-05 -4.21664e-06 1.26121e-05 -1.34021e-06 -1.07597e-07 -2.95357e-06 7.95284e-07 -3.15837e-06 
-6.4062e-06 -1.85713e-05 1.4176e-06 4.20507e-06 -9.99727e-06 -6.44029e-06 2.84001e-06 6.29488e-06 -9.212e-06 
1.47869e-06 9.78529e-07 2.10053e-06 1.0465e-06 1.73319e-06 2.18643e-06 -7.5747e-07 -5.96868e-07 5.31338e-07 
-1.33013e-05 -1.26419e-07 1.52226e-06 -2.02305e-05 2.68836e-05 -2.17574e-05 -1.39895e-05 -2.86053e-05 9.25031e-07 
1.22987e-05 6.52549e-07 6.78086e-06 -4.53771e-06 3.9885e-05 4.61619e-05 -4.51291e-05 2.49848e-05 5.08122e-05 
-6.86973e-05 1.13236e-05 3.36636e-05 -5.29671e-05 -2.36969e-05 4.29728e-05 -5.75765e-05 2.23149e-05 4.94431e-05 
-7.31153e-05 0.000104473 0.000106639 -0.000103728 0.000272435 8.26606e-05 -0.000159774 0.000941043 0.000765917 
0.00306143 0.0143451 -0.00055317 0.0120155 -0.0331402 -0.0450601 -0.0459883 -0.0462041 0.0160914 
-0.0405226 -0.0437091 0.0106096 -0.0421139 -0.0302434 0.0119148 -0.0305185 -0.030995 0.0084529 
-0.0290735 -0.0323528 0.010856 -0.0301256 -0.0417073 0.00969188 -0.0379124 -0.0410217 0.0124754 
-0.0401225 -0.0298822 0.0112933 -0.0312705 -0.0309511 0.0109154 -0.0307082 -0.0311852 0.00894877 
-0.0299874 -0.0406282 0.0108275 -0.0417581 -0.0385824 0.011402 -0.0434132 -0.0311648 0.0124561 
-0.0307243 -0.0305828 0.0102421 -0.0303859 -0.0312081 0.00907596 -0.0297937 -0.0333376 0.00803446 
-0.0303852 -0.0445958 0.00968997 -0.0445231 -0.0286469 0.00986571 -0.0332538 -0.0306653 0.0124617 
-0.0332975 -0.0327377 0.00945498 -0.0331759 -0.0348983 0.0111576 -0.0315331 -0.0408093 0.0119947 
-0.0428464 -0.0427117 0.0127609 -0.0382608 -0.0351698 0.020364 -0.0101678 -0.0133483 -0.00667083 
-0.00624593 0.00203208 -0.00580297 -0.00481416 0.00181618 -0.00505811 -0.00341452 0.00212997 -0.0044774 
-0.00336486 0.00216276 -0.00450779 -0.00405405 0.00180274 -0.00423574 -0.00330668 0.00185104 -0.00384246 
-0.0033187 0.00201284 -0.00325656 -0.00356415 0.00186876 -0.00325437 -0.00339333 0.00165513 -0.00366254 
-0.00369279 0.00138046 -0.0035222 -0.0042144 0.000909375 -0.00371601 -0.00861416 -0.00113912 0.0173715 
0.0224563 0.0042037 0.00693341 0.00921608 0.00656385 -0.00557448 0.00612446 0.0068707 -0.00251216 
0.00524558 0.00304075 -0.00114101 0.00348704 0.00322296 -0.00177365 0.00313694 0.00349682 -0.00103389 
0.00270748 0.00348658 -0.00120384 0.00327931 0.00316347 -0.00157821 0.00320605 0.00293917 -0.00130033 
0.00290373 0.00420003 -0.000925388 0.00385307 0.00532721 -0.00140266 0.00530362 0.00406706 -0.000594279 
0.00577858 0.00535193 -0.00111761 0.0115049 0.0176018 -0.0011008 -0.011439 -0.0158127 -9.26557e-06 
-0.0369666 -1.59394e-06 -1.50769e-06 -0.00462864 -9.37554e-06 -1.58879e-05 -0.000203143 -0.00021407 0.000528118 
1.60621e-05 0.00733321 -0.00898093 -0.00312632 0.0121145 -0.000313635 0.0192497 -0.0176161 0.00513847 
-0.0123022 -0.00850865 -0.0136208 0.00973956 0.00520545 -0.00043522 7.85196e-07 0.00214693 1.95383e-06 
7.45961e-07 2.68196e-06 9.14877e-08 4.18168e-06 -9.36508e-07 -2.46783e-06 1.665e-06 -2.91979e-06 -7.55279e-06 
-1.45223e-06 -5.15431e-06 -1.18325e-06 -7.41984e-06 -1.0078e-08 -6.48027e-06 -1.20682e-06 -6.34829e-06 -5.10877e-06 
-6.88198e-06 -3.11473e-06 -4.17095e-06 -6.66886e-06 -5.10436e-06 -6.51629e-07 2.1472e-06 -3.83176e-06 -2.95625e-06 
-4.28371e-06 -1.34997e-06 -2.55996e-06 -1.70543e-06 3.9499e-06 -2.24367e-06 1.8375e-06 2.35713e-06 9.63922e-07 
1.08687e-06 3.50108e-07 4.57535e-06 2.5699e-06 1.06689e-06 -2.43058e-07 -2.04782e-06 1.88883e-06 7.02835e-08 
2.35288e-06 2.67669e-06 1.9623e-06 2.07724e-06 8.94294e-07 1.63966e-06 1.6246e-06 2.59053e-06 9.0169e-08 
-1.01651e-06 1.78065e-06 1.37427e-06 1.48187e-06 4.11211e-07 2.23297e-06 1.03549e-06 -1.92094e-06 1.10766e-06 
-7.81756e-07 -2.67117e-07 -3.94962e-07 5.73423e-07 -3.33697e-07 -1.73341e-06 -1.00017e-05 0.000517298 -0.00055968 
0.000195633 0.000102313 1.57448e-05 0.000180935 0.000259553 2.59546e-05 6.01925e-05 0.000134356 0.000109202 
-4.47179e-05 6.29035e-05 2.7807e-05 -3.76699e-05 -2.84192e-05 2.24537e-05 1.31074e-05 7.60466e-06 1.31768e-05 
3.23551e-05 6.08553e-05 -2.17339e-05 3.14177e-05 5.5241e-05 2.32424e-05 2.36936e-05 2.74956e-05 2.55605e-05 
2.1995e-05 3.12805e-05 1.05117e-05 1.82807e-05 5.06274e-06 4.96464e-06 9.80002e-06 3.24975e-05 -2.10042e-05 
3.23967e-05 4.04657e-05 6.78253e-06 2.50383e-05 2.51654e-05 1.18867e-05 4.65253e-05 3.09962e-05 2.32452e-05 
2.91727e-05 1.20202e-05 1.36477e-05 -5.89055e-06 2.20293e-06 -2.13747e-05 2.40803e-05 2.45422e-05 -9.0485e-08 
2.28213e-05 1.49485e-05 7.74617e-07 3.77366e-05 1.07687e-05 1.37301e-05 1.18362e-05 8.535e-06 1.98407e-06 
5.78659e-06 -7.70147e-06 -1.21994e-05 -2.44194e-05 -3.63489e-05 -1.2895e-05 -2.73596e-05 -3.3093e-05 -2.12727e-05 
-8.40438e-05 -7.69388e-05 -1.57454e-05 -8.40858e-05 -4.27296e-05 -4.43793e-05 -2.16044e-05 -2.60465e-05 4.9286e-05 
2.96724e-05 1.72732e-05 1.67635e-05 -4.59579e-05 2.55231e-06 -1.8364e-05 1.10626e-05 2.96239e-05 2.12649e-05 
-1.09643e-05 9.08932e-06 3.74996e-05 1.38737e-05 1.6706e-05 7.85251e-06 7.06161e-06 2.00273e-05 -1.00457e-05 
-2.47512e-06 1.75902e-05 -8.73735e-07 3.93069e-05 2.49359e-05 5.45551e-06 1.5542e-05 -2.7578e-06 1.39988e-06 
3.60032e-05 1.67833e-05 4.82681e-06 3.01669e-05 1.29096e-05 -1.85811e-06 -3.92912e-06 -6.86806e-06 -1.15596e-05 
5.45864e-06 -1.3876e-06 -3.57486e-06 8.68086e-06 1.50733e-05 3.40219e-07 0.00714777 0.00680005 0.00131234 
1.55838e-05 3.01715e-06 -9.58659e-07 3.05045e-06 4.47006e-06 -2.63254e-06 -1.06041e-05 -1.53545e-05 4.97617e-06 
0.000802856 -0.000981489 -0.000449641 -0.00857918 0.000624753 1.24506e-05 1.05019e-05 5.20283e-05 1.7415e-05 
-5.61063e-05 4.94179e-05 0.000130224 -0.000113802 -2.36399e-05 7.91365e-05 -1.76276e-05 5.81264e-05 -3.72797e-05 
2.29938e-05 7.75547e-06 -1.47813e-05 0.000106977 -3.53582e-05 -3.24196e-05 0.000181455 -0.000164931 -2.29993e-05 
-3.34433e-06 1.15799e-06 0.00216549 0.00260111 -0.00098246 -0.00986107 -0.000291043 0.0108872 0.0081128 
0.00606347 0.00652909 0.0024807 0.00350394 0.00545886 0.00029397 0.00722996 0.00638113 -0.000654832 
0.00278191 0.00673424 -0.000708684 0.00998419 0.0131976 0.00101351 0.0129367 0.00860227 0.00154098 
0.00513423 0.00752421 0.000542205 0.00496195 0.00452651 -0.000828115 0.00703698 0.00524682 -0.00068073 
0.00869561 0.0125714 0.000603144 0.0117754 0.00966015 0.00176603 0.00642818 0.00699684 0.000645737 
0.00500845 0.0041692 -0.000268074 0.00280546 0.00710942 -0.000824053 0.00685532 0.00690619 -0.000489821 
0.0108203 0.0123049 0.000523022 0.0113543 0.00668022 -0.000298792 0.00748827 0.00299287 -0.000187811 
0.00505549 0.00541141 -0.000649399 0.00458216 0.00485841 -0.000673015 0.00574693 0.0141165 0.000229475 
0.0143235 0.000847182 -0.000168843 0.000726195 -0.000262199 0.00025829 2.52702e-05 0.00113974 0.000459898 
0.000868462 0.000454383 -0.000105938 0.000909235 0.000407494 -9.6945e-05 0.000880652 0.000590426 -8.98729e-05 
0.00083623 0.000491693 -9.49033e-05 0.000616832 0.00054189 -0.000111995 0.000524742 0.000576856 -0.000156591 
0.000633423 0.000894801 -0.000159181 -0.000578721 0.00122746 -0.000195974 0.000904609 0.000790077 2.83098e-07 
1.32396e-06 -0.000394767 -0.00350711 -0.000894717 -0.00137646 -0.00203145 -0.00189182 -0.000441694 -0.00195028 
-0.0011356 -0.000240981 -0.00114531 -0.000969067 -0.000308141 -0.0010915 -0.00101081 -0.000129083 -0.00113872 
-0.000937073 -7.83586e-05 -0.0010242 -0.00106216 -0.000124761 -0.00106492 -0.00105109 -0.000116547 -0.000902518 
-0.00128428 -8.45146e-05 -0.00106718 -0.000391429 -6.53263e-05 -0.00107206 -0.000746902 -0.00012005 -0.000391404 
0.00160142 0.000103674 4.50132e-06 -1.17607e-05 -9.20413e-06 0.000299803 -2.95088e-05 3.65009e-05 -1.35873e-05 
2.48316e-06 -1.71809e-06 2.39051e-06 0.00177719 0.000321801 0.00116511 0.00019221 -0.000112834 -0.00204385 
-0.00113789 -0.000668594 0.00289545 0.000414634 -3.2951e-06 -3.39605e-06 -1.80261e-06 4.06344e-07 6.85129e-06 
1.21906e-06 1.31822e-06 -1.27099e-06 5.63641e-07 0.000156096 0.00113163 -0.000900396 -0.000200619 0.000663597 
-0.000220221 0.000798034 -5.91581e-05 1.14513e-06 0.000254057 0.00139736 0.00066086 0.0012372 0.00598327 
0.0102768 0.00256741 -9.87655e-05 -0.000176595 0.00015089 -0.000470541 2.08544e-05 -0.000428766 0.000681858 
0.00406471 8.14671e-05 -0.00051145 -0.000285735 -0.000404112 -0.000145216 -0.00112398 -0.000415389 -5.54997e-06 
1.19745e-06 9.07623e-07 -9.32037e-07 8.58321e-06 -1.05543e-06 1.02528e-06 -8.68371e-06 1.02083e-06 -6.29831e-06 
7.2297e-06 -3.19647e-06 1.55105e-06 -4.33543e-06 -1.84384e-06 -6.81201e-07 -3.4155e-06 -3.00289e-06 1.00385e-06 
2.1969e-06 1.50628e-06 6.59359e-07 8.03909e-06 -2.34771e-07 2.44215e-07 -2.63003e-06 1.2514e-06 3.16869e-07 
7.49726e-07 1.55801e-06 -1.99159e-06 -1.23633e-06 -5.16853e-07 3.73012e-07 6.23747e-07 -3.78818e-06 2.64891e-07 
-5.445e-06 4.45175e-08 -1.48676e-06 5.38858e-07 1.08075e-07 4.26804e-07 2.12948e-06 7.92356e-07 5.92891e-07 
6.44168e-07 7.83256e-07 1.04768e-06 -1.79733e-06 -5.10336e-08 -5.6345e-07 2.30459e-06 5.78452e-08 -4.03492e-07 
1.87664e-07 -8.28927e-07 7.6089e-07 -4.31973e-07 -7.06923e-06 5.95909e-06 1.92977e-06 0.000268619 4.75607e-06 
2.73796e-06 7.4417e-07 -1.3839e-05 -1.24327e-06 -0.00015154 0.000111 -6.902e-05 0.000107919 2.04329e-05 
-5.70992e-05 3.78622e-05 -7.99168e-06 -6.74017e-05 5.63452e-05 1.38434e-05 1.04764e-05 5.29899e-05 -3.32896e-06 
3.04302e-05 1.43223e-05 1.00964e-06 -1.63977e-06 2.91756e-05 8.60289e-06 1.79999e-05 2.74664e-05 2.47242e-05 
2.97015e-06 1.14049e-05 1.48635e-05 1.43925e-05 3.23779e-05 1.66903e-05 1.94261e-05 1.61774e-05 -6.48631e-06 
1.96743e-05 1.11971e-05 -2.31733e-06 9.66206e-06 1.04546e-05 1.61683e-05 2.13966e-05 1.85535e-05 1.60432e-05 
1.87426e-05 1.26428e-05 1.688e-05 1.18433e-05 1.96809e-05 3.08202e-06 3.20428e-05 1.53075e-05 -1.16153e-05 
6.37889e-07 -2.62175e-07 1.26776e-05 2.1324e-05 1.04176e-05 1.5409e-07 6.88768e-06 5.5759e-06 -7.03924e-06 
-6.52999e-06 1.12537e-05 -4.81395e-06 -1.15867e-05 1.98586e-05 -1.5944e-05 -2.01093e-05 -2.34808e-07 -2.40259e-05 
-4.63328e-05 -2.42989e-05 5.22649e-06 -9.19296e-05 -4.93258e-05 -4.79735e-06 -3.68973e-05 2.47033e-06 -1.16701e-05 
-6.43209e-05 -3.58951e-05 -2.46122e-05 3.61415e-06 1.14715e-05 -0.000104743 -2.37468e-05 1.38254e-05 6.37676e-05 
1.12102e-06 1.68684e-05 7.56514e-05 4.04066e-05 2.18611e-05 4.25873e-05 2.95017e-05 2.06831e-05 1.03678e-05 
5.53444e-05 4.74433e-05 -2.31606e-05 4.09697e-05 3.20101e-05 -3.76787e-06 1.66561e-05 2.37271e-05 -4.78011e-06 
3.13038e-06 1.05742e-05 -4.86542e-06 1.17288e-05 6.35322e-06 8.63661e-06 3.11413e-06 -5.98593e-09 2.68943e-06 
-1.15736e-06 -1.78958e-06 -4.63818e-06 -2.98743e-06 -0.000272487 -7.5577e-05 0.000554657 0.000260589 0.000299608 
-9.39234e-07 -4.93747e-06 2.43769e-06 4.19726e-06 0.00620409 -1.49051e-06 1.25997e-05 0.000596924 0.000498785 
0.000422353 8.50039e-05 -0.000166584 0.000429229 1.71561e-05 0.000106779 -4.75109e-06 2.15833e-06 -2.67036e-05 
-1.86373e-05 6.38995e-05 -1.81586e-05 1.7806e-05 7.62452e-05 -3.14424e-05 -2.24448e-05 -1.57831e-05 5.12447e-05 
0.00010574 -0.000438274 -0.000166847 -0.000185795 -0.000328603 0.000466509 0.000216711 0.00068559 -4.08984e-05 
9.31684e-05 -0.000139559 0.000943726 -0.000373022 -0.000644515 0.000328236 -4.73839e-05 0.000143685 2.95094e-05 
-4.23404e-05 -8.63435e-05 0.000880028 1.9757e-05 0.000894526 0.000705438 -1.06364e-05 0.000564738 -0.000301836 
-9.16569e-05 4.72594e-07 -0.00029984 -8.74081e-05 -0.000221257 4.77688e-05 -0.000185018 -0.000252734 0.000739506 
-7.55586e-05 0.000921525 0.000823133 -0.000104539 0.000742254 -0.000183821 -6.26901e-05 7.53176e-05 -7.93152e-05 
-6.4616e-05 -5.60957e-05 -0.000105425 -0.000130447 -0.000168097 0.000117676 -0.00015503 -0.000140701 0.000341621 
-4.0708e-05 0.000398503 -0.000246227 -0.000122993 0.000190808 -0.00017497 -5.68159e-05 -3.16981e-05 0.000188441 
-9.23048e-05 8.19028e-05 8.49873e-05 -9.31534e-05 2.01099e-05 0.000466863 1.9704e-05 -4.81292e-05 5.5623e-05 
-3.9944e-05 -5.55122e-05 -6.51855e-05 7.60259e-05 -3.08652e-05 2.69916e-05 4.27958e-05 -1.18779e-05 -4.04504e-05 
9.7727e-05 2.53981e-05 -5.24411e-05 0.00019756 0.000116768 1.62625e-05 -0.0003695 0.000176509 -5.75968e-05 
-6.093e-05 0.000152338 0.000179058 -0.00036121 -0.000188385 0.000626215 0.00139998 -0.000255701 -9.13709e-05 
-0.00011008 -3.80307e-05 -3.75e-05 2.97069e-05 7.86376e-07 -1.49133e-05 4.31988e-05 3.52643e-06 1.36062e-05 
2.21664e-05 -2.79658e-05 9.89862e-06 3.00144e-05 -6.27633e-05 2.17924e-05 5.1623e-05 -4.29238e-05 2.11079e-05 
6.82666e-05 4.06102e-05 9.53762e-05 1.02109e-05 2.3801e-05 9.81382e-05 8.01851e-06 0.000507393 -1.05093e-05 
-1.03179e-05 7.15299e-05 1.11056e-05 1.56097e-05 -5.50155e-05 -2.12529e-05 -0.000114536 -0.00014405 7.11605e-05 
3.0879e-05 3.83036e-05 3.39088e-05 -9.49292e-06 -6.96496e-05 4.16764e-05 3.63061e-05 -1.86357e-05 2.53308e-05 
-6.13604e-05 1.62831e-05 -4.16994e-05 -0.00035254 0.000149764 0.000597221 -0.00022713 -4.43208e-06 0.000248748 
-0.00028227 4.05002e-05 -0.000167587 -1.00108e-06 -2.7123e-06 -2.36069e-06 2.12127e-06 -7.28669e-05 -1.45617e-06 
-7.37721e-06 0.000341957 0.000256191 0.000365765 -1.0357e-06 2.59696e-05 9.36478e-05 -0.000256338 1.25029e-05 
3.6578e-05 -2.69372e-05 -1.22461e-05 5.61112e-06 -1.18657e-05 -0.000525343 -0.000265388 0.000162626 -0.000112824 
-9.46942e-05 -0.000163579 0.000156388 0.000438256 0.00022825 -2.78755e-05 -3.01228e-05 7.20293e-05 5.19679e-06 
2.80822e-05 -9.96403e-05 -0.000169115 2.66342e-05 3.48629e-06 1.93213e-05 -7.57036e-06 1.48959e-05 -8.00432e-06 
3.568e-06 -1.69437e-06 -5.52045e-06 6.14725e-05 -0.000695734 -0.000312914 8.54566e-05 8.61361e-05 -1.39226e-06 
8.18513e-06 4.64471e-06 -3.11637e-06 2.18418e-05 7.54169e-06 -2.92251e-06 6.90459e-07 -2.8775e-06 -5.5308e-08 
-8.11626e-06 -3.19375e-06 6.73827e-07 -2.42473e-06 -1.41607e-06 -3.63869e-06 8.57634e-06 5.83978e-07 2.67666e-06 
-8.51519e-06 -9.03512e-07 1.66801e-06 -2.8543e-06 -3.55897e-06 6.81374e-07 5.73723e-06 1.12125e-06 -1.23223e-06 
5.41085e-07 7.36361e-07 1.88521e-06 1.21273e-06 -1.15972e-06 -1.48158e-06 -5.9663e-06 1.40723e-06 -1.90335e-06 
4.52566e-06 3.22741e-07 -5.70741e-07 3.21576e-06 -2.98879e-07 -1.864e-06 -2.50435e-06 -2.63311e-06 -2.52104e-06 
-1.10617e-06 2.45642e-06 -1.11373e-06 4.4767e-08 4.56582e-06 -3.83329e-06 -1.21113e-06 0.000105351 1.2219e-05 
-4.43759e-06 9.25209e-06 -5.40264e-05 -2.39586e-05 -7.1267e-06 -9.97287e-05 -7.07655e-05 -4.40698e-05 -2.93875e-05 
2.88881e-05 -1.3406e-05 1.70747e-05 7.52913e-05 -3.78439e-05 1.94642e-05 2.64782e-06 1.24549e-05 3.42562e-05 
-3.76845e-06 1.50459e-05 9.02298e-06 -3.88135e-06 -1.01829e-05 1.63078e-05 8.27028e-06 2.31528e-05 2.56081e-05 
1.09193e-05 1.37687e-05 1.91527e-05 9.63267e-06 3.9719e-06 1.35168e-05 -3.39413e-06 1.03659e-05 1.16707e-05 
-5.19217e-06 1.19506e-05 1.45116e-05 1.02135e-05 1.83347e-05 1.3622e-05 1.6233e-05 1.40622e-05 1.38845e-05 
2.07787e-05 8.46017e-06 4.27042e-06 1.94618e-05 3.27288e-06 -2.13891e-06 3.60446e-06 9.71819e-06 2.78366e-05 
-1.6796e-05 -1.94568e-06 2.14295e-06 5.67202e-07 6.3576e-06 2.82653e-06 5.4627e-06 1.2109e-09 7.2538e-06 
-2.72156e-05 -9.62144e-06 9.58609e-06 -2.94801e-05 -1.54376e-06 3.97368e-05 -1.38024e-05 2.75405e-05 9.56863e-05 
1.50208e-05 -7.41721e-05 -7.7025e-05 -5.23959e-05 4.68127e-05 -3.81521e-05 -7.72928e-05 8.3843e-05 -3.06187e-05 
1.95427e-05 -4.10629e-06 4.96234e-05 1.3571e-05 1.71268e-05 4.68334e-07 2.75759e-05 3.93602e-05 -5.60202e-05 
1.63899e-05 3.18829e-05 -1.31097e-05 5.55864e-06 2.25616e-05 -1.0215e-05 -6.75436e-06 3.88457e-06 -4.83495e-06 
-2.4107e-06 5.53547e-06 1.17102e-05 3.73767e-05 0.000206388 5.46072e-06 0.000140054 4.54183e-05 2.96898e-05 
-4.4292e-05 -4.88796e-05 0.000123596 -3.35733e-06 -1.86348e-05 -3.36954e-05 4.91917e-05 -4.67422e-05 1.44338e-05 
4.36494e-05 1.40911e-05 0.0001203 5.78138e-05 1.46882e-05 -6.00493e-05 -3.41808e-05 0.000135718 -4.19526e-05 
2.5518e-06 3.13824e-07 -2.27033e-06 0.000153152 -0.000195377 2.12212e-05 -0.00011906 -0.000122196 -6.05068e-05 
-0.000101434 2.08427e-05 9.89868e-05 -4.95688e-05 5.99809e-05 4.57401e-05 -1.05884e-05 -1.39409e-05 7.15395e-06 
-1.77967e-05 -0.000107294 2.6449e-05 -6.06448e-05 -9.98696e-06 1.93004e-05 -5.00086e-05 -1.71402e-05 -1.61262e-07 
-2.06402e-05 4.82704e-05 1.62539e-06 2.55295e-05 -1.37974e-06 -1.93192e-05 -2.69977e-06 -2.70803e-05 7.29396e-06 
-7.99888e-06 -6.56597e-05 -1.21077e-05 -9.63089e-05 -2.59051e-05 -1.10356e-05 -4.55829e-05 -1.92513e-06 9.04365e-08 
-6.6802e-06 -4.70942e-05 3.51424e-06 1.36744e-05 -7.7911e-05 3.62834e-05 -1.53893e-05 -0.000120887 2.06756e-05 
-4.71192e-05 -7.05723e-05 -2.68464e-06 2.69746e-05 7.36348e-05 -0.000103217 -7.63715e-06 2.5053e-05 -3.92568e-05 
-0.000134504 -1.27315e-05 -4.87377e-05 0.000147685 -0.000163585 -3.5028e-05 -2.61015e-05 4.63736e-05 -0.000186069 
0.000118971 -6.88036e-05 -0.000119607 -0.000134534 0.000142616 -0.000447976 -0.000198942 0.000186643 0.000206163 
-0.000255758 7.57838e-05 5.32109e-05 -7.76431e-05 1.50946e-05 -3.00501e-05 1.13999e-05 -9.35205e-06 -2.5613e-05 
-3.68411e-05 -3.4109e-06 -1.80129e-05 1.68925e-05 -1.17197e-05 -4.19605e-05 9.0414e-06 -6.18482e-06 -4.9711e-05 
-2.0608e-06 -2.14658e-05 -3.60252e-05 6.02799e-06 1.86134e-05 -1.77811e-05 2.32008e-05 -8.53742e-06 5.12961e-05 
7.36994e-06 2.86336e-05 -0.000112185 0.00036135 1.03353e-05 -7.65101e-07 1.4567e-07 -1.90709e-05 -7.60133e-06 
-3.97544e-06 -1.22389e-05 -3.93838e-06 -3.99047e-05 0.000179212 4.27499e-05 0.000426619 0.000232248 -2.05739e-05 
-6.07044e-05 -2.25634e-06 1.81899e-06 -0.000117649 3.48242e-05 0.000125813 0.000153035 9.69684e-05 1.68599e-05 
-2.82217e-05 -0.000196049 -0.000104073 -5.11813e-05 8.5526e-05 -4.25651e-05 -6.56924e-06 0.0001135 -0.000138939 
-0.000198552 -5.75269e-05 -1.72383e-06 5.37519e-06 -3.72876e-05 -2.5877e-05 -3.2707e-05 -3.05142e-05 -5.83198e-05 
2.05801e-05 -0.00210287 0.00287228 6.47914e-05 0.000201245 8.63595e-05 2.82133e-05 -5.70307e-05 1.93083e-05 
1.21529e-05 3.71381e-06 5.16602e-05 7.08088e-05 -3.85949e-05 0.00038788 -6.71923e-06 -0.000101724 -0.00011279 
4.85747e-05 -0.000278337 0.000238478 -4.81712e-05 6.95933e-05 -3.05994e-06 -3.51096e-05 -1.07567e-05 -6.17191e-06 
9.28705e-06 -3.4277e-06 -1.454e-05 -1.58138e-05 1.96531e-06 -7.45149e-06 -9.79786e-05 -0.000246865 -5.81654e-05 
-0.000101959 2.23236e-05 7.81782e-05 -2.0768e-05 3.46611e-06 1.53823e-05 -2.09828e-05 3.84297e-06 0.000186396 
6.1927e-05 7.93752e-06 -8.74223e-05 -2.50577e-05 7.73617e-05 -1.1348e-05 -1.01869e-05 7.22907e-05 -1.15357e-05 
-1.00582e-05 9.17919e-06 -1.32982e-06 3.97194e-05 9.42488e-06 7.17315e-06 -5.43928e-05 -1.34496e-05 1.74532e-06 
4.30506e-07 -7.1051e-06 2.43841e-07 -1.25793e-06 1.34328e-05 6.85411e-06 5.38579e-06 -8.40351e-06 -3.85461e-06 
6.75415e-06 -3.51865e-06 8.40161e-06 5.7267e-06 1.61561e-06 2.46922e-06 5.98785e-06 -8.29009e-07 -6.4704e-07 
-3.13789e-06 4.69269e-06 1.01284e-06 6.31634e-07 2.13362e-06 -2.8792e-06 -4.13769e-06 6.05416e-06 -0.00180433 
0.0027571 -1.6984e-06 -2.52443e-06 -1.16091e-06 4.38711e-06 -1.23399e-06 -3.53869e-06 8.57265e-05 -1.7766e-05 
-5.42776e-05 -2.50028e-05 -2.17233e-06 -1.10897e-05 -1.02474e-06 7.24502e-05 -6.7283e-05 -2.51025e-05 -3.2392e-05 
4.52601e-07 9.12572e-06 1.1109e-05 4.46478e-06 1.28874e-05 5.6285e-06 1.26926e-05 9.35311e-06 -2.8487e-06 
2.27221e-05 -0.0020145 0.00210516 8.84476e-06 6.90892e-06 5.73837e-07 1.08114e-05 1.50323e-05 2.67494e-06 
2.68306e-05 1.01492e-05 8.26102e-06 -1.65605e-07 -7.04465e-06 -7.4997e-06 8.61006e-06 1.22893e-05 2.12377e-05 
2.14302e-05 1.80093e-05 1.85868e-05 1.11353e-05 5.35937e-06 1.62284e-05 -9.43423e-06 4.08165e-07 1.16873e-05 
1.79638e-05 3.22561e-06 -1.35482e-05 6.80348e-06 3.61673e-05 -1.47257e-05 3.61173e-05 -1.48669e-05 -2.06788e-05 
-9.33955e-05 5.07115e-05 7.65297e-05 -0.00016051 7.2093e-05 -0.000210698 3.52746e-05 4.46956e-05 1.60485e-06 
5.81997e-08 4.65056e-05 3.97216e-06 1.51355e-05 3.27447e-05 -1.64906e-05 1.16176e-05 1.55817e-05 3.84842e-06 
-0.000107578 2.16185e-06 2.12996e-05 -2.3645e-05 -4.76693e-05 4.79558e-05 -2.68736e-05 4.40766e-05 1.62233e-05 
-5.26972e-05 3.03714e-05 8.6051e-06 -3.74241e-05 8.52102e-05 -1.9586e-05 4.72088e-06 1.4266e-05 -3.43906e-06 
-0.000186228 -0.000255864 5.974e-05 -6.03287e-05 4.59295e-05 3.21288e-05 -2.2551e-05 -9.68072e-05 -7.91861e-06 
-4.69339e-05 -6.90832e-06 6.13021e-05 -6.62657e-06 -1.78933e-05 4.26073e-06 -5.57178e-05 2.35862e-05 -5.24442e-06 
4.63379e-06 -6.7177e-06 7.7177e-06 2.44413e-05 -9.37332e-06 1.92876e-06 -2.81681e-06 8.49631e-06 8.32752e-06 
3.55692e-06 -5.90767e-06 -0.00253052 0.00173917 -1.82296e-05 -8.67899e-07 -4.60524e-06 -7.87507e-06 1.31135e-06 
1.37232e-05 -2.97073e-06 1.14448e-05 1.45712e-06 8.71955e-06 2.10035e-05 -5.54166e-06 7.0142e-06 -4.33486e-05 
-7.15383e-06 1.77933e-05 -4.66428e-05 6.42923e-05 3.22154e-05 -4.177e-05 -8.66685e-06 5.31947e-06 7.37037e-05 
-3.61427e-05 -6.70156e-05 9.36356e-05 9.54887e-05 -1.28521e-05 -2.01959e-06 6.88248e-07 -3.04118e-05 5.39959e-05 
0.000281504 0.000129941 6.68832e-05 -3.51051e-05 -2.67304e-05 -5.49556e-06 -0.000134164 -0.000134255 -4.00094e-05 
2.98839e-06 -4.55352e-05 -2.15015e-05 2.79525e-05 1.52608e-05 -3.50459e-05 -5.02394e-05 1.63862e-05 -1.12855e-05 
-2.24304e-05 -3.10567e-06 7.53836e-05 -0.000145791 2.74372e-06 -1.0373e-05 -1.26604e-05 -7.8282e-05 -1.97198e-05 
-1.65696e-05 0.000158119 -6.40152e-05 2.82048e-05 1.72921e-07 -7.43173e-05 6.59377e-05 -4.43581e-05 6.17635e-06 
2.72201e-06 -4.0918e-05 -6.95119e-05 0.000123386 0.000142249 -2.21838e-05 -2.58989e-05 8.59293e-06 -8.67887e-05 
-8.83804e-06 -3.09662e-05 2.46724e-05 -2.0432e-05 7.86892e-05 1.95279e-05 -2.68603e-05 8.97226e-06 4.7292e-05 
-7.45372e-05 4.37418e-05 -5.77167e-05 -2.48455e-06 7.78435e-05 2.37584e-05 3.54116e-06 1.14514e-05 -3.03721e-06 
3.96978e-05 2.29648e-05 6.10067e-05 1.6387e-05 -5.13951e-05 5.16837e-05 -6.17341e-05 8.25942e-05 1.1691e-05 
4.8361e-05 1.90581e-06 6.80957e-05 3.19216e-05 -1.64342e-06 7.6177e-05 2.2309e-05 -0.000102417 6.68053e-05 
-1.61065e-05 -0.000117142 -2.00442e-05 -7.19115e-05 -5.98636e-05 -2.34743e-05 -6.14178e-06 4.32528e-05 -4.66136e-05 
-1.26553e-05 -1.04966e-05 2.56369e-05 1.92662e-05 0.000126299 -0.000154701 1.89039e-05 2.53912e-05 -8.2509e-06 
-1.00463e-05 1.01614e-05 -0.00249277 0.00193108 1.69268e-05 3.20665e-06 -9.92161e-07 -1.85888e-06 1.59237e-05 
3.06872e-06 -1.06766e-05 1.44594e-05 -1.9132e-05 -3.45904e-06 -3.04546e-06 2.88395e-06 8.6579e-07 6.74741e-07 
2.46589e-06 -6.96459e-06 2.11659e-05 -4.87424e-05 3.6872e-05 8.3098e-06 1.49394e-05 9.76351e-06 -7.198e-06 
-1.20417e-05 -1.38922e-05 -0.002374 0.00194078 4.13052e-05 -3.96973e-05 -1.58307e-05 3.8466e-06 1.04907e-05 
-1.20133e-05 -3.16469e-05 5.07623e-05 4.12687e-06 -0.00202743 0.00261473 2.61969e-05 -1.50769e-05 -3.05648e-05 
2.61267e-05 1.95144e-05 -5.9883e-05 -7.02181e-05 1.9533e-05 -4.19523e-05 6.18305e-05 9.55542e-05 6.74057e-05 
1.2742e-05 -1.37467e-05 -7.63498e-06 3.07346e-05 4.17652e-05 0.000162429 8.95457e-06 3.32716e-05 -6.37603e-07 
1.57828e-05 -7.33862e-05 2.44851e-05 -5.76872e-05 -2.75531e-05 -2.73067e-05 -3.30292e-05 0.000119191 -3.99979e-07 
3.20089e-05 -2.62926e-05 -0.000185425 4.80574e-05 3.43288e-05 -2.21008e-05 -0.00215523 0.00153894 9.53417e-07 
1.68833e-05 -0.00218985 0.00157648 -2.58062e-05 -2.24636e-05 1.15631e-05 2.10931e-05 1.03862e-05 1.88012e-05 
2.1145e-05 -2.19833e-05 4.6851e-05 6.40033e-05 5.69875e-05 -3.63449e-05 3.41751e-05 4.52862e-05 4.19763e-05 
8.9956e-05 -5.75353e-05 -1.5408e-05 -2.26029e-05 4.38463e-05 -1.24148e-05 -4.01894e-06 9.30889e-06 -1.6966e-05 
-0.000102469 4.07516e-05 -4.21295e-05 -1.16563e-05 -8.40158e-05 3.57632e-05 -0.00155402 0.00227839 3.12889e-05 
3.07807e-05 1.33852e-06 1.30763e-05 5.86765e-06 -1.81552e-05 -5.96079e-05 1.34808e-05 3.25005e-05 -0.000171805 
-3.46633e-05 2.07243e-06 1.56255e-06 -3.17385e-05 -6.761e-05 2.1118e-05 -0.00128706 0.00243168 3.08866e-05 
-3.04824e-05 6.6112e-06 -0.00183662 -0.0016292 3.57811e-05 7.68557e-06 -1.00634e-05 3.4618e-05 5.24303e-06 
-3.41265e-05 -1.08696e-05 1.86113e-05 0.00068021 1.13594e-05 -3.71296e-06 7.58475e-05 -8.12891e-05 1.67567e-05 
-3.14551e-06 -6.95983e-06 -1.45478e-05 -6.53651e-06 2.03806e-05 3.51507e-05 -9.50277e-07 -2.93999e-05 -2.16163e-05 
4.50768e-06 1.0546e-05 -1.98926e-05 -2.24537e-05 -1.05591e-05 3.52471e-07 -3.06971e-05 -3.6611e-05 1.85259e-05 
-4.20388e-06 1.24988e-05 1.49938e-05 -1.16139e-06 2.67227e-05 5.81843e-06 -1.76514e-05 -6.34988e-06 3.85579e-05 
4.80318e-05 4.94751e-06 -2.15683e-06 -1.62928e-05 -8.68015e-05 6.43132e-06 -3.14773e-05 -9.81884e-05 2.95595e-05 
1.86576e-05 2.7469e-05 2.5587e-05 -1.41948e-05 0.000116725 1.94842e-05 4.87115e-05 -5.97774e-06 -8.06881e-06 
-5.1862e-05 6.64022e-06 8.9639e-05 -2.15185e-05 -3.57516e-06 2.10862e-05 -1.43779e-05 -1.08896e-06 4.82963e-05 
-1.07265e-05 -2.14764e-05 9.17415e-05 1.07445e-06 3.30928e-05 2.33194e-05 -1.25201e-05 -4.18308e-05 -1.02958e-06 
-3.71581e-05 -2.6709e-05 -8.32378e-06 -1.21462e-05 1.19659e-06 -3.36676e-05 4.82513e-06 9.02488e-05 -5.72988e-06 
1.18913e-05 3.51624e-06 5.09079e-06 -7.53347e-07 -6.71561e-06 -1.42564e-06 1.53033e-06 -2.23973e-06 1.13529e-06 
-1.78069e-06 -1.07973e-06 -7.77824e-06 -6.67638e-06 -1.10752e-06 -1.0031e-06 4.29842e-06 4.02423e-06 3.44438e-06 
-4.71263e-06 5.54757e-06 -3.54954e-06 -8.53042e-06 9.00903e-07 -3.788e-06 -9.72814e-06 4.50951e-06 3.06864e-07 
3.44948e-06 -5.84726e-07 -1.00752e-06 7.44643e-07 3.57832e-06 1.17518e-06 -9.25232e-07 -1.67654e-06 4.04263e-06 
4.57819e-06 1.50973e-06 2.12308e-06 -1.2947e-06 -4.01658e-07 -2.7575e-06 1.32886e-07 -3.65975e-06 1.40957e-06 
4.48133e-06 -4.54982e-07 2.08701e-06 4.11977e-06 -2.28254e-06 -4.6373e-07 -1.70673e-06 1.15379e-07 8.62552e-07 
-2.18114e-07 -2.17918e-06 -9.37464e-07 -5.30423e-08 6.57346e-07 -3.62262e-06 -1.01289e-06 2.01428e-06 1.40695e-06 
-0.00492109 -0.00196365 -0.0243334 -8.12436e-05 -0.000127771 -0.00205746 -9.75357e-06 0.000174148 -0.000125365 
5.76403e-05 7.18772e-05 -5.47216e-05 4.33847e-05 -2.72067e-05 2.42618e-05 -3.08814e-05 -6.00059e-06 -1.18837e-05 
-8.75149e-06 2.00617e-05 1.28419e-05 8.2946e-06 1.56158e-05 7.89037e-06 1.12069e-05 -1.96079e-06 1.26567e-05 
1.13634e-05 3.74709e-06 2.10512e-06 3.01968e-06 2.55947e-06 -2.89114e-07 9.38908e-06 1.05659e-05 -1.11342e-06 
4.29275e-06 -4.19823e-06 2.41983e-06 -1.51752e-06 7.84049e-06 3.69292e-06 1.53969e-05 5.01625e-06 1.07542e-05 
-3.71665e-06 -6.86194e-06 -5.35e-07 -1.78615e-06 -1.57375e-05 4.24046e-06 9.62825e-06 1.18565e-05 3.17976e-06 
2.64776e-06 -2.74785e-06 3.484e-06 -1.68889e-05 -1.76815e-05 -1.1687e-05 -3.36813e-05 -2.57844e-05 1.46736e-06 
-2.46386e-06 -2.60516e-05 1.89387e-06 -4.74641e-05 -4.09975e-05 -7.12099e-06 -4.37188e-05 -2.24155e-05 1.38002e-05 
2.94646e-05 4.64459e-05 -1.91611e-06 -5.26909e-05 -2.1736e-05 2.10161e-05 -2.33417e-05 -1.34804e-05 1.0439e-05 
1.95358e-05 3.22769e-05 -9.19123e-06 2.85335e-05 2.31963e-05 -4.37325e-06 9.86858e-06 9.39697e-06 -2.21574e-06 
4.88845e-07 -7.28123e-06 1.39619e-06 1.74862e-05 1.17727e-05 7.54167e-06 1.95475e-05 1.51544e-05 -9.3703e-07 
6.47326e-06 -6.72634e-07 -1.59227e-06 5.33882e-06 1.2779e-05 -1.59851e-07 0.0116934 -1.8835e-06 -2.47318e-06 
-7.57648e-07 -1.3324e-06 -4.32535e-07 -6.58057e-08 -1.58633e-06 -1.56068e-06 -9.51254e-07 -2.53167e-06 1.82928e-07 
-1.86721e-06 1.27851e-06 -5.50333e-07 3.95383e-06 9.19249e-06 8.48924e-06 2.10781e-05 -9.45938e-06 -1.32377e-05 
3.48936e-05 -9.35601e-06 -2.06659e-05 1.94946e-05 2.80197e-06 -2.41002e-05 9.76673e-06 -2.73791e-06 -1.25074e-06 
-2.009e-05 -3.52218e-06 2.90187e-05 -1.60266e-05 -1.27942e-06 8.44019e-05 1.10928e-05 -3.9352e-05 3.76375e-05 
1.45953e-05 -5.33142e-05 -8.8656e-06 1.26194e-05 -3.7384e-05 9.88513e-06 3.38982e-05 -4.17127e-05 0.000415211 
4.79254e-05 -0.000166747 -0.000707444 0.000689496 -0.0180489 -0.00558271 -0.00182967 0.012377 0.00816972 
-0.00105319 0.0211006 0.0178459 -0.0226442 0.0131621 0.0121214 -0.0222776 0.0244442 0.0257559 
-0.0139046 0.0244352 0.0255371 -0.0100743 0.0287176 0.0303744 -0.0125138 0.0132662 0.0130806 
-0.0163167 0.0271754 0.0271158 -0.0150743 0.0258004 0.0258306 -0.00971843 0.0269101 0.0267781 
-0.00945908 0.0135403 0.0127238 -0.0157395 0.0265089 0.0274035 -0.0158745 0.0246001 0.025333 
-0.0101698 0.0230489 0.0256905 -0.012554 0.0258305 0.0282428 -0.0100687 0.0297421 0.0241706 
-0.0129471 0.0291677 0.0254001 -0.0101345 0.0295756 0.0286364 -0.0132346 0.0316186 0.0328269 
-0.0137441 0.0161826 0.0146542 -0.0210002 0.0120078 0.00263458 0.00182787 0.00225003 0.00103045 
0.00342305 0.00279194 -0.000666084 0.0037073 0.00294348 -0.00094037 0.00313535 0.00317155 -0.000968619 
0.0028064 0.00319785 -0.00127905 0.00354996 0.0043869 -0.00150408 0.00336471 0.00453162 -0.00185272 
0.00328916 0.00517514 -0.00183213 0.00422622 0.00442823 -0.00178047 0.00350027 0.00479838 -0.00198546 
0.00476308 0.00693213 -0.00193157 0.00679028 0.00946747 -0.00192037 0.0124988 0.000128589 3.62468e-05 
-0.0198938 -0.00927831 -0.0058326 0.00128645 -0.00545854 -0.00604371 0.000394109 -0.00124336 -0.00355894 
0.00238559 -0.00655049 -0.00311703 0.00195233 -0.00313303 -0.00543474 0.00175652 -0.0037155 -0.00509905 
0.00170815 -0.00467445 -0.00559084 0.00178836 -0.00395023 -0.00535479 0.00161765 -0.00383466 -0.0052181 
0.00169727 -0.00426428 -0.00551091 0.00167129 -0.004644 -0.00539567 0.00155037 -0.00126385 -0.00243212 
0.00314828 -0.0028415 -0.0019068 0.00124409 -0.00962454 -0.00218651 -0.00143278 0.0194441 0.0216263 
-1.69838e-05 -9.72649e-07 5.1677e-06 8.66754e-06 -6.57014e-06 3.08777e-06 2.06627e-05 -0.00038734 0.0232068 
0.000335965 0.0198888 -0.0129555 0.00894438 -0.00488932 0.0131495 -0.00400966 -0.0160904 0.0125501 
0.00100325 0.0149464 -0.0101806 -0.000221148 0.000599388 -0.00098081 -7.19761e-06 -0.0212445 -4.72217e-06 
1.09731e-06 6.53875e-06 -4.14946e-06 -3.15172e-06 -3.78242e-06 -1.76351e-07 -2.8899e-06 -2.59867e-06 -1.20619e-06 
-9.08742e-07 -1.76152e-06 -4.40118e-06 3.03231e-06 -1.04714e-06 -2.68882e-07 -4.07955e-06 -1.66425e-06 -2.98477e-06 
2.48688e-06 -2.25519e-06 1.16139e-07 1.58697e-07 -1.17409e-06 1.53059e-06 1.1807e-06 2.48679e-07 -1.0489e-06 
-2.63366e-06 8.23248e-07 2.32062e-06 1.96336e-07 7.46971e-07 3.57856e-07 -1.28937e-06 2.00477e-06 -3.71673e-07 
2.17596e-06 -3.13748e-07 9.69998e-07 -6.042e-07 1.43595e-06 1.78149e-06 -2.58374e-06 1.32033e-06 5.28623e-08 
7.35076e-07 -6.58427e-07 -1.71287e-07 1.55e-07 8.19299e-07 1.09739e-06 5.28442e-07 -7.38976e-07 -1.17514e-06 
1.54374e-07 -1.43722e-05 7.90847e-06 3.1116e-05 5.18635e-05 -5.57409e-05 0.000183421 -2.58935e-05 7.00411e-06 
-0.00299506 -0.0026357 -0.000137165 9.81032e-05 -1.60211e-05 9.30101e-06 3.20296e-05 -2.44734e-05 8.97094e-06 
-4.49415e-05 -8.63504e-07 -2.04393e-05 -1.96036e-05 -2.4716e-06 -2.03055e-05 2.28539e-05 -8.50838e-06 1.54612e-05 
2.29033e-05 6.64045e-06 4.046e-07 1.81902e-05 7.95516e-06 9.74569e-07 -3.79506e-06 2.21078e-06 4.86232e-07 
1.14507e-05 4.91382e-06 9.11623e-06 1.1212e-05 1.69113e-05 1.21291e-06 7.36865e-07 1.22951e-05 -2.66118e-06 
9.17393e-06 -1.02154e-05 2.15433e-05 3.99133e-06 1.93413e-05 3.28854e-06 -3.61565e-06 1.57267e-05 5.01072e-06 
2.26211e-06 4.94966e-06 -4.41174e-07 -6.99238e-06 -2.88453e-07 8.06323e-06 -1.74258e-05 -6.88717e-06 1.00459e-05 
-3.10039e-05 -9.78072e-06 3.27668e-06 -9.8164e-06 -2.55278e-05 -1.53607e-05 1.2693e-05 2.88503e-05 -1.12719e-05 
2.45203e-06 8.32481e-05 1.64688e-05 3.88365e-05 -6.68849e-06 -1.60469e-05 1.99028e-05 -1.28212e-06 -1.62326e-05 
-3.42345e-05 8.20858e-06 1.95003e-05 -1.56118e-05 -1.91612e-06 3.6926e-05 -5.60468e-06 -1.88496e-05 -5.75053e-06 
1.03538e-06 1.91178e-05 -2.01735e-06 6.80261e-06 2.16449e-05 2.37597e-06 -6.47035e-07 1.40249e-05 5.15317e-06 
1.52144e-05 -1.37094e-05 3.66855e-06 2.87035e-07 5.56454e-06 7.59222e-06 4.20657e-06 -0.00038644 0.000387628 
5.75367e-08 -2.3344e-06 -1.05124e-05 -8.21488e-07 -4.22984e-06 -1.41928e-06 1.16202e-06 0.00345948 -0.00236219 
-4.4676e-06 1.52814e-05 -0.000179888 0.000428826 2.40286e-06 1.87754e-05 -9.35409e-06 -1.0073e-05 -3.95226e-05 
7.74357e-06 -2.08399e-06 1.00274e-05 -7.98161e-06 7.37562e-05 -4.12588e-06 -5.66228e-05 3.19097e-05 -1.85465e-05 
-2.80653e-05 5.16669e-05 -2.18949e-05 -5.4428e-05 -1.46453e-05 -1.26574e-05 -3.18044e-05 -7.71275e-05 3.46405e-05 
-5.76835e-07 -3.76062e-05 0.000134877 3.13516e-05 -8.28311e-05 0.00126774 -0.00201551 -0.00121695 0.00411391 
-0.00256394 -0.0106708 -0.00209328 -0.00106848 -0.00201228 -0.000841365 0.000846316 -0.00212169 -0.0052286 
0.000858561 -0.00292896 -0.00339369 0.000484827 -0.00277883 -0.00201315 0.000207219 -0.000649569 -0.00187795 
0.000858292 -0.00176519 -0.000751916 0.000892407 -0.00282791 -0.00286574 0.00074073 -0.00299894 -0.00186984 
0.000183323 -0.00126603 -0.00194074 0.000796871 -0.00257419 -0.0039118 0.000729165 -0.0014818 -0.00172264 
0.000798345 -0.00278912 -0.0027596 0.00106046 -0.00217788 -0.00154359 0.00119559 -0.00521731 -0.00289642 
0.000859937 -0.00359671 -0.00503257 0.000505669 -0.00308404 -0.00675397 0.00033237 -0.000166167 -0.00482107 
0.00300383 -0.000428797 -0.000819159 0.00084414 0.0035804 -0.000716072 -0.000538483 -0.000769277 -0.000383421 
6.43016e-05 -0.00066147 -0.000411993 0.000123482 -0.000601804 -0.000615931 8.5492e-05 -0.00060986 -0.000688139 
8.01099e-05 -0.000581283 -0.000902317 6.3862e-05 -0.000652179 -0.000818499 0.000143426 -0.000551049 -0.00092579 
0.000135082 -0.000584911 -0.00125263 0.000114376 -0.000651644 -0.00144144 1.43903e-05 -0.000566797 -0.000738402 
-0.000156935 4.79097e-05 -0.000220666 0.000276285 0.00211025 0.000244227 -0.0046368 0.000223164 0.001064 
0.000109692 0.000472519 0.000615421 0.000821734 0.000459445 0.000620531 -7.53332e-06 0.000287886 0.000601661 
-9.502e-05 0.000303711 0.000547559 -0.000181104 0.000293248 0.000596973 -0.00018683 0.000253241 0.000612509 
-0.000169993 0.000311581 0.00058768 -0.000199737 0.00131049 0.00105937 -4.31812e-05 0.00143977 0.000995338 
8.13095e-05 0.000500121 0.00117243 0.000825181 -1.38289e-07 1.67199e-07 1.16706e-06 1.67713e-06 9.36199e-05 
-0.000628341 -0.000198399 0.000512177 -3.89243e-05 0.000161163 -0.00036533 0.000694225 -0.000166166 8.76609e-06 
1.00193e-05 -0.000219971 -1.60957e-06 -1.23684e-05 -0.000332183 -0.00286241 -0.000587081 0.00115163 -0.000399934 
3.23131e-06 2.60468e-06 -2.52935e-07 -4.01396e-06 4.85447e-07 -3.10923e-06 1.35706e-07 -0.00125277 -0.000983447 
2.35486e-05 0.00108877 0.00503663 -0.00124036 0.00120499 -0.00046512 -0.00377722 -0.00167321 -0.00515649 
0.000804188 -0.000237229 -0.00021072 3.49138e-05 -0.00113241 -0.000218165 0.000349026 -6.31699e-06 3.99072e-06 
3.15102e-05 -4.6879e-07 -5.98356e-07 2.09806e-06 -2.42801e-06 -2.99128e-06 5.89742e-07 6.34771e-07 7.55843e-07 
-7.76553e-07 -4.79699e-06 6.43483e-06 -6.53735e-07 -8.03074e-07 -4.27049e-07 4.11624e-07 9.83405e-07 3.35226e-06 
1.87822e-06 6.88935e-07 -2.06991e-06 -6.46034e-07 7.66853e-08 -3.77411e-06 -1.15482e-06 7.9498e-07 1.06919e-06 
2.98699e-07 -1.50853e-06 1.37522e-06 -1.3628e-06 1.08508e-06 -4.6869e-07 1.87187e-07 1.05389e-06 1.39917e-06 
-6.62418e-08 8.81716e-07 -1.85235e-06 -2.04249e-06 -5.65679e-07 1.67245e-06 -3.65418e-05 -7.864e-05 -7.19991e-06 
9.67875e-07 3.8114e-06 -2.85516e-06 -7.04548e-06 -0.000347178 0.000229736 -1.61443e-05 -2.34953e-05 -4.88869e-05 
-0.000189213 -0.000318694 0.000113514 2.50479e-05 4.0035e-05 1.25121e-05 2.73116e-05 -1.75473e-05 2.95094e-05 
5.57584e-06 4.36757e-06 2.13997e-05 1.56723e-05 -2.58002e-06 2.5342e-05 1.43373e-05 1.55587e-06 1.15339e-05 
2.12227e-05 7.79909e-06 1.00526e-05 1.00729e-05 -2.84495e-06 7.55054e-06 1.41056e-05 3.4769e-07 2.0083e-05 
7.14362e-06 5.4158e-06 4.80167e-06 1.76479e-05 2.54483e-05 -6.60411e-06 5.061e-06 6.50517e-06 -5.08445e-06 
7.79847e-06 6.76056e-08 -2.00676e-05 -4.85189e-06 1.7533e-05 -2.53537e-05 9.80404e-07 3.20259e-05 -9.79847e-06 
-9.71303e-06 1.42946e-05 -1.91453e-05 7.49788e-08 -1.015e-05 -8.39946e-05 -3.26655e-05 -4.73155e-05 7.05797e-05 
-1.48172e-05 -4.88333e-05 4.74869e-06 -9.55271e-05 4.72115e-05 -8.43225e-07 1.35439e-05 7.01096e-05 2.57939e-05 
1.33681e-05 5.15027e-05 3.11491e-06 1.19039e-05 5.49221e-05 1.32848e-05 3.34689e-05 6.17887e-05 -2.35919e-06 
2.19317e-05 2.19485e-05 1.45717e-06 2.00736e-05 1.07133e-05 -5.54732e-06 1.76805e-05 -1.45364e-07 3.58492e-06 
1.05451e-05 -4.49811e-06 3.76776e-05 -8.79938e-06 -2.14645e-05 1.47119e-06 2.37435e-06 -4.16136e-06 -0.000160832 
0.000306761 4.2338e-05 -1.64169e-05 2.28764e-05 4.50459e-05 -3.78684e-05 5.99257e-05 1.30004e-05 -7.36066e-05 
1.31264e-05 -1.73701e-05 -3.692e-05 -1.24164e-05 -3.03055e-05 2.78739e-05 -0.000516546 0.000337732 2.51068e-06 
-7.00373e-07 3.82491e-07 -2.45207e-06 4.64594e-05 9.79804e-05 -3.76903e-05 -8.93032e-05 7.88407e-06 -1.19502e-05 
6.0482e-05 5.45688e-05 0.000124009 4.83814e-05 -4.11727e-05 -1.70041e-05 -4.46571e-06 -5.1512e-05 -7.43138e-05 
6.1888e-05 -1.70088e-05 8.5123e-06 7.69385e-05 5.79023e-05 2.43899e-05 6.58259e-06 7.84246e-05 4.36746e-05 
6.45267e-05 8.76792e-05 2.06548e-05 6.31112e-05 1.88397e-05 0.000103386 6.17984e-05 -1.84768e-05 7.95995e-05 
7.34748e-05 -0.000103695 6.31561e-05 6.19212e-05 5.72305e-05 4.06205e-05 -0.000210161 4.48514e-05 -0.0016369 
0.000214908 7.6283e-06 -8.06322e-05 6.52495e-05 -7.51041e-05 3.8924e-05 3.69171e-05 -5.34628e-05 2.2925e-05 
3.36996e-05 -2.56843e-05 7.39672e-06 9.1438e-07 -4.89896e-05 -1.33565e-05 2.61103e-06 -4.68249e-05 -2.21877e-06 
6.95517e-06 -9.22281e-05 2.71842e-05 -3.82384e-05 -6.10164e-05 -6.70277e-05 -3.58511e-06 0.000154891 -0.000137096 
8.79821e-05 -4.76032e-05 1.16194e-05 0.000127311 -0.000257338 -8.05015e-05 -3.24761e-05 1.32991e-05 -1.49812e-05 
2.64484e-05 -3.66582e-06 -1.79498e-05 9.61227e-06 -5.17186e-05 -1.19078e-05 1.39188e-05 -9.99098e-05 1.79742e-05 
-2.04207e-05 -9.64864e-05 7.87324e-05 4.08116e-05 0.000321832 0.000239118 -4.32728e-05 0.000287775 0.000136191 
0.000188001 -0.000821355 -0.000344126 -5.12188e-06 -1.20357e-05 -0.000125975 -2.36202e-05 -7.07182e-05 -0.00013453 
1.0501e-05 -3.69763e-05 0.00021117 0.00041841 3.10071e-05 -0.000168258 4.41619e-05 -0.000134902 1.68589e-05 
-1.09616e-05 -6.52382e-05 -8.7119e-05 6.18223e-05 0.000131343 8.97167e-05 9.92673e-05 0.000414588 -7.18468e-05 
-0.00015801 -4.50847e-05 -4.20141e-05 3.98728e-06 -1.43635e-05 -2.10746e-05 9.34481e-07 5.40716e-06 -5.18539e-06 
0.000553658 -1.44633e-05 1.14494e-05 7.54351e-06 -2.64771e-05 1.36024e-06 -0.000132435 -7.71314e-05 -0.000154148 
-1.03171e-06 -2.70866e-06 -3.28954e-06 -1.25952e-07 0.000799419 -0.000327809 -1.62205e-06 3.9994e-06 4.09538e-06 
-5.60143e-06 -0.000522709 -0.000177876 0.000123534 -0.000129711 5.96364e-05 -8.68566e-06 -1.06564e-06 -2.8194e-05 
2.10574e-05 3.37488e-05 -4.10944e-05 -0.000198153 3.84787e-05 5.4234e-05 -3.95406e-05 -0.000101962 -8.53849e-05 
0.000276448 0.000110905 -0.000105945 6.15303e-05 -0.000552436 -0.000262372 -0.000297509 4.79822e-05 -7.73678e-05 
2.56735e-05 1.56878e-05 2.00875e-05 7.32967e-05 -3.36168e-06 0.000600885 -0.000461647 -0.0001701 -0.000238972 
-0.000112201 -3.77968e-05 -6.49172e-05 -2.43955e-06 9.34792e-07 0.000225291 0.000269284 -3.99222e-05 -6.77406e-05 
-1.88963e-05 -0.000317342 -0.000232117 2.90498e-05 -3.13996e-05 -0.000386307 2.76724e-05 6.50473e-05 -0.000151619 
7.39125e-05 -3.25132e-06 3.11503e-06 -1.6885e-06 -9.28396e-08 4.27595e-06 -3.64617e-06 -5.36159e-06 1.98988e-06 
-3.54279e-06 -4.35276e-07 -2.26657e-06 -5.46713e-08 -2.3914e-06 -2.37795e-07 1.38829e-06 -1.59311e-06 -5.45553e-07 
5.33227e-07 -9.71347e-07 -9.56397e-07 2.97292e-06 -6.98161e-07 1.48037e-06 6.20226e-07 7.05313e-06 -1.01857e-05 
-1.18217e-05 -8.83293e-05 -9.42788e-05 2.04964e-05 1.36427e-05 1.42515e-05 1.71665e-05 -5.06811e-06 1.69411e-05 
1.87655e-05 -6.49308e-06 2.49372e-05 9.9087e-06 -4.55968e-06 1.22594e-05 1.91674e-05 -9.55067e-07 1.00147e-05 
4.40964e-06 6.72175e-06 5.93083e-06 5.90109e-06 -6.10502e-07 5.20997e-06 1.2842e-05 -1.07196e-06 8.85097e-06 
2.41575e-06 1.9222e-05 -1.44703e-05 3.1705e-06 5.74449e-06 -3.31119e-05 -1.04466e-05 4.11892e-06 -1.29052e-05 
1.83489e-07 -3.55361e-06 -6.37601e-05 -3.33719e-05 2.60429e-05 1.39253e-05 -0.000106471 -0.000150144 -6.91795e-05 
6.23482e-06 6.37119e-05 1.95367e-05 -2.89236e-05 0.000162341 -7.91922e-05 -3.97089e-06 -7.21997e-05 -2.49375e-05 
1.24564e-05 2.18328e-06 6.23379e-07 1.0224e-05 9.38184e-06 2.18566e-05 1.3654e-05 3.77179e-06 1.22629e-06 
1.41809e-05 -2.69195e-05 0.000287177 -0.000120133 2.80651e-05 -1.06293e-05 -1.30065e-05 -1.10705e-05 3.66258e-06 
1.41554e-05 7.58017e-06 -3.61475e-06 -5.00136e-06 5.17434e-05 4.1807e-05 8.60909e-05 3.29158e-05 0.000514429 
-2.70165e-05 -2.18133e-05 -4.84386e-05 1.34188e-05 9.72736e-06 -9.16906e-05 1.5336e-05 3.71935e-05 5.95541e-05 
-6.97884e-05 -6.09241e-05 -9.11543e-06 -5.76673e-06 4.26448e-06 -4.39752e-06 -2.79394e-06 -8.99168e-05 6.55543e-05 
1.53515e-05 6.35168e-05 -5.8397e-07 2.07821e-05 2.1092e-06 -6.23113e-06 -1.19412e-05 2.72141e-05 -1.3159e-06 
9.44085e-06 6.25736e-06 1.70506e-05 1.68109e-05 1.72005e-05 -5.39344e-06 1.13789e-05 1.28433e-05 4.24502e-06 
1.92562e-05 7.73587e-06 5.58193e-06 2.24171e-05 1.04153e-05 5.79646e-05 3.77697e-06 -4.36178e-06 -3.05289e-05 
1.23257e-05 3.19371e-05 6.78406e-05 -9.51329e-05 0.00024939 4.24478e-06 -5.91989e-05 3.25291e-05 3.45573e-05 
1.61427e-05 -3.17175e-05 1.15962e-05 1.9668e-05 -2.31562e-05 3.16438e-06 1.63683e-05 4.19349e-05 2.71441e-05 
1.84647e-05 -4.88418e-05 -5.5273e-05 7.15265e-06 -8.13949e-05 2.7065e-05 1.95977e-05 -6.02613e-05 5.60696e-05 
9.22584e-05 2.24524e-05 -4.73602e-05 -9.93645e-06 4.87068e-05 4.24504e-05 -3.35801e-05 1.14721e-05 6.646e-05 
-6.15715e-05 1.91461e-05 -5.14139e-05 -6.62142e-05 -2.8166e-05 0.000143803 5.93375e-05 6.13619e-05 8.22098e-05 
8.48051e-05 -0.000309738 -0.000628949 3.50162e-05 9.7855e-06 -3.37562e-05 7.53764e-06 -1.44218e-05 -1.80689e-05 
-5.20981e-05 1.37178e-06 -4.42856e-06 -4.40846e-06 8.12227e-06 9.20732e-05 6.58944e-08 -4.07018e-05 -4.97206e-06 
-1.95716e-06 2.87695e-06 1.99135e-06 -1.25259e-06 -0.00017594 7.5046e-05 -0.000186935 -0.000137923 -1.82005e-05 
-3.57989e-06 -0.000102584 -6.87117e-05 -2.18843e-06 0.00010481 -1.93164e-05 1.34438e-05 6.68979e-05 -8.37541e-06 
-3.49202e-05 9.99919e-05 0.000135851 4.71789e-05 1.06039e-05 -7.17465e-06 -7.15965e-05 -0.000226836 -0.000128001 
-1.9885e-05 -0.000184299 1.79034e-05 -1.49081e-05 1.71615e-06 1.18791e-05 4.4553e-05 -1.98626e-05 -9.39243e-05 
4.38432e-06 -0.000100855 0.000154824 -8.54465e-05 5.69125e-05 -2.0215e-06 -1.30683e-06 -3.44747e-05 -6.63306e-05 
-0.000154376 -3.21537e-05 -9.78281e-05 0.000254191 2.51181e-05 5.09656e-06 1.1201e-05 5.76449e-05 5.20952e-06 
-1.92013e-05 5.23416e-05 -1.47793e-06 2.47826e-06 -7.97211e-06 -5.04798e-05 0.000147407 8.06762e-05 -4.01987e-06 
1.81776e-05 -4.91098e-05 4.54497e-05 -3.51243e-06 -5.74576e-05 -7.7579e-05 6.70403e-05 7.21676e-05 2.20272e-05 
-0.000295976 0.000276693 0.000100648 -7.50024e-05 6.30473e-05 -2.97825e-05 0.000190586 1.82544e-05 -1.41538e-05 
3.11136e-06 -2.13282e-05 2.43038e-05 -0.000154952 -0.000248612 -8.40676e-05 -3.2387e-05 -1.61501e-05 3.81137e-05 
2.70142e-05 -3.18674e-05 9.84731e-05 2.13038e-05 8.70246e-07 3.46947e-05 4.00134e-05 -4.81465e-05 2.79058e-05 
1.43938e-06 -0.000101102 8.04167e-06 -5.76399e-06 4.47398e-06 2.45638e-06 -4.14734e-07 9.15346e-07 1.94377e-06 
2.81555e-05 1.05263e-05 1.87892e-05 1.35947e-05 1.64894e-05 -1.55997e-06 -1.04837e-05 5.22981e-05 -1.63753e-05 
3.98795e-05 7.50417e-06 -4.55192e-07 1.82883e-05 1.48672e-05 -7.38325e-06 -6.15508e-06 7.77912e-06 4.46686e-07 
-5.57552e-06 -1.08241e-06 8.14623e-06 -2.01655e-05 -9.55502e-07 -4.27941e-06 -2.352e-06 1.75187e-05 2.13148e-05 
1.24506e-05 2.4721e-05 1.38243e-05 6.47017e-07 -1.8696e-05 3.1726e-06 -4.13895e-06 -3.21039e-05 -2.52747e-05 
4.47875e-05 1.67708e-05 2.19766e-05 4.65378e-06 -4.29291e-06 -2.1513e-05 0.000109354 2.83894e-05 3.39455e-05 
0.000149322 4.37131e-05 -2.92234e-05 -1.27543e-05 5.22528e-05 2.07315e-05 6.58929e-06 2.14164e-05 1.9929e-05 
-3.00454e-05 -6.00609e-05 9.83791e-05 4.96908e-06 1.309e-05 1.4281e-05 2.71355e-05 -2.98526e-05 5.82962e-05 
-1.89156e-05 -3.77714e-05 -5.66883e-06 1.82579e-06 -1.35409e-05 -2.02552e-06 -1.71538e-05 -6.70268e-05 -5.56782e-05 
-2.56547e-05 -5.1328e-05 1.47125e-05 -4.70388e-06 3.24005e-05 2.83988e-05 -2.81767e-05 -2.70302e-05 7.8652e-05 
-0.000101996 -3.99348e-05 2.4281e-05 -1.33051e-05 1.53324e-05 -8.47078e-06 1.15951e-05 -1.16905e-05 7.18857e-06 
3.57213e-06 1.28847e-05 1.00867e-05 -3.26998e-06 -6.32712e-06 -2.38526e-05 6.49417e-06 -8.61727e-06 4.43255e-06 
2.4419e-05 -1.72759e-05 6.23965e-05 1.99664e-06 2.58829e-05 1.29885e-05 6.22024e-05 7.2925e-05 -0.000139217 
0.000112646 1.47508e-06 -1.98513e-05 7.51728e-05 3.96255e-06 -5.88461e-06 -5.78862e-06 9.52932e-06 -3.7221e-06 
2.11984e-06 8.32981e-06 -5.50363e-06 -6.58517e-05 -5.82029e-05 -2.66007e-05 3.47209e-06 -3.91195e-05 8.62763e-05 
-9.53193e-06 -1.46972e-05 4.65469e-05 -6.3406e-05 -5.21136e-05 3.86958e-05 -1.34646e-05 2.23616e-05 8.7931e-05 
4.90593e-05 -7.31067e-06 4.17578e-05 -0.000142106 -2.42865e-05 8.43629e-05 1.5683e-05 3.01637e-05 -3.1755e-05 
6.23522e-05 1.26421e-05 4.31068e-05 -7.88419e-05 5.82292e-06 2.89473e-06 3.70573e-07 3.14305e-06 6.89727e-06 
-1.37707e-05 -8.55165e-06 -0.000107229 1.9997e-05 -8.29213e-06 -9.38531e-06 -4.71326e-05 2.62673e-06 1.92273e-05 
-4.69567e-05 -1.64902e-05 -2.9628e-06 -2.9093e-05 1.05343e-05 -6.64058e-05 4.41744e-06 -6.51572e-07 -5.20182e-06 
8.15297e-06 1.50104e-05 -3.69266e-05 -4.7507e-05 9.55084e-06 -4.23708e-06 -6.49068e-05 1.84945e-05 -1.2918e-05 
2.46429e-05 8.97736e-06 -0.000187188 -4.05547e-05 1.72521e-05 1.69485e-05 -1.18212e-05 -9.7437e-06 5.92837e-05 
-3.11637e-05 2.73335e-05 -2.17571e-05 6.12112e-05 -2.11885e-05 -8.26459e-06 5.1979e-07 -1.06454e-05 1.66877e-05 
3.36448e-05 4.1829e-05 4.55716e-05 3.51075e-05 9.40806e-06 4.36048e-06 -2.14781e-05 -2.14253e-05 3.25933e-05 
-1.03466e-05 7.67324e-06 -2.35233e-06 -1.67642e-05 -8.4143e-05 -5.70562e-05 3.03584e-07 -2.10093e-05 1.19363e-05 
3.92338e-05 -9.60805e-06 -6.71452e-05 -6.00339e-05 -2.92752e-05 -8.18118e-05 -0.000164326 -2.76484e-05 4.4195e-06 
7.64521e-06 -1.95211e-05 -8.76482e-06 -9.2531e-06 5.20461e-05 -8.61266e-05 8.51927e-06 -2.16674e-05 -6.62255e-06 
7.73463e-06 7.54613e-06 -1.80722e-05 1.06766e-05 2.49162e-05 -4.74045e-05 -6.62518e-05 -0.000119124 2.03511e-05 
-9.77922e-06 1.79894e-05 2.02837e-05 3.8941e-05 3.80656e-05 -1.82059e-05 2.86695e-05 -1.31912e-05 -1.60453e-06 
-2.70408e-05 1.89142e-05 9.36133e-06 1.2055e-05 6.85494e-05 -4.84072e-05 -3.45355e-05 8.07142e-05 7.0878e-06 
-1.4211e-05 1.21823e-05 -9.22492e-08 2.92857e-05 1.06056e-05 -2.94665e-05 -2.80313e-05 6.23135e-05 0.000105151 
1.7206e-05 3.9721e-05 1.80216e-05 4.54979e-05 -6.35647e-05 5.43219e-06 1.14923e-05 2.07336e-05 -9.75541e-06 
-1.54249e-05 -1.31231e-06 -1.02227e-05 1.86888e-05 -2.23167e-05 1.20217e-05 3.28472e-06 1.01068e-05 -2.21271e-06 
-2.46662e-05 8.50099e-05 9.64095e-06 -3.19571e-05 1.14149e-05 1.25039e-05 -9.84754e-06 1.13534e-05 -1.12159e-05 
-2.08005e-05 2.04994e-05 -3.36627e-06 7.89556e-06 0.000108622 1.05559e-05 4.49573e-05 -4.57562e-07 -2.41106e-05 
-5.21161e-05 7.75856e-05 -2.42759e-05 2.58241e-05 -5.21508e-05 -6.14349e-05 -8.51134e-06 1.56812e-05 -1.75064e-05 
-1.05796e-05 1.10534e-05 -1.32655e-05 -3.57192e-05 -2.63081e-05 -7.49291e-06 1.58541e-05 4.07307e-05 5.06003e-05 
4.27408e-07 -3.15007e-05 7.08996e-05 -4.64799e-05 4.97889e-05 8.496e-06 -5.33214e-06 1.91111e-06 3.46889e-05 
3.02454e-05 -8.43489e-06 1.58844e-06 -4.55992e-06 -1.0908e-05 4.67915e-06 2.55693e-05 -5.14032e-05 -3.01183e-05 
2.61127e-06 5.306e-05 -1.20239e-05 -2.49643e-05 4.40684e-05 -9.56012e-06 6.26301e-05 2.94244e-05 6.19e-05 
3.13327e-06 1.33066e-05 4.96414e-05 6.73309e-05 -3.26843e-06 -9.95978e-06 -2.86545e-05 -2.90458e-05 -0.000100666 
-1.45473e-05 2.54435e-06 -9.40087e-05 -2.34965e-06 3.23763e-05 -3.2243e-05 4.53812e-06 -3.43246e-05 -5.46623e-06 
0.000131044 3.88159e-05 -1.63797e-05 -7.87812e-06 1.00232e-05 2.54329e-05 6.1199e-05 1.66752e-05 -2.1151e-05 
7.67811e-05 3.78228e-05 -0.000102975 -2.55358e-05 7.76489e-05 3.68966e-05 -4.13695e-05 2.5514e-05 -8.64097e-05 
-6.99378e-06 2.52003e-06 -0.0537826 0.0202351 2.07127e-06 2.32572e-06 2.87418e-06 1.61804e-07 9.60457e-07 
-1.45838e-06 1.1857e-06 -1.42213e-06 1.92859e-06 1.33857e-06 8.53784e-05 -0.000288973 0.000338562 0.000695792 
-0.000857555 -0.00108487 -0.000925953 -0.00168656 0.00548183 -0.000177285 8.44493e-05 -5.90118e-06 -2.984e-06 
1.97282e-05 5.52702e-06 3.66902e-05 -5.9714e-05 -0.00014361 -7.37639e-06 4.5537e-05 1.25539e-05 -2.49702e-05 
5.85165e-05 -6.29397e-05 7.70128e-05 -7.74224e-05 6.62089e-05 -4.11186e-05 6.45637e-05 -0.00014405 5.97401e-05 
0.0589356 -4.78814e-06 2.52753e-05 -0.0158124 -0.00548602 -0.00303555 -0.000498579 -3.18337e-05 -8.0945e-05 
-0.000174297 -0.000202494 -0.000173398 -0.000163041 -0.000182808 -2.25553e-05 -4.53893e-05 -5.84084e-05 -5.5904e-05 
-4.99602e-05 -4.45532e-05 -5.83296e-05 -6.58642e-05 -2.76086e-05 -3.0687e-05 -2.56453e-05 -1.67821e-05 -1.96637e-05 
-2.9308e-05 -2.76367e-05 -2.66672e-05 -2.07936e-05 -3.45747e-06 -8.43006e-06 -7.93286e-06 -3.64451e-05 -3.96853e-05 
-3.00995e-05 -2.56485e-05 -1.09004e-05 -1.10371e-05 2.38685e-06 -8.24825e-06 -3.1628e-05 -1.62957e-05 -1.89466e-05 
3.46777e-06 4.30618e-06 -2.31306e-05 -3.71393e-05 -7.53376e-05 5.25371e-05 5.90459e-05 5.682e-05 2.76071e-05 
1.66268e-05 5.19524e-06 4.01851e-06 1.51366e-05 1.34583e-05 3.35681e-05 3.22587e-05 3.35494e-05 2.33046e-06 
-4.80982e-07 -2.52207e-06 -1.70231e-06 4.98854e-06 6.26444e-06 -2.29475e-06 4.67112e-06 1.68104e-05 1.46469e-05 
-2.98372e-05 -6.21162e-05 -3.20888e-05 -2.29666e-05 -0.000158234 -5.26809e-05 -3.36152e-05 -2.03264e-05 -1.07434e-05 
1.75879e-05 -4.08159e-06 -1.11067e-05 4.26979e-07 1.77099e-06 -8.59192e-06 8.47964e-06 -5.6527e-06 -7.17799e-06 
1.52439e-06 -4.4265e-06 7.53619e-06 2.06436e-06 -5.73652e-06 6.33895e-06 8.18831e-06 6.67381e-06 9.66637e-06 
8.97845e-06 9.3347e-06 -2.42454e-07 -2.64929e-06 7.99714e-06 2.8327e-06 7.11062e-06 -4.75888e-06 2.15914e-06 
-5.39194e-06 -1.84527e-06 3.30342e-06 -4.07214e-06 -6.57525e-06 -2.73765e-06 -5.91598e-06 -4.04289e-06 -3.90279e-06 
7.27296e-07 1.94215e-06 -4.85793e-06 -1.56761e-06 -3.8679e-06 2.10136e-06 -8.14713e-07 2.51461e-06 -5.92479e-07 
1.87634e-06 -1.3096e-06 -1.69025e-05 8.86742e-06 7.78429e-06 -4.04924e-06 -4.09932e-06 -0.000153744 0.00487193 
0.000864 0.000311103 0.000344146 0.000202603 0.000503302 -0.000299019 0.000421017 -6.3562e-05 0.00013645 
1.61106e-05 0.000163553 -0.000151837 0.000171839 -0.000185417 -6.39152e-05 2.65161e-05 0.000334963 9.94899e-05 
-0.000204166 -9.22835e-05 -0.00172092 -0.00229802 -3.01973e-05 -0.000406161 -0.0101467 -0.00132057 -0.00100371 
-0.00119169 -0.000519202 -0.000351202 -0.000181752 9.70263e-05 -0.000106626 0.00044444 7.90542e-05 0.000227241 
7.54997e-05 -0.000179747 8.59231e-05 8.98594e-05 0.00025673 9.83424e-05 -0.000206856 0.000395685 -0.000196403 
-0.000231088 0.000827253 -0.000723058 0.00248547 0.00105727 -0.00284566 0.00335166 0.00328954 0.00175072 
0.00496498 0.00201519 -0.00439416 0.00209583 0.00158639 -0.00228306 -0.00241522 0.00146126 0.00178571 
-0.00189738 0.00211 -0.00166347 0.00204054 -0.00145354 0.00214019 -0.00160343 0.00144102 -0.00139568 
0.00191085 -0.00198494 0.00181631 0.00215274 0.000107492 -0.0021042 0.0025875 0.0121011 7.8092e-05 
-0.00062231 0.000124068 -0.00102323 -0.00227082 0.00049417 -0.000270013 -0.00101141 -0.000509012 0.000621375 
0.000586809 -0.000352903 -0.000312094 -0.000282947 -0.0002216 0.00306603 0.000595584 0.000586494 0.000512979 
-0.000126628 -0.000207355 0.00060322 -0.000627917 0.000941843 -0.000526544 -0.000399473 0.00064895 -4.95403e-07 
-1.75218e-06 1.38305e-07 -1.51409e-06 -1.06718e-06 -3.54166e-06 -2.37767e-07 0.00371899 1.01738e-06 2.8824e-06 
-3.85781e-07 -5.18607e-07 0.000116095 -5.56368e-05 0.000258137 0.00316656 -0.000158636 8.04589e-05 -0.000265647 
-0.00421905 -0.012113 -0.011178 7.71052e-05 -1.8773e-05 7.29802e-05 -4.28217e-06 2.79211e-05 8.62681e-06 
0.00140683 0.00159636 0.000769331 -5.96152e-08 -3.96639e-06 5.60951e-06 0.0305123 0.00135782 -0.0281355 
5.11438e-06 2.26204e-06 -6.81675e-07 0.030867 0.0281514 1.47831e-06 -7.80128e-06 -1.0147e-06 0.000660138 
0.00106026 -0.00432543 0.00430403 0.0288745 1.38469e-06 5.33086e-06 1.32177e-05 -1.19688e-06 -2.30011e-06 
-0.0102218 -0.0118211 0.041938 0.0371438 -2.66641e-07 1.59271e-05 -1.29406e-05 -2.30304e-06 -1.95636e-05 
1.1881e-05 3.17627e-07 -7.01236e-05 -5.70655e-05 2.75371e-05 0.000110924 5.29151e-06 9.05326e-05 -0.00018154 
-0.000372193 -1.72199e-05 8.55308e-06 2.64927e-06 7.07939e-06 -0.000186281 -0.000162777 -5.16471e-06 3.08366e-05 
2.46005e-05 2.13527e-05 -0.00441488 -0.00224089 0.00121021 4.90559e-05 4.84947e-06 -0.000160374 1.5488e-05 
-7.02949e-05 4.34108e-05 5.46354e-05 -6.92033e-07 3.14644e-06 4.74287e-07 3.48115e-05 -1.58099e-05 -2.69758e-05 
3.31748e-06 6.16193e-06 5.37468e-05 -7.65973e-06 1.9381e-05 -1.55314e-07 -6.46149e-08 -2.04009e-07 -1.05388e-06 
-1.18616e-05 -3.24448e-06 -3.19796e-06 3.73378e-06 4.17215e-05 1.87363e-05 1.13632e-05 4.88185e-05 3.87003e-05 
2.34783e-06 -1.79633e-06 1.26042e-05 -3.21899e-05 -1.3866e-06 -4.13806e-06 3.07104e-06 -0.00024368 0.000310566 
-7.65401e-06 7.30634e-07 4.12162e-06 -5.41515e-07 -2.4347e-06 -1.4733e-05 2.34639e-05 2.09123e-05 -1.41447e-05 
-1.62861e-05 1.43059e-05 1.5842e-05 -1.32304e-05 3.23733e-05 3.40375e-05 1.0766e-05 -3.13928e-06 9.2691e-06 
4.66253e-06 -1.04136e-05 -1.21107e-06 -0.00636981 0.00716493 -0.0181876 -0.000596681 -0.000521687 -2.04886e-05 
-0.000439228 8.0192e-05 -2.91737e-07 2.71203e-06 4.91333e-07 2.03771e-06 0.000268485 0.00111956 0.0160749 
0.00125474 -0.00148883 0.000408817 -1.95532e-05 -2.28932e-05 9.44662e-06 7.28714e-06 -1.47741e-06 2.28837e-06 
-2.76438e-06 1.71311e-06 -1.13124e-06 -1.97016e-07 0.0123474 -0.00991516 0.0059977 3.7144e-05 -1.33869e-05 
-9.17552e-05 -7.20196e-07 -1.34751e-06 -6.46629e-07 4.33405e-06 3.4617e-06 -1.43356e-05 -4.26805e-06 -6.42803e-06 
-1.51209e-05 1.38412e-06 6.38789e-05 5.31175e-05 3.21493e-05 -7.5058e-05 -0.000227444 8.13682e-05 -2.75192e-05 
4.63702e-05 -0.000262333 -2.32325e-06 -7.34693e-05 4.07655e-05 4.63758e-05 4.49592e-05 7.76006e-06 -1.8594e-05 
0.000130907 4.37342e-06 4.84613e-06 4.27865e-06 2.56603e-07 -2.43101e-06 9.15043e-07 8.48564e-07 -8.62175e-06 
-3.15584e-05 -0.00533593 -0.0132952 -0.00400965 -0.00492506 -0.0114725 -0.0127679 -6.29359e-05 -3.14564e-05 
3.3826e-05 4.53231e-05 -1.0101e-05 -1.16357e-05 -1.60849e-05 2.44935e-06 7.46737e-06 -0.000452852 -0.00168812 
0.00128969 1.19613e-07 -8.54624e-07 -3.81457e-07 -3.54998e-06 0.000195523 -0.000176295 7.04691e-05 0.00349479 
1.73317e-06 2.57636e-05 -4.54103e-05 0.000943586 -0.00184116 -0.00126081 -2.29897e-06 -3.20759e-07 -3.23438e-06 
-4.65799e-06 1.66005e-05 1.30999e-05 -1.18482e-05 1.69986e-05 2.39478e-06 -1.69669e-05 -3.14296e-05 9.52739e-06 
-1.30025e-05 1.65993e-05 5.65243e-06 -1.86284e-05 -6.79972e-07 -7.71726e-05 7.1069e-06 -5.3468e-06 -3.20923e-05 
5.77828e-06 3.49073e-06 -1.56667e-05 -0.00167242 -0.00432873 0.00197398 -1.15077e-06 3.9932e-06 3.26529e-07 
2.05095e-06 -2.74374e-06 -1.00168e-05 1.61461e-05 -3.49699e-06 9.85681e-06 6.48514e-07 3.51539e-07 -1.07684e-05 
-5.17453e-06 4.59667e-07 -0.00129397 -0.0012234 -1.69972e-07 1.6033e-05 1.21504e-05 1.18303e-05 -1.5997e-05 
-3.19063e-05 3.3803e-06 4.13456e-05 -0.000104082 3.44765e-05 1.72541e-05 -1.65552e-05 -2.87588e-05 0.00133021 
-0.000296566 -6.50099e-06 3.22704e-05 5.67686e-05 -0.000134423 -9.07153e-05 0.000127533 0.00566546 0.000402663 
0.000367065 3.64814e-05 -3.84251e-06 8.66142e-06 7.03182e-06 -2.81756e-05 8.19476e-05 9.12576e-05 -0.000502828 
3.01997e-05 1.34827e-05 1.81637e-05 -7.68872e-06 -6.07316e-06 -6.9855e-06 9.46527e-06 -4.92528e-05 6.87655e-07 
1.34821e-05 -3.96209e-08 -7.30191e-06 -1.536e-05 -2.07589e-05 7.90723e-06 1.1965e-05 -7.16549e-05 -0.004859 
-2.29811e-07 -9.52304e-07 3.30515e-06 2.25577e-07 -7.89938e-07 -2.32663e-05 1.58305e-05 -1.69327e-05 4.70997e-05 
7.88285e-05 -0.00018657 -0.00108006 0.00186465 -0.00459094 1.82499e-05 -9.6182e-06 1.46443e-05 -7.39078e-07 
-0.000210662 -0.000301931 0.000696064 0.00329054 1.18344e-05 -2.43931e-05 -3.48712e-05 3.70758e-05 1.14804e-05 
6.75144e-05 1.06663e-05 -1.82271e-05 0.00161126 -0.000558435 -0.000679626 3.38116e-05 -0.000172461 -8.20025e-06 
-0.00235381 0.000563834 -3.40528e-05 3.24669e-05 6.77195e-05 -0.000559075 0.0370107 -0.0124114 0.0337516 
-2.19413e-06 4.70683e-06 -2.51989e-06 -2.57004e-07 -2.69415e-05 8.81412e-06 5.06863e-05 -4.50168e-06 0.000410638 
0.000971274 3.89656e-05 2.51365e-05 -3.57827e-05 3.36606e-06 -6.52681e-05 -3.8299e-05 -1.46556e-06 -1.01606e-06 
0.000133612 1.48118e-06 -1.83822e-06 4.27395e-07 -2.89736e-05 6.22294e-05 -4.20349e-05 6.57937e-05 -0.000183263 
8.71018e-07 -0.000209485 8.06631e-05 1.87593e-06 -2.69222e-07 -1.92393e-06 4.49125e-06 -1.20945e-05 1.75109e-05 
-2.76397e-05 8.35389e-06 -1.0967e-05 1.88336e-06 -0.0276861 -1.20666e-06 -3.74721e-06 -1.26132e-05 3.83603e-06 
5.93463e-05 2.60404e-07 2.6287e-06 -0.0274148 0.0267311 0.00224723 -2.16088e-05 -6.41701e-05 -5.42158e-05 
2.7642e-06 -2.68453e-06 -4.66983e-06 8.85213e-07 6.66966e-06 3.67998e-05 6.12158e-05 1.75962e-07 2.67382e-07 
1.22269e-06 -5.27995e-06 7.78146e-08 -5.14263e-06 4.34514e-05 -0.00594517 0.000172807 0.00192241 -1.70038e-05 
-1.43695e-05 1.47928e-05 5.93614e-06 -0.000109507 -4.49564e-05 -0.00458319 -1.08765e-06 1.18158e-05 -1.47703e-05 
-1.257e-05 2.69717e-05 5.10272e-05 -0.00023904 0.0003076 -7.32331e-05 1.98619e-05 -0.000130041 5.22171e-05 
2.83986e-05 -1.49311e-05 -0.000161183 0.000114511 0.000101691 0.00648957 0.00158966 0.000122223 -0.00573714 
0.000102159 2.32304e-05 -5.39449e-05 -0.000120915 1.77508e-05 3.42682e-05 -1.01856e-05 -1.30741e-05 -4.64546e-06 
-1.34837e-05 2.02461e-05 1.95054e-05 -2.14215e-05 -2.18417e-06 1.64353e-06 -1.25949e-06 -3.41543e-05 6.42649e-05 
1.86261e-06 3.34329e-05 0.00163183 0.000639633 -0.000826589 7.41271e-05 -1.23505e-05 1.34415e-06 -1.22219e-05 
2.03195e-05 -6.54536e-05 -3.85576e-05 4.67551e-05 0.000162252 -8.44e-06 -5.55049e-06 -3.14745e-05 -3.23083e-06 
-0.00187762 -1.67161e-05 -7.73979e-05 5.71043e-05 -0.000134875 -7.23472e-05 3.0461e-06 7.14176e-06 -7.3032e-06 
-1.29987e-05 -3.44001e-05 -0.000189369 3.49664e-05 6.4142e-05 -1.5056e-05 -1.5797e-05 3.05853e-05 1.16099e-05 
-2.51402e-06 2.93035e-07 -8.56777e-05 -6.26043e-05 1.2677e-05 8.13019e-05 2.16925e-05 -0.000172351 3.2219e-05 
7.97929e-06 -2.6725e-05 1.38904e-05 -4.45666e-05 2.65342e-05 0.000164997 0.000205654 -6.3913e-05 -0.000169151 
5.05254e-05 0.000137497 -3.78714e-06 1.79192e-06 -0.000258001 0.000113533 -2.8582e-05 -0.000140992 1.04041e-06 
6.08808e-06 -4.65709e-06 -1.86134e-05 4.91628e-05 -7.64851e-05 1.1692e-06 -6.68843e-08 -1.48388e-06 4.44055e-06 
4.40222e-05 -0.000133013 -1.22355e-05 -1.55983e-05 -2.81067e-05 -1.58133e-05 1.4723e-06 5.84639e-07 1.29463e-07 
-2.22031e-06 -7.41232e-06 -0.00266244 0.0016581 -0.000142523 0.000250125 0.000105064 0.000122144 0.0002564 
-0.00011322 1.22552e-06 2.15526e-06 1.11681e-06 2.73562e-06 1.38047e-05 4.81447e-05 1.45069e-05 -1.91131e-05 
0.00302558 -0.000199577 0.000164455 3.72497e-05 -2.51652e-05 -3.91442e-05 4.7673e-07 -0.000227083 -1.13118e-06 
1.98787e-06 -5.61971e-06 -4.68016e-06 6.76507e-05 -9.08521e-05 0.000122388 -7.50221e-05 3.88933e-05 0.000147393 
0.000215331 0.000150964 9.62746e-05 -9.46067e-05 0.00157791 0.00085648 -0.00157545 1.06071e-06 3.69423e-05 
-9.80741e-05 -1.41936e-05 0.000184836 1.94406e-05 2.55227e-05 -6.2428e-05 -1.74835e-05 -1.28994e-05 -9.73726e-06 
-0.0001196 0.000294891 1.38572e-06 1.72338e-06 7.05751e-06 -1.19163e-05 -2.63678e-06 2.72195e-06 0.000669711 
-0.0019778 0.00211936 -8.3243e-06 7.22883e-06 -9.30872e-06 6.14971e-07 -1.90393e-05 -4.15903e-05 3.99873e-06 
5.89001e-07 0.00019859 -0.000812888 0.0014919 -6.70861e-07 -1.23272e-06 1.85191e-06 4.15717e-06 -2.89682e-06 
1.13231e-06 6.1198e-07 -8.72487e-07 5.46876e-07 -0.0130077 -0.00182181 0.00151506 -0.000476635 0.0292426 
-1.71707e-06 7.04184e-06 2.16387e-05 -2.88359e-05 4.9545e-05 9.78534e-06 1.31258e-05 3.26583e-05 9.55964e-06 
-9.5803e-06 -1.66936e-06 -1.6691e-06 6.17872e-05 9.3608e-06 -1.17847e-05 6.66921e-05 -0.000192397 -2.04387e-05 
-7.50518e-07 3.66083e-07 -1.14447e-05 -1.03977e-05 7.22382e-06 3.06272e-05 -5.19238e-05 -0.0286403 -2.32491e-05 
1.13133e-05 3.70035e-05 -7.26717e-05 2.94092e-05 -3.56903e-05 2.67137e-06 -1.48943e-05 3.01755e-05 -1.24997e-05 
-2.17412e-07 -2.2195e-05 4.98933e-05 2.12089e-05 -4.40806e-07 -1.34583e-07 -2.10395e-06 1.22882e-05 -2.42723e-05 
1.50944e-05 5.49476e-07 0.000208142 -2.84749e-05 -1.75405e-05 8.51083e-06 1.79631e-05 7.83538e-05 -1.06272e-06 
1.21689e-06 4.60022e-05 -2.38909e-06 -2.34545e-05 -3.10256e-05 1.59355e-05 1.04967e-06 -1.99368e-05 -1.76612e-05 
-2.73225e-06 -2.20951e-05 2.42441e-05 -0.000463962 -0.0008701 -0.000394971 -2.72307e-05 -9.52082e-06 1.99725e-05 
-1.15693e-06 3.41457e-05 3.01442e-05 3.19065e-05 2.71455e-05 -3.01885e-05 -2.46286e-05 1.52744e-06 -6.07623e-07 
-0.00274751 -0.000134313 1.5999e-05 6.78112e-06 2.98431e-05 1.00837e-05 3.83689e-05 5.01761e-05 -2.45457e-05 
3.3111e-05 8.75339e-05 0.000403981 -0.000120744 -0.000960402 -0.00428502 -7.78121e-06 -3.37362e-06 3.73504e-05 
-1.51456e-05 5.56181e-05 -1.49579e-05 0.000190876 0.000190711 8.90019e-05 1.10748e-05 -0.000125654 3.42506e-05 
8.59443e-05 -0.00020529 2.45002e-06 5.24996e-05 -2.38668e-06 7.05744e-05 1.91909e-06 9.74914e-07 -5.12041e-06 
3.60981e-06 -2.48125e-06 -3.42428e-06 1.70942e-05 1.04445e-05 -2.79839e-05 -4.12782e-05 4.90604e-05 7.12391e-06 
-3.81609e-06 1.99953e-05 2.96591e-05 -2.69506e-05 -8.44548e-06 -4.95391e-05 -0.000134946 6.22832e-05 -1.50207e-05 
-9.4031e-05 3.57443e-05 -9.27983e-06 7.451e-06 -2.38215e-05 0.00132704 0.000132749 -0.000124151 0.0304136 
-0.00129958 5.8159e-06 -1.61584e-06 -1.11835e-05 -0.000963989 -0.00438624 0.00365819 0.00107829 0.0134034 
-0.0115493 -0.000568128 -0.000151277 -0.000222528 2.28978e-05 1.92432e-05 -0.000144584 -0.000394488 -6.229e-05 
0.000246715 -0.00024491 3.3197e-05 5.79898e-05 0.00109278 0.0301474 0.00277352 -0.00111042 0.00738248 
0.00115973 -0.00478703 -5.31398e-05 -2.36923e-05 2.2953e-06 1.79914e-06 0.000452456 5.98122e-06 -0.000633944 
0.000223138 -1.78373e-05 -4.39657e-05 4.11178e-05 0.000734358 0.00109006 2.40194e-05 -9.02621e-05 0.00568579 
0.000254898 -0.00182215 1.62415e-05 1.68495e-06 -8.39167e-06 3.42157e-06 -8.96238e-06 -0.000372892 1.34097e-05 
-2.58251e-05 2.49112e-05 -1.32794e-05 0.00142161 -0.00284953 2.63179e-07 -9.40479e-07 -0.000370378 0.00148317 
-0.00025679 0.000916094 -0.0236667 -0.0243492 0.007703 0.00382511 -2.3946e-05 -7.02339e-06 7.5174e-06 
-2.87713e-05 5.79452e-06 1.09066e-05 3.90347e-06 1.41481e-05 6.56383e-06 -0.000161097 6.22867e-05 0.000649593 
0.000842402 -0.000134791 4.35725e-05 -8.31785e-05 0.000899123 -0.00130745 2.39987e-05 -6.73955e-05 -3.80594e-07 
7.38932e-07 -1.02387e-05 -9.23926e-06 6.05624e-06 4.5303e-06 4.70436e-06 -1.86343e-05 -8.55473e-05 -9.11402e-06 
2.55484e-05 2.40271e-05 3.92079e-06 -3.63887e-06 1.43795e-05 1.70765e-05 1.43707e-05 -4.85663e-05 6.76666e-06 
-3.16094e-05 5.52798e-06 -1.35858e-05 0.000222532 0.000146887 4.71464e-05 4.65081e-05 -4.52376e-06 -7.68979e-05 
9.51481e-05 -8.17399e-07 -6.40133e-07 4.63721e-07 -1.49883e-05 4.49768e-06 -3.64286e-05 1.56287e-05 -2.07363e-05 
7.84603e-07 2.20242e-06 -9.49637e-07 -7.79231e-08 7.58123e-07 2.61119e-06 9.35647e-05 -0.000204114 -2.11132e-05 
-2.86618e-05 1.49888e-06 1.56205e-05 6.16358e-07 1.67485e-06 7.09481e-05 -5.79001e-08 7.8536e-06 -1.07413e-05 
2.50732e-05 -1.30303e-05 1.40437e-06 2.49029e-06 -7.42686e-06 -1.98118e-06 -1.73109e-05 -0.000299488 -7.04695e-05 
2.18451e-07 6.64482e-07 3.51639e-05 1.95457e-05 3.63732e-05 0.000107868 4.67993e-05 -2.96003e-05 5.01471e-07 
1.24223e-07 -8.78578e-10 3.23401e-05 0.000152788 -2.40261e-06 -6.13739e-06 1.62748e-06 -0.0122761 -3.04483e-05 
-2.09375e-05 5.59192e-05 0.000166319 -0.000210372 -6.63444e-06 1.51582e-05 -2.98077e-07 -6.36412e-07 -3.35097e-07 
-8.47163e-06 -2.9904e-05 0.00628919 6.87497e-05 6.33999e-05 -4.18544e-05 -2.16404e-05 -0.000223322 -1.24904e-05 
-1.53114e-05 3.42431e-06 -1.46624e-05 1.50448e-06 1.12453e-05 -6.66757e-07 9.22757e-07 1.32217e-06 -0.0037167 
-5.89746e-07 -2.92889e-06 -8.56779e-06 5.83236e-06 1.3183e-05 5.32948e-06 -4.46261e-06 2.7219e-05 3.56725e-05 
-6.83443e-07 1.61175e-06 3.3919e-08 4.99508e-07 1.98495e-05 -2.8997e-05 -2.52002e-05 1.42003e-06 1.40263e-05 
1.21314e-05 -2.54301e-05 0.0305084 -1.12715e-05 4.85296e-05 -3.01012e-05 -1.95771e-08 2.19126e-05 6.90486e-05 
-1.97419e-05 -7.93955e-06 4.57115e-06 7.9851e-06 1.07893e-05 -8.58023e-06 0.0163155 0.0407567 3.49255e-05 
-3.40196e-05 2.76906e-05 4.55789e-06 3.75983e-06 8.27044e-07 2.45601e-06 5.60828e-05 3.37453e-06 -1.13671e-06 
2.13315e-06 -5.92629e-06 2.92423e-05 2.31281e-05 9.33175e-06 -2.08647e-05 -0.0048746 -0.00727618 0.00171969 
0.00171603 0.000830688 -0.00166863 -0.00409241 -0.00462428 0.00133466 -6.44735e-06 -2.78116e-06 -6.22986e-06 
4.61974e-07 -5.40165e-05 -2.68346e-05 -0.000140926 -5.40141e-05 -0.0308163 -0.00423138 0.00330963 -0.000632315 
-5.65536e-05 1.60818e-05 5.99549e-05 1.06926e-05 8.07455e-06 5.79937e-07 1.06967e-06 -1.31348e-07 -3.03366e-05 
0.000114336 1.26632e-06 -3.4884e-05 -9.55605e-06 7.20919e-05 -0.0051462 -0.00205267 -0.00472988 0.00136694 
0.00556696 0.00420517 -0.00444185 -2.7718e-05 7.66665e-06 3.395e-06 2.96955e-05 4.14433e-06 3.87101e-05 
-3.9026e-05 -0.00170582 -0.000898544 0.000801841 7.7422e-06 0.000190078 0.000801842 0.000189298 -0.000179132 
0.000898284 1.83009e-06 -9.09417e-08 1.99274e-06 -0.00467887 -0.00044583 -0.000761649 -0.000196252 -0.0155912 
-1.11678e-05 -2.05044e-05 1.88615e-06 0.000131892 -2.79279e-05 -0.000944941 -0.00231563 -0.000252111 1.85037e-06 
-3.61975e-07 6.47457e-05 3.50291e-05 3.00242e-06 -0.000120793 -6.9263e-05 -3.05059e-05 -2.04095e-05 -9.54407e-05 
1.95544e-05 -1.00887e-05 6.67768e-05 2.16402e-05 -1.91984e-05 7.17254e-07 2.41695e-06 -4.11877e-05 7.11286e-06 
-3.28408e-05 3.09632e-05 -0.000123731 0.000161614 0.00010592 -0.000135013 -6.68465e-05 0.000213162 0.000951818 
5.24648e-05 1.13353e-05 -2.45117e-05 -0.00263395 0.00106091 -4.71172e-05 -0.000153293 -6.26124e-05 -3.15319e-05 
-2.74484e-05 -4.66926e-05 -4.532e-05 3.15513e-05 -2.34465e-05 1.33365e-05 9.81944e-06 -5.73754e-05 -9.1133e-05 
0.00107906 0.000801894 -0.000153472 -6.85374e-06 -3.34075e-06 -1.75761e-06 1.63285e-06 2.74052e-06 5.34404e-06 
-5.17832e-07 -4.6862e-06 -7.85922e-05 -3.35232e-05 0.000113374 -9.50457e-05 -8.86254e-05 1.72258e-05 -3.98181e-05 
2.99359e-05 -3.83291e-05 5.25298e-05 1.87936e-05 1.34011e-05 4.71269e-05 8.78661e-07 1.85578e-06 -1.51099e-06 
1.85848e-05 4.82703e-05 -6.96585e-06 1.84416e-06 -8.95269e-05 -1.4374e-06 -1.59378e-06 8.17929e-07 -7.48543e-05 
7.59385e-06 -0.000102906 1.75819e-05 -9.32028e-05 -1.02516e-05 0.000186989 -5.23548e-05 -1.24591e-06 -8.6814e-06 
0.0310925 9.2482e-06 -5.68868e-06 -0.0295332 0.00172616 -2.85872e-05 -2.09218e-05 1.65885e-05 -2.52937e-05 
0.0023786 0.0307609 0.0022661 8.59382e-06 -3.10835e-06 -2.84749e-05 -2.21358e-05 -2.01698e-05 8.77889e-05 
-0.000127337 2.07824e-05 1.73993e-05 -0.000560496 1.79509e-05 2.83322e-05 -6.00835e-07 7.44367e-06 -5.6922e-05 
1.45117e-05 -2.71222e-06 -5.23142e-06 -2.64532e-07 7.02708e-06 0.0358635 -0.0174376 0.0202198 -3.91042e-05 
1.34031e-05 1.1976e-05 -3.75601e-05 -5.74298e-05 2.21142e-06 -0.00418379 1.96878e-05 2.89856e-05 1.5414e-05 
3.35521e-05 4.61011e-05 -1.6696e-05 7.12118e-05 1.77878e-05 -0.000103869 7.03016e-06 -0.000102656 7.91703e-06 
-2.3321e-06 0.0020529 -0.00136969 -0.00448585 -9.16344e-07 1.49937e-07 8.17657e-07 1.35704e-06 6.05281e-06 
1.06923e-05 1.47046e-09 -1.97737e-07 -1.55327e-06 -2.76247e-05 4.01427e-06 4.64618e-06 -1.13836e-06 2.44572e-06 
-1.55929e-05 -6.49323e-06 -0.000130683 -2.3564e-05 -1.35005e-05 3.81859e-06 -7.74953e-05 9.79996e-05 -1.5744e-05 
8.77191e-06 1.04922e-05 -5.85714e-06 -7.92122e-05 7.10675e-05 -0.000134778 8.74691e-05 -0.000283675 -3.01331e-05 
-6.3588e-05 -4.14249e-05 2.52224e-05 0.00115643 0.000634107 9.20551e-06 3.34377e-05 -4.86751e-05 -0.0319532 
0.000149004 -1.79786e-05 5.14103e-05 -0.000150961 6.9283e-07 2.07301e-06 -0.00358478 -0.0048726 1.65153e-05 
-2.48926e-05 1.67066e-05 -2.94311e-05 2.06155e-05 1.01875e-05 7.78806e-06 3.19652e-05 6.91082e-05 -5.07827e-05 
6.48181e-06 2.4119e-05 -2.5495e-05 3.03101e-05 -1.26096e-06 -5.51662e-06 -1.77356e-07 -0.000122801 1.41492e-06 
1.13742e-06 0.000141534 -0.000116173 8.12481e-05 0.000129374 -5.55325e-05 -2.74629e-05 -0.00279141 0.00522989 
-7.34474e-07 -1.81883e-05 -1.14194e-05 -3.3138e-05 -2.42579e-05 -8.176e-05 0.00605805 0.00074449 0.00014848 
0.00131011 -6.58729e-06 9.45036e-05 -0.000176676 0.000708498 -6.27263e-05 -2.02498e-07 -0.00204971 -3.5233e-06 
5.54906e-05 -1.11535e-05 2.11573e-05 1.85201e-05 -3.77972e-05 1.41667e-05 -0.000179177 0.000763943 -0.00180729 
0.000778781 3.26704e-06 1.9668e-06 7.9633e-07 5.86198e-07 0.000201717 0.000153561 -1.38912e-05 -1.93554e-05 
-8.15596e-07 -3.11076e-07 1.32268e-07 -0.00344965 -1.43701e-05 -5.88539e-07 -0.000172018 -7.35044e-06 0.000423525 
-0.00015224 -5.10479e-05 -4.8301e-05 0.00159949 7.86365e-06 3.04118e-06 -5.85335e-06 -9.9421e-07 -2.38383e-06 
-5.78058e-07 -3.77913e-06 -1.25281e-06 1.59629e-06 -5.1333e-05 -2.15085e-05 4.92967e-06 2.75128e-06 1.03334e-06 
2.52397e-06 1.77705e-07 1.43908e-06 0.00166524 2.9386e-06 -2.04006e-07 2.33243e-06 1.21352e-06 8.35016e-07 
6.71128e-07 0.000774921 0.000136894 -5.77092e-05 -3.23006e-05 -3.59855e-05 -0.00531236 -0.000145782 -6.71143e-06 
-0.00594275 -0.00400343 1.04078e-05 -0.000106207 -1.83309e-05 9.92898e-06 -2.59726e-05 1.55911e-05 9.05516e-06 
-1.768e-05 -1.44176e-06 -1.83272e-05 -2.57711e-05 -7.12053e-07 -5.43251e-06 -2.997e-05 -1.2172e-06 -1.15035e-05 
-4.56919e-05 -8.75805e-05 0.00014739 -2.42276e-05 -0.000300455 -9.13762e-05 -2.81665e-05 8.70711e-05 -3.5125e-07 
-6.53397e-06 -4.66309e-06 3.58648e-06 1.2638e-06 6.87556e-07 2.31277e-06 -1.22406e-05 -3.12819e-05 6.48356e-06 
3.11987e-05 0.00171736 0.000927951 0.00901743 0.000910015 0.000952329 -9.14972e-05 -6.80063e-05 6.32659e-05 
0.00119551 1.16732e-06 0.00125279 9.65616e-06 3.27495e-07 -0.000242145 6.82522e-05 9.28133e-07 -0.00044959 
4.15986e-05 -8.37737e-05 0.000110319 5.61082e-05 4.76367e-06 -4.54409e-05 3.96513e-05 1.21058e-05 2.01144e-05 
-1.32328e-06 -2.24069e-05 -3.76331e-06 1.75674e-07 -8.34576e-07 3.73554e-07 -1.25177e-08 1.67508e-05 -3.43585e-05 
-5.92769e-09 -0.000869065 -4.59396e-06 5.54319e-05 -5.26988e-05 -0.000747767 -3.34086e-05 -1.75337e-05 3.0403e-05 
2.09925e-05 2.42639e-05 1.62947e-05 4.51279e-07 3.68099e-06 1.05241e-05 -9.33239e-06 -1.52407e-05 -6.01899e-05 
0.000335525 8.06342e-06 7.84975e-06 5.10772e-06 -3.29703e-05 0.000119541 0.000738532 0.031668 0.0333948 
-0.0101975 -9.35189e-05 -0.000132172 -0.000137147 -0.000229736 -1.05769e-05 7.6321e-06 6.31404e-07 9.19528e-07 
1.35891e-06 3.9107e-06 1.22618e-05 -3.6123e-06 -2.69373e-05 9.85041e-05 2.15568e-05 2.02813e-06 2.64133e-05 
5.63062e-05 2.21571e-06 3.72737e-06 9.99029e-06 -1.3497e-05 7.1033e-06 -0.000158985 -0.00039676 8.06123e-06 
-3.49092e-05 1.8949e-05 5.44786e-05 -2.15272e-07 0.000100976 0.000116776 -2.45921e-05 7.66816e-06 1.90239e-05 
0.00958535 0.00232483 -0.0280914 3.15939e-06 6.82953e-07 0.0301995 -8.1654e-05 0.000300168 -2.15934e-06 
1.86972e-06 -0.00254357 2.65904e-06 6.43055e-05 -1.71335e-07 -9.71521e-07 -9.81231e-05 7.04784e-05 -8.71021e-06 
2.12185e-05 -2.36471e-05 -0.00439967 0.000204528 1.12913e-06 -7.16307e-06 2.38956e-05 -5.32081e-05 3.23787e-05 
-6.54802e-06 -4.96334e-05 -1.14695e-06 -3.56403e-06 2.3345e-06 4.77663e-06 -2.03021e-05 -3.30117e-05 8.52903e-05 
-4.99658e-05 8.16174e-07 2.43652e-05 1.23859e-05 7.42453e-05 2.24252e-06 0.000147021 -0.000111554 1.29482e-05 
-2.46598e-05 4.35909e-05 3.35567e-06 0.0284098 -9.45964e-07 7.77259e-06 -3.36343e-06 0.00318426 -4.75816e-05 
-1.11655e-06 1.23753e-05 1.94225e-05 6.53303e-05 -2.02891e-05 -2.12267e-05 1.49029e-05 -1.41655e-05 -4.52066e-05 
1.05623e-05 -4.05263e-05 3.1371e-05 2.79302e-05 -3.52897e-05 -1.46978e-05 8.66756e-05 -4.76856e-05 0.000104344 
-0.000120446 0.000105395 2.33566e-05 -2.18694e-05 -1.24842e-05 -2.18396e-05 3.14981e-05 -2.95661e-05 7.23442e-06 
1.97455e-05 1.36776e-06 -4.51514e-07 2.62326e-07 5.64956e-06 1.00292e-05 3.92627e-05 5.08048e-05 -1.76719e-05 
-7.21716e-06 -8.84112e-06 1.64078e-06 2.66274e-05 -2.13591e-05 3.44263e-07 3.09119e-07 -4.14736e-07 1.26877e-06 
-7.46006e-06 -1.93561e-05 3.17516e-05 1.99492e-05 -0.0299253 5.05988e-07 -2.81526e-05 0.0316875 -4.61781e-07 
-7.21698e-06 -3.4175e-05 -1.34569e-05 -0.0010395 0.00145572 9.76955e-06 -2.33457e-05 9.18499e-06 -1.54148e-05 
-3.77416e-05 2.31408e-05 -4.94668e-06 -5.70967e-06 6.34133e-06 3.23308e-05 -2.51043e-05 1.02027e-05 6.50316e-06 
-4.04298e-05 7.09951e-06 0.00147874 -0.00018834 -8.30474e-05 3.58473e-06 -0.000101642 2.12457e-05 2.15447e-05 
7.5309e-06 4.31336e-05 -8.32777e-05 2.56367e-05 -1.96005e-06 3.57224e-06 4.3481e-06 -4.32994e-06 3.44693e-05 
7.85084e-07 -1.64847e-06 -2.95917e-06 1.27389e-05 3.66411e-06 -2.14531e-05 2.54442e-07 -3.57304e-07 -1.35637e-06 
-3.81648e-06 -8.86028e-07 3.57766e-07 -1.32284e-05 0.000462663 0.000382406 -7.59732e-07 -2.73926e-05 1.13531e-05 
-1.48768e-05 7.38301e-06 2.56508e-06 -2.60958e-05 -1.0855e-06 -1.75051e-05 -1.24466e-05 -0.000108697 4.03237e-05 
3.25126e-06 8.66137e-06 1.34011e-05 2.83041e-06 1.42876e-05 1.41527e-07 0.000102177 1.36636e-06 4.88519e-06 
5.64361e-05 4.30005e-06 0.00264838 -0.00027753 -1.3545e-05 3.61277e-06 -3.66363e-05 4.65529e-05 8.92532e-06 
-1.38286e-05 1.6431e-05 1.531e-05 -1.8894e-05 5.62806e-05 -3.90033e-05 -6.35249e-06 -3.29537e-05 -2.76411e-05 
3.4815e-06 -4.48187e-05 0.000117463 -3.99912e-05 -1.38509e-06 1.52607e-06 -8.87834e-07 5.67398e-05 -7.53857e-05 
2.61161e-05 6.59943e-08 3.17122e-07 -3.7526e-09 0.0332128 -0.0130737 4.87815e-06 -2.30199e-06 -2.62951e-05 
-1.82217e-05 -3.72479e-05 -7.37785e-05 3.08857e-05 7.84773e-06 -5.76127e-06 6.49107e-06 -0.0106208 0.0288004 
0.000332474 -8.73368e-05 8.93673e-05 4.84006e-06 -9.1371e-06 5.92933e-05 -2.96875e-06 -9.65924e-07 -2.76388e-05 
4.04396e-06 3.6926e-05 -1.73058e-05 9.19625e-06 8.18966e-06 0.00432568 2.50493e-06 9.85376e-07 -0.00273918 
-1.87437e-05 2.15762e-05 5.91334e-05 -0.000183664 0.0303049 0.0329123 -1.6825e-05 -2.41551e-05 6.40524e-06 
-0.0281454 0.00176429 3.45745e-05 -4.5811e-05 -1.19289e-05 -0.0100609 3.4945e-06 2.93971e-06 -2.18872e-05 
-2.05015e-05 -4.3361e-06 0.000171704 -0.000124328 2.19019e-05 0.000192264 -0.00355798 0.000872889 -3.07024e-05 
1.01135e-05 0.00378538 0.0248372 -0.00648758 0.00107168 1.25625e-06 0.000581912 -1.83083e-05 -0.0010541 
-0.000310148 0.0038187 -2.48614e-06 -4.92075e-07 -4.37685e-05 -5.95176e-06 5.12213e-05 2.03597e-06 -9.34596e-06 
-2.33116e-05 2.33483e-05 -9.70576e-05 -3.33253e-05 -1.89415e-07 5.62167e-07 -1.7472e-05 -1.734e-07 3.74338e-05 
-4.57633e-06 -1.8519e-05 -1.43202e-06 1.0056e-05 7.84442e-05 0.000343913 1.31304e-05 -4.78303e-05 -4.63604e-06 
-1.23397e-05 9.43198e-06 0.00196246 -0.0286213 0.00233739 0.00192286 -9.97372e-06 1.1409e-05 2.29015e-05 
-5.90375e-06 -6.6837e-06 7.00876e-06 -1.98463e-05 4.9574e-06 1.55886e-05 1.06934e-06 8.39614e-06 -0.000785935 
-0.000609743 -0.000350654 0.000226137 0.000111466 0.000554615 -4.4821e-05 1.11311e-05 -6.78646e-05 7.43646e-05 
3.71561e-05 1.58089e-07 -3.62707e-07 -6.61895e-06 1.71947e-06 -2.83562e-07 1.0764e-06 -3.47922e-06 -1.94917e-05 
3.97677e-06 -2.57675e-05 -1.5702e-05 -2.06756e-05 4.03135e-05 1.59713e-05 0.00054672 0.00103762 5.39335e-06 
-4.30983e-06 7.14938e-05 -0.00505854 -0.00455822 9.82457e-05 -0.00153691 0.000876262 -2.64229e-05 -1.8596e-05 
2.85508e-05 3.69475e-05 5.30624e-06 -2.78886e-05 -1.31997e-05 7.92114e-06 -3.10456e-05 8.87166e-06 -3.29405e-05 
2.74435e-05 1.53312e-05 -5.72251e-06 3.39402e-05 4.36797e-05 1.92092e-05 1.15215e-05 3.43689e-06 -0.00121118 
0.00300206 3.13287e-06 -2.98453e-05 0.000913456 -0.000431407 -0.000211974 -0.000576564 -0.000146527 0.000101451 
0.000416367 -1.58012e-05 -0.000230512 0.000836164 -0.00010718 1.67609e-05 -9.64374e-06 -1.36041e-05 -7.66801e-05 
0.00344958 -0.00856879 -0.000213317 -0.0016501 3.18251e-05 0.000741282 -0.00178769 0.000254319 0.000256061 
1.65885e-07 0.00157435 3.82967e-09 -3.43333e-05 1.94726e-06 -2.69933e-05 4.55021e-05 -6.86796e-05 1.14763e-05 
1.14236e-06 -1.82811e-05 -0.000134713 -1.39256e-05 3.29715e-06 -2.49342e-05 -2.97555e-05 0.00015964 -7.56945e-05 
-0.000204037 0.000110347 -1.95874e-06 5.73915e-05 5.52282e-05 -0.000245696 3.75887e-06 -1.07622e-05 -4.27578e-05 
1.09292e-05 2.75455e-07 1.47491e-05 -8.32386e-05 -4.3831e-05 -1.58116e-05 5.57304e-05 -3.10494e-05 -2.1457e-06 
3.50517e-07 -3.90597e-05 2.93056e-05 -5.10854e-06 1.81139e-05 -4.07194e-05 -0.000128229 0.000253843 -6.25142e-05 
7.47887e-05 6.20001e-06 0.000743831 0.000702543 6.31226e-05 8.67547e-07 2.96e-06 3.47352e-06 -5.45911e-07 
7.05866e-07 -2.69786e-05 2.67873e-05 2.2216e-05 2.81034e-07 -7.80197e-07 2.4434e-06 8.42066e-07 -2.41766e-06 
1.40691e-05 -3.60181e-06 -7.18451e-05 0.000252407 -0.000308855 0.000116701 -0.000151274 2.57996e-06 2.06513e-06 
1.23946e-06 2.19442e-05 0.00416835 -0.00167265 -2.77758e-06 7.01065e-05 8.69328e-05 9.902e-07 -3.44298e-07 
-1.29899e-06 -1.92035e-06 1.54679e-06 4.31503e-07 4.34821e-06 -1.58273e-05 1.00399e-05 -0.000156107 0.00107974 
-0.000185843 3.41695e-05 -0.000103352 7.51201e-05 8.9665e-05 1.24099e-05 1.23863e-05 2.8899e-05 -3.48543e-05 
6.29564e-09 0.00010929 1.45844e-06 -1.5462e-06 -8.59524e-06 6.3396e-06 6.70522e-06 -1.9902e-05 2.24972e-05 
8.67124e-05 -1.44777e-06 -2.0073e-05 0.00027255 2.13678e-06 2.11591e-05 -2.94601e-05 1.97532e-05 3.76524e-05 
1.02816e-05 5.32601e-05 5.73254e-06 0.000110757 1.49581e-05 0.0025627 -0.000120395 0.0309269 -9.41118e-06 
1.95357e-05 -3.38776e-05 -0.00150766 -0.00455511 0.000923623 -0.00433088 0.00238271 -6.94874e-05 4.54494e-06 
-3.28158e-05 -0.000162816 -1.95156e-05 3.55574e-05 0.000881717 4.44009e-05 6.16138e-05 0.000201454 7.47431e-07 
4.23936e-05 7.80878e-05 -1.88912e-05 1.09964e-05 8.95694e-07 1.4989e-06 -2.57013e-06 8.737e-07 -5.44046e-05 
-0.000199545 -8.6089e-06 -1.49717e-05 -1.09458e-05 -9.90209e-05 -2.38989e-05 -1.25201e-05 5.17212e-06 1.89071e-05 
2.23149e-06 6.31539e-05 -6.47685e-05 -6.35372e-05 6.1075e-05 7.15083e-05 -0.000181653 -6.25548e-05 8.55664e-05 
5.96541e-05 -4.73858e-05 4.21797e-05 -5.80119e-05 5.5072e-06 -0.000124605 1.16782e-05 -2.78952e-05 3.9785e-06 
1.13326e-05 -0.000194385 -5.74269e-05 -0.000106516 -1.69422e-05 7.63678e-06 8.21278e-05 -4.05224e-05 2.78328e-05 
0.000323639 -0.000101636 -1.649e-05 -2.7524e-05 -1.47925e-05 -1.86908e-05 -2.4314e-06 -8.11312e-06 -4.88606e-05 
0.000713471 -1.20271e-05 -1.01942e-06 3.40951e-05 -2.04005e-05 -2.97061e-06 7.17573e-06 -2.01981e-05 -2.99221e-06 
-1.10876e-06 -8.2926e-07 -4.54189e-05 -2.67535e-05 3.1546e-05 -1.0712e-05 3.83258e-07 2.76799e-06 0.00447232 
1.58475e-06 0.000103761 5.00352e-05 -0.000130511 -0.000141471 -0.000108437 -6.8486e-06 7.3346e-05 -1.54985e-05 
-2.06313e-05 -0.0347271 -5.40874e-07 5.94693e-06 -2.56403e-06 0.00251933 -2.3169e-06 -0.000438342 2.9882e-05 
8.06498e-07 2.85056e-05 9.94479e-06 -2.65995e-05 -5.18213e-06 1.14365e-05 -7.40071e-07 -6.8364e-05 0.000102903 
2.31909e-05 -0.00408422 0.000105619 3.90524e-05 8.08556e-05 -1.75255e-05 -2.60189e-06 9.72374e-05 7.59655e-05 
3.91652e-05 6.67499e-06 4.27611e-05 -0.00323646 3.38315e-05 -0.00420727 0.000197657 2.78129e-06 9.49415e-06 
-1.72454e-05 2.83878e-05 -2.48059e-05 -1.98894e-05 1.48993e-05 6.10937e-05 8.08435e-05 3.72541e-06 1.98568e-06 
-0.000856555 2.6792e-05 -1.87852e-05 -3.37184e-06 7.04946e-05 -1.03117e-06 7.49169e-08 -7.01485e-05 0.00367726 
-6.4308e-05 6.58564e-06 -1.53589e-05 -4.55718e-05 -6.34881e-05 0.00013521 4.55665e-05 1.10206e-05 7.99432e-06 
7.75408e-06 -2.08246e-05 1.54739e-05 -5.78745e-05 4.75229e-06 1.30623e-05 -0.000796551 8.03561e-06 -0.000251845 
0.000162754 3.70109e-05 -2.1151e-05 -1.81361e-06 -2.76367e-06 1.32027e-05 2.77718e-06 -1.59234e-05 9.22409e-06 
-1.82794e-07 -6.99988e-06 4.6614e-05 0.00212288 0.00152559 1.63414e-05 -5.81437e-05 -4.96907e-05 -9.22231e-08 
-4.58709e-06 4.38574e-06 8.13981e-05 0.000431373 3.1445e-05 0.0278984 0.00893199 2.80375e-05 0.000117293 
1.09468e-05 1.29962e-06 -1.64403e-05 4.69999e-05 4.78049e-05 1.80501e-06 2.42246e-07 0.000194093 -0.00210255 
0.000429661 3.28266e-05 -0.000457921 -8.72706e-06 -0.000285125 -4.36416e-05 0.0313962 -0.0293984 0.0327345 
-0.000149303 1.66744e-05 -3.35355e-05 -4.08961e-06 2.73142e-06 3.21298e-06 0.0393071 1.42862e-05 0.00281219 
-9.78948e-06 0.00069128 -1.97804e-07 7.62058e-06 3.95196e-06 2.04553e-05 5.71816e-06 -9.78852e-06 6.23998e-06 
6.2809e-05 8.1969e-05 0.000117644 0.0011489 -5.04222e-07 -5.98834e-07 -1.66754e-05 1.12851e-05 -1.95786e-05 
5.94941e-06 3.65998e-05 -2.35771e-05 1.44785e-06 -7.00619e-06 -5.06246e-06 2.75698e-05 -0.000153908 0.00139773 
-7.0456e-05 -0.00593538 0.000262715 -0.000222572 4.76699e-06 -0.00493339 0.00541397 0.000277107 5.9302e-05 
4.70281e-06 -0.00463937 0.00210277 -1.53229e-06 -3.04399e-05 -3.64263e-05 -1.44692e-06 6.85831e-06 9.09182e-06 
-3.58846e-06 -3.44082e-07 1.29549e-05 4.4397e-05 1.29431e-07 2.02672e-06 -4.0688e-06 1.2135e-06 -8.11595e-06 
4.61643e-06 1.63283e-06 3.32624e-06 -0.00311776 -0.00510604 1.02194e-05 -1.50344e-06 2.78291e-05 1.35702e-06 
7.36382e-05 -3.25772e-05 -2.66316e-05 -0.00279476 -4.35522e-05 1.55018e-05 -5.14717e-05 -0.0296094 1.08617e-05 
-3.72017e-05 -0.00173634 0.00383807 -0.000120137 0.00147424 0.00208414 0.00318133 -0.000282096 0.00282878 
-3.77001e-06 -2.39217e-06 2.49101e-06 -4.78083e-06 6.58961e-06 3.48902e-05 0.00116595 -6.52501e-07 2.14588e-06 
0.000242477 5.29319e-07 1.06585e-05 0.00327207 -0.00431064 -1.26935e-05 0.000107298 -0.0153103 0.00014381 
1.55527e-05 1.27507e-05 -1.66832e-06 -2.64578e-05 -4.13891e-05 -0.000240073 6.47253e-06 2.35863e-05 0.000855281 
0.000350599 4.06347e-05 -4.15624e-05 -3.304e-05 -6.23905e-05 -2.3932e-05 -0.000896276 1.59979e-05 3.1736e-05 
-6.60605e-05 -8.8617e-06 1.43855e-05 -2.65238e-05 5.28824e-05 -1.40839e-06 3.21062e-05 0.000123921 -1.16689e-05 
-0.000113037 -2.20592e-05 -2.09785e-05 -0.000613842 0.000223894 6.81102e-05 0.000572764 -1.94391e-05 2.6895e-06 
7.9048e-05 -6.43854e-05 0.000202766 7.78278e-05 -4.7463e-07 7.55915e-05 -1.15095e-06 3.69625e-06 3.24502e-05 
6.5158e-06 2.17862e-06 -0.00143905 7.62645e-06 1.37668e-05 -4.28619e-05 -1.47885e-05 -2.32697e-05 -1.55907e-05 
5.39006e-05 7.40901e-06 1.20876e-05 -1.20954e-05 7.48232e-05 8.82593e-07 2.19101e-05 -9.31207e-06 -2.49945e-05 
2.61827e-05 2.3392e-06 -8.94046e-06 4.89853e-07 -1.53436e-05 -1.96387e-05 0.000124735 3.04718e-06 -1.60785e-05 
1.31745e-06 -8.37319e-05 6.75772e-05 0.00104925 -4.2477e-06 -1.90334e-05 -0.00263597 2.46655e-05 1.79918e-05 
-0.000427689 -0.00974919 -0.00581545 -1.39039e-06 0.0045383 -9.61116e-05 -0.000157258 0.000183862 0.000309583 
4.54387e-05 -1.40777e-05 3.72458e-05 3.70885e-06 0.00234433 -0.000132831 8.90397e-06 2.8829e-05 -0.00442155 
2.61692e-06 0.000259371 0.000355291 -0.00465239 2.37827e-07 -2.58446e-05 0.000161154 1.06129e-05 0.000223578 
2.58649e-06 -4.60535e-05 1.12909e-05 1.77695e-05 -5.01276e-05 0.000260436 -8.48316e-05 -0.00363103 -2.11521e-05 
7.53912e-06 2.59558e-05 -6.42246e-05 -1.724e-05 4.78029e-05 1.89873e-05 5.41115e-05 2.40716e-05 -2.70435e-05 
-1.8435e-05 -2.38873e-05 1.98974e-06 -1.61082e-05 -5.67287e-05 -3.51637e-05 4.65054e-05 -1.15725e-05 -1.97726e-05 
5.87215e-06 -3.92717e-05 -4.19959e-05 -0.000714036 0.00166578 1.54037e-05 -2.07186e-06 0.00191016 -0.000150685 
-1.03715e-06 -0.0124236 3.75434e-06 5.80494e-05 -2.21791e-05 -0.00441933 -0.000115384 -0.00253141 -4.25131e-06 
-1.43242e-05 9.90988e-06 0.000582202 4.8669e-06 -1.76745e-05 5.82676e-06 0.000547149 -7.94406e-06 -1.0912e-05 
9.16114e-05 0.000728356 -2.25112e-06 -0.00049091 3.80676e-05 -5.60072e-06 -9.86631e-06 2.01016e-06 8.3509e-07 
-3.11102e-06 -3.39124e-05 -8.40824e-06 4.87551e-05 5.77389e-05 -2.52437e-06 1.3107e-05 1.61889e-06 -1.16332e-07 
4.60405e-05 -1.02672e-05 2.7633e-06 2.48498e-05 -0.000135535 1.02829e-07 1.98906e-05 0.000718381 3.56579e-05 
4.46735e-07 -6.98581e-05 -1.48237e-05 -2.62139e-06 -0.000650485 1.4563e-05 2.76757e-05 5.12363e-05 -4.63499e-06 
2.28742e-05 0.00013066 4.79003e-05 0.0257188 -0.0168278 0.00103024 2.95895e-06 1.29188e-05 -0.0275066 
1.34347e-06 7.83165e-06 -3.47532e-05 5.65722e-05 -1.74158e-05 3.07358e-05 -8.11299e-05 6.30758e-05 
Strain%20zz%20component 1 8918 double
-0.160285 1.22559e-06 1.23359e-06 -0.164931 -0.133318 -0.13332 -0.133373 -0.13335 -0.0762491 
-0.0545958 -0.0911239 -0.125792 -0.044347 -0.0819526 -0.104521 -0.108524 -0.0431933 -0.0590118 
-0.0635445 -0.0543728 -0.0330099 -0.0360193 -0.0533436 -0.0585404 -0.0333297 -0.0340549 -0.0572632 
-0.0511496 -0.0339709 -0.0336506 -0.0321849 -0.0443979 -0.0345087 -0.0348963 -0.0356259 -0.0626869 
-0.060111 -0.0975026 -0.0777154 -0.000222967 -0.000302334 -0.000419976 -0.051382 -0.0459605 -0.0428108 
3.56914e-05 -0.000525954 -0.0447786 -0.0461354 -0.0463698 -0.000669012 -3.27616e-05 -0.0453451 -0.0464582 
-0.0457646 -0.0410089 -7.77284e-05 -0.0408945 -0.0440112 -0.0429018 -0.0425036 -0.000501121 -0.000803014 
0.000396199 -0.133402 -0.133303 -0.133012 -0.132545 -0.132062 -0.131622 -0.131228 -0.13099 
-0.130895 -0.130938 -0.131124 -0.131437 -0.131787 -0.132207 -0.13261 -0.13297 -0.133304 
-0.133523 -0.133701 -0.133806 -0.133819 -0.133785 -0.133699 -0.133586 -0.133478 -0.133381 
-0.133332 -0.310211 -0.132991 -0.125029 -0.120762 -0.117772 -0.116223 -0.115658 -0.115609 
-0.115974 -0.116621 -0.117387 -0.118255 -0.11924 -0.120407 -0.121572 -0.122853 -0.12405 
-0.125236 -0.126365 -0.127337 -0.128158 -0.128581 -0.128757 -0.128588 -0.128025 -0.127027 
-0.125399 -0.123486 -0.12104 -0.118553 -0.116784 -0.116363 -0.117134 -0.119164 -0.121471 
-0.124029 -0.126188 -0.128122 -0.129546 -0.130848 -0.131804 -0.132543 -0.13307 -0.133355 
-0.133332 -0.133333 -0.133431 -0.133614 -0.13388 -0.13425 -0.134725 -0.135301 -0.135764 
-0.135516 -0.133683 -0.130253 -0.12572 -0.121294 -0.117577 -0.11571 -0.114917 -0.115288 
-0.118313 -0.1232 -0.135748 -0.16985 -0.0549147 -0.0549891 -0.0569784 -0.0612079 -0.0625034 
-0.0605289 -0.0634776 -0.062852 -0.0665696 -0.0601635 -0.0521884 -0.0526332 -0.0420092 -0.0573602 
-0.0564499 -0.0635927 -0.0619738 -0.0670566 -0.0633783 -0.0633851 -0.0626976 -0.0586201 -0.0587241 
-0.06067 -0.0567718 -0.133355 -0.13328 -0.132852 -0.132224 -0.13162 -0.131158 -0.130886 
-0.130908 -0.131085 -0.131468 -0.131942 -0.132491 -0.132964 -0.133359 -0.133626 -0.133774 
-0.133821 -0.133765 -0.133648 -0.133506 -0.133392 -0.133332 -0.166554 -0.135856 -0.123752 
-0.118959 -0.116741 -0.115754 -0.115865 -0.116349 -0.117217 -0.118291 -0.11951 -0.120988 
-0.122534 -0.124146 -0.125655 -0.126971 -0.127961 -0.128611 -0.128798 -0.12841 -0.12744 
-0.125542 -0.122881 -0.11995 -0.117384 -0.116481 -0.117568 -0.119829 -0.122651 -0.125392 
-0.127679 -0.129595 -0.131123 -0.13221 -0.132926 -0.133314 -0.133405 -0.133335 -0.133393 
-0.133543 -0.133767 -0.134056 -0.134451 -0.134955 -0.135584 -0.135835 -0.134769 -0.132053 
-0.128105 -0.123711 -0.119713 -0.116802 -0.115127 -0.114562 -0.114901 -0.117065 -0.12197 
-0.130176 -0.314699 -0.0579377 -0.0614434 -0.0633676 -0.0610883 -0.0625206 -0.0675825 -0.0633614 
-0.0638304 -0.0602804 -0.0617249 -0.0640244 -0.0538267 -0.0297878 -0.0352856 -0.0490903 -0.0590604 
-0.0546236 -0.0616281 -0.0599503 -0.062929 -0.0631633 -0.0629083 -0.0657424 -0.0620108 -0.0618009 
-0.0613817 -0.133162 -0.132952 -0.132636 -0.132308 -0.131976 -0.131696 -0.131456 -0.131361 
-0.131345 -0.131429 -0.131609 -0.131838 -0.132114 -0.132415 -0.13271 -0.132977 -0.133204 
-0.133381 -0.133517 -0.133584 -0.133601 -0.133588 -0.133546 -0.133494 -0.13344 -0.133398 
-0.133354 -0.208757 -0.14685 -0.135096 -0.128635 -0.124816 -0.122799 -0.121486 -0.120934 
-0.120471 -0.120501 -0.120854 -0.121327 -0.121911 -0.122579 -0.123249 -0.123982 -0.124755 
-0.125428 -0.125969 -0.126433 -0.126601 -0.126728 -0.126558 -0.126099 -0.1254 -0.124471 
-0.123233 -0.122093 -0.121016 -0.12016 -0.120151 -0.120827 -0.121693 -0.123204 -0.124832 
-0.126502 -0.127961 -0.129314 -0.130454 -0.131316 -0.131986 -0.13255 -0.132896 -0.133141 
-0.133492 -0.133603 -0.133745 -0.133901 -0.133868 -0.132906 -0.13184 -0.130313 -0.128339 
-0.126303 -0.124784 -0.123887 -0.124394 -0.126262 -0.130439 -0.148604 -0.168258 -0.250294 
-0.2357 -0.227567 -0.204111 -0.197594 -0.195997 -0.201271 -0.226901 -0.202067 -0.198914 
-0.199108 -0.201717 -0.225955 -0.202769 -0.199854 -0.195234 -0.198776 -0.198813 -0.205246 
-0.199548 -0.196939 -0.1983 -0.203352 -0.239754 -0.247362 -0.13894 -0.120077 -0.115992 
-0.114826 -0.114349 -0.115171 -0.115111 -0.115781 -0.115329 -0.11487 -0.114728 -0.113224 
-0.114849 -0.248289 -0.11116 -0.107756 -0.114988 -0.111998 -0.114294 -0.114851 -0.115215 
-0.115676 -0.115727 -0.116859 -0.119105 -0.122405 -0.124893 -0.149718 -0.198934 -0.133408 
-0.133503 -0.139774 -0.159697 -0.157108 -0.173343 -0.136881 -0.1667 -0.132639 -0.132384 
-0.132177 -0.131986 -0.131841 -0.13173 -0.131688 -0.131735 -0.131814 -0.131943 -0.132111 
-0.132319 -0.132538 -0.132742 -0.132933 -0.1331 -0.13324 -0.133326 -0.133395 -0.133438 
-0.133456 -0.13345 -0.133441 -0.133453 -0.148116 -0.14035 -0.13443 -0.131075 -0.128097 
-0.126285 -0.125142 -0.124404 -0.124043 -0.123863 -0.123953 -0.124122 -0.124267 -0.124539 
-0.124761 -0.12496 -0.125149 -0.125133 -0.1251 -0.124921 -0.124649 -0.124276 -0.123642 
-0.122949 -0.12237 -0.122072 -0.121962 -0.122099 -0.122937 -0.12408 -0.124755 -0.125571 
-0.126575 -0.127602 -0.1286 -0.129582 -0.130404 -0.131103 -0.131675 -0.132167 -0.132556 
-0.132854 -0.164556 -0.133448 -0.133363 -0.133225 -0.121857 -0.153608 -0.129064 -0.128569 
-0.128454 -0.128777 -0.129385 -0.130815 -0.133372 -0.136959 -0.131011 -0.140053 -0.163101 
-0.168794 -0.165799 -0.166212 -0.163199 -0.164097 -0.166214 -0.166723 -0.164742 -0.166773 
-0.165407 -0.167719 -0.167716 -0.165112 -0.166183 -0.165579 -0.163852 -0.164989 -0.162985 
-0.164217 -0.164283 -0.165357 -0.166183 -0.117404 -0.126383 -0.111919 -0.111181 -0.110772 
-0.110698 -0.110854 -0.110945 -0.111254 -0.112234 -0.116723 -0.128643 -0.133438 -0.147873 
-0.108063 -0.10833 -0.10875 -0.108713 -0.109174 -0.109748 -0.110459 -0.111369 -0.113117 
-0.115862 -0.122614 -0.133894 -0.132276 -0.142716 -0.129912 -0.165993 -0.113518 -0.11318 
-0.142744 -0.13095 -0.155541 -0.141733 -0.147682 -0.151006 -0.149091 -0.154276 -0.132246 
-0.13215 -0.132077 -0.132038 -0.132031 -0.132035 -0.132062 -0.132114 -0.132199 -0.132314 
-0.132439 -0.132577 -0.132706 -0.132852 -0.132976 -0.133071 -0.133162 -0.133247 -0.133317 
-0.133378 -0.132376 -0.124694 -0.132549 -0.144098 -0.139027 -0.135364 -0.132312 -0.130135 
-0.128722 -0.127592 -0.126942 -0.126547 -0.126158 -0.125822 -0.125621 -0.125361 -0.125096 
-0.124784 -0.124396 -0.123942 -0.123441 -0.122933 -0.122434 -0.121769 -0.121163 -0.120663 
-0.120775 -0.121682 -0.122712 -0.124262 -0.127376 -0.128438 -0.128573 -0.128851 -0.129475 
-0.129992 -0.130489 -0.13092 -0.131286 -0.131618 -0.13198 -0.132287 -0.114357 -0.119215 
-0.133303 -0.133111 -0.1327 -0.152779 -0.137421 -0.128368 -0.129984 -0.135184 -0.137774 
-0.14104 -0.14611 -0.138209 -0.119928 -0.15289 -0.130431 -0.159485 -0.159774 -0.160364 
-0.160767 -0.161669 -0.162763 -0.163313 -0.163768 -0.163811 -0.163926 -0.163933 -0.163622 
-0.163023 -0.162368 -0.161736 -0.160922 -0.160269 -0.159761 -0.159648 -0.159467 -0.113883 
-0.115676 -0.114584 -0.114662 -0.11485 -0.116369 -0.119392 -0.132399 -0.144747 -0.144633 
-0.112141 -0.112357 -0.112659 -0.113066 -0.113827 -0.114757 -0.116448 -0.119054 -0.123629 
-0.130328 -0.14518 -0.117433 -0.127081 -0.132707 -0.11475 -0.133813 -0.151797 -0.112201 
-0.133409 -0.131917 -0.127016 -0.127914 -0.139928 -0.138051 -0.140344 -0.125037 -0.147832 
-0.131537 -0.124255 -0.132218 -0.132274 -0.132342 -0.132402 -0.132398 -0.132364 -0.132359 
-0.132375 -0.132413 -0.132462 -0.132538 -0.132625 -0.132751 -0.1328 -0.132898 -0.133046 
-0.133121 -0.133271 -0.14155 -0.132611 -0.116077 -0.146479 -0.142098 -0.13867 -0.135602 
-0.133356 -0.131694 -0.12998 -0.129714 -0.128839 -0.128058 -0.127281 -0.126535 -0.12584 
-0.125 -0.124085 -0.123152 -0.122211 -0.121371 -0.120675 -0.119814 -0.118989 -0.118552 
-0.11827 -0.131721 -0.132088 -0.132046 -0.131932 -0.131912 -0.131856 -0.131876 -0.132002 
-0.124224 -0.152487 -0.135241 -0.128228 -0.118261 -0.127516 -0.128292 -0.144204 -0.146492 
-0.129984 -0.133057 -0.138331 -0.148259 -0.155235 -0.155718 -0.156886 -0.158665 -0.159949 
-0.160249 -0.160247 -0.160665 -0.161476 -0.160415 -0.159786 -0.159149 -0.158264 -0.157035 
-0.15591 -0.154775 -0.153685 -0.118167 -0.118433 -0.121709 -0.126149 -0.14256 -0.148755 
-0.140386 -0.138388 -0.123953 -0.133125 -0.115557 -0.116049 -0.11641 -0.117188 -0.118464 
-0.120446 -0.123887 -0.13218 -0.132172 -0.133146 -0.145393 -0.132658 -0.140841 -0.122046 
-0.115925 -0.11808 -0.125015 -0.118113 -0.128411 -0.124158 -0.148361 -0.132775 -0.147744 
-0.135913 -0.124611 -0.129652 -0.120054 -0.134475 -0.149771 -0.137549 -0.115775 -0.132417 
-0.132558 -0.132789 -0.132865 -0.13275 -0.132575 -0.132535 -0.132446 -0.132388 -0.132379 
-0.132427 -0.132531 -0.132596 -0.132788 -0.140236 -0.13019 -0.144591 -0.141211 -0.138068 
-0.135752 -0.133503 -0.13234 -0.13054 -0.129742 -0.128196 -0.127238 -0.125883 -0.124397 
-0.122851 -0.12142 -0.119582 -0.13573 -0.13537 -0.133844 -0.133384 -0.132765 -0.132355 
-0.124936 -0.120941 -0.149155 -0.145723 -0.146422 -0.13216 -0.133635 -0.121506 -0.151278 
-0.153681 -0.156368 -0.157157 -0.156465 -0.15674 -0.157945 -0.156537 -0.155963 -0.155163 
-0.153455 -0.151744 -0.150213 -0.148544 -0.121765 -0.137604 -0.135811 -0.133791 -0.134748 
-0.12067 -0.12135 -0.132173 -0.147805 -0.118194 -0.145226 -0.132271 -0.142628 -0.118752 
-0.122371 -0.125966 -0.153139 -0.128004 -0.130891 -0.126701 -0.133896 -0.121512 -0.124332 
-0.11915 -0.123753 -0.149461 -0.133503 -0.132915 -0.132591 -0.132384 -0.132209 -0.132145 
-0.132257 -0.143089 -0.139816 -0.138167 -0.1408 -0.136266 -0.133665 -0.127742 -0.133816 
-0.132946 -0.152813 -0.149447 -0.129579 -0.153483 -0.152464 -0.152491 -0.150986 -0.147674 
-0.146567 -0.123171 -0.132848 -0.132277 -0.130238 -0.125369 -0.131877 -0.13341 -0.132233 
-0.131661 -0.13045 -0.131838 -0.128077 -0.143489 -0.148399 -0.130221 -0.133079 -0.132825 
-0.132451 -0.132061 -0.13171 -0.131486 -0.131404 -0.131473 -0.131659 -0.131947 -0.132281 
-0.132637 -0.132965 -0.133209 -0.133403 -0.1335 -0.133554 -0.133541 -0.133494 -0.133444 
-0.133396 -0.174983 -0.145687 -0.132651 -0.126466 -0.123474 -0.122062 -0.121289 -0.121265 
-0.121498 -0.121782 -0.122454 -0.123307 -0.124145 -0.124874 -0.125575 -0.126091 -0.126396 
-0.126314 -0.125937 -0.125276 -0.124224 -0.123208 -0.121971 -0.120955 -0.120637 -0.121137 
-0.122402 -0.124108 -0.12604 -0.127733 -0.129278 -0.130583 -0.131522 -0.132284 -0.132768 
-0.133411 -0.133471 -0.133549 -0.133669 -0.133868 -0.133646 -0.133274 -0.132468 -0.131069 
-0.129223 -0.12755 -0.125925 -0.124625 -0.123885 -0.124258 -0.126013 -0.130745 -0.147805 
-0.205552 -0.182851 -0.176989 -0.174258 -0.197918 -0.202599 -0.196101 -0.172603 -0.198611 
-0.196392 -0.198084 -0.173926 -0.198085 -0.198552 -0.198842 -0.199009 -0.196208 -0.197448 
-0.199973 -0.202728 -0.180059 -0.150513 -0.121733 -0.11475 -0.114555 -0.115037 -0.115046 
-0.114885 -0.115159 -0.115031 -0.115316 -0.114621 -0.113849 -0.11155 -0.113168 -0.180587 
-0.110023 -0.109469 -0.103063 -0.111462 -0.11279 -0.113908 -0.114764 -0.114481 -0.114883 
-0.115091 -0.114862 -0.109688 -0.126603 -0.160681 -0.201163 -0.133668 -0.138285 -0.192707 
-0.183217 -0.142929 -0.138397 -0.132497 -0.132639 -0.132054 -0.131905 -0.131833 -0.131839 
-0.13192 -0.132059 -0.132234 -0.132462 -0.13268 -0.132884 -0.133054 -0.133205 -0.133302 
-0.133375 -0.133406 -0.133416 -0.133445 -0.12941 -0.136745 -0.145241 -0.158996 -0.131602 
-0.128748 -0.126991 -0.125904 -0.125051 -0.124693 -0.124617 -0.124718 -0.124866 -0.124954 
-0.125014 -0.124949 -0.124743 -0.124347 -0.123711 -0.123022 -0.122354 -0.12196 -0.121936 
-0.122484 -0.123442 -0.124719 -0.125616 -0.126523 -0.127661 -0.128693 -0.129661 -0.130565 
-0.131276 -0.131871 -0.132326 -0.160111 -0.133437 -0.132498 -0.133432 -0.143656 -0.13058 
-0.147205 -0.131611 -0.128451 -0.128596 -0.12911 -0.129434 -0.130156 -0.131442 -0.134014 
-0.13833 -0.15236 -0.159813 -0.161294 -0.163577 -0.164226 -0.165003 -0.165207 -0.165605 
-0.165862 -0.165957 -0.166263 -0.166075 -0.165406 -0.165491 -0.164691 -0.164653 -0.163873 
-0.164456 -0.164498 -0.140385 -0.12739 -0.153122 -0.118985 -0.114309 -0.112164 -0.111204 
-0.110786 -0.110607 -0.110608 -0.110696 -0.110717 -0.110799 -0.112115 -0.117564 -0.119833 
-0.15522 -0.11145 -0.108769 -0.10944 -0.110127 -0.110706 -0.111359 -0.112157 -0.113485 
-0.117153 -0.122948 -0.135311 -0.13225 -0.129713 -0.108954 -0.108255 -0.145908 -0.132963 
-0.130079 -0.153328 -0.146701 -0.138301 -0.131979 -0.132188 -0.132159 -0.132202 -0.132239 
-0.132297 -0.132392 -0.132499 -0.132629 -0.132758 -0.1329 -0.133033 -0.133159 -0.133274 
-0.133323 -0.126686 -0.12771 -0.132322 -0.115837 -0.13891 -0.15346 -0.130838 -0.12931 
-0.128141 -0.127312 -0.126716 -0.126217 -0.125719 -0.125169 -0.124485 -0.123669 -0.122774 
-0.121839 -0.120781 -0.11996 -0.119547 -0.119991 -0.121747 -0.124399 -0.127985 -0.129435 
-0.129916 -0.130322 -0.130585 -0.130831 -0.131167 -0.131463 -0.13177 -0.133143 -0.133198 
-0.135031 -0.126444 -0.136316 -0.134338 -0.13213 -0.138741 -0.148477 -0.132174 -0.159738 
-0.160836 -0.161241 -0.161818 -0.162348 -0.162586 -0.162576 -0.162207 -0.161566 -0.160741 
-0.159577 -0.158688 -0.15826 -0.155376 -0.1307 -0.152565 -0.118027 -0.116159 -0.115046 
-0.114423 -0.11418 -0.11421 -0.114506 -0.114982 -0.116379 -0.11958 -0.124532 -0.113135 
-0.11272 -0.114505 -0.115313 -0.116837 -0.119586 -0.124265 -0.131442 -0.146489 -0.129989 
-0.145078 -0.14003 -0.136298 -0.16045 -0.142762 -0.121348 -0.113961 -0.132172 -0.132761 
-0.129046 -0.112509 -0.132095 -0.143259 -0.150089 -0.139045 -0.130587 -0.142515 -0.14798 
-0.135715 -0.132106 -0.142537 -0.158166 -0.148797 -0.122986 -0.126091 -0.118533 -0.112677 
-0.144222 -0.133929 -0.132536 -0.132417 -0.132399 -0.132417 -0.132477 -0.132601 -0.132751 
-0.132902 -0.13311 -0.126087 -0.131505 -0.130596 -0.132188 -0.134081 -0.12936 -0.128263 
-0.127249 -0.126077 -0.124731 -0.123259 -0.12163 -0.120129 -0.118862 -0.117038 -0.135251 
-0.133539 -0.133903 -0.132684 -0.132318 -0.132094 -0.132025 -0.1382 -0.136179 -0.15734 
-0.132514 -0.122665 -0.140469 -0.12008 -0.138144 -0.14222 -0.13679 -0.123159 -0.15836 
-0.142057 -0.156186 -0.158796 -0.159038 -0.158787 -0.157985 -0.156827 -0.155317 -0.153571 
-0.151889 -0.127792 -0.148743 -0.15463 -0.119163 -0.118299 -0.117621 -0.117106 -0.117615 
-0.118593 -0.118788 -0.120507 -0.123853 -0.119259 -0.117735 -0.124319 -0.129089 -0.12459 
-0.12126 -0.115845 -0.132447 -0.11643 -0.132542 -0.151253 -0.128055 -0.144258 -0.131991 
-0.133648 -0.134515 -0.137712 -0.132063 -0.139591 -0.129698 -0.136987 -0.130398 -0.150441 
-0.132438 -0.126513 -0.116968 -0.156433 -0.138353 -0.132218 -0.14671 -0.139876 -0.145427 
-0.118229 -0.132347 -0.132201 -0.132428 -0.130949 -0.134302 -0.124557 -0.126573 -0.143777 
-0.132447 -0.136591 -0.129484 -0.127777 -0.125819 -0.123622 -0.121001 -0.134882 -0.133836 
-0.133012 -0.132498 -0.131671 -0.132914 -0.154679 -0.140139 -0.154275 -0.14517 -0.145592 
-0.123553 -0.155223 -0.151509 -0.138978 -0.15534 -0.154877 -0.153651 -0.151689 -0.149178 
-0.146142 -0.147725 -0.147558 -0.132165 -0.132259 -0.121094 -0.119861 -0.119919 -0.121324 
-0.146963 -0.127412 -0.124638 -0.132594 -0.127641 -0.146802 -0.132932 -0.129505 -0.133846 
-0.141066 -0.135016 -0.131606 -0.132991 -0.132528 -0.130978 -0.121619 -0.122305 -0.1228 
-0.135932 -0.132744 -0.144951 -0.130435 -0.132524 -0.135016 -0.151704 -0.133312 -0.141604 
-0.151391 -0.148959 -0.14652 -0.143955 -0.131872 -0.140505 -0.124831 -0.149351 -0.138237 
-0.151561 -0.152426 -0.127545 -0.133769 -0.132088 -0.14814 -0.150922 -0.134084 -0.131717 
-0.132685 -0.136706 -0.136263 -0.148432 -0.130717 -0.133647 -0.133072 1.37425e-06 1.38775e-06 
1.07693e-06 -0.0605822 -0.066888 -0.060084 9.10474e-07 8.67671e-07 8.45325e-07 -0.0626354 8.7045e-07 
8.66001e-07 8.6748e-07 -0.0606949 8.73838e-07 8.65464e-07 8.61549e-07 8.42601e-07 8.30681e-07 8.48131e-07 
8.45482e-07 8.60471e-07 -0.0667291 -0.0660117 -0.133733 -0.129016 9.07988e-07 8.63574e-07 8.27138e-07 
7.84613e-07 7.61139e-07 7.87571e-07 7.88353e-07 8.22467e-07 7.92674e-07 7.67714e-07 7.70997e-07 7.81866e-07 
8.12921e-07 8.02537e-07 7.75416e-07 7.72059e-07 7.6576e-07 7.97925e-07 7.98807e-07 7.74362e-07 7.82524e-07 
7.86574e-07 8.10309e-07 8.85487e-07 8.53299e-07 1.07943e-06 -0.133382 -0.133381 -0.133163 -0.132787 
-0.132303 -0.131837 -0.13142 -0.131103 -0.130914 -0.130908 -0.131025 -0.131268 -0.131613 
-0.131993 -0.132408 -0.132796 -0.133139 -0.133417 -0.133625 -0.133757 -0.133815 -0.133809 
-0.133742 -0.133646 -0.133533 -0.133426 -0.133351 -0.133326 -0.226252 -0.157654 -0.13119 
-0.122588 -0.118952 -0.116946 -0.115926 -0.115624 -0.115722 -0.116248 -0.116971 -0.117813 
-0.118714 -0.119831 -0.120979 -0.122196 -0.123455 -0.124646 -0.125828 -0.126881 -0.12777 
-0.128392 -0.128688 -0.128721 -0.128363 -0.127593 -0.126248 -0.124477 -0.122261 -0.119749 
-0.117546 -0.116488 -0.116655 -0.118078 -0.120295 -0.122773 -0.125153 -0.127198 -0.128857 
-0.13022 -0.131365 -0.132205 -0.132812 -0.133227 -0.133362 -0.133346 -0.133323 -0.133375 
-0.133516 -0.133739 -0.134054 -0.134483 -0.135029 -0.13564 -0.135883 -0.134966 -0.132301 
-0.128096 -0.123327 -0.119063 -0.116285 -0.114901 -0.114498 -0.11551 -0.120775 -0.127931 
-0.14889 -0.2455 -0.0511981 -0.0500785 -0.0510184 -0.0582716 -0.060108 -0.0557689 -0.0610284 
-0.0611373 -0.0607695 -0.0603955 -0.0508102 -0.0501589 -0.0384985 -0.0458294 -0.0417283 -0.0477571 
-0.0539699 -0.0581454 -0.0583762 -0.0608014 -0.0612953 -0.0607701 -0.0607076 -0.0548288 -0.0592947 
-0.059663 -0.0594073 -0.051773 -0.0559502 -0.133349 -0.133334 -0.133098 -0.132545 -0.131914 
-0.131374 -0.130974 -0.13085 -0.130996 -0.131264 -0.131691 -0.132215 -0.132728 -0.133169 
-0.133517 -0.133723 -0.133798 -0.1338 -0.133715 -0.133579 -0.133445 -0.133359 -0.133327 
-0.247528 -0.152274 -0.127224 -0.120886 -0.117498 -0.116171 -0.115739 -0.116026 -0.11674 
-0.117705 -0.118887 -0.120236 -0.121753 -0.12333 -0.12494 -0.126348 -0.127518 -0.128347 
-0.128787 -0.128678 -0.128011 -0.126631 -0.124278 -0.121427 -0.118515 -0.116692 -0.116778 
-0.1186 -0.121217 -0.12407 -0.126601 -0.128694 -0.130441 -0.131713 -0.132626 -0.133148 
-0.133358 -0.13336 -0.133328 -0.133358 -0.133464 -0.133652 -0.133907 -0.134246 -0.134694 
-0.13528 -0.135848 -0.135624 -0.133762 -0.130308 -0.12591 -0.121503 -0.117998 -0.115711 
-0.114505 -0.114197 -0.115773 -0.118118 -0.126033 -0.1567 -0.224786 -0.0705133 -0.0573123 
-0.0575333 -0.0585565 -0.0588596 -0.0611582 -0.0609658 -0.0608938 -0.0603648 -0.0547002 -0.0596419 
-0.0550476 -0.0405383 -0.0379885 -0.105308 -0.0283167 -0.0377724 -0.0569917 -0.0525026 -0.0585721 
-0.0598664 -0.0558147 -0.0608921 -0.0605775 -0.0605731 -0.059612 -0.06229 -0.0559729 -0.0699456 
-0.0666525 -0.133321 -0.133365 -0.0964473 -0.0513362 -0.0848817 -0.0503644 1.22559e-06 1.23359e-06 
1.37652e-06 8.80889e-07 -0.000115746 8.46709e-07 -0.000490545 8.06554e-07 -0.000748001 -0.0291813 -0.0184304 
-0.0171476 -0.0267192 -0.0121771 -0.0331899 8.13426e-07 -0.000659237 -0.0322599 -0.0123104 -0.0223228 
-0.0209996 -0.0154268 -0.0305599 -0.000805212 8.05463e-07 -0.0330209 -0.015116 -0.0210509 -0.0221633 
-0.0144658 -0.0281988 -0.00579282 -0.0341929 -0.0326888 -0.00701718 -0.0287916 -0.0142609 -0.0215413 
-0.0216221 -0.0132089 -0.031674 -0.00100855 8.61525e-07 8.40529e-07 0.000563189 -9.27437e-05 1.33446e-05 
-8.05164e-05 -0.000653678 -0.133339 -0.133296 -0.133208 -0.133129 -0.132979 -0.133047 -0.132819 
-0.132585 -0.132807 -0.132429 -0.132186 -0.132475 -0.132023 -0.131808 -0.132137 -0.131661 
-0.131461 -0.131831 -0.131342 -0.131233 -0.131574 -0.131186 -0.131142 -0.131391 -0.131129 
-0.131145 -0.131341 -0.131182 -0.13128 -0.131387 -0.131382 -0.131518 -0.131521 -0.131648 
-0.131816 -0.131713 -0.131952 -0.132162 -0.131971 -0.13231 -0.132507 -0.132265 -0.132663 
-0.132831 -0.132568 -0.132973 -0.133141 -0.132844 -0.133252 -0.133359 -0.133091 -0.133446 
-0.133538 -0.133296 -0.133605 -0.13366 -0.133459 -0.133696 -0.1337 -0.13355 -0.133702 
-0.133695 -0.133591 -0.133681 -0.133641 -0.1336 -0.133622 -0.133565 -0.13357 -0.133541 
-0.13349 -0.133519 -0.133457 -0.133419 -0.133463 -0.133387 -0.133369 -0.13342 -0.133342 
-0.133336 -0.133345 -0.133376 -0.198183 -0.246729 -0.157273 -0.142161 -0.136176 -0.162841 
-0.130158 -0.128202 -0.140045 -0.124863 -0.123307 -0.131209 -0.121412 -0.120532 -0.126471 
-0.119509 -0.119213 -0.123812 -0.118631 -0.1186 -0.122096 -0.118307 -0.118505 -0.121131 
-0.118234 -0.118565 -0.120594 -0.118577 -0.118959 -0.120446 -0.119134 -0.119538 -0.120673 
-0.119839 -0.120268 -0.121105 -0.120603 -0.12117 -0.121586 -0.121492 -0.122086 -0.122232 
-0.122406 -0.123053 -0.12291 -0.123425 -0.123997 -0.123644 -0.124424 -0.12499 -0.12436 
-0.125317 -0.125888 -0.125086 -0.126148 -0.126645 -0.125725 -0.126858 -0.127284 -0.126231 
-0.12737 -0.127568 -0.12658 -0.127664 -0.127727 -0.126662 -0.127637 -0.127545 -0.126669 
-0.127313 -0.127032 -0.12636 -0.126683 -0.12618 -0.125799 -0.125737 -0.12496 -0.124959 
-0.124277 -0.123367 -0.123835 -0.122777 -0.121561 -0.12273 -0.121052 -0.119794 -0.121547 
-0.119427 -0.118538 -0.120474 -0.118522 -0.118314 -0.120016 -0.118636 -0.119016 -0.120495 
-0.119467 -0.120476 -0.12115 -0.121217 -0.122368 -0.122388 -0.123149 -0.12443 -0.124013 
-0.125241 -0.126323 -0.125706 -0.12704 -0.128018 -0.127273 -0.1287 -0.129408 -0.128692 
-0.129998 -0.130636 -0.129888 -0.131064 -0.131543 -0.130905 -0.131879 -0.132254 -0.13168 
-0.132533 -0.132802 -0.132289 -0.132988 -0.133101 -0.132737 -0.133252 -0.133239 -0.133021 
-0.133465 -0.133555 -0.133612 -0.133744 -0.133545 -0.13382 -0.133998 -0.133673 -0.134081 
-0.134301 -0.133822 -0.134314 -0.134568 -0.133901 -0.13425 -0.134075 -0.133534 -0.132621 
-0.132565 -0.131845 -0.130216 -0.131289 -0.129191 -0.127062 -0.129446 -0.125989 -0.123926 
-0.127275 -0.123092 -0.121374 -0.125289 -0.120816 -0.120008 -0.124012 -0.120181 -0.119989 
-0.123757 -0.120848 -0.121367 -0.124795 -0.123397 -0.125206 -0.127512 -0.136337 -0.143339 
-0.153859 -0.169202 -0.156572 -0.184871 -0.16682 -0.167179 -0.158318 -0.154357 -0.246348 
-0.152415 -0.146699 -0.233017 -0.147221 -0.151732 -0.224423 -0.150878 -0.148013 -0.172468 
-0.150452 -0.148452 -0.177438 -0.145576 -0.144992 -0.177379 -0.150663 -0.148733 -0.219695 
-0.147249 -0.147956 -0.219479 -0.147599 -0.148188 -0.176171 -0.14864 -0.149191 -0.174606 
-0.147453 -0.146024 -0.176076 -0.147395 -0.14918 -0.219271 -0.146937 -0.14766 -0.220432 
-0.148273 -0.149212 -0.177378 -0.149956 -0.149568 -0.176254 -0.147685 -0.146063 -0.175819 
-0.146113 -0.146635 -0.17641 -0.146358 -0.145747 -0.216547 -0.14592 -0.146734 -0.177518 
-0.14875 -0.147919 -0.177201 -0.148587 -0.148107 -0.180065 -0.149952 -0.150595 -0.181466 
-0.156462 -0.162425 -0.226664 -0.157154 -0.150048 -0.238394 -0.1103 -0.125121 -0.0991938 
-0.100287 -0.121932 -0.0974035 -0.0966174 -0.112988 -0.0985261 -0.0981771 -0.110625 -0.0997891 
-0.0990231 -0.10987 -0.0997208 -0.0995009 -0.110048 -0.100468 -0.100278 -0.110684 -0.100875 
-0.100938 -0.110765 -0.100533 -0.100334 -0.110939 -0.0993557 -0.100543 -0.110338 -0.0965478 
-0.0985908 -0.11003 -0.0934845 -0.0953356 -0.109307 -0.0854194 -0.0928459 -0.108142 -0.204251 
-0.185128 -0.101139 -0.084767 -0.0864623 -0.0928422 -0.102804 -0.0933384 -0.0960692 -0.10418 
-0.0964428 -0.0967804 -0.116287 -0.0989309 -0.0979742 -0.105709 -0.0983111 -0.0990468 -0.108982 
-0.0994163 -0.0988791 -0.109361 -0.0997907 -0.0993334 -0.110001 -0.0995465 -0.0988396 -0.110257 
-0.0988192 -0.0977715 -0.110832 -0.0994331 -0.10013 -0.111562 -0.100791 -0.102141 -0.122421 
-0.104088 -0.104686 -0.126927 -0.11786 -0.137191 -0.130409 -0.190574 -0.167707 -0.133255 
-0.160884 -0.133373 -0.133422 -0.181256 -0.134384 -0.134565 -0.134167 -0.129168 -0.13297 
-0.133339 -0.147129 -0.161866 -0.207125 -0.115863 -0.137598 -0.1796 -0.191075 -0.160219 
-0.125024 -0.162219 -0.183092 -0.172174 -0.163182 -0.119132 -0.133449 -0.237578 -0.132781 
-0.132636 -0.132511 -0.132346 -0.132515 -0.132246 -0.132089 -0.13228 -0.131972 -0.131851 
-0.132075 -0.131773 -0.13165 -0.131908 -0.131606 -0.131536 -0.131786 -0.131522 -0.131516 
-0.131708 -0.131537 -0.131589 -0.131704 -0.131618 -0.131715 -0.131774 -0.131782 -0.131883 
-0.131875 -0.131984 -0.132106 -0.132023 -0.13222 -0.132364 -0.13221 -0.132481 -0.132616 
-0.132434 -0.132731 -0.132852 -0.132647 -0.132956 -0.133069 -0.132833 -0.13315 -0.133239 
-0.133017 -0.133316 -0.133371 -0.133173 -0.133423 -0.13345 -0.133282 -0.133492 -0.133495 
-0.133362 -0.133516 -0.133516 -0.133418 -0.133516 -0.133504 -0.13345 -0.133497 -0.133474 
-0.133457 -0.133466 -0.133443 -0.133442 -0.133472 -0.133529 -0.133146 -0.148038 -0.141742 
-0.138356 -0.134708 -0.143722 -0.131761 -0.129712 -0.136882 -0.127941 -0.126944 -0.132757 
-0.125568 -0.124741 -0.129525 -0.123974 -0.123664 -0.127135 -0.123056 -0.122873 -0.125626 
-0.122469 -0.122458 -0.124738 -0.122273 -0.122456 -0.124241 -0.122368 -0.122585 -0.123955 
-0.122669 -0.122913 -0.1239 -0.123016 -0.12336 -0.124007 -0.123414 -0.123757 -0.124192 
-0.123906 -0.124246 -0.12443 -0.124405 -0.124741 -0.124665 -0.124864 -0.125187 -0.124843 
-0.125288 -0.125557 -0.125031 -0.125537 -0.125771 -0.125156 -0.12579 -0.125833 -0.125144 
-0.125767 -0.125819 -0.125016 -0.125667 -0.125615 -0.124781 -0.125407 -0.125187 -0.124462 
-0.124885 -0.124503 -0.123976 -0.124189 -0.123701 -0.123288 -0.123399 -0.122855 -0.122623 
-0.122616 -0.122131 -0.122217 -0.121981 -0.121497 -0.122094 -0.121599 -0.121134 -0.122025 
-0.121574 -0.121603 -0.12243 -0.122076 -0.122477 -0.123448 -0.122835 -0.123162 -0.124449 
-0.123709 -0.124385 -0.125119 -0.124878 -0.125695 -0.126074 -0.126195 -0.12706 -0.127078 
-0.127533 -0.128274 -0.12813 -0.128798 -0.129409 -0.129125 -0.129874 -0.130393 -0.130005 
-0.130774 -0.131221 -0.130746 -0.131481 -0.131821 -0.131382 -0.132067 -0.132357 -0.131933 
-0.132559 -0.132725 -0.132365 -0.132874 -0.133003 -0.1327 -0.183704 -0.171534 -0.155412 
-0.133743 -0.133525 -0.133597 -0.133554 -0.133621 -0.133422 -0.133561 -0.133526 -0.133277 
-0.128477 -0.113828 -0.143017 -0.171198 -0.15233 -0.130398 -0.129661 -0.129399 -0.128506 
-0.12879 -0.128417 -0.127423 -0.128562 -0.127614 -0.126882 -0.127199 -0.126792 -0.128846 
-0.127534 -0.127811 -0.129855 -0.12916 -0.130095 -0.131797 -0.132018 -0.133933 -0.13474 
-0.132206 -0.13191 -0.136214 -0.149156 -0.16728 -0.182743 -0.156813 -0.175832 -0.177516 
-0.170756 -0.168214 -0.167979 -0.167082 -0.166883 -0.166062 -0.164643 -0.166437 -0.164839 
-0.167728 -0.16537 -0.165345 -0.169172 -0.168116 -0.164966 -0.168144 -0.169068 -0.166204 
-0.166115 -0.166939 -0.165943 -0.16796 -0.168398 -0.165582 -0.167556 -0.16619 -0.165966 
-0.16936 -0.168331 -0.167012 -0.168534 -0.169737 -0.167462 -0.166161 -0.16763 -0.166543 
-0.167379 -0.167917 -0.165458 -0.167967 -0.165348 -0.166905 -0.166464 -0.164333 -0.16451 
-0.16619 -0.165207 -0.165026 -0.164972 -0.166864 -0.163872 -0.165988 -0.167922 -0.16327 
-0.167661 -0.168328 -0.165392 -0.168939 -0.170217 -0.165908 -0.171593 -0.172064 -0.16581 
-0.170225 -0.113976 -0.116 -0.120746 -0.128897 -0.133148 -0.121227 -0.110077 -0.110069 
-0.109835 -0.109519 -0.111596 -0.109628 -0.109663 -0.111093 -0.109736 -0.109519 -0.110924 
-0.109632 -0.109833 -0.11093 -0.109434 -0.109666 -0.111033 -0.10951 -0.1098 -0.111211 
-0.109792 -0.110422 -0.111664 -0.112447 -0.112504 -0.113336 -0.135846 -0.118526 -0.133423 
-0.133463 -0.146286 -0.157115 -0.105375 -0.106655 -0.106887 -0.106368 -0.108217 -0.106457 
-0.107811 -0.108265 -0.107748 -0.108027 -0.108723 -0.108381 -0.108474 -0.108854 -0.108887 
-0.109163 -0.1094 -0.10952 -0.109554 -0.110065 -0.110033 -0.110417 -0.110891 -0.11132 
-0.111964 -0.11215 -0.112783 -0.114463 -0.114586 -0.118347 -0.122288 -0.118646 -0.12654 
-0.137486 -0.127915 -0.133024 -0.132853 -0.13279 -0.136933 -0.141375 -0.139349 -0.131354 
-0.130838 -0.129517 -0.130517 -0.159191 -0.165734 -0.111213 -0.111614 -0.112622 -0.11133 
-0.107428 -0.109511 -0.152833 -0.143131 -0.133005 -0.13291 -0.132754 -0.133379 -0.133455 
-0.133448 -0.133434 -0.133418 -0.133404 -0.157428 -0.11758 -0.134085 -0.126417 -0.148081 
-0.152993 -0.165807 -0.128459 -0.131724 -0.14919 -0.145565 -0.143866 -0.152325 -0.178378 
-0.17777 -0.167731 -0.115127 -0.146846 -0.14541 -0.152947 -0.12357 -0.134759 -0.156687 
-0.160496 -0.146501 -0.150866 -0.160764 -0.157583 -0.141417 -0.160505 -0.136542 -0.132311 
-0.132221 -0.132152 -0.132089 -0.13219 -0.132023 -0.131973 -0.132098 -0.131935 -0.131877 
-0.132066 -0.131876 -0.13187 -0.132031 -0.13186 -0.131891 -0.13203 -0.131892 -0.131933 
-0.132052 -0.131974 -0.132022 -0.132093 -0.132086 -0.132152 -0.132146 -0.132224 -0.132313 
-0.13225 -0.132383 -0.132478 -0.132382 -0.13256 -0.132654 -0.132517 -0.132726 -0.132821 
-0.132638 -0.13289 -0.132977 -0.132777 -0.133033 -0.133106 -0.132917 -0.133159 -0.133195 
-0.133025 -0.133246 -0.133275 -0.133117 -0.133317 -0.133346 -0.133206 -0.133369 -0.133388 
-0.133284 -0.133411 -0.133414 -0.133352 -0.1325 -0.132384 -0.132324 -0.126273 -0.120484 
-0.132694 -0.132602 -0.132461 -0.132556 -0.14209 -0.139505 -0.136703 -0.135088 -0.141568 
-0.133379 -0.131656 -0.137202 -0.130402 -0.129246 -0.133768 -0.128341 -0.127593 -0.131182 
-0.126969 -0.126573 -0.129363 -0.12601 -0.125827 -0.128173 -0.125475 -0.125387 -0.127286 
-0.125242 -0.12523 -0.126758 -0.125091 -0.125119 -0.126326 -0.124981 -0.125044 -0.125965 
-0.124957 -0.125049 -0.125746 -0.124961 -0.125038 -0.125512 -0.124952 -0.125029 -0.125215 
-0.124886 -0.124951 -0.124916 -0.124775 -0.124757 -0.124578 -0.124556 -0.12449 -0.12419 
-0.124284 -0.124157 -0.123717 -0.123936 -0.123806 -0.123174 -0.123531 -0.123353 -0.122674 
-0.123001 -0.122713 -0.122108 -0.122392 -0.122073 -0.121468 -0.121805 -0.121551 -0.120916 
-0.121562 -0.121428 -0.120662 -0.121801 -0.121874 -0.121251 -0.122322 -0.122471 -0.122289 
-0.123092 -0.12376 -0.123338 -0.125017 -0.125839 -0.1258 -0.126258 -0.126539 -0.12795 
-0.126734 -0.127029 -0.1285 -0.127255 -0.127704 -0.128662 -0.128046 -0.128526 -0.12913 
-0.128834 -0.129263 -0.129763 -0.129567 -0.130006 -0.130269 -0.130264 -0.130646 -0.13071 
-0.130854 -0.131198 -0.131093 -0.131352 -0.131648 -0.131441 -0.131816 -0.132075 -0.131794 
-0.132216 -0.132423 -0.132422 -0.132132 -0.113817 -0.111001 -0.120459 -0.116028 -0.117058 
-0.133374 -0.133374 -0.13327 -0.13324 -0.18166 -0.133036 -0.132959 -0.159506 -0.159918 
-0.158351 -0.150095 -0.138882 -0.142115 -0.128336 -0.128448 -0.131122 -0.130485 -0.132329 
-0.133077 -0.134395 -0.135588 -0.136489 -0.137348 -0.138991 -0.139296 -0.151523 -0.143463 
-0.136491 -0.142343 -0.117104 -0.118921 -0.157984 -0.154991 -0.148996 -0.161733 -0.129467 
-0.12972 -0.129262 -0.162615 -0.162437 -0.162611 -0.162366 -0.159722 -0.162723 -0.162799 
-0.160046 -0.162954 -0.164118 -0.16062 -0.164331 -0.164566 -0.161137 -0.165061 -0.164562 
-0.162265 -0.165 -0.165039 -0.163157 -0.165359 -0.165497 -0.163511 -0.165333 -0.166292 
-0.163901 -0.16622 -0.166122 -0.163762 -0.166117 -0.165373 -0.163918 -0.165376 -0.165146 
-0.163895 -0.164836 -0.164672 -0.163288 -0.164284 -0.164166 -0.162727 -0.163762 -0.164371 
-0.162137 -0.16399 -0.163073 -0.161259 -0.16286 -0.16267 -0.160704 -0.162545 -0.162513 
-0.160058 -0.162442 -0.162815 -0.159598 -0.162565 -0.162537 -0.156448 -0.1598 -0.112504 
-0.112541 -0.113706 -0.114078 -0.112954 -0.112842 -0.114184 -0.113032 -0.112993 -0.114582 
-0.113326 -0.113179 -0.114551 -0.114749 -0.114114 -0.115282 -0.118103 -0.116347 -0.11762 
-0.136807 -0.130919 -0.146165 -0.149656 -0.14153 -0.145996 -0.153271 -0.110336 -0.110726 
-0.11072 -0.110952 -0.112192 -0.111023 -0.111356 -0.112495 -0.111483 -0.111831 -0.11285 
-0.112109 -0.112574 -0.113428 -0.112937 -0.11356 -0.114262 -0.114219 -0.115362 -0.115528 
-0.116515 -0.11774 -0.117748 -0.120013 -0.122996 -0.121389 -0.126467 -0.131902 -0.134447 
-0.132483 -0.141174 -0.143837 -0.146098 -0.147296 -0.14285 -0.115045 -0.115809 -0.118344 
-0.1163 -0.146942 -0.128072 -0.127943 -0.130841 -0.131195 -0.133818 -0.131385 -0.112972 
-0.11317 -0.115013 -0.114272 -0.137475 -0.132993 -0.161578 -0.153851 -0.155575 -0.110451 
-0.11052 -0.11213 -0.113182 -0.133423 -0.133425 -0.133437 -0.133223 -0.128691 -0.133425 
-0.132921 -0.135931 -0.134734 -0.129281 -0.133427 -0.12781 -0.130598 -0.128994 -0.128458 
-0.128082 -0.126885 -0.12898 -0.129464 -0.138956 -0.143003 -0.142485 -0.139759 -0.135101 
-0.152809 -0.146452 -0.141855 -0.137361 -0.145766 -0.121549 -0.125726 -0.128708 -0.133357 
-0.148437 -0.122092 -0.146187 -0.15083 -0.142796 -0.126895 -0.132108 -0.131886 -0.130818 
-0.128902 -0.133392 -0.127388 -0.12313 -0.157754 -0.149999 -0.121625 -0.122102 -0.132176 
-0.132164 -0.132169 -0.132153 -0.132261 -0.13219 -0.132185 -0.132312 -0.132219 -0.132211 
-0.132371 -0.132212 -0.13223 -0.132392 -0.132218 -0.132242 -0.132384 -0.132248 -0.132274 
-0.132352 -0.132304 -0.132339 -0.132359 -0.132371 -0.132416 -0.132386 -0.132454 -0.132514 
-0.132445 -0.132554 -0.132619 -0.132507 -0.132664 -0.13274 -0.132581 -0.1328 -0.132864 
-0.132687 -0.132887 -0.132935 -0.132777 -0.132987 -0.133033 -0.132853 -0.133101 -0.133149 
-0.132968 -0.133176 -0.133224 -0.133085 -0.133282 -0.133321 -0.1332 -0.138305 -0.13946 
-0.132841 -0.132644 -0.114115 -0.114305 -0.132337 -0.145599 -0.142656 -0.140847 -0.138666 
-0.144289 -0.137192 -0.135391 -0.140357 -0.134121 -0.132818 -0.137052 -0.131871 -0.131017 
-0.134443 -0.130281 -0.129638 -0.132476 -0.128768 -0.128475 -0.130841 -0.128328 -0.128119 
-0.129873 -0.127721 -0.127483 -0.129267 -0.127123 -0.126932 -0.128417 -0.126561 -0.126426 
-0.127686 -0.12608 -0.125922 -0.126924 -0.125616 -0.125457 -0.126209 -0.125074 -0.124895 
-0.125397 -0.124454 -0.124229 -0.124518 -0.123775 -0.123542 -0.123601 -0.123087 -0.122816 
-0.122718 -0.122407 -0.122147 -0.1218 -0.121799 -0.121553 -0.121008 -0.121114 -0.120817 
-0.120234 -0.120355 -0.120117 -0.119403 -0.119848 -0.11969 -0.118751 -0.119425 -0.119587 
-0.118394 -0.119977 -0.120581 -0.122707 -0.123472 -0.12448 -0.131138 -0.130082 -0.130248 
-0.130522 -0.130769 -0.131895 -0.130759 -0.131021 -0.132015 -0.130974 -0.131187 -0.132071 
-0.131203 -0.131409 -0.131933 -0.131382 -0.131564 -0.131872 -0.131596 -0.131744 -0.131854 
-0.131823 -0.131994 -0.131921 -0.122172 -0.124512 -0.118659 -0.11627 -0.152956 -0.14802 
-0.149481 -0.15618 -0.136193 -0.137608 -0.129977 -0.126634 -0.116476 -0.116513 -0.128719 
-0.127692 -0.125969 -0.129159 -0.141014 -0.142572 -0.1428 -0.149435 -0.146505 -0.129137 
-0.130337 -0.133174 -0.13308 -0.138323 -0.141404 -0.147939 -0.150106 -0.157572 -0.157746 
-0.158065 -0.158317 -0.155475 -0.158956 -0.159487 -0.156343 -0.160273 -0.160797 -0.157745 
-0.161343 -0.161698 -0.159354 -0.161851 -0.161978 -0.160155 -0.161998 -0.162059 -0.160245 
-0.162284 -0.162446 -0.160461 -0.16283 -0.162757 -0.161069 -0.162234 -0.162029 -0.160946 
-0.161705 -0.161409 -0.160113 -0.161118 -0.160775 -0.1595 -0.160406 -0.160003 -0.158716 
-0.159484 -0.158992 -0.157728 -0.158506 -0.158207 -0.156486 -0.15755 -0.157327 -0.155338 
-0.156711 -0.156683 -0.15422 -0.116641 -0.116543 -0.118124 -0.116353 -0.115991 -0.118105 
-0.117396 -0.116754 -0.11813 -0.120733 -0.119065 -0.120082 -0.126493 -0.127384 -0.127976 
-0.143549 -0.145388 -0.140379 -0.150682 -0.150823 -0.144081 -0.14418 -0.139735 -0.141285 
-0.139361 -0.124373 -0.121475 -0.122677 -0.131894 -0.135313 -0.130788 -0.113962 -0.114184 
-0.115784 -0.114328 -0.114624 -0.115814 -0.114737 -0.115217 -0.116237 -0.115488 -0.116077 
-0.116762 -0.116574 -0.117547 -0.117782 -0.118464 -0.119733 -0.119471 -0.121466 -0.123766 
-0.12611 -0.12217 -0.12605 -0.15539 -0.132198 -0.132184 -0.132178 -0.127356 -0.132264 
-0.132213 -0.132185 -0.132229 -0.133687 -0.130727 -0.130895 -0.136333 -0.155446 -0.1321 
-0.135749 -0.133285 -0.133173 -0.143842 -0.146464 -0.135133 -0.134012 -0.132525 -0.143643 
-0.139508 -0.143597 -0.132515 -0.121081 -0.122929 -0.119837 -0.132084 -0.117223 -0.11509 
-0.114009 -0.117314 -0.133341 -0.126302 -0.116513 -0.116969 -0.126247 -0.126542 -0.116492 
-0.11798 -0.0545057 -0.0508516 -0.126398 -0.12688 -0.130205 -0.12569 -0.125596 -0.146171 
-0.144806 -0.132082 -0.135392 -0.132642 -0.14761 -0.139896 -0.132848 -0.148725 -0.148133 
-0.147954 -0.135734 -0.137841 -0.156077 -0.126282 -0.125899 -0.124235 -0.124824 -0.129824 
-0.128622 -0.130614 -0.117995 -0.118864 -0.120985 -0.118945 -0.125021 -0.137127 -0.153198 
-0.132558 -0.133819 -0.15017 -0.15252 -0.152697 -0.146804 -0.135167 -0.136403 -0.139701 
-0.136231 -0.113978 -0.11409 -0.115912 -0.115816 -0.147022 -0.130492 -0.153135 -0.132315 
-0.132357 -0.132414 -0.132457 -0.132491 -0.132537 -0.132604 -0.132681 -0.132624 -0.13262 
-0.132801 -0.132577 -0.132544 -0.132813 -0.132475 -0.132462 -0.132678 -0.132467 -0.132447 
-0.132548 -0.132426 -0.132416 -0.132476 -0.132408 -0.132413 -0.132422 -0.132423 -0.132454 
-0.132396 -0.132479 -0.132523 -0.132408 -0.132578 -0.132644 -0.132479 -0.132655 -0.0580834 
-0.0584737 -0.132699 -0.13275 -0.132567 -0.132838 -0.132924 -0.132689 -0.141328 -0.142938 
-0.131295 -0.12921 -0.129359 -0.1315 -0.143306 -0.141622 -0.140011 -0.138323 -0.142856 
-0.136996 -0.135703 -0.139637 -0.13464 -0.133704 -0.136888 -0.132667 -0.131733 -0.134594 
-0.131575 -0.0610256 -0.0611096 -0.131052 -0.130564 -0.132913 -0.129727 -0.129295 -0.131428 
-0.128922 -0.128487 -0.130124 -0.127737 -0.127336 -0.128986 -0.126906 -0.126507 -0.127754 
-0.125897 -0.12544 -0.126535 -0.124728 -0.124246 -0.125107 -0.123501 -0.122974 -0.123611 
-0.12229 -0.121791 -0.122144 -0.120898 -0.120465 -0.120546 -0.117974 -0.117574 -0.11733 
-0.117183 -0.133793 -0.133805 -0.133865 -0.133655 -0.135498 -0.132901 -0.132856 -0.134565 
-0.132672 -0.132652 -0.13369 -0.13231 -0.132336 -0.133042 -0.132097 -0.132141 -0.132529 
-0.150009 -0.12637 -0.124823 -0.13211 -0.119645 -0.119665 -0.14666 -0.148797 -0.136085 
-0.13364 -0.147203 -0.146194 -0.144057 -0.145349 -0.147831 -0.132148 -0.132401 -0.131823 
-0.138511 -0.1377 -0.134152 -0.13498 -0.119844 -0.120005 -0.121205 -0.15352 -0.153985 
-0.150646 -0.155306 -0.156166 -0.152527 -0.157516 -0.158155 -0.154951 -0.158551 -0.158696 
-0.156796 -0.158336 -0.158353 -0.156809 -0.158516 -0.158676 -0.156667 -0.159318 -0.159723 
-0.157316 -0.159125 -0.0618531 -0.0597245 -0.158509 -0.158081 -0.15724 -0.157891 -0.157481 
-0.156275 -0.157188 -0.156604 -0.155581 -0.155929 -0.155188 -0.154336 -0.154292 -0.153846 
-0.152661 -0.152973 -0.152561 -0.151037 -0.151594 -0.151158 -0.147494 -0.149329 -0.119995 
-0.119983 -0.121558 -0.137932 -0.139991 -0.138974 -0.132921 -0.132684 -0.137318 -0.137693 
-0.137903 -0.135515 -0.133523 -0.135891 -0.135748 -0.131977 -0.13541 -0.13654 -0.117764 
-0.118068 -0.118876 -0.119581 -0.119943 -0.120865 -0.121007 -0.14533 -0.132175 -0.132222 
-0.132271 -0.132081 -0.146493 -0.148058 -0.133082 -0.118995 -0.117137 -0.11688 -0.119453 
-0.137668 -0.142833 -0.145194 -0.146805 -0.132494 -0.126984 -0.125196 -0.135223 -0.132352 
-0.133775 -0.133019 -0.144664 -0.142014 -0.1441 -0.120086 -0.119703 -0.138976 -0.147676 
-0.123944 -0.12305 -0.132245 -0.132041 -0.134369 -0.123733 -0.123684 -0.12507 -0.127145 
-0.151259 -0.150686 -0.128844 -0.12762 -0.126455 -0.131224 -0.130294 -0.131568 -0.125297 
-0.127405 -0.128475 -0.118425 -0.122003 -0.123442 -0.149544 -0.151019 -0.133837 -0.134573 
-0.123217 -0.143618 -0.145928 -0.119794 -0.120776 -0.1469 -0.130457 -0.134401 -0.123061 
-0.124045 -0.123241 -0.12503 -0.120282 -0.117196 -0.117465 -0.146589 -0.117736 -0.118276 
-0.122513 -0.122093 -0.123822 -0.11994 -0.147221 -0.148604 -0.133152 -0.133181 -0.132866 
-0.132727 -0.132691 -0.0618916 -0.0611145 -0.132586 -0.132516 -0.132793 -0.132425 -0.13237 
-0.132492 -0.132297 -0.132275 -0.132298 -0.132262 -0.13229 -0.132182 -0.132344 -0.132396 
-0.132198 -0.132961 -0.119137 -0.142242 -0.140529 -0.138926 -0.137721 -0.141475 -0.137047 
-0.135813 -0.138999 -0.0618644 -0.0605745 -0.137178 -0.139508 -0.138484 -0.134959 -0.13431 
-0.133037 -0.132093 -0.134972 -0.131696 -0.0616307 -0.0637101 -0.129997 -0.129194 -0.131988 
-0.127531 -0.126798 -0.120277 -0.119335 -0.140086 -0.140401 -0.143227 -0.133497 -0.133388 
-0.132831 -0.132692 -0.133376 -0.150904 -0.153033 -0.148644 -0.148613 -0.123208 -0.121916 
-0.127683 -0.129095 -0.131105 -0.153331 -0.119858 -0.132394 -0.147824 -0.149335 -0.121038 
-0.132698 -0.121775 -0.134244 -0.134775 -0.135582 -0.136947 -0.060205 -0.0610883 -0.155748 
-0.154946 -0.057738 -0.0597197 -0.15455 -0.154098 -0.153114 -0.15427 -0.153729 -0.152496 
-0.153146 -0.152061 -0.151761 -0.150665 -0.149685 -0.149334 -0.147292 -0.148446 -0.145729 
-0.121284 -0.141909 -0.147148 -0.124578 -0.122954 -0.122993 -0.121881 -0.122249 -0.123798 
-0.122529 -0.134003 -0.133732 -0.143904 -0.133089 -0.133479 -0.0562709 -0.0601579 -0.130996 
-0.144832 -0.128666 -0.125674 -0.12488 -0.122814 -0.134626 -0.129595 -0.132742 -0.134955 
-0.151079 -0.132273 -0.132405 -0.149633 -0.126305 -0.125238 -0.0546914 -0.0592403 -0.13413 
-0.133685 -0.126525 -0.0545735 -0.0649495 -0.13295 -0.133284 -0.154734 -0.155103 -0.154792 
-0.154637 -0.154822 -0.155035 -0.0401853 -0.153286 -0.149082 -0.122176 -0.148302 -0.130276 
-0.131983 -0.123476 -0.147105 -0.128973 -0.132792 -0.132392 -0.131959 -0.132889 -0.133134 
-0.13302 -0.132316 -0.132196 -0.131978 -0.131932 -0.131871 -0.129945 -0.131321 -0.131307 
-0.132433 -0.124238 -0.145396 -0.13318 -0.133426 -0.132393 -0.131989 -0.131402 -0.133744 
-0.127141 -0.128802 -0.129271 -0.142192 -0.14442 -0.128942 -0.151485 -0.150874 -0.133234 
-0.124581 -0.126027 -0.12727 -0.146644 -0.149211 -0.145922 -0.150408 -0.132078 -0.132203 
-0.151388 -0.143276 -0.141637 -0.132668 -0.132551 -0.13241 -0.140682 -0.13211 -0.127915 
-0.126215 -0.145641 -0.129191 -0.129217 -0.148036 -0.131685 -0.131242 -0.13828 -0.150466 
-0.149691 -0.130465 -0.131071 -0.131975 -0.132059 -0.131691 -0.130909 -0.130304 -0.133369 
-0.133184 -0.133225 -0.132828 -0.133032 -0.132969 -0.132339 -0.132646 -0.132651 -0.131864 
-0.132147 -0.132252 -0.131441 -0.131659 -0.131873 -0.131216 -0.131338 -0.131581 -0.131175 
-0.131167 -0.131425 -0.131293 -0.131191 -0.131425 -0.13156 -0.131374 -0.131556 -0.131948 
-0.131723 -0.131795 -0.132379 -0.132117 -0.132108 -0.132784 -0.13257 -0.132465 -0.133159 
-0.132967 -0.13281 -0.133405 -0.133275 -0.133091 -0.133577 -0.1335 -0.133315 -0.133652 
-0.133638 -0.133459 -0.133661 -0.133687 -0.133533 -0.133592 -0.133644 -0.133552 -0.133503 
-0.133567 -0.133521 -0.13342 -0.133473 -0.133467 -0.133363 -0.133396 -0.133419 -0.133341 
-0.191618 -0.153284 -0.16585 -0.13556 -0.142944 -0.157307 -0.126199 -0.128795 -0.137977 
-0.121692 -0.122863 -0.128946 -0.119577 -0.120172 -0.12484 -0.118998 -0.119061 -0.122719 
-0.118855 -0.118637 -0.121539 -0.119266 -0.118839 -0.121164 -0.119905 -0.119404 -0.121359 
-0.120634 -0.120051 -0.121618 -0.12173 -0.12102 -0.122106 -0.122917 -0.122154 -0.122861 
-0.124145 -0.123359 -0.123724 -0.12523 -0.124513 -0.124507 -0.12625 -0.125605 -0.12524 
-0.12699 -0.126506 -0.125892 -0.127495 -0.127145 -0.126259 -0.127501 -0.127425 -0.126399 
-0.127123 -0.127323 -0.126159 -0.126299 -0.126784 -0.125651 -0.124853 -0.125762 -0.124798 
-0.123056 -0.124368 -0.123731 -0.120984 -0.12241 -0.122617 -0.119276 -0.120498 -0.121333 
-0.118714 -0.11911 -0.120608 -0.119445 -0.118836 -0.120765 -0.121149 -0.120058 -0.121681 
-0.123367 -0.12199 -0.123211 -0.125681 -0.124338 -0.125103 -0.127669 -0.126533 -0.126931 
-0.129392 -0.128449 -0.128529 -0.130807 -0.13008 -0.129981 -0.131837 -0.131289 -0.131073 
-0.132573 -0.132215 -0.131963 -0.133046 -0.132846 -0.132544 -0.18517 -0.133402 -0.133372 
-0.13351 -0.133436 -0.133437 -0.133659 -0.133549 -0.133511 -0.133862 -0.133722 -0.13361 
-0.134151 -0.133957 -0.133758 -0.134559 -0.134297 -0.134437 -0.134385 -0.133548 -0.133474 
-0.134031 -0.133028 -0.131444 -0.132721 -0.131967 -0.128649 -0.130439 -0.130296 -0.125772 
-0.127731 -0.12842 -0.123065 -0.124857 -0.126603 -0.120975 -0.122296 -0.125004 -0.119768 
-0.120503 -0.123945 -0.119712 -0.119887 -0.123676 -0.120849 -0.120597 -0.124504 -0.124588 
-0.12314 -0.12738 -0.141901 -0.136566 -0.245628 -0.157808 -0.163103 -0.19752 -0.16417 
-0.165212 -0.153373 -0.163 -0.178933 -0.151221 -0.160336 -0.175334 -0.158403 -0.161466 
-0.178093 -0.152734 -0.152538 -0.184434 -0.1553 -0.15064 -0.185583 -0.150798 -0.15177 
-0.174044 -0.153853 -0.156488 -0.174884 -0.153367 -0.153038 -0.183464 -0.156912 -0.152881 
-0.182775 -0.150193 -0.151114 -0.175985 -0.153743 -0.157085 -0.176009 -0.15182 -0.152976 
-0.182572 -0.151765 -0.151589 -0.185817 -0.152387 -0.150053 -0.18338 -0.149452 -0.146237 
-0.180071 -0.15069 -0.15101 -0.181605 -0.151086 -0.150445 -0.183572 -0.158474 -0.154043 
-0.184997 -0.163325 -0.159286 -0.177465 -0.145879 -0.114302 -0.102765 -0.101484 -0.12571 
-0.0965351 -0.0981471 -0.112581 -0.0974945 -0.0986627 -0.109751 -0.0981172 -0.0996203 -0.110074 
-0.0992051 -0.100533 -0.110418 -0.100065 -0.0998018 -0.110311 -0.10056 -0.100812 -0.110425 
-0.100784 -0.100116 -0.110174 -0.0999371 -0.0990349 -0.110533 -0.0998917 -0.0985709 -0.110303 
-0.0980144 -0.0944891 -0.109411 -0.0939526 -0.0879501 -0.108015 -0.0912797 -0.0996135 -0.109364 
-0.166182 -0.209847 -0.0831951 -0.0848439 -0.0916481 -0.0861927 -0.104752 -0.09675 -0.0931303 
-0.103743 -0.0974281 -0.0963361 -0.10397 -0.0980461 -0.0970098 -0.115804 -0.0995779 -0.0980346 
-0.108885 -0.0990557 -0.0982626 -0.110162 -0.0997949 -0.0989588 -0.110491 -0.100352 -0.0996595 
-0.110503 -0.0999029 -0.0994616 -0.110929 -0.100084 -0.0999805 -0.111314 -0.0992923 -0.102914 
-0.10831 -0.104531 -0.105511 -0.113528 -0.143528 -0.120663 -0.131044 -0.164782 -0.207609 
-0.133235 -0.133364 -0.133153 -0.133686 -0.13428 -0.134058 -0.128051 -0.133731 -0.15717 
-0.13139 -0.178486 -0.186467 -0.16791 -0.175773 -0.166029 -0.12999 -0.13165 -0.156998 
-0.124824 -0.111143 -0.211445 -0.192567 -0.159301 -0.140336 -0.132936 -0.178324 -0.132472 
-0.132659 -0.13274 -0.132843 -0.132716 -0.132574 -0.131913 -0.132042 -0.131695 -0.131796 
-0.131958 -0.13161 -0.131669 -0.131869 -0.131665 -0.13162 -0.13182 -0.13178 -0.131698 
-0.13188 -0.131993 -0.131883 -0.131975 -0.132247 -0.132107 -0.132136 -0.132537 -0.132381 
-0.132354 -0.132821 -0.132663 -0.13258 -0.133047 -0.132921 -0.132782 -0.133221 -0.133136 
-0.132975 -0.133347 -0.133309 -0.133131 -0.133433 -0.133401 -0.133256 -0.133463 -0.133453 
-0.133344 -0.133453 -0.133464 -0.133394 -0.13344 -0.133456 -0.133417 -0.133422 -0.13344 
-0.133431 -0.130217 -0.130891 -0.131826 -0.135003 -0.139139 -0.145551 -0.14085 -0.151626 
-0.164865 -0.167438 -0.152362 -0.127464 -0.129177 -0.134083 -0.125346 -0.12635 -0.130115 
-0.124221 -0.124651 -0.127789 -0.12363 -0.123656 -0.126384 -0.123265 -0.123171 -0.125463 
-0.123226 -0.12308 -0.124876 -0.12352 -0.123246 -0.124627 -0.124017 -0.123606 -0.124643 
-0.124463 -0.124103 -0.124805 -0.124918 -0.124551 -0.124926 -0.12528 -0.12498 -0.124976 
-0.125496 -0.125246 -0.124974 -0.125517 -0.125431 -0.124882 -0.125344 -0.125382 -0.124571 
-0.124826 -0.125007 -0.124036 -0.124135 -0.124482 -0.123373 -0.123305 -0.123823 -0.12269 
-0.12258 -0.123097 -0.122154 -0.122031 -0.122495 -0.121954 -0.121792 -0.122218 -0.122223 
-0.122143 -0.122226 -0.122808 -0.122975 -0.122659 -0.12402 -0.123967 -0.123426 -0.125168 
-0.125302 -0.1245 -0.126032 -0.126844 -0.125889 -0.127046 -0.128176 -0.127337 -0.128223 
-0.129426 -0.12871 -0.129201 -0.130592 -0.12992 -0.130119 -0.131407 -0.130906 -0.130934 
-0.132055 -0.131674 -0.131594 -0.132527 -0.132313 -0.132114 -0.132488 -0.155671 -0.15039 
-0.133548 -0.133486 -0.133054 -0.133117 -0.133659 -0.133555 -0.133438 -0.138819 -0.159597 
-0.131493 -0.131887 -0.143782 -0.13958 -0.132417 -0.132622 -0.132103 -0.131156 -0.128893 
-0.129717 -0.128881 -0.128101 -0.128822 -0.12856 -0.127607 -0.128358 -0.12715 -0.127752 
-0.129119 -0.127192 -0.127483 -0.129615 -0.128069 -0.127811 -0.130595 -0.130331 -0.129366 
-0.132354 -0.135144 -0.132446 -0.135586 -0.141829 -0.163642 -0.152918 -0.169784 -0.169563 
-0.162885 -0.182439 -0.164905 -0.165835 -0.167526 -0.166642 -0.162529 -0.16782 -0.170012 
-0.164092 -0.166558 -0.166451 -0.165111 -0.167066 -0.16637 -0.165166 -0.16787 -0.16745 
-0.165216 -0.167762 -0.167908 -0.166127 -0.167601 -0.16745 -0.165774 -0.167805 -0.167238 
-0.166264 -0.168187 -0.167836 -0.166007 -0.168773 -0.169343 -0.166227 -0.167662 -0.167997 
-0.165899 -0.167179 -0.167556 -0.165122 -0.167487 -0.167312 -0.164718 -0.168663 -0.167947 
-0.1648 -0.169904 -0.168936 -0.16493 -0.168116 -0.170669 -0.164675 -0.162778 -0.153073 
-0.14152 -0.120805 -0.132267 -0.148417 -0.166772 -0.118121 -0.114151 -0.111964 -0.111348 
-0.116162 -0.110346 -0.110278 -0.113025 -0.109894 -0.109831 -0.111671 -0.109597 -0.10947 
-0.111113 -0.109414 -0.109536 -0.110862 -0.109428 -0.109385 -0.110784 -0.109471 -0.109563 
-0.110866 -0.109546 -0.109312 -0.110866 -0.109402 -0.109001 -0.110769 -0.11002 -0.10872 
-0.111042 -0.109649 -0.115555 -0.114877 -0.112829 -0.128335 -0.165183 -0.1647 -0.107485 
-0.108407 -0.115403 -0.106954 -0.106289 -0.108101 -0.107505 -0.109101 -0.108801 -0.108547 
-0.109772 -0.109185 -0.10917 -0.110416 -0.109669 -0.10959 -0.111033 -0.110267 -0.110152 
-0.111747 -0.111431 -0.110934 -0.112811 -0.114152 -0.113297 -0.115214 -0.122379 -0.116666 
-0.119216 -0.139836 -0.126089 -0.129094 -0.132163 -0.132351 -0.13238 -0.13214 -0.135282 
-0.122204 -0.123782 -0.135132 -0.106207 -0.105241 -0.109802 -0.105685 -0.105601 -0.108474 
-0.108544 -0.152198 -0.130039 -0.12874 -0.160815 -0.16491 -0.146028 -0.153851 -0.151364 
-0.133449 -0.133495 -0.132742 -0.133299 -0.133404 -0.133451 -0.13343 -0.130869 -0.136992 
-0.13378 -0.145129 -0.165139 -0.151656 -0.155404 -0.155891 -0.167487 -0.166179 -0.156565 
-0.143297 -0.150464 -0.12247 -0.133237 -0.139498 -0.125252 -0.145969 -0.133523 -0.133201 
-0.132186 -0.132474 -0.132018 -0.132 -0.132043 -0.132088 -0.132057 -0.132017 -0.132198 
-0.132139 -0.132085 -0.132222 -0.132254 -0.132199 -0.132256 -0.132411 -0.132327 -0.132335 
-0.132585 -0.132488 -0.132457 -0.132759 -0.132659 -0.132564 -0.132908 -0.13282 -0.132695 
-0.133049 -0.132979 -0.132835 -0.133173 -0.133118 -0.132965 -0.133273 -0.133219 -0.133102 
-0.133343 -0.133315 -0.13322 -0.13337 -0.133356 -0.133297 -0.127819 -0.127476 -0.128568 
-0.129148 -0.132408 -0.13247 -0.13232 -0.112542 -0.114351 -0.13516 -0.137984 -0.149238 
-0.155981 -0.159318 -0.154497 -0.128329 -0.129064 -0.127176 -0.127624 -0.130018 -0.126414 
-0.126585 -0.128731 -0.125954 -0.126003 -0.127718 -0.125686 -0.125703 -0.126993 -0.125513 
-0.125489 -0.126473 -0.125327 -0.125302 -0.125982 -0.125085 -0.125089 -0.125429 -0.124695 
-0.124772 -0.124821 -0.124173 -0.124346 -0.124077 -0.123565 -0.123767 -0.123249 -0.122787 
-0.123084 -0.122319 -0.121908 -0.122245 -0.121328 -0.121194 -0.121473 -0.120351 -0.120829 
-0.120905 -0.119669 -0.120969 -0.120951 -0.119772 -0.122268 -0.12181 -0.120891 -0.12412 
-0.123336 -0.122934 -0.126277 -0.125707 -0.126079 -0.127498 -0.127217 -0.12853 -0.128233 
-0.12791 -0.12965 -0.128948 -0.128518 -0.130162 -0.129577 -0.129196 -0.130438 -0.13021 
-0.129777 -0.130734 -0.130853 -0.130412 -0.130993 -0.13138 -0.13101 -0.131313 -0.131831 
-0.131514 -0.13161 -0.129981 -0.131136 -0.131922 -0.133315 -0.133322 -0.133098 -0.132912 
-0.138732 -0.127496 -0.127977 -0.126462 -0.133927 -0.133253 -0.13233 -0.131905 -0.135345 
-0.130864 -0.130683 -0.133132 -0.136423 -0.135169 -0.13743 -0.150317 -0.154435 -0.132002 
-0.132033 -0.132174 -0.132167 -0.162357 -0.161706 -0.163156 -0.163137 -0.163447 -0.163373 
-0.161028 -0.163979 -0.163838 -0.161554 -0.164344 -0.164029 -0.162114 -0.164582 -0.164544 
-0.162486 -0.164259 -0.164618 -0.162621 -0.163999 -0.164287 -0.162405 -0.163653 -0.163786 
-0.161909 -0.163022 -0.163183 -0.161156 -0.162146 -0.162539 -0.160251 -0.161677 -0.161763 
-0.159144 -0.161644 -0.161299 -0.158515 -0.158137 -0.151599 -0.129301 -0.133987 -0.156088 
-0.153293 -0.116564 -0.115408 -0.114499 -0.113931 -0.116785 -0.113381 -0.113167 -0.115351 
-0.112853 -0.112728 -0.11461 -0.11259 -0.112592 -0.114192 -0.112597 -0.112675 -0.114128 
-0.112805 -0.112871 -0.114251 -0.113104 -0.113241 -0.114483 -0.113873 -0.114405 -0.115346 
-0.115737 -0.118683 -0.117838 -0.121139 -0.125646 -0.121995 -0.11177 -0.111258 -0.11119 
-0.110757 -0.112895 -0.113064 -0.11262 -0.113897 -0.113322 -0.114868 -0.115249 -0.11448 
-0.116001 -0.118337 -0.116645 -0.118227 -0.12392 -0.120726 -0.121551 -0.133381 -0.126993 
-0.128004 -0.15125 -0.149398 -0.129662 -0.129277 -0.128172 -0.131052 -0.140737 -0.145207 
-0.149289 -0.14196 -0.145531 -0.138452 -0.136106 -0.142913 -0.132407 -0.134195 -0.137577 
-0.134575 -0.162762 -0.162678 -0.160094 -0.160669 -0.140475 -0.148033 -0.144892 -0.12056 
-0.118107 -0.119337 -0.112467 -0.112039 -0.113526 -0.114226 -0.132136 -0.13215 -0.132201 
-0.14131 -0.132416 -0.132847 -0.132972 -0.128384 -0.129816 -0.110698 -0.114055 -0.11044 
-0.132214 -0.131972 -0.131942 -0.132217 -0.143827 -0.149026 -0.133417 -0.133387 -0.130312 
-0.12698 -0.149285 -0.153061 -0.151776 -0.143627 -0.140366 -0.131089 -0.131537 -0.131307 
-0.13842 -0.140365 -0.140505 -0.14762 -0.143291 -0.144926 -0.136837 -0.139476 -0.136032 
-0.135959 -0.15959 -0.127835 -0.157562 -0.148755 -0.145516 -0.142448 -0.151751 -0.161033 
-0.161638 -0.158304 -0.155985 -0.133228 -0.150862 -0.150929 -0.121158 -0.126547 -0.128216 
-0.122562 -0.123617 -0.131555 -0.132292 -0.133265 -0.115325 -0.119132 -0.112692 -0.110823 
-0.110466 -0.147174 -0.146831 -0.145277 -0.12933 -0.131564 -0.120672 -0.117105 -0.136523 
-0.133235 -0.132364 -0.132368 -0.132389 -0.132383 -0.132432 -0.132409 -0.132419 -0.132518 
-0.132468 -0.132419 -0.132621 -0.132554 -0.132448 -0.132751 -0.132672 -0.132542 -0.132896 
-0.132823 -0.132674 -0.133037 -0.132965 -0.132822 -0.133194 -0.133121 -0.133005 -0.126902 
-0.127573 -0.131127 -0.133529 -0.128934 -0.129376 -0.130161 -0.130778 -0.131397 -0.131641 
-0.132573 -0.133084 -0.128018 -0.128387 -0.129964 -0.127217 -0.127515 -0.128794 -0.12644 
-0.126741 -0.127779 -0.125609 -0.125922 -0.12668 -0.124603 -0.124991 -0.125382 -0.12346 
-0.123902 -0.123984 -0.122185 -0.122675 -0.122505 -0.120988 -0.121453 -0.120887 -0.119843 
-0.120339 -0.119504 -0.118562 -0.118872 -0.117965 -0.118041 -0.117778 -0.131805 -0.132281 
-0.132518 -0.135595 -0.13185 -0.131714 -0.134522 -0.132298 -0.132213 -0.133659 -0.131751 
-0.131618 -0.13324 -0.131758 -0.131553 -0.132473 -0.131795 -0.131608 -0.132185 -0.131894 
-0.13173 -0.132036 -0.141362 -0.141762 -0.133432 -0.134821 -0.13509 -0.129852 -0.159568 
-0.159258 -0.132359 -0.13237 -0.132534 -0.124612 -0.124644 -0.138246 -0.1373 -0.140651 
-0.11917 -0.118192 -0.137053 -0.140528 -0.140393 -0.139238 -0.141312 -0.135563 -0.134455 
-0.122333 -0.120703 -0.121597 -0.160326 -0.160091 -0.157947 -0.132251 -0.142385 -0.145326 
-0.15865 -0.158566 -0.156844 -0.16068 -0.160594 -0.158574 -0.160822 -0.160827 -0.158931 
-0.160481 -0.160645 -0.158928 -0.159693 -0.160128 -0.158434 -0.158688 -0.159246 -0.157447 
-0.157485 -0.15807 -0.15611 -0.156203 -0.156527 -0.154534 -0.155165 -0.155222 -0.152797 
-0.119083 -0.126322 -0.128975 -0.149712 -0.14882 -0.157243 -0.15516 -0.157558 -0.117782 
-0.117217 -0.119367 -0.116777 -0.116402 -0.118711 -0.116063 -0.115916 -0.117919 -0.115729 
-0.115652 -0.117302 -0.115944 -0.116177 -0.117364 -0.116723 -0.116995 -0.117936 -0.116968 
-0.117607 -0.118607 -0.118331 -0.120012 -0.119653 -0.121848 -0.124078 -0.12581 -0.122109 
-0.118047 -0.117265 -0.116626 -0.116076 -0.118511 -0.124338 -0.122028 -0.130144 -0.126573 
-0.126786 -0.126737 -0.139581 -0.125503 -0.126199 -0.120477 -0.119118 -0.122597 -0.114594 
-0.114268 -0.132361 -0.132371 -0.132463 -0.132418 -0.129071 -0.115806 -0.118124 -0.118169 
-0.114486 -0.132529 -0.132349 -0.132358 -0.112593 -0.148124 -0.152215 -0.154838 -0.127092 
-0.128538 -0.141551 -0.144594 -0.147838 -0.12976 -0.132 -0.132357 -0.132606 -0.134651 
-0.151269 -0.137018 -0.13315 -0.131959 -0.129322 -0.116666 -0.120325 -0.124016 -0.122267 
-0.137906 -0.140282 -0.131921 -0.132039 -0.132084 -0.137819 -0.136273 -0.137991 -0.123658 
-0.125296 -0.131704 -0.130839 -0.125448 -0.127194 -0.132953 -0.133148 -0.138528 -0.146677 
-0.143657 -0.140365 -0.138037 -0.135272 -0.13977 -0.130466 -0.131176 -0.131237 -0.154729 
-0.149293 -0.146598 -0.132305 -0.132269 -0.132488 -0.12816 -0.12898 -0.126377 -0.115587 
-0.114998 -0.116372 -0.156296 -0.158576 -0.158459 -0.136096 -0.135139 -0.132825 -0.140588 
-0.14049 -0.138054 -0.140325 -0.15162 -0.131865 -0.152433 -0.129012 -0.132344 -0.13221 
-0.132164 -0.149752 -0.120216 -0.14811 -0.147767 -0.143199 -0.140118 -0.137197 -0.123967 
-0.143986 -0.142133 -0.147749 -0.14364 -0.124815 -0.145284 -0.117981 -0.116441 -0.116027 
-0.133214 -0.141838 -0.13236 -0.132404 -0.132402 -0.132337 -0.132594 -0.132509 -0.132304 
-0.129589 -0.130192 -0.132423 -0.133312 -0.125342 -0.126322 -0.147998 -0.126526 -0.124812 
-0.145549 -0.143899 -0.132134 -0.130884 -0.131565 -0.133358 -0.131717 -0.134348 -0.135437 
-0.135406 -0.128321 -0.128879 -0.130236 -0.126907 -0.127548 -0.128628 -0.125261 -0.125994 
-0.126752 -0.123408 -0.124223 -0.124703 -0.121263 -0.122209 -0.122324 -0.119205 -0.11995 
-0.116441 -0.117281 -0.132293 -0.132215 -0.132514 -0.135974 -0.136545 -0.141943 -0.133966 
-0.134335 -0.133166 -0.133222 -0.134261 -0.132596 -0.132631 -0.133472 -0.132242 -0.13228 
-0.132723 -0.132839 -0.130687 -0.132685 -0.132727 -0.156635 -0.156515 -0.142394 -0.140028 
-0.141875 -0.114662 -0.156296 -0.155698 -0.154546 -0.143663 -0.142915 -0.14812 -0.123236 
-0.121845 -0.124964 -0.157047 -0.157033 -0.155031 -0.128137 -0.154317 -0.153827 -0.152927 
-0.114938 -0.137396 -0.136461 -0.137678 -0.137764 -0.156984 -0.157253 -0.155259 -0.156326 
-0.156875 -0.155111 -0.15509 -0.155876 -0.154321 -0.153313 -0.154341 -0.152747 -0.151385 
-0.152337 -0.15049 -0.149115 -0.149784 -0.147735 -0.148007 -0.147037 -0.148148 -0.148569 
-0.14788 -0.146726 -0.151128 -0.148486 -0.132314 -0.1323 -0.132188 -0.132318 -0.132329 
-0.13222 -0.114808 -0.119721 -0.119355 -0.118815 -0.118457 -0.120503 -0.118564 -0.11874 
-0.119859 -0.119515 -0.119944 -0.120614 -0.120202 -0.11932 -0.139474 -0.146302 -0.144571 
-0.14582 -0.128157 -0.125801 -0.122059 -0.122938 -0.124536 -0.122979 -0.126074 -0.129296 
-0.155548 -0.145349 -0.14127 -0.130519 -0.1323 -0.132748 -0.132668 -0.126084 -0.127767 
-0.129093 -0.132058 -0.146725 -0.1452 -0.153238 -0.132137 -0.117918 -0.118515 -0.135774 
-0.136156 -0.132734 -0.132759 -0.132919 -0.142812 -0.13062 -0.129501 -0.128052 -0.132171 
-0.132324 -0.134002 -0.132683 -0.135423 -0.132125 -0.138572 -0.140467 -0.139943 -0.132512 
-0.137494 -0.137361 -0.137669 -0.131803 -0.131936 -0.131919 -0.132753 -0.132678 -0.132929 
-0.149208 -0.134847 -0.117548 -0.120728 -0.147451 -0.132425 -0.13246 -0.132511 -0.143078 
-0.132771 -0.132601 -0.130109 -0.129288 -0.133053 -0.12145 -0.120017 -0.121318 -0.120494 
-0.120762 -0.12162 -0.12305 -0.12184 -0.120764 -0.121532 -0.122546 -0.145048 -0.123336 
-0.123746 -0.124412 -0.153497 -0.136346 -0.135314 -0.13686 -0.13722 -0.123652 -0.123049 
-0.132573 -0.13265 -0.132648 -0.132868 -0.146042 -0.144132 -0.129091 -0.129971 -0.132827 
-0.131003 -0.131723 -0.131434 -0.11963 -0.132985 -0.134855 -0.14353 -0.136665 -0.136036 
-0.153178 -0.153559 -0.132961 -0.133136 -0.139097 -0.140444 -0.152387 -0.153163 -0.151643 
-0.150139 -0.151347 -0.150208 -0.147637 -0.149207 -0.147753 -0.14491 -0.14663 -0.14537 
-0.142571 -0.131987 -0.132086 -0.132094 -0.131707 -0.146519 -0.142281 -0.140178 -0.142896 
-0.123569 -0.1242 -0.125371 -0.124721 -0.148542 -0.14798 -0.124048 -0.123103 -0.136232 
-0.137403 -0.139936 -0.122024 -0.153418 -0.15301 -0.153862 -0.153753 -0.152077 -0.152091 
-0.127518 -0.126149 -0.126155 -0.125635 -0.127723 -0.128972 -0.132674 -0.132353 -0.133108 
-0.133184 -0.131919 -0.13226 -0.147694 -0.146866 -0.126666 -0.147922 -0.148804 -0.151209 
-0.148872 -0.133554 -0.134005 -0.135057 -0.13348 -0.134657 -0.131656 -0.130623 -0.132767 
-0.133071 -0.132598 -0.132776 -0.141464 -0.138413 -0.135884 -0.134332 -0.135288 -0.137248 
-0.134997 -0.149072 -0.147668 -0.152833 -0.152658 -0.13098 -0.129136 -0.122857 -0.138646 
-0.142633 -0.121969 -0.147457 -0.131161 -0.131408 -0.131347 -0.13048 -0.146634 -0.132644 
-0.13074 -0.121279 -0.121343 -0.151275 -0.149586 -0.129288 -0.133774 -0.149819 -0.13464 
-0.13112 -0.131946 -0.133384 -0.133866 -0.130134 -0.128519 -0.133267 -0.133276 -0.144054 
-0.132381 -0.132505 -0.133483 -0.135238 -0.14988 -0.149965 -0.150518 -0.134023 -0.134265 
-0.143445 -0.145597 -0.132402 -0.132605 -0.132797 -0.133288 -0.134679 -0.133319 -0.134225 
-0.148758 -0.146953 -0.13527 -0.140878 -0.150876 -0.127113 -0.138383 -0.136465 -0.150501 
-0.139364 -0.133326 -0.255669 -0.184216 -0.133332 -0.13336 -0.13341 -0.133485 -0.133577 
-0.133688 -0.133822 -0.133964 -0.134151 -0.134349 -0.114758 -0.114432 -0.116457 -0.117939 
-0.119568 -0.121247 -0.128424 -0.133322 -0.14784 -0.114367 -0.114894 -0.134589 -0.134843 
-0.126918 -0.124675 -0.122406 -0.120341 -0.115182 -0.135133 -0.129261 -0.135467 -0.135729 
-0.135883 -0.135794 -0.135288 -0.13438 -0.13301 -0.131271 -0.118504 -0.116981 -0.116151 
-0.258193 -0.133379 -0.133381 -0.179527 -0.149597 -0.13625 -0.130098 -0.123856 -0.122017 
-0.119631 -0.118167 -0.117154 -0.116485 -0.115939 -0.115728 -0.115676 -0.116454 -0.116905 
-0.11728 -0.117817 -0.118757 -0.119381 -0.119966 -0.120692 -0.122691 -0.123484 -0.12471 
-0.125459 -0.126022 -0.126688 -0.127173 -0.127668 -0.128085 -0.128399 -0.128702 -0.12881 
-0.12872 -0.128532 -0.128255 -0.127763 -0.12728 -0.126324 -0.124519 -0.1232 -0.121965 
-0.120473 -0.119206 -0.117901 -0.11698 -0.116596 -0.116717 -0.11727 -0.118335 -0.119463 
-0.120638 -0.122063 -0.123355 -0.124736 -0.125818 -0.126956 -0.127935 -0.128854 -0.130258 
-0.131014 -0.131481 -0.132029 -0.132399 -0.132749 -0.132992 -0.133207 -0.133331 -0.13339 
-0.115879 -0.116126 -0.121271 -0.122052 -0.115701 -0.11827 -0.124092 -0.128597 -0.125465 
-0.116386 -0.129583 -0.133362 -0.133327 -0.133332 -0.133369 -0.133356 -0.13315 -0.132942 
-0.132703 -0.132385 -0.132139 -0.131846 -0.131414 -0.131194 -0.131062 -0.13092 -0.130872 
-0.130889 -0.130926 -0.131004 -0.131253 -0.131456 -0.131628 -0.131859 -0.132074 -0.132346 
-0.132548 -0.13279 -0.13314 -0.133331 -0.133448 -0.133583 -0.133672 -0.133743 -0.133789 
-0.133817 -0.133807 -0.133773 -0.133733 -0.133677 -0.133619 -0.133548 -0.133493 -0.133431 
-0.133387 -0.133353 -0.133292 -0.13162 -0.131102 -0.132969 -0.133821 -0.0399751 -0.0437728 
-0.0493218 -0.0485781 -0.0515957 -0.0517818 -0.0526784 -0.0534966 -0.0541038 -0.0554342 -0.0567456 
-0.0565918 -0.0551609 -0.0561541 -0.0555839 -0.0557806 -0.0556124 -0.0566013 -0.0549005 -0.0532584 
-0.0539889 -0.0507378 -0.0471053 -0.0466327 -0.043377 -0.050329 -0.0337928 -0.0383673 -0.0478442 
-0.0465027 -0.052127 -0.0501745 -0.0536961 -0.0535123 -0.0547828 -0.0542762 -0.0562402 -0.0546024 
-0.0563217 -0.0573106 -0.0557415 -0.0559178 -0.0545983 -0.0557108 -0.0552855 -0.0555493 -0.0524265 
-0.0530473 -0.0488541 -0.0528786 -0.0362199 -0.048401 -0.0433766 -0.0655471 -0.0394358 -0.0712551 
-0.0351858 -0.0483265 -0.0487649 -0.0540579 -0.0513489 -0.0560184 -0.061006 -0.0613243 -0.0621778 
-0.0580625 -0.0654752 -0.0593015 -0.0632479 -0.0599455 -0.0631667 -0.0596738 -0.0648213 -0.0596406 
-0.060464 -0.057956 -0.0560444 -0.0561046 -0.0542816 -0.0589921 -0.0570812 -0.0539054 -0.0307677 
-0.0510254 -0.0417182 -0.0470349 -0.0386361 -0.0394488 -0.0486258 -0.0478971 -0.0547271 -0.0550443 
-0.0540832 -0.054073 -0.0550428 -0.0541973 -0.0537247 -0.0373449 -0.0528165 -0.0525469 -0.0552175 
-0.048975 -0.0517207 -0.0528481 -0.0499604 -0.0449449 -0.0464724 -0.0551441 -0.0542704 -0.132805 
-0.132947 -0.132708 -0.13285 -0.132841 -0.132671 -0.132831 -0.0980355 -0.132645 -0.132728 
-0.13274 -0.132854 -0.11025 -0.112377 -0.110603 -0.0969285 -0.16528 -0.163399 -0.16504 
-0.168892 -0.178862 -0.179966 -0.14715 -0.147413 -0.147776 -0.123612 -0.124358 -0.124829 
-0.138255 -0.128694 -0.131064 -0.132282 -0.132184 -0.13238 -0.146018 -0.193532 -0.152187 
-0.132021 -0.131807 -0.131834 -0.150489 -0.150627 -0.133576 -0.133514 -0.133637 -0.165068 
-0.165558 -0.170838 -0.101056 -0.149914 -0.133539 -0.132247 -0.132133 -0.13231 -0.13219 
-0.196985 -0.188326 -0.1658 -0.162736 -0.16163 -0.162046 -0.159837 -0.16024 -0.131176 
-0.131448 -0.131276 -0.133134 -0.133649 -0.133435 -0.133855 -0.12487 -0.134735 -0.127674 
-0.138907 -0.132845 -0.130531 -0.13375 -0.131276 -0.110574 -0.110265 -0.111947 -0.161598 
-0.161289 -0.159465 -0.168915 -0.172629 -0.167515 -0.111595 -0.113553 -0.110031 -0.130294 
-0.129327 -0.129001 -0.127802 -0.133104 -0.133136 -0.133199 -0.13361 -0.134344 -0.133263 
-0.134536 -0.112954 -0.114551 -0.113283 -0.115041 -0.133701 -0.133572 -0.13371 -0.133575 
-0.132219 -0.13221 -0.132305 -0.115487 -0.11421 -0.113772 -0.160441 -0.158095 -0.160667 
-0.111443 -0.124475 -0.123412 -0.124023 -0.13211 -0.132261 -0.132296 -0.143151 -0.14797 
-0.145252 -0.132359 -0.132372 -0.132296 -0.132344 -0.132904 -0.132864 -0.132664 -0.124581 
-0.124484 -0.125226 -0.125189 -0.122048 -0.121379 -0.123508 -0.122952 -0.122791 -0.12486 
-0.123657 -0.126601 -0.133641 -0.139037 -0.153574 -0.166585 -0.166258 -0.144757 -0.143029 
-0.141276 -0.139452 -0.131935 -0.132008 -0.13181 -0.13368 -0.138373 -0.143308 -0.18071 
-0.214403 -0.17663 -0.138301 -0.12603 -0.126257 -0.125272 -0.120858 -0.1224 -0.120575 
-0.122083 -0.132396 -0.132272 -0.132301 -0.180229 -0.175905 -0.177927 -0.120515 -0.121502 
-0.123817 -0.132412 -0.132345 -0.132275 -0.118875 -0.163325 -0.163112 -0.161496 -0.126452 
-0.126527 -0.127494 -0.117914 -0.116301 -0.116673 -0.115046 -0.163424 -0.160258 -0.16061 
-0.157412 -0.157508 -0.125351 -0.1268 -0.125377 -0.126697 -0.135795 -0.139155 -0.137516 
-0.153344 -0.122508 -0.122941 -0.123655 -0.131548 -0.131757 -0.131564 -0.13179 -0.132693 
-0.132915 -0.170486 -0.187536 -0.171654 -0.167857 -0.179167 -0.177071 -0.124585 -0.125868 
-0.126228 -0.127337 -0.123705 -0.123517 -0.124071 -0.124018 -0.126063 -0.134473 -0.128416 
-0.145534 -0.133495 -0.133403 -0.133491 -0.131166 -0.13466 -0.136996 -0.134684 -0.0990694 
-0.120305 -0.120425 -0.119194 -0.119194 -0.137571 -0.146604 -0.132179 -0.132209 -0.132308 
-0.122597 -0.123238 -0.122821 -0.134711 -0.136036 -0.137178 -0.12436 -0.124556 -0.12581 
-0.126002 -0.130035 -0.129423 -0.128958 -0.12935 -0.131124 -0.117018 -0.115712 -0.115953 
-0.132298 -0.132162 -0.132036 -0.111321 -0.0985 -0.115498 -0.132391 -0.133688 -0.133447 
-0.133443 -0.133584 -0.132449 -0.132181 -0.132213 -0.13356 -0.133442 -0.133705 -0.133589 
-0.132315 -0.132217 -0.109309 -0.107601 -0.132418 -0.120842 -0.120829 -0.123253 -0.141015 
-0.14261 -0.139511 -0.141204 -0.122348 -0.122477 -0.122957 -0.123369 -0.123789 -0.164278 
-0.158907 -0.122791 -0.121032 -0.122507 -0.123705 -0.120461 -0.120053 -0.16673 -0.192385 
-0.188832 -0.121885 -0.119981 -0.159722 -0.159521 -0.157748 -0.123241 -0.127837 -0.130178 
-0.121845 -0.120311 -0.121469 -0.119996 -0.133777 -0.122526 -0.120349 -0.121518 -0.133048 
-0.133262 -0.133169 -0.133399 -0.133503 -0.130483 -0.130934 -0.130723 -0.119934 -0.0961677 
-0.1326 -0.132693 -0.132668 -0.132927 -0.133159 -0.122858 -0.123641 -0.122378 -0.141868 
-0.140322 -0.137397 -0.111535 -0.114017 -0.0985474 -0.129967 -0.130755 -0.129386 -0.133476 
-0.162053 -0.159268 -0.165954 -0.0983762 -0.133621 -0.120823 -0.127944 -0.126526 -0.126275 
-0.113034 -0.115076 -0.113522 -0.114519 -0.111104 -0.111166 -0.161833 -0.164097 -0.162061 
-0.166067 -0.164 -0.118921 -0.120622 -0.119852 -0.110279 -0.157276 -0.18571 -0.158405 
-0.132564 -0.132735 -0.132568 -0.132886 -0.125863 -0.122419 -0.124995 -0.121782 -0.166717 
-0.166332 -0.165026 -0.160892 -0.162559 -0.160595 -0.16232 -0.164361 -0.13245 -0.132609 
-0.12378 -0.133208 -0.133086 -0.133072 -0.132678 -0.133658 -0.162587 -0.16237 -0.165012 
-0.136932 -0.140487 -0.137973 -0.132531 -0.132418 -0.132496 -0.122884 -0.124967 -0.125102 
-0.125131 -0.121308 -0.12257 -0.122989 -0.150948 -0.132245 -0.132347 -0.145397 -0.146412 
-0.148848 -0.132097 -0.132261 -0.152152 -0.144398 -0.181319 -0.132916 -0.128754 -0.12559 
-0.130576 -0.132345 -0.132437 -0.132242 -0.117151 -0.11514 -0.11577 -0.13337 -0.133463 
-0.133321 -0.132297 -0.1323 -0.132466 -0.165178 -0.169481 -0.164613 -0.107981 -0.130295 
-0.131092 -0.132021 -0.132879 -0.119579 -0.123628 -0.167918 -0.153531 -0.152683 -0.150413 
-0.152468 -0.151844 -0.148848 -0.15532 -0.149515 -0.151507 -0.141041 -0.141879 -0.138825 
-0.134498 -0.130451 -0.133523 -0.135289 -0.135449 -0.167694 -0.194813 -0.165701 -0.171207 
-0.132269 -0.134695 -0.136139 -0.138228 -0.132896 -0.133071 -0.133449 -0.122185 -0.120728 
-0.121834 -0.119853 -0.119516 -0.118021 -0.13252 -0.132553 -0.132625 -0.144831 -0.147069 
-0.143533 -0.145888 -0.110548 -0.109667 -0.109855 -0.111429 -0.124173 -0.123327 -0.124503 
-0.149414 -0.148487 -0.149482 -0.12415 -0.121345 -0.123269 -0.132728 -0.132957 -0.132989 
-0.113395 -0.124428 -0.146552 -0.144229 -0.145069 -0.165124 -0.124317 -0.123939 -0.1148 
-0.116842 -0.115565 -0.136645 -0.137044 -0.134881 -0.12157 -0.120509 -0.122665 -0.121838 
-0.132413 -0.132319 -0.125131 -0.125402 -0.122828 -0.125023 -0.129092 -0.124096 -0.122009 
-0.121518 -0.122461 -0.126739 -0.127667 -0.127782 -0.144305 -0.14578 -0.142228 -0.142523 
-0.146095 -0.147044 -0.114146 -0.114204 -0.143588 -0.147019 -0.139168 -0.141193 -0.132388 
-0.132314 -0.132281 -0.12416 -0.123918 -0.126089 -0.133346 -0.133382 -0.133373 -0.112691 
-0.114364 -0.110821 -0.112833 -0.127792 -0.124742 -0.12609 -0.133452 -0.133482 -0.133442 
-0.133463 -0.173027 -0.168423 -0.157467 -0.133258 -0.134621 -0.135634 -0.136638 -0.138932 
-0.136644 -0.131733 -0.131642 -0.131539 -0.131456 -0.12738 -0.118191 -0.11629 -0.117495 
-0.0984377 -0.13924 -0.138401 -0.132769 -0.131148 -0.132254 -0.133439 -0.111241 -0.12481 
-0.126029 -0.124463 -0.125709 -0.115796 -0.127056 -0.127267 -0.129649 -0.122499 -0.12085 
-0.126186 -0.147568 -0.148135 -0.147915 -0.112805 -0.109607 -0.112863 -0.132445 -0.135076 
-0.135421 -0.122446 -0.138339 -0.129769 -0.127814 -0.13055 -0.128871 -0.12904 -0.129 
-0.126824 -0.127956 -0.132268 -0.132362 -0.132224 -0.132332 -0.158463 -0.159717 -0.112127 
-0.112571 -0.117449 -0.132455 -0.132558 -0.132407 -0.132475 -0.113106 -0.114582 -0.132067 
-0.132269 -0.110888 -0.111766 -0.116377 -0.132125 -0.13243 -0.132526 -0.13259 -0.132366 
-0.133422 -0.133397 -0.133393 -0.133544 -0.18483 -0.169425 -0.184868 -0.201084 -0.143309 
-0.132976 -0.115779 -0.116058 -0.114003 -0.12955 -0.128613 -0.126633 -0.138532 -0.122846 
-0.12087 -0.122656 -0.143536 -0.144684 -0.143022 -0.144695 -0.130791 -0.134154 -0.131547 
-0.133344 -0.133337 -0.125953 -0.125519 -0.12553 -0.129903 -0.130466 -0.155761 -0.125858 
-0.125625 -0.129297 -0.13148 -0.129011 -0.131381 -0.146395 -0.147869 -0.145199 -0.133163 
-0.133775 -0.121973 -0.120846 -0.122066 -0.131412 -0.131607 -0.131464 -0.126986 -0.126606 
-0.128999 -0.133418 -0.125962 -0.127123 -0.131335 -0.130761 -0.131976 -0.13213 -0.131086 
-0.130684 -0.129639 -0.123723 -0.122279 -0.122104 -0.121563 -0.127655 -0.127589 -0.126582 
-0.12651 -0.123099 -0.122074 -0.122144 -0.12738 -0.121609 -0.124913 -0.12496 -0.124327 
-0.148163 -0.149765 -0.151859 -0.122177 -0.121996 -0.12216 -0.121764 -0.12549 -0.114366 
-0.11414 -0.116368 -0.124115 -0.162061 -0.112812 -0.159597 -0.158872 -0.156551 -0.156593 
-0.151199 -0.153529 -0.115054 -0.110125 -0.1112 -0.113737 -0.129972 -0.129313 -0.148826 
-0.147436 -0.113478 -0.147533 -0.148469 -0.148463 -0.130007 -0.131781 -0.130681 -0.163309 
-0.160901 -0.162924 -0.147083 -0.14847 -0.13311 -0.136414 -0.132654 -0.132809 -0.132603 
-0.13322 -0.133099 -0.132959 -0.130055 -0.130312 -0.129623 -0.118659 -0.120962 -0.118404 
-0.120569 -0.128246 -0.127706 -0.127766 -0.127277 -0.127488 -0.131025 -0.130406 -0.119236 
-0.124534 -0.133663 -0.114519 -0.114425 -0.112936 -0.164226 -0.161869 -0.16485 -0.152167 
-0.14858 -0.127775 -0.128641 -0.128683 -0.170173 -0.170063 -0.190227 -0.193793 -0.147981 
-0.168343 -0.141834 -0.1401 -0.147493 -0.132495 -0.127989 -0.127128 -0.122822 -0.134676 
-0.137269 -0.140525 -0.138169 -0.131912 -0.192176 -0.14383 -0.086841 -0.107004 -0.0866459 
-0.185022 -0.170859 -0.12866 -0.131202 -0.129628 -0.131607 -0.117081 -0.116893 -0.113671 
-0.118202 -0.128035 -0.126271 -0.127806 -0.164757 -0.164879 -0.162992 -0.162949 -0.169795 
-0.159537 -0.162688 -0.122653 -0.124133 -0.131485 -0.131591 -0.131322 -0.166377 -0.164811 
-0.164683 -0.123995 -0.126404 -0.165753 -0.172614 -0.133143 -0.133231 -0.122026 -0.107711 
-0.11422 -0.110038 -0.184083 -0.217625 -0.0834831 -0.09667 -0.12865 -0.129152 -0.129629 
-0.126259 -0.130034 -0.129527 -0.133883 -0.133795 -0.134177 -0.112153 -0.114214 -0.110755 
-0.110718 -0.137165 -0.135692 -0.138814 -0.111639 -0.112227 -0.133443 -0.132373 -0.132823 
-0.127427 -0.124244 -0.132503 -0.132618 -0.132503 -0.13265 -0.134014 -0.133439 -0.132045 
-0.131159 -0.129 -0.132201 -0.158393 -0.156554 -0.133142 -0.132896 -0.133158 -0.12318 
-0.124291 -0.1233 -0.124352 -0.131517 -0.134116 -0.135154 -0.122006 -0.121392 -0.135949 
-0.134748 -0.132155 -0.132132 -0.131993 -0.116265 -0.11757 -0.124647 -0.124287 -0.124429 
-0.131763 -0.131937 -0.131927 -0.133445 -0.133465 -0.133432 -0.12128 -0.117114 -0.118529 
-0.117871 -0.127133 -0.12624 -0.125347 -0.124467 -0.118522 -0.133403 -0.123284 -0.126015 
-0.121066 -0.124023 -0.133168 -0.13229 -0.132251 -0.132202 -0.162815 -0.16544 -0.163053 
-0.133036 -0.133145 -0.118799 -0.1216 -0.121253 -0.111028 -0.110933 -0.112743 -0.13327 
-0.133346 -0.133232 -0.156728 -0.153299 -0.125101 -0.126258 -0.133398 -0.177391 -0.119773 
-0.120396 -0.11943 -0.110954 -0.111087 -0.113043 -0.125265 -0.133539 -0.133412 -0.133449 
-0.132791 -0.131565 -0.104691 -0.12348 -0.124459 -0.12447 -0.11867 -0.125792 -0.126259 
-0.126693 -0.126052 -0.125037 -0.125442 -0.125596 -0.12645 -0.133443 -0.133468 -0.0943855 
-0.131495 -0.13231 -0.132683 -0.132601 -0.130965 -0.131093 -0.130014 -0.130074 -0.142086 
-0.13287 -0.132806 -0.133012 -0.132956 -0.128808 -0.11933 -0.132466 -0.132738 -0.127014 
-0.12739 -0.128178 -0.149139 -0.125087 -0.127825 -0.128662 -0.126918 -0.128012 -0.128146 
-0.131689 -0.131877 -0.131758 -0.131926 -0.125543 -0.127499 -0.18564 -0.207437 -0.122354 
-0.121194 -0.123035 -0.132348 -0.132432 -0.132407 -0.132402 -0.121507 -0.131892 -0.131742 
-0.132096 -0.132519 -0.133437 -0.133771 -0.132921 -0.133598 -0.160992 -0.184371 -0.177595 
-0.112543 -0.109707 -0.113376 -0.0998774 -0.101216 -0.112293 -0.123211 -0.132736 -0.132546 
-0.132496 -0.112109 -0.125137 -0.109732 -0.149062 -0.154192 -0.171546 -0.184828 -0.170885 
-0.147265 -0.144356 -0.146018 -0.161313 -0.162933 -0.132613 -0.132624 -0.132527 -0.127909 
-0.126667 -0.131873 -0.151093 -0.153305 -0.150145 -0.170899 -0.171003 -0.171081 -0.188323 
-0.166406 -0.100127 -0.0992113 -0.136169 -0.134461 -0.132037 -0.131737 -0.132013 -0.130621 
-0.130753 -0.11327 -0.10959 -0.109838 -0.130826 -0.109326 -0.106012 -0.1089 -0.111561 
-0.109788 -0.132665 -0.132726 -0.132923 -0.0968791 -0.144587 -0.109566 -0.110847 -0.134925 
-0.161546 -0.16129 -0.13196 -0.131929 -0.133132 -0.1502 -0.161634 -0.150475 -0.131378 
-0.131558 -0.117646 -0.116581 -0.118441 -0.147836 -0.147822 -0.138476 -0.14014 -0.137137 
-0.138874 -0.142648 -0.145332 -0.140553 -0.143141 -0.132011 -0.131859 -0.129872 -0.128567 
-0.129613 -0.128211 -0.152996 -0.148575 -0.143236 -0.144741 -0.145652 -0.112236 -0.110539 
-0.117881 -0.117548 -0.119002 -0.103466 -0.115058 -0.118109 -0.116699 -0.114861 -0.134437 
-0.119194 -0.119802 -0.123184 -0.138623 -0.140427 -0.126754 -0.127329 -0.150959 -0.150416 
-0.107729 -0.108138 -0.109102 -0.119506 -0.132848 -0.132977 -0.132895 -0.132765 -0.13269 
-0.131923 -0.119807 -0.118284 -0.117863 -0.126252 -0.125487 -0.122415 -0.122376 -0.132422 
-0.131976 -0.134412 -0.134179 -0.112443 -0.114411 -0.112612 -0.132422 -0.132443 -0.132298 
-0.13206 -0.130353 -0.123654 -0.12274 -0.131851 -0.133564 -0.133673 -0.133574 -0.12763 
-0.128156 -0.129027 -0.137725 -0.135769 -0.119711 -0.12981 -0.133279 -0.132967 -0.132544 
-0.143677 -0.132698 -0.132812 -0.156414 -0.188593 -0.125673 -0.124151 -0.124279 -0.163139 
-0.18808 -0.142655 -0.19749 -0.124322 -0.124043 -0.124701 -0.128459 -0.120447 -0.123076 
-0.119727 -0.152163 -0.152577 -0.113666 -0.157255 -0.155149 -0.155672 -0.153711 -0.153724 
-0.151815 -0.120821 -0.158906 -0.156933 -0.158531 -0.163959 -0.195621 -0.164995 -0.125308 
-0.126073 -0.127663 -0.123921 -0.123223 -0.131829 -0.100083 -0.120302 -0.11436 -0.116554 
-0.119824 -0.120854 -0.157717 -0.155165 -0.123792 -0.127006 -0.116916 -0.118453 -0.130275 
-0.129236 -0.115778 -0.110724 -0.0974935 -0.13369 -0.132232 -0.132205 -0.132133 -0.132177 
-0.132109 -0.133479 -0.133473 -0.133518 -0.120748 -0.132443 -0.131769 -0.132155 -0.131904 
-0.119481 -0.120995 -0.129128 -0.124289 -0.122679 -0.12275 -0.132705 -0.131975 -0.134752 
-0.12632 -0.123067 -0.122138 -0.139968 -0.141486 -0.163653 -0.161416 -0.163369 -0.128921 
-0.127365 -0.125985 -0.16339 -0.16664 -0.166518 -0.142082 -0.145388 -0.144479 -0.152063 
-0.189212 -0.162569 -0.158969 -0.158956 -0.13352 -0.13352 -0.17018 -0.170672 -0.126001 
-0.126805 -0.126627 -0.127512 -0.156133 -0.155657 -0.15948 -0.159972 -0.162648 -0.141203 
-0.139889 -0.142566 -0.162573 -0.157731 -0.154689 -0.160298 -0.131142 -0.146773 -0.133496 
-0.13342 -0.121714 -0.119328 -0.127388 -0.123932 -0.121826 -0.124202 -0.0923924 -0.094485 
-0.131954 -0.138519 -0.138228 -0.140566 -0.140294 -0.164214 -0.166285 -0.186871 -0.152863 
-0.154237 -0.150199 -0.110998 -0.111068 -0.109585 -0.12411 -0.1324 -0.113029 -0.122772 
-0.119339 -0.134436 -0.137496 -0.135947 -0.124058 -0.121838 -0.113739 -0.109628 -0.11164 
-0.110023 -0.133398 -0.133431 -0.13339 -0.133431 -0.110829 -0.111391 -0.113761 -0.127613 
-0.133467 -0.133441 -0.133428 -0.0954158 -0.131783 -0.133244 -0.111258 -0.112657 -0.140632 
-0.110863 -0.127337 -0.127463 -0.112844 -0.133905 -0.13246 -0.132138 -0.132125 -0.132112 
-0.13205 -0.132025 -0.132202 -0.132145 -0.135069 -0.130916 -0.132071 -0.132388 -0.132597 
-0.132568 -0.132701 -0.131371 -0.113133 -0.133312 -0.133296 -0.133369 -0.133064 -0.132983 
-0.132939 -0.167445 -0.133024 -0.135476 -0.12318 -0.123684 -0.16996 -0.143416 -0.126936 
-0.170551 -0.171255 -0.158974 -0.162565 -0.12475 -0.125802 -0.125542 -0.126107 -0.125138 
-0.125681 -0.143585 -0.126323 -0.126883 -0.133426 -0.133388 -0.125915 -0.126429 -0.127254 
-0.131776 -0.129322 -0.147116 -0.144331 -0.149293 -0.132007 -0.129089 -0.129966 -0.133017 
-0.13218 -0.132124 -0.13218 -0.131709 -0.131579 -0.13177 -0.124393 -0.124875 -0.124731 
-0.1539 -0.164933 -0.151947 -0.166865 -0.113359 -0.112051 -0.132952 -0.134698 -0.133783 
-0.196489 -0.133077 -0.167625 -0.125407 -0.132116 -0.136568 -0.139621 -0.134163 -0.138903 
-0.141914 -0.13783 -0.13905 -0.135273 -0.133136 -0.13029 -0.126473 -0.132178 -0.131791 
-0.132006 -0.131791 -0.132627 -0.133136 -0.133225 -0.132023 -0.132076 -0.156095 -0.153854 
-0.133363 -0.157105 -0.158691 -0.129976 -0.128795 -0.115828 -0.121914 -0.122425 -0.161985 
-0.159951 -0.160328 -0.157501 -0.158021 -0.154354 -0.156619 -0.154859 -0.155469 -0.156059 
-0.144096 -0.123878 -0.12526 -0.124941 -0.124991 -0.108373 -0.105403 -0.159121 -0.155872 
-0.18099 -0.149145 -0.144615 -0.113385 -0.111563 -0.132649 -0.132815 -0.132696 -0.132468 
-0.132289 -0.132118 -0.163225 -0.132402 -0.125955 -0.137042 -0.127275 -0.132323 -0.136481 
-0.136246 -0.132475 -0.132467 -0.155936 -0.127856 -0.127135 -0.128074 -0.121994 -0.125916 
-0.124733 -0.124613 -0.123614 -0.133427 -0.145778 -0.144332 -0.116583 -0.114557 -0.114824 
-0.195027 -0.182923 -0.155614 -0.13341 -0.132393 -0.149828 -0.150722 -0.151236 -0.132449 
-0.132425 -0.17196 -0.131648 -0.154978 -0.133315 -0.133264 -0.143308 -0.146904 -0.159284 
-0.161007 -0.15882 -0.171321 -0.166206 -0.134956 -0.133926 -0.129327 -0.122629 -0.122336 
-0.129493 -0.130976 -0.132297 -0.132157 -0.132123 -0.132315 -0.130167 -0.118688 -0.114079 
-0.133412 -0.154115 -0.155714 -0.155969 -0.144208 -0.132556 -0.146629 -0.145289 -0.155386 
-0.132863 -0.133189 -0.133066 -0.141839 -0.132674 -0.132511 -0.132589 -0.0994709 -0.160025 
-0.133801 -0.153023 -0.153742 -0.164124 -0.127552 -0.127124 -0.121474 -0.118465 -0.132137 
-0.131384 -0.132102 -0.131374 -0.129749 -0.133558 -0.128494 -0.131957 -0.118871 -0.129919 
-0.13987 -0.133605 -0.131971 -0.13239 -0.131437 -0.119862 -0.120819 -0.120736 -0.125282 
-0.124577 -0.132907 -0.133153 -0.132994 -0.119192 -0.118468 -0.120043 -0.152324 -0.125063 
-0.132347 -0.132227 -0.132216 -0.123403 -0.124045 -0.133402 -0.133408 -0.133374 -0.133452 
-0.132768 -0.130989 -0.12941 -0.130873 -0.153385 -0.120376 -0.121556 -0.14541 -0.119814 
-0.120924 -0.1218 -0.121467 -0.109597 -0.11164 -0.131808 -0.131955 -0.131674 -0.131546 
-0.139533 -0.137188 -0.135006 -0.134354 -0.123311 -0.122002 -0.123481 -0.131124 -0.130335 
-0.133125 -0.132295 -0.151441 -0.156528 -0.127131 -0.154305 -0.148697 -0.150768 -0.149916 
-0.152391 -0.131259 -0.132298 -0.132861 -0.133055 -0.13242 -0.132295 -0.132418 -0.130874 
-0.132262 -0.132202 -0.132439 -0.132502 -0.132393 -0.132563 -0.133315 -0.133185 -0.132677 
-0.132616 -0.132752 -0.13082 -0.132402 -0.158276 -0.155813 -0.133111 -0.126453 -0.12775 
-0.126725 -0.1281 -0.133357 -0.129741 -0.130848 -0.13052 -0.130956 -0.141638 -0.14552 
-0.159272 -0.125727 -0.12562 -0.130676 -0.131195 -0.126283 -0.119909 -0.127583 -0.117554 
-0.118859 -0.125014 -0.0996773 -0.137218 -0.128853 -0.129809 -0.128932 -0.119113 -0.119021 
-0.117715 -0.119909 -0.134414 -0.134182 -0.12936 -0.128569 -0.127214 -0.134425 -0.133156 
-0.132477 -0.134413 -0.133287 -0.133804 -0.132741 -0.132795 -0.132866 -0.128433 -0.128486 
-0.126219 -0.133365 -0.133292 -0.133329 -0.170813 -0.198359 -0.133268 -0.133347 -0.129116 
-0.128694 -0.138201 -0.133119 -0.127205 -0.131401 -0.114529 -0.121281 -0.17971 -0.149776 
-0.166427 -0.133362 -0.134184 -0.123351 -0.124353 -0.127419 -0.131428 -0.131312 -0.130254 
-0.130048 -0.131326 -0.131749 -0.13233 -0.132318 -0.171324 -0.133501 -0.132256 -0.172796 
-0.134184 -0.132109 -0.133239 -0.165227 -0.151502 -0.149846 -0.128006 -0.128819 -0.123988 
-0.15485 -0.183506 -0.129873 -0.130376 -0.131388 -0.177813 -0.156666 -0.15438 -0.154318 
-0.124815 -0.124801 -0.110928 -0.110975 -0.154219 -0.155615 -0.167437 -0.162718 -0.132699 
-0.157326 -0.18332 -0.142845 -0.181607 -0.201441 -0.133342 -0.13614 -0.142731 -0.147121 
-0.152951 -0.159486 -0.131949 -0.13194 -0.132997 -0.121619 -0.140833 -0.131401 -0.125627 
-0.126797 -0.120746 -0.12216 -0.118224 -0.133512 -0.131489 -0.129707 -0.132436 -0.12718 
-0.125773 -0.124315 -0.125643 -0.12555 -0.138381 -0.122082 -0.120107 -0.118891 -0.122996 
-0.121773 -0.123331 -0.195344 -0.155979 -0.183551 -0.18641 -0.130494 -0.129874 -0.131533 
-0.132146 -0.133071 -0.128147 -0.130074 -0.12941 -0.115863 -0.113019 -0.131767 -0.107276 
-0.112194 -0.13662 -0.141737 -0.130664 -0.132827 -0.130654 -0.134248 -0.12817 -0.132511 
-0.13492 -0.122893 -0.122802 -0.133337 -0.133272 -0.133278 -0.133502 -0.125213 -0.1303 
-0.120953 -0.122804 -0.120662 -0.129685 -0.130584 -0.126737 -0.133854 -0.128136 -0.13322 
-0.133107 -0.123996 -0.171834 -0.171532 -0.166724 -0.170938 -0.16625 -0.121352 -0.121331 
-0.122159 -0.16073 -0.120159 -0.121664 -0.117541 -0.115273 -0.118551 -0.116679 -0.109476 
-0.123174 -0.11435 -0.112503 -0.116335 -0.116128 -0.114256 -0.112389 -0.131659 -0.145741 
-0.158809 -0.131638 -0.120717 -0.151716 -0.155303 -0.138765 -0.147024 -0.153712 -0.142687 
-0.135041 -0.136196 -0.139204 -0.11709 -0.137705 -0.131895 -0.132013 -0.132031 -0.12504 
-0.157444 -0.178084 -0.142069 -0.158205 -0.137034 -0.110173 -0.111866 -0.147662 -0.15635 
-0.133374 -0.163396 -0.123997 -0.148337 -0.132151 -0.130425 -0.132726 -0.133059 -0.124906 
-0.125039 -0.134838 -0.112746 -0.124621 -0.132029 -0.13082 -0.131054 -0.127944 -0.125838 
-0.130335 -0.127291 -0.152935 -0.150815 -0.149706 -0.14206 -0.124459 -0.125026 -0.15364 
-0.15574 -0.153968 -0.155894 -0.13376 -0.133958 -0.13326 -0.131793 -0.131185 -0.132505 
-0.133095 -0.162304 -0.133139 -0.149758 -0.156825 -0.118131 -0.115671 -0.114028 -0.121402 
-0.123104 -0.132973 -0.109727 -0.109352 -0.124718 -0.133087 -0.132919 -0.133117 -0.13305 
-0.132965 -0.121501 -0.11684 -0.11888 -0.133595 -0.133617 -0.133546 -0.133197 -0.133203 
-0.127952 -0.130533 -0.15064 -0.151284 -0.148333 -0.146154 -0.135063 -0.131974 -0.132001 
-0.132109 -0.129791 -0.0994787 -0.113532 -0.127164 -0.143022 -0.14308 -0.132582 -0.132697 
-0.132078 -0.132136 -0.132177 -0.132206 -0.135154 -0.133739 -0.138195 -0.10865 -0.107003 
-0.108728 -0.151388 -0.109314 -0.11048 -0.110538 -0.124668 -0.124475 -0.129263 -0.13201 
-0.133256 -0.12115 -0.132826 -0.133203 -0.125148 -0.125783 -0.125357 -0.125521 -0.124854 
-0.12173 -0.132432 -0.131374 -0.141848 -0.132186 -0.131651 -0.131178 -0.132468 -0.116696 
-0.115216 -0.117586 -0.123472 -0.122151 -0.121839 -0.10013 -0.116199 -0.142225 -0.15739 
-0.155598 -0.155373 -0.170877 -0.170972 -0.165869 -0.0974584 -0.114935 -0.122694 -0.121143 
-0.116011 -0.117766 -0.125584 -0.123945 -0.10871 -0.116264 -0.114018 -0.114789 -0.120684 
-0.119833 -0.131317 -0.136229 -0.139527 -0.13252 -0.132581 -0.132104 -0.132187 -0.145837 
-0.142202 -0.134053 -0.118972 -0.118432 -0.1338 -0.121313 -0.119834 -0.119569 -0.157416 
-0.159723 -0.143766 -0.147941 -0.149281 -0.139714 -0.141319 -0.142325 -0.153568 -0.152096 
-0.145655 -0.144005 -0.119508 -0.118463 -0.121122 -0.130379 -0.136823 -0.127081 -0.132432 
-0.131699 -0.112986 -0.116522 -0.119881 -0.124953 -0.125299 -0.124309 -0.151294 -0.158965 
-0.165618 -0.13651 -0.136596 -0.125099 -0.126438 -0.116194 -0.132627 -0.132777 -0.131138 
-0.109758 -0.125531 -0.122256 -0.12384 -0.144967 -0.131426 -0.131515 -0.124726 -0.132249 
-0.132025 -0.131494 -0.131258 -0.131892 -0.128229 -0.129034 -0.131656 -0.13188 -0.100084 
-0.13245 -0.148779 -0.148757 -0.147406 -0.147764 -0.146609 -0.132956 -0.14726 -0.148059 
-0.163813 -0.208118 -0.133276 -0.133121 -0.133027 -0.0999669 -0.132967 -0.165048 -0.11581 
-0.131134 -0.158291 -0.132537 -0.132463 -0.132446 -0.116211 -0.115867 -0.131054 -0.129613 
-0.160982 -0.0928404 -0.139844 -0.117342 -0.118664 -0.124731 -0.131256 -0.166704 -0.164675 
-0.131211 -0.150916 -0.152888 -0.0984378 -0.143198 -0.0997248 -0.147283 -0.132174 -0.118684 
-0.117671 -0.11574 -0.120505 -0.135905 -0.123987 -0.127819 -0.127976 -0.132431 -0.132219 
-0.152928 -0.138993 -0.124444 -0.124471 -0.118166 -0.133296 -0.133495 -0.114406 -0.100637 
-0.118851 -0.157429 -0.157635 -0.130048 -0.128725 -0.110234 -0.128904 -0.122674 -0.123782 
-0.125357 -0.126379 -0.135878 -0.150506 -0.149066 -0.12374 -0.109544 -0.125459 -0.145752 
-0.128525 -0.128546 -0.132766 -0.132421 -0.127861 -0.129059 -0.129663 -0.112497 -0.114138 
-0.112864 -0.117909 -0.128191 -0.182522 -0.134675 -0.139172 -0.140403 -0.145832 -0.131786 
-0.131937 -0.134455 -0.134155 -0.166055 -0.118258 -0.151499 -0.173757 -0.123872 -0.14847 
-0.14675 -0.132474 -0.125072 -0.144315 -0.120843 -0.131524 -0.131349 -0.137508 -0.108043 
-0.109469 -0.149141 -0.155625 -0.128496 -0.119247 -0.11893 -0.143071 -0.156809 -0.146756 
-0.166293 -0.119214 -0.117545 -0.117685 -0.133427 -0.131819 -0.167886 -0.152658 -0.188878 
-0.118231 -0.163863 -0.133278 -0.144765 -0.132171 -0.160712 -0.152484 -0.157578 -0.159283 
-0.142676 -0.140652 -0.146425 -0.146622 -0.133438 -0.133455 -0.122271 -0.125041 -0.125402 
-0.126393 -0.157496 -0.124997 -0.127645 -0.127223 -0.132365 -0.123807 -0.11275 -0.104153 
-0.105648 -0.101353 -0.149348 -0.149178 -0.132435 -0.0845958 -0.0923772 -0.151359 -0.150084 
-0.125678 -0.098876 -0.115569 -0.125303 -0.131917 -0.127029 -0.125669 -0.132049 -0.126811 
-0.131168 -0.131259 -0.122616 -0.124873 -0.124421 -0.133495 -0.126535 -0.132908 -0.133319 
-0.133374 -0.15927 -0.132078 -0.171452 -0.16905 -0.125478 -0.122274 -0.120358 -0.121839 
-0.121708 -0.122559 -0.130798 -0.170949 -0.129299 -0.152241 -0.113408 -0.155902 -0.150336 
-0.163048 -0.112383 -0.170671 -0.144537 -0.107264 -0.105133 -0.0999987 -0.131017 -0.098685 
-0.132026 -0.132034 -0.131871 -0.130602 -0.13529 -0.121998 -0.1652 -0.132385 -0.132414 
-0.165093 -0.128871 -0.120058 -0.0988499 -0.0992704 -0.11887 -0.144686 -0.192188 -0.143823 
-0.136204 -0.133919 -0.128942 -0.141369 -0.117026 -0.165011 -0.128494 -0.137295 -0.1091 
-0.1355 -0.116127 -0.117853 -0.121173 -0.121274 -0.119644 -0.109668 -0.119006 -0.131541 
-0.119619 -0.149979 -0.132762 -0.124851 -0.134943 -0.157839 -0.112258 -0.155954 -0.149996 
-0.150262 -0.121175 -0.15016 -0.158097 -0.153995 -0.141908 -0.161608 -0.133302 -0.156562 
-0.135313 -0.122692 -0.137275 -0.158837 -0.132477 -0.156704 -0.137408 -0.138175 -0.12538 
-0.142293 -0.115168 -0.169636 -0.133191 -0.128832 -0.127787 -0.141858 -0.139423 -0.129634 
-0.133583 -0.157776 -0.127042 -0.162798 -0.164985 -0.132827 -0.128962 -0.135007 -0.132 
-0.132433 -0.128179 -0.132302 -0.158625 -0.156881 -0.158039 -0.134857 -0.135302 -0.13085 
-0.136208 -0.139826 -0.137669 -0.166462 -0.159992 -0.132601 -0.0958207 -0.131276 -0.159794 
-0.134622 -0.116927 -0.125055 -0.153512 -0.0988014 -0.126688 -0.136307 -0.148684 -0.151664 
-0.126037 -0.132611 -0.131589 -0.131817 -0.148941 -0.138134 -0.132068 -0.11978 -0.0981605 
-0.132693 -0.135539 -0.136126 -0.098698 -0.164324 -0.126936 -0.139211 -0.12541 -0.140872 
-0.152602 -0.150018 -0.13383 -0.152106 -0.125149 -0.124689 -0.141473 -0.100328 -0.12908 
-0.132366 -0.117078 -0.132385 -0.146412 -0.147414 -0.152797 -0.151902 -0.148057 -0.146005 
-0.149916 -0.151989 -0.122516 -0.133532 -0.118554 -0.127735 -0.133566 -0.140735 -0.132838 
-0.1552 -0.156306 -0.153894 -0.109852 -0.113171 -0.148734 -0.122786 -0.116031 -0.111609 
-0.131934 -0.178325 -0.125134 -0.162096 -0.13293 -0.0995148 -0.133817 -0.11151 -0.132105 
-0.121435 -0.127716 -0.142059 -0.131636 -0.125567 -0.122444 -0.165033 -0.121952 -0.122093 
-0.139157 -0.108037 -0.132776 -0.136051 -0.132526 -0.123768 -0.132593 -0.132899 -0.132849 
-0.161048 -0.133134 -0.139523 -0.118798 -0.13219 -0.120294 -0.124294 -0.132537 -0.132031 
-0.154892 -0.128241 -0.118987 -0.120839 -0.153125 -0.134877 -0.133388 -0.112412 -0.121451 
-0.133419 -0.164963 -0.120344 -0.115866 -0.127108 -0.13253 -0.1648 -0.152079 -0.121792 
-0.12783 -0.129961 -0.130577 -0.167524 -0.201476 -0.219294 -0.155105 -0.117616 -0.162825 
-0.123284 -0.12869 -0.13197 -0.14605 -0.144417 -0.116493 -0.126638 -0.162082 
Stress%20xx%20component 1 8918 double
0.520921 0.485646 0.476564 0.529105 -2.04338e-06 -1.43754e-05 2.92297e-05 1.4751e-05 0.0492757 
0.0297835 -0.0336564 0.0606005 0.0576967 0.0510501 -0.0279122 0.0202047 0.218225 0.19344 
0.188135 0.183629 0.187754 0.18652 0.179568 0.177011 0.18567 0.186907 0.176706 
0.177907 0.184467 0.184361 0.184006 0.17847 0.185833 0.186424 0.190556 0.189274 
0.202218 0.212531 0.204919 0.235458 0.2129 0.204785 0.196933 0.191995 0.190679 
0.209554 0.199542 0.191129 0.192757 0.192365 0.200839 0.2105 0.191474 0.192602 
0.19339 0.192121 0.208934 0.19162 0.192526 0.192342 0.194411 0.206207 0.22472 
0.221089 0.000177195 -7.78499e-05 -0.000836868 -0.00197616 -0.0031536 -0.00426607 -0.00524247 -0.00582924 
-0.00606 -0.00597302 -0.0055039 -0.00472196 -0.00384683 -0.00281358 -0.0018037 -0.000913051 -7.96148e-05 
0.000463933 0.000909672 0.00117963 0.00121149 0.00112327 0.000909375 0.000637983 0.00036624 0.000127637 
-6.06971e-06 -0.151647 -0.00130885 -0.00109845 -0.000546443 -0.000295602 -0.000112504 -0.000176077 -0.000134385 
-8.01939e-05 -5.82655e-05 -4.9386e-05 -4.18059e-05 -5.35183e-06 -2.12431e-05 -1.06765e-05 9.30125e-06 6.74662e-06 
1.52795e-05 3.45194e-05 4.70727e-05 6.02321e-05 4.78401e-05 5.64301e-05 5.45066e-05 6.46044e-05 7.39921e-05 
4.98535e-05 7.36142e-05 -1.30519e-05 -0.000137723 -0.000208034 -0.000176363 -0.000195751 -0.000125499 -2.91755e-05 
2.90395e-05 5.16799e-05 6.29185e-05 4.5574e-05 5.2475e-05 4.28154e-05 4.09269e-05 1.13362e-05 1.42831e-05 
-2.85771e-05 -3.91703e-06 -3.93231e-06 -2.81783e-06 -3.79847e-06 -2.88302e-06 -6.50328e-06 2.04253e-05 7.74969e-05 
0.000156901 0.00016844 0.0001163 1.71035e-05 -7.36983e-05 -0.000140993 -0.000142135 -0.000199919 -0.000402078 
-0.00171196 -0.002064 -0.00286259 -0.0272594 0.00663199 0.0499066 0.078483 0.0860868 0.0977132 
0.114726 0.108762 0.113076 0.0994824 0.113539 0.124534 0.125563 0.177529 0.102298 
0.121505 0.0978265 0.110825 0.0967736 0.104555 0.100259 0.0919739 0.0939902 0.0813844 
0.0343351 0.0159865 0.000113525 -0.000141644 -0.00121557 -0.00276814 -0.00425855 -0.00542349 -0.0060603 
-0.0060385 -0.00559041 -0.00464293 -0.00347008 -0.00211115 -0.000937818 6.21393e-05 0.000707287 0.00109437 
0.00120719 0.00107309 0.000785666 0.000437977 0.000152008 3.3342e-06 -0.0241963 -0.0087342 -0.00106054 
-0.000582511 -0.000276908 -0.000195384 -0.000120765 -6.87567e-05 -5.00283e-05 -3.58156e-05 -3.20246e-05 -1.67834e-05 
-7.22609e-07 1.19538e-05 3.81726e-05 5.269e-05 6.22022e-05 7.41838e-05 8.6402e-05 8.99212e-05 0.000102981 
7.9095e-05 1.46129e-05 -9.07824e-05 -0.000186265 -0.000225023 -0.000135415 -5.64227e-05 1.61261e-05 5.40042e-05 
7.7668e-05 7.38256e-05 5.25297e-05 5.51641e-05 4.41649e-05 5.09169e-05 2.41879e-05 -6.19212e-06 -5.82247e-06 
-3.76398e-06 -4.55782e-06 -4.52547e-06 7.63388e-06 3.10577e-05 8.14291e-05 0.00012517 0.000158521 0.000159201 
4.11767e-05 -0.000101617 -0.000178892 -0.000244785 -0.000310474 -0.000486017 -0.00102364 -0.00112503 -0.00306483 
-0.00596066 -0.147042 0.0401013 0.0272803 0.0526372 0.0815843 0.0913495 0.0851292 0.106829 
0.110762 0.125264 0.112401 0.102033 0.122002 0.180463 0.113394 0.11976 0.1068 
0.151877 0.115455 0.122736 0.110411 0.105281 0.0981279 0.0712561 0.0640042 0.0268136 
-0.00755859 -0.000275708 -0.000830922 -0.00167602 -0.00255078 -0.00344536 -0.00418655 -0.00479568 -0.00507372 
-0.00509767 -0.0048661 -0.0043962 -0.00379257 -0.00306451 -0.00226687 -0.00151913 -0.000831371 -0.00026918 
0.000192053 0.000516789 0.000680033 0.000715973 0.000672379 0.000551302 0.000398775 0.000250462 0.000121222 
2.71288e-05 0.0150467 0.0058348 0.00295818 0.00163257 0.00100465 0.000642888 0.00048781 0.00031367 
0.000189981 0.000151519 0.000121383 0.000107313 9.53185e-05 5.87557e-05 1.85367e-05 -3.55085e-05 -6.20711e-05 
-0.000116989 -0.000179264 -0.000223044 -0.000258318 -0.000269252 -0.000289899 -0.000333666 -0.000401769 -0.000423857 
-0.00040444 -0.000163234 0.000295035 0.000717834 0.00113813 0.00105078 0.000665962 0.000205287 -7.13705e-05 
-0.000230102 -0.000295418 -0.000303726 -0.000229226 -0.000211672 -0.000168466 -0.000154041 -0.000140069 -0.00014298 
2.72407e-05 2.17088e-05 2.73369e-05 3.80923e-05 -1.73413e-05 -0.000719318 -0.00109133 -0.00102433 -0.00041924 
0.000409775 0.000862123 0.000851312 0.00106904 0.0019753 0.00413427 0.0129079 0.0224931 0.070647 
0.0850985 0.0875047 0.0888325 0.0891771 0.0933273 0.091923 0.0845295 0.0938735 0.0931147 
0.0940179 0.0946211 0.0859045 0.0939361 0.0942543 0.0964461 0.092921 0.0930268 0.0843455 
0.0918776 0.0944232 0.0926193 0.0897585 0.0733129 0.0739606 -0.0392905 -0.0583809 -0.050985 
-0.0412937 -0.032241 -0.0242426 -0.0183511 -0.0128343 -0.00738441 -0.000891047 0.00813715 0.0187768 
0.00538428 0.034219 -0.00278552 0.0170568 0.0112371 0.000113548 -0.00375571 -0.0089787 -0.0133346 
-0.0186355 -0.0246338 -0.0308445 -0.0414238 -0.047867 -0.0546368 -0.0242853 0.0408771 3.64841e-05 
-0.00025659 0.0111452 -0.00329848 0.0701347 -0.0164545 0.0458202 -0.0313019 -0.00136726 -0.00221661 
-0.00296851 -0.00365593 -0.00420522 -0.00456473 -0.00466851 -0.00452833 -0.00420677 -0.00374136 -0.00317969 
-0.00253315 -0.00187613 -0.00127613 -0.000753367 -0.000326242 3.8188e-05 0.000246512 0.000373823 0.000424256 
0.000406165 0.00033266 0.000245895 8.26234e-05 0.0179423 0.0108418 0.00678189 0.0045721 0.00297563 
0.0020028 0.00140884 0.0010208 0.000759987 0.000583651 0.000497158 0.000369259 0.000217339 2.13942e-05 
-0.000182783 -0.000417293 -0.000662832 -0.000888452 -0.00102055 -0.00107281 -0.00111314 -0.00117395 -0.00132744 
-0.00148356 -0.00142409 -0.000839079 0.00042586 0.00206001 0.00388481 0.00455285 0.00316731 0.00152955 
0.00021942 -0.00067007 -0.00107373 -0.00119946 -0.00112823 -0.000960474 -0.000792761 -0.000671935 -0.000596375 
-0.000602761 0.0460794 8.29767e-05 0.000110409 4.03944e-05 0.00817784 0.0335028 -0.0036337 -0.00242843 
0.000202116 0.00281162 0.0036777 0.00406996 0.006103 0.0106412 -0.00186843 -0.00430084 -0.00602511 
0.0786121 0.080401 0.0856784 0.0872642 0.0906274 0.0938051 0.0955839 0.0960816 0.0971283 
0.0974285 0.0985893 0.0984096 0.0981878 0.0970246 0.0961827 0.095321 0.094614 0.0924058 
0.0903565 0.0867875 0.0823556 0.071016 -0.0353741 -0.0224983 -0.0304016 -0.0246184 -0.0192023 
-0.0142074 -0.00930528 -0.00429629 0.00114727 0.00497489 0.00245675 0.0130337 0.000122742 0.00143694 
0.00674293 0.00398543 -0.000181611 -0.00478332 -0.00940594 -0.0141404 -0.0191123 -0.0243733 -0.0294707 
-0.0338549 -0.0301133 -0.0118087 -0.000292546 0.0199102 -0.00322918 0.0553656 -0.0348926 0.000702427 
0.0292572 0.0234604 0.0426142 0.035403 -0.0123955 0.038119 -0.000405648 -0.006898 -0.00265816 
-0.00336632 -0.0039896 -0.004422 -0.00458902 -0.00451574 -0.00424805 -0.00381673 -0.00328298 -0.00268465 
-0.00209417 -0.00151408 -0.00105065 -0.000629394 -0.000283406 -3.12067e-05 0.00012396 0.000226411 0.000258866 
0.000256301 -0.00185957 0.00101345 -0.00110618 0.0199204 0.0134127 0.00926925 0.00610734 0.00414037 
0.0030013 0.00218688 0.00170124 0.00137452 0.0010512 0.000695393 0.000321886 -0.000174675 -0.000674887 
-0.00123023 -0.00176024 -0.00212335 -0.00230603 -0.00233235 -0.00228645 -0.00239611 -0.00254174 -0.0026613 
-0.00213072 0.000126055 0.0026387 0.00625401 0.0113501 0.00857721 0.00421349 0.00114123 -0.00083427 
-0.00211934 -0.00264124 -0.00261008 -0.00222009 -0.00186334 -0.00156444 -0.00130438 -0.00164299 -0.00110415 
0.000133897 0.000156958 0.000165971 0.0338647 -0.00520693 -0.00167531 -0.00206742 0.00790988 0.00931468 
0.0147925 0.0257173 0.00124816 -0.0240894 0.00866147 0.00417019 0.0609901 0.0656337 0.0702978 
0.0735904 0.0773449 0.0803379 0.0815145 0.0821138 0.0831486 0.0845447 0.0844967 0.082704 
0.0810985 0.0796114 0.0781095 0.0752393 0.0719914 0.0679478 0.0636566 0.0576294 -0.0164367 
-0.0229885 -0.0127249 -0.00893097 -0.0053511 -0.0030051 -0.00292012 0.0142311 0.00183357 -0.0160321 
-0.00133061 -0.00392746 -0.0072439 -0.0109015 -0.0147799 -0.0185061 -0.0215409 -0.0227637 -0.0189469 
-0.00871974 0.0241575 -0.0245344 -0.00557689 0.00761588 -0.0195676 0.0179283 -0.0042164 0.000185595 
0.000178143 -0.00644107 -0.00634298 -0.00501035 -0.0110303 0.0217916 0.00806962 -0.0173159 -0.000871246 
-8.69776e-05 0.00731298 -0.00397511 -0.00457177 -0.00491686 -0.00496022 -0.00465723 -0.00414829 -0.00354348 
-0.00290865 -0.00225615 -0.00164696 -0.00113508 -0.000743986 -0.000443417 -0.000175068 1.27829e-05 0.000125422 
0.000170773 0.000178755 0.0111583 0.000204814 -0.00380978 0.0273603 0.0195165 0.013698 0.00935404 
0.00655694 0.00479267 0.00339132 0.00299416 0.00232743 0.00169981 0.00100869 0.000203577 -0.000674181 
-0.00173805 -0.00276027 -0.00354053 -0.0040023 -0.00399012 -0.00365425 -0.00343039 -0.00330423 -0.00318327 
-0.00298492 0.00281657 -0.000997237 -0.00340255 -0.00446631 -0.00462463 -0.0040666 -0.00330067 -0.00268998 
-0.0139539 0.0399272 -0.00528267 0.00213722 -0.0112968 -0.00460025 -0.00634555 0.0162942 0.0131421 
0.00347017 0.00016846 0.00412816 0.00159193 0.0520996 0.0541758 0.0580228 0.0636799 0.0675327 
0.067807 0.0674186 0.0691095 0.0727737 0.0687377 0.0668225 0.0653654 0.0632147 0.059647 
0.0561097 0.0518986 0.0468127 -0.00892474 -0.00691385 -0.00698193 -0.00483741 0.00465319 0.00362395 
-0.00965061 -0.0128917 -0.00394423 0.000270785 -0.0056935 -0.00801431 -0.0105526 -0.0131845 -0.0150119 
-0.0155694 -0.0125549 -0.00314671 -0.00221059 0.00813902 0.00617036 -0.00330431 0.0186414 -0.0158953 
-0.00258254 -0.0175145 -0.00788329 -0.014382 -0.00696463 -0.00819665 0.0287018 0.0109914 0.00814716 
-0.00855298 -0.00837328 -0.00159702 -0.0171024 0.01226 0.0361121 0.0121836 -0.00282127 -0.0049302 
-0.00543728 -0.00589269 -0.00565218 -0.00491615 -0.00406685 -0.00331898 -0.00251863 -0.00174299 -0.00114716 
-0.000710268 -0.000323485 1.08707e-05 0.000149033 0.00844881 -0.000335943 0.0245783 0.0174085 0.0118842 
0.00843629 0.00578884 0.00451216 0.00313716 0.00231765 0.00102115 -0.00022593 -0.00193565 -0.00365788 
-0.00514579 -0.00601112 -0.00662959 0.000302814 -0.00576715 -0.00664925 -0.00729145 -0.00627584 -0.0050125 
-0.00792763 -0.0085493 0.0252967 0.00947573 0.0138817 0.000199377 -0.00426934 -0.00969614 0.0396852 
0.0454337 0.0539159 0.0558241 0.0519385 0.0522354 0.0575619 0.0525739 0.0519093 0.0506888 
0.0463891 0.0421373 0.0385413 0.0338453 -0.0105523 0.00587229 -0.0100747 0.00342595 -0.00930095 
-0.009245 -0.0110319 -0.00390888 0.0110142 -0.00451051 0.0143074 -0.00236086 0.012971 -0.00558539 
-0.0108546 -0.00825289 0.0405771 -0.0032453 -0.000139163 -0.00506066 -0.00626263 -0.0129454 -0.00944061 
-0.00893539 -0.00877009 0.0226937 -0.00734493 -0.00448703 -0.00295899 -0.0019852 -0.00117147 -0.000596336 
-0.000339271 0.0197483 0.0133857 0.0101003 0.0114643 0.00732381 0.00485097 -0.00133017 -0.00836743 
-0.00650072 0.0363621 0.0199519 -0.00332513 0.0384796 0.0367056 0.0395714 0.0369071 0.0291603 
0.0283162 -0.00676035 -0.00337654 -4.46306e-05 0.00182395 -0.00429596 -0.00138059 -0.00626772 -0.00166485 
-0.000462013 -0.00159137 -5.96721e-05 -0.00369158 0.0177486 0.0260454 -0.000759549 -0.000319586 -0.00112374 
-0.00214841 -0.00321779 -0.00421029 -0.00481158 -0.00503647 -0.00483204 -0.00431037 -0.00351434 -0.00262087 
-0.00167962 -0.000817789 -0.000197247 0.000274247 0.000519543 0.000627303 0.000557343 0.000411699 0.000249411 
9.9751e-05 0.0398187 0.0076797 0.00296211 0.00145019 0.000858667 0.000572817 0.000381967 0.000295353 
0.000230543 0.00016277 0.000121788 7.76825e-05 -7.81724e-06 -0.000111023 -0.000224179 -0.000308069 -0.000335023 
-0.000390088 -0.000446959 -0.000517167 -0.000619054 -0.000461343 3.20016e-05 0.000813191 0.00135205 0.00118737 
0.000657651 0.000151355 -0.000219058 -0.000344102 -0.000355343 -0.000337547 -0.000283744 -0.0002764 -0.000283761 
3.68256e-05 1.66129e-05 2.60107e-05 2.41672e-05 1.19541e-05 -0.000105358 -0.000476217 -0.000937619 -0.00120422 
-0.00090982 -6.39088e-06 0.000764202 0.000957833 0.000806227 0.000934948 0.00157789 0.00355741 0.010178 
0.0122001 0.058704 0.0874045 0.0892467 0.0897299 0.0924657 0.0950951 0.0999009 0.0954149 
0.0986199 0.0959338 0.101859 0.0963619 0.0969197 0.0960389 0.0951013 0.096833 0.0945404 
0.0932686 0.0907661 0.0864661 -0.0175993 -0.0572418 -0.0526434 -0.0422065 -0.032935 -0.0261884 
-0.0211759 -0.0158716 -0.0110323 -0.00521873 0.000543956 0.00798739 0.0176659 0.00542905 0.0366573 
0.00804463 0.016564 0.00678179 0.00206971 -0.00327173 -0.00861721 -0.0131831 -0.0185526 -0.0241874 
-0.031573 -0.0401053 -0.0535759 -0.0542204 -0.00705766 0.00816233 4.45246e-05 0.00665726 -0.0415498 
-0.0326782 0.047231 0.0510626 -0.00179048 -0.00101242 -0.00356928 -0.00429717 -0.00464059 -0.00454798 
-0.00417219 -0.00355931 -0.00286076 -0.00204178 -0.00131123 -0.000705525 -0.000249577 8.70486e-05 0.000264355 
0.000331085 0.000293217 0.000199676 9.98946e-05 -0.00368015 0.00897625 0.0173818 0.0421104 0.00525879 
0.00335589 0.00230428 0.00164644 0.00115069 0.000853014 0.000636931 0.000416036 0.000121108 -0.000235805 
-0.000664925 -0.00102745 -0.00130544 -0.00146109 -0.00158596 -0.00172211 -0.00190987 -0.00182822 -0.000840208 
0.00160055 0.00437672 0.00537758 0.00368994 0.0013376 -0.000334019 -0.00117294 -0.00147802 -0.00140517 
-0.00121255 -0.00105832 -0.00099607 0.0483967 8.72175e-05 -0.000148965 9.8037e-05 0.0412242 -0.00250265 
0.0272266 -0.00115206 -0.00373035 -0.00120807 0.00215149 0.00374222 0.0039578 0.00435271 0.0070303 
0.0129288 0.00261206 0.000805647 0.0674603 0.0811152 0.0877647 0.0899545 0.0906708 0.091487 
0.0922691 0.0933709 0.0939453 0.093386 0.0922516 0.0917764 0.0907989 0.0880369 0.085005 
0.0821091 0.0700999 -0.00544305 0.00912707 0.0399923 -0.0342045 -0.0354638 -0.0319795 -0.0266815 
-0.0217605 -0.016635 -0.0117686 -0.0068721 -0.0023455 0.00212067 0.00519264 0.00133056 0.00555353 
-0.0195483 0.0013059 -0.000608648 -0.00453394 -0.00893532 -0.0134457 -0.0183453 -0.0238974 -0.0294196 
-0.0324858 -0.0296826 -0.0114579 -0.00265909 -0.0176222 0.00502765 0.00306654 0.0089712 0.000156613 
0.0205738 -0.00943831 -0.0153809 0.028144 7.47782e-05 -0.00478479 -0.00416691 -0.00441397 -0.00381391 
-0.00309709 -0.00228769 -0.00156206 -0.000939898 -0.00049313 -0.000150634 6.54768e-05 0.000172896 0.0002074 
0.000156031 -0.00515541 -0.00557607 -0.00190424 -0.00225096 0.0133767 0.0384283 0.00459101 0.00324582 
0.00233503 0.00170877 0.00119265 0.000600154 -0.000109536 -0.000951724 -0.00186995 -0.0026123 -0.00303712 
-0.00307131 -0.00302207 -0.00301395 -0.00306046 -0.00246905 0.000530481 0.00677558 0.0122473 0.0094335 
0.00447328 0.000171263 -0.00229265 -0.00316401 -0.00319104 -0.00273153 -0.0022128 0.00686966 0.000147509 
0.0205886 -0.00678173 0.00812113 0.00838951 0.00710949 0.0108971 0.0175799 -0.00473592 0.0682744 
0.0723498 0.0732152 0.0748145 0.0763322 0.0772859 0.0776027 0.0767775 0.0750329 0.0725995 
0.0687648 0.0648896 0.0614399 0.0524279 0.00911636 -0.00507137 -0.0249787 -0.0239173 -0.0212546 
-0.0178542 -0.0140639 -0.010453 -0.0071897 -0.0044314 -0.00288506 -0.00327959 -0.000374263 -0.00682697 
-0.00371747 -0.0136767 -0.0176464 -0.0208627 -0.0219993 -0.0184277 -0.00848396 0.000581039 0.00266437 
0.022644 0.00206501 0.0104079 0.0711893 0.0264201 -0.0224039 -0.0102277 -0.00311546 0.000206644 
-0.00355425 -5.52718e-05 -0.00197055 -0.0137968 0.0032262 -0.00629647 -0.00123867 0.0186299 0.0318729 
0.0176756 -0.00519803 -0.0146906 0.0577835 -0.00240455 0.00555721 -0.0161788 -0.00123034 -0.00165035 
0.00327925 -0.00353602 -0.00509985 -0.00258129 -0.00174543 -0.00103024 -0.000534917 -0.000216816 1.97976e-05 
0.000144312 0.00016472 -0.00688056 0.00754911 0.00357544 0.00499607 0.00709409 0.00256942 0.00160279 
0.00051976 -0.00087033 -0.00249364 -0.0040412 -0.00517774 -0.00523923 -0.00450548 -0.00376317 0.00911321 
0.00157878 -0.00408225 -0.00542476 -0.00548315 -0.00473285 -0.00384653 -0.00253079 0.00994127 0.0568608 
-0.00439517 -0.00838505 0.0120102 -0.0183526 0.018315 0.0124997 0.0133181 -0.0143592 0.0597089 
0.0174809 0.0539902 0.060867 0.0621686 0.0619817 0.0601185 0.0571168 0.053167 0.0482232 
0.0427981 -0.000272078 -1.79142e-05 0.0509296 -0.0174369 -0.016141 -0.0143325 -0.0120785 -0.00990293 
-0.00840598 -0.00679536 -0.00619559 -0.00548023 -0.0136806 -0.0122412 -0.01254 -0.00656673 -0.00840727 
-0.0142866 -0.00513778 -0.00351416 -0.00285287 -0.005498 0.0389243 -0.00381801 0.0235279 0.000196766 
0.0110925 0.000932344 -0.0103875 -0.00309691 0.0152576 -0.00395988 -0.00866047 -0.000577707 0.0367478 
-0.00523001 -0.0100961 -0.00692752 0.0563808 -0.0131948 -0.00420254 0.00354952 0.00438345 0.0210298 
-0.00878963 -0.00191337 -0.000103363 4.44223e-05 0.00323497 0.00634205 -0.00842685 -0.00672616 0.00836478 
0.00457844 0.0091257 0.00173409 -0.000218723 -0.00257562 -0.00521014 -0.00803936 -0.00841368 -0.00817663 
-0.00690831 -0.00550405 -0.00215488 -0.00548876 0.0439036 0.00644804 0.0438644 0.0109339 0.0106969 
-0.0109252 0.0456483 0.036286 0.0129639 0.0469382 0.0467646 0.0443438 0.0397734 0.0345118 
0.0278155 0.00762207 0.00592195 -0.000478217 -0.00111077 -0.0120937 -0.0119925 -0.0108028 -0.00969265 
0.0189665 -0.00557261 -0.00808915 0.000155783 -0.00384258 0.0120427 -0.00619482 -0.00208964 -0.00427788 
0.0172228 0.00416082 6.43044e-06 -0.0067607 -0.00305442 -0.00029545 -0.0127002 -0.00910715 -0.00988789 
-0.0108819 -0.00424417 0.016701 0.0013122 0.00370862 -0.00863654 0.032632 -0.0055265 0.0152281 
0.0344587 0.0289491 0.0250081 0.0215473 -0.000666971 0.0101457 -0.00533138 0.019931 0.00992436 
0.0298027 0.0338101 -0.00248256 0.00512131 -0.00152711 0.0151279 0.0299298 -0.00883153 -0.00146588 
-0.00321905 0.00635468 0.00722576 0.0222295 -0.000476793 -0.00740264 -0.00375377 0.559522 0.561514 
0.346574 0.215832 0.195858 0.189515 0.26195 0.261798 0.260732 0.182057 0.260997 
0.260499 0.261086 0.18255 0.258599 0.258918 0.256469 0.256624 0.263182 0.260198 
0.265289 0.272228 0.197524 0.23359 0.364909 0.348923 0.264207 0.221089 0.214706 
0.243958 0.264806 0.26124 0.243194 0.206307 0.240422 0.262634 0.261788 0.242733 
0.207724 0.24347 0.261954 0.2636 0.264924 0.244041 0.246853 0.262958 0.263161 
0.264434 0.245643 0.214031 0.232244 0.319984 9.45096e-05 0.000122097 -0.000379514 -0.00135908 
-0.00256824 -0.00373683 -0.00480693 -0.00561507 -0.00605978 -0.00609464 -0.00580798 -0.00516274 -0.00429576 
-0.00334566 -0.00230968 -0.00133681 -0.00046537 0.000234378 0.000740065 0.0010844 0.00122801 0.00119098 
0.00102879 0.00078601 0.00050466 0.000238066 4.11552e-05 -1.83326e-05 0.0806332 -0.0140396 -0.00424671 
-0.00197027 -0.00091508 -0.000575006 -0.000279411 -0.000222852 -0.000215591 -0.00013241 -0.000108298 -9.32915e-05 
-4.92678e-05 -2.32983e-05 -3.17461e-05 -2.31569e-05 -8.05663e-06 4.49778e-05 6.62289e-05 8.87609e-05 8.87653e-05 
7.20171e-05 0.000105939 0.000123613 0.000135482 0.000172292 0.000130338 8.0884e-05 4.31731e-05 -0.000156205 
-0.000351717 -0.00037039 -0.000328768 -0.000294368 -0.000109542 2.35043e-05 0.000100206 0.00011251 8.76946e-05 
8.02247e-05 0.000103617 8.66271e-05 6.67285e-05 4.6682e-05 3.39142e-05 -4.27135e-05 -8.93358e-06 -1.18157e-05 
-9.60623e-06 -7.84488e-06 -8.24766e-06 6.01118e-07 2.49134e-05 0.000129506 0.00032062 0.000425024 0.00040767 
0.000157798 -0.000181467 -0.000372699 -0.000508513 -0.000577944 -0.000945161 -0.00178229 -0.00493332 -0.00480835 
-0.0082005 0.147375 0.0983158 0.0801628 0.0983658 0.092398 0.107821 0.14012 0.12146 
0.125567 0.13492 0.131692 0.143924 0.158244 0.160614 -0.00462885 0.204304 0.157013 
0.131484 0.135795 0.122432 0.125196 0.129129 0.116699 0.109552 0.131889 0.0896347 
0.0641178 0.060806 0.0901882 0.00817769 9.19913e-05 0.000107239 -0.000570168 -0.00196474 -0.00355704 
-0.00494636 -0.00588303 -0.00619283 -0.00592706 -0.00521505 -0.0041061 -0.00279104 -0.00148914 -0.000376353 
0.000455649 0.000973182 0.00120874 0.00119157 0.000958545 0.000614919 0.0002737 4.66545e-05 -1.54764e-05 
0.14204 -0.0107763 -0.00479285 -0.00136234 -0.00061601 -0.000500168 -0.000314954 -0.000173526 -0.000118383 
-9.116e-05 -9.98374e-05 -6.64861e-05 -1.98348e-05 1.18895e-05 5.11436e-05 8.68833e-05 0.000133135 0.000156385 
0.000165369 0.000177546 0.000199559 0.000217976 0.000178307 -8.97493e-06 -0.000316154 -0.00055439 -0.000484657 
-0.000260394 -4.12352e-05 9.17048e-05 0.000151071 0.000151909 0.000152969 0.000110454 0.000113057 0.00011597 
9.30517e-05 -4.19628e-05 -7.17315e-06 -9.84226e-06 -5.33704e-06 -5.46669e-06 -7.88032e-06 -1.51833e-06 2.04754e-05 
7.5535e-05 0.000193337 0.000343982 0.000434747 0.000308807 -2.78005e-05 -0.000355669 -0.000420082 -0.000445548 
-0.000617141 -0.00118452 -0.00230572 -0.00438553 -0.00739593 -0.0057606 0.0845431 0.0675097 0.050746 
0.0769832 0.0837777 0.0972723 0.117151 0.114926 0.121114 0.123973 0.158963 0.136205 
0.153814 0.217347 0.146073 0.0854612 0.15791 0.189427 0.123472 0.152166 0.12755 
0.129307 0.149562 0.122704 0.114737 0.106156 0.105257 0.0559623 0.0413165 0.0191676 
0.043804 -6.25038e-06 2.36381e-05 0.014471 0.0280786 -0.00412648 0.0366348 0.349589 0.353887 
0.251578 0.252483 0.224817 0.213921 0.215436 0.205474 0.203825 0.211756 0.211554 
0.20897 0.203433 0.206934 0.205524 0.200928 0.199674 0.203544 0.208942 0.205957 
0.206317 0.208485 0.206533 0.199157 0.200742 0.202609 0.20628 0.206628 0.20464 
0.206988 0.203795 0.210236 0.202818 0.203784 0.209435 0.202686 0.206894 0.204354 
0.206764 0.211189 0.210766 0.209183 0.21688 0.230306 0.241415 0.203829 0.203262 
0.199597 0.225609 1.68605e-05 -8.00597e-05 -0.000243676 -0.000494098 -0.000876857 -0.000498044 -0.00130158 
-0.00183819 -0.00120323 -0.00227447 -0.00283007 -0.0021043 -0.00328459 -0.00382805 -0.00302002 -0.00420233 
-0.00467994 -0.00386493 -0.00496917 -0.00525047 -0.00456188 -0.00539671 -0.00550507 -0.00502482 -0.00551391 
-0.005471 -0.00517484 -0.0053696 -0.00514701 -0.00505178 -0.00490837 -0.0045374 -0.00470534 -0.00422899 
-0.00380425 -0.00414048 -0.00343537 -0.00294162 -0.00345285 -0.00253392 -0.00204425 -0.00266863 -0.00167301 
-0.00123862 -0.00188397 -0.000886754 -0.000474377 -0.00114295 -0.000206492 6.55474e-05 -0.000513168 0.000303361 
0.000525879 4.27055e-06 0.00068743 0.000824303 0.000400557 0.000907183 0.000928707 0.000632142 0.00094176 
0.000907488 0.000734891 0.000881843 0.000780585 0.000719829 0.0007191 0.000594173 0.000629053 0.000515194 
0.000387147 0.000480859 0.000313315 0.000208069 0.000317432 0.000134452 7.20439e-05 0.000171508 1.68077e-05 
1.55844e-05 1.00728e-05 6.09337e-05 0.0176451 -0.0140901 0.00813615 0.00608934 0.00310201 0.0066309 
0.00215768 0.00153511 0.00150732 0.00105318 0.000916027 0.000997666 0.000620462 0.000579465 0.000578334 
0.000368176 0.000342773 0.000471076 0.00022565 0.00030973 0.000249756 0.000194793 0.000234534 0.000130739 
0.000112373 0.000138366 5.49283e-05 6.1873e-05 9.80613e-05 4.6805e-05 6.08588e-05 7.39297e-05 4.60818e-05 
3.76248e-05 7.2683e-05 6.97915e-05 2.35652e-05 6.39365e-05 4.07189e-05 1.16814e-05 5.79335e-05 4.41661e-05 
-7.22828e-06 2.02328e-05 1.76718e-05 -1.70449e-05 5.58717e-07 7.61374e-06 -4.24241e-05 -2.83717e-05 -3.94314e-05 
-7.36587e-05 -5.03137e-05 -5.36214e-05 -0.000118259 -8.42397e-05 -7.36288e-05 -0.000129018 -0.000112816 -0.000120855 
-0.000141178 -0.000118447 -0.000130662 -0.00013117 -0.000144082 -0.000199339 -0.000157786 -0.000153628 -0.000175517 
-0.000171347 -0.000181888 -0.000203839 -0.000197304 -0.000224922 -0.000256006 -0.000211075 -0.000201559 -0.000311707 
-0.000171281 -0.000187157 -0.000345015 -8.98872e-05 -6.70219e-05 -0.000219886 0.000146692 0.000169974 3.47266e-05 
0.000403423 0.0004577 0.000292198 0.000600562 0.000526563 0.000514735 0.000542317 0.000551414 0.000815446 
0.000421564 0.000314237 0.000579244 0.00014928 0.000109547 0.000294355 -3.03562e-05 -4.34637e-05 5.34099e-05 
-0.000138121 -0.000119674 -7.74882e-05 -0.000171612 -0.00014558 -0.000152529 -0.000186455 -0.000125656 -0.000182972 
-0.00013151 -0.000116835 -0.000203425 -0.000129838 -9.91469e-05 -0.000142405 -0.000110714 -8.95517e-05 -0.000104457 
-8.6416e-05 -8.0907e-05 -9.19116e-05 -7.60923e-05 -8.99363e-05 -9.19815e-05 -5.73982e-05 -6.73306e-05 -9.55802e-05 
1.62273e-05 8.82188e-06 1.56049e-05 6.10511e-06 2.27955e-05 1.92787e-05 2.90846e-06 2.57633e-05 2.86622e-05 
-4.71387e-06 3.45313e-05 1.70609e-05 -5.8094e-05 3.60884e-05 -0.00026606 -0.000406892 -0.000475275 -0.00051178 
-0.000737557 -0.000522465 -0.000369896 -0.000869158 -0.000334206 4.98378e-06 -0.00061343 4.80692e-05 0.000382537 
-1.69221e-05 0.000306163 0.000539524 0.000423644 0.000381163 0.000576523 0.000612043 0.000470642 0.000763597 
0.000621601 0.000779947 0.00139646 0.00102196 0.00157985 0.0027834 0.00229587 0.00566426 0.00688003 
0.00917368 0.0149038 0.0126272 0.0425605 0.136814 0.122434 0.135134 0.124208 0.0757279 
0.125379 0.122204 0.0856855 0.110442 0.115293 0.0884825 0.116949 0.115466 0.101856 
0.112862 0.114779 0.104563 0.115986 0.11021 0.103511 0.120493 0.118466 0.0946815 
0.107422 0.115084 0.0961513 0.118662 0.116493 0.10616 0.116714 0.117572 0.108536 
0.117492 0.109381 0.107515 0.120203 0.122183 0.0973988 0.112207 0.117608 0.0969528 
0.119293 0.116832 0.105343 0.114988 0.116178 0.108899 0.116151 0.118539 0.10862 
0.113086 0.108219 0.10909 0.108012 0.114979 0.0990338 0.11775 0.116716 0.108258 
0.116226 0.116472 0.105823 0.115668 0.118848 0.102903 0.11468 0.108815 0.098703 
0.118008 0.122672 0.0843503 0.121808 0.128876 0.0751686 -0.0693645 -0.0742598 -0.0637103 
-0.075901 -0.0563792 -0.0507331 -0.0596196 -0.0550509 -0.0426421 -0.0465723 -0.0448069 -0.0348614 
-0.0370462 -0.0348486 -0.0257963 -0.0282457 -0.0260919 -0.0219675 -0.0222191 -0.0188414 -0.0170088 
-0.0169214 -0.0136251 -0.0124664 -0.0115049 -0.00801328 -0.00541849 -0.00713041 -0.00229784 0.00560782 
0.00249616 0.00593165 0.0235026 0.0169932 0.0161179 0.00512713 0.0372999 0.0165615 0.10291 
0.0676278 -0.00444434 0.0440919 0.0344552 0.0192057 0.00437727 0.0109597 0.00602622 0.0134637 
-0.00570883 -5.11067e-05 0.00701286 -0.0040926 -0.00716482 -0.000583378 -0.0113151 -0.0136472 -0.00288637 
-0.0167451 -0.0157945 -0.00814844 -0.0211988 -0.0219931 -0.012878 -0.0264575 -0.0286235 -0.0185708 
-0.0316126 -0.033721 -0.0248561 -0.0399478 -0.0500146 -0.0330103 -0.050132 -0.0596692 -0.043767 
-0.0674702 -0.0719527 -0.0549786 -0.0603298 -0.0609622 -0.0444639 0.0992408 0.0648644 -9.54246e-05 
0.08794 2.43282e-05 1.33384e-05 0.049576 -6.89355e-05 -0.00021239 0.00637271 0.00412589 0.00571664 
-0.000371984 -0.0205877 -0.025403 0.0615148 0.0712148 0.0355042 -0.0269385 -0.00544517 0.0581827 
0.0354565 -0.0127485 -0.0323766 -0.0176567 -0.0208929 0.0147353 2.41253e-05 0.0443154 -0.00113734 
-0.00152715 -0.00196385 -0.00237296 -0.00178526 -0.00276179 -0.00318023 -0.00259707 -0.00353912 -0.00388541 
-0.00333519 -0.004175 -0.00446008 -0.00398793 -0.0046323 -0.00478711 -0.00446095 -0.0048165 -0.00483392 
-0.00468226 -0.00477164 -0.00465996 -0.00466831 -0.00450928 -0.00427956 -0.00443333 -0.00404027 -0.00375367 
-0.00402164 -0.00345868 -0.00312288 -0.00348227 -0.00278417 -0.00240774 -0.002865 -0.00207286 -0.00171157 
-0.00220325 -0.00140452 -0.00106752 -0.0015588 -0.00080509 -0.000525781 -0.000989483 -0.000320467 -9.17062e-05 
-0.000507833 0.000102366 0.000248956 -0.000111298 0.000359471 0.000440482 0.000173218 0.000511302 0.000529506 
0.000343342 0.000553592 0.000538128 0.000425068 0.000521601 0.000476852 0.000430316 0.000431368 0.000366498 
0.000378848 0.000321541 0.000251578 0.000294803 6.21356e-05 4.23908e-05 -0.000230355 0.0137245 0.00928198 
0.00835706 0.00609165 0.0121787 0.00487538 0.00382534 0.00780275 0.00312709 0.00258993 0.00509458 
0.00201388 0.00174813 0.00321999 0.00138184 0.00124159 0.002132 0.000968481 0.000847469 0.00144602 
0.000676977 0.000616787 0.000991524 0.000469185 0.000465757 0.00077529 0.00036425 0.000405048 0.000602461 
0.000313886 0.000335 0.000459252 0.000210567 0.000241084 0.000384536 0.000128913 0.000141551 0.000257381 
1.02546e-05 -7.41208e-06 0.000115239 -0.000116416 -0.000129803 -5.32065e-05 -0.000248326 -0.000275857 -0.000291298 
-0.00041457 -0.000446996 -0.000493461 -0.00056689 -0.000563398 -0.000692027 -0.00065426 -0.000651784 -0.000878112 
-0.000712265 -0.000687943 -0.000963491 -0.000732006 -0.000713393 -0.00103609 -0.000760541 -0.000798082 -0.00109096 
-0.00082787 -0.000927277 -0.00121154 -0.000924628 -0.00101528 -0.00138707 -0.000923845 -0.000908612 -0.0014884 
-0.000677189 -0.000418585 -0.00114448 6.30893e-07 0.00051496 -0.000226529 0.00106847 0.00165188 0.00112584 
0.00228548 0.00267631 0.00273469 0.00301748 0.00277675 0.00389212 0.00232363 0.00177835 0.00368877 
0.00133794 0.000738819 0.00226638 0.00033985 -3.23172e-05 0.000914243 -0.000340098 -0.000503395 -0.000172805 
-0.000690967 -0.000697781 -0.000777753 -0.000804161 -0.000752116 -0.00104408 -0.000773141 -0.000669858 -0.00106588 
-0.000642052 -0.000560818 -0.000991383 -0.000561372 -0.00047985 -0.000824599 -0.000453826 -0.000402357 -0.000688504 
-0.000400272 -0.000379557 -0.000599665 -0.000399546 -0.000343038 -0.000575538 0.0677578 0.0300385 0.0226332 
-0.000125634 5.61081e-05 5.03167e-05 7.39855e-05 4.72754e-05 0.000107012 6.20843e-05 -2.71571e-05 0.000105601 
0.0220616 0.00889677 0.00987727 0.0274001 0.064115 -0.00240167 -0.00226081 -0.00196949 -0.00109446 
-0.00304292 -0.000433732 0.000836244 -0.00114092 0.00134644 0.00213435 0.0022896 0.00240017 0.0030652 
0.00250599 0.00284271 0.00368647 0.00344437 0.00467913 0.00480803 0.00594108 0.00860414 0.00795293 
-0.000884208 -0.00154427 -0.0135733 -0.00865198 -0.00329104 -0.00600933 0.0073064 0.0845897 0.085461 
0.0888596 0.0891826 0.0795808 0.0955833 0.0935808 0.0834965 0.0941131 0.0947258 0.0872075 
0.0964833 0.0986451 0.0898611 0.0973535 0.0955392 0.0924209 0.0951041 0.0988667 0.0954964 
0.101758 0.10024 0.0974811 0.101049 0.101284 0.0978056 0.101416 0.103047 0.098387 
0.101246 0.0983127 0.0992068 0.098776 0.100348 0.0992476 0.10235 0.101632 0.0998482 
0.101464 0.101109 0.0986492 0.101015 0.101282 0.0978025 0.100197 0.100688 0.0969502 
0.0996909 0.0967175 0.0965922 0.0963337 0.0977205 0.0950763 0.0966853 0.0970109 0.0926072 
0.0944635 0.0938515 0.0892268 0.0907417 0.0911295 0.0850314 0.0832195 0.0755818 0.0774897 
0.0688599 -0.0422079 -0.0449194 -0.0403559 -0.0264892 -0.0112604 -0.0316647 -0.0302221 -0.0362293 
-0.0234802 -0.0291357 -0.028131 -0.0178653 -0.0227622 -0.0223848 -0.0129629 -0.017482 -0.0169893 
-0.00789979 -0.0121507 -0.012144 -0.00229221 -0.00663057 -0.00726641 0.00463215 -0.000148545 -0.00204146 
0.0119584 0.00663406 0.00214956 0.00768021 0.00956661 0.00181749 0.0249188 0.0113485 8.40525e-05 
6.50176e-05 -0.00540658 -0.00502671 0.0154891 0.00777681 0.00467805 0.00290737 0.00396221 -0.000318407 
-0.00385618 0.00214513 -0.00525178 -0.00810023 -0.00181713 -0.00985829 -0.012893 -0.00658448 -0.0146231 
-0.0181239 -0.011349 -0.0197688 -0.0233355 -0.0162406 -0.0250103 -0.0292236 -0.0214374 -0.0309465 
-0.0370143 -0.0271658 -0.0389255 -0.0416483 -0.0322657 -0.0403061 -0.0396886 -0.0341359 -0.0334216 
-0.0150442 -0.0224119 -0.000116567 -0.000491719 -3.69932e-05 0.0114239 0.016337 0.0146527 -0.001842 
-0.00229796 -0.00342759 -0.00248743 0.0328073 0.0506363 -0.0366805 -0.042595 -0.0337835 0.0030018 
0.00633172 0.00125659 0.0325781 0.0498428 -0.000446238 -0.000723395 -0.000961233 2.75627e-05 8.75559e-05 
0.00010111 0.000184913 0.000124448 8.29976e-05 0.029273 0.00575818 0.0312181 0.0144551 0.0266677 
0.0311139 0.0605168 0.00138402 -0.00100062 0.0403816 0.0406879 -0.00819024 -0.0123007 0.0689137 
0.0687841 0.0678353 -0.0369376 0.0293131 0.0248207 0.0393067 0.00808426 0.0218432 -0.00252447 
0.0179669 0.0133089 -0.00266425 -0.0134452 -0.0154476 -0.00249366 -0.00838031 0.0293176 -0.00245185 
-0.00278033 -0.00317888 -0.00346337 -0.00302965 -0.00382464 -0.0040381 -0.00371593 -0.00429601 -0.00444593 
-0.00426322 -0.00453933 -0.00457293 -0.00457999 -0.00455287 -0.00448534 -0.00461963 -0.00434217 -0.00421332 
-0.00443922 -0.00396218 -0.00377532 -0.00407644 -0.00347786 -0.00323194 -0.00357745 -0.00290776 -0.00261599 
-0.00299404 -0.00230355 -0.00200104 -0.00238693 -0.00169528 -0.00141431 -0.00179329 -0.00117299 -0.000915383 
-0.00126628 -0.000708434 -0.000491132 -0.000817204 -0.000325237 -0.000142824 -0.000424619 -1.7041e-05 8.72546e-05 
-0.00012894 0.000165762 0.00023551 7.14814e-05 0.000277417 0.000318836 0.000198864 0.000321249 0.000328361 
0.000257294 0.000318664 0.000292214 0.000268522 -0.00163275 -0.00202365 -0.00225699 0.00554224 0.00138708 
-0.000864582 -0.00122396 -0.00147161 -0.000864444 0.0164264 0.0130474 0.0107772 0.00881672 0.0161509 
0.00740165 0.00597792 0.0108204 0.00492841 0.00402126 0.00725898 0.00328341 0.00275167 0.0048418 
0.0023489 0.00201613 0.00338178 0.00168323 0.00147603 0.00247364 0.00125626 0.00113686 0.00185714 
0.000995037 0.000979732 0.00148208 0.000797635 0.000735681 0.001136 0.000545872 0.000455126 0.000826843 
0.000272059 0.000151114 0.000504693 -8.60455e-05 -0.000182582 9.38891e-05 -0.000407107 -0.000555791 -0.000421414 
-0.000805924 -0.000977595 -0.000923254 -0.00120972 -0.00135935 -0.00144514 -0.00154323 -0.00158951 -0.00187503 
-0.00171776 -0.00168446 -0.00214079 -0.00174336 -0.00169585 -0.00228817 -0.00173072 -0.00171566 -0.00230103 
-0.0018038 -0.00185237 -0.0023561 -0.00191622 -0.0020215 -0.00253597 -0.00201714 -0.00203703 -0.00273058 
-0.00173089 -0.00136587 -0.0026422 -0.0005443 0.000512643 -0.00120354 0.00135874 0.00271281 0.00141275 
0.00384395 0.00538531 0.00427029 0.00742443 0.00786583 0.00863508 0.00687735 0.00552743 0.0101319 
0.00409846 0.00255575 0.00652762 0.00156336 0.000485797 0.00275689 -0.000191374 -0.000915516 0.000274884 
-0.00137951 -0.00166085 -0.00137248 -0.0019152 -0.0019222 -0.00228761 -0.00199056 -0.00184481 -0.00257223 
-0.00175515 -0.00154048 -0.00239781 -0.00147511 -0.00129239 -0.00204418 -0.00121287 -0.00108939 -0.00171521 
-0.00102456 -0.000936935 -0.0012021 -0.00143727 -0.000172869 0.00111409 0.00289953 -0.000195719 -0.00111379 
0.000116286 9.26002e-05 0.000123739 0.000115737 0.0625659 0.000159161 3.59522e-05 0.0452532 0.0519016 
0.0381604 0.0275289 -0.00553587 -0.0077367 -0.00251874 -0.000150067 -0.000923523 -0.00225013 0.00592383 
0.00599002 0.0065831 0.0081185 0.00864907 0.010025 0.0134769 0.0118901 0.0265365 0.0355341 
-0.00405648 0.000605663 -0.029865 -0.0286688 0.00552493 0.0239013 0.0172982 0.0593661 0.00169887 
0.00406534 0.00105238 0.0695178 0.0731029 0.0754807 0.0759687 0.0641334 0.0787605 0.0804039 
0.0683518 0.0814041 0.0829422 0.0722718 0.0841913 0.0854973 0.0758626 0.0874798 0.0881306 
0.0791586 0.0881457 0.0891766 0.0810751 0.089391 0.0891189 0.0818629 0.0901974 0.0903121 
0.0827159 0.0903413 0.0906246 0.084027 0.0909512 0.091149 0.0847173 0.0897709 0.0894265 
0.0836464 0.0890943 0.0887585 0.0819799 0.0875656 0.0868391 0.0805077 0.0865333 0.0856155 
0.0790346 0.0839186 0.0834796 0.0770067 0.0814358 0.0807685 0.073982 0.0790952 0.0769981 
0.070493 0.0748377 0.0725806 0.0662274 0.0690241 0.0633329 0.0464112 0.0611443 -0.0153338 
-0.0177942 -0.0239899 -0.0263896 -0.0111179 -0.0134507 -0.0146841 -0.00677818 -0.00894317 -0.0111723 
-0.00224772 -0.00453732 -0.00750363 0.00134062 -0.000721368 -0.00457069 0.00136556 0.000424611 -0.00350254 
0.024279 0.0144665 0.000386722 -0.00122758 0.00187622 -0.0137816 -0.02387 0.00114442 -0.000679827 
-0.00242963 -0.00418863 -0.00308553 -0.00605256 -0.00827978 -0.00585539 -0.0101309 -0.0125277 -0.0093209 
-0.0144429 -0.016976 -0.0131107 -0.0187439 -0.0213559 -0.0169773 -0.0229915 -0.0253302 -0.020578 
-0.0264961 -0.0272476 -0.0229527 -0.0267249 -0.0231177 -0.0218318 -0.0195061 -0.0106519 -0.00297327 
-7.72302e-05 0.0167983 0.022575 0.0277304 0.0302125 0.0190683 -0.0276758 -0.0290599 -0.0251118 
-0.0244126 0.0214489 -0.00475983 -0.00367395 0.00507775 0.00574163 0.00768201 0.00567016 -0.0195827 
-0.0220481 -0.0217363 -0.0181554 0.0206554 0.0229222 0.061269 -0.0033307 -0.00709468 0.00402095 
0.00217503 -0.00136962 -0.00130785 0.000241567 0.000221152 0.000176937 0.000157447 0.00722075 0.000161531 
0.000178893 -0.007416 -0.005404 -0.0133021 0.000120841 -0.00381414 0.0157327 0.0167425 -0.0047525 
-0.00495768 -0.00616965 -0.00351693 -0.0032023 -0.00799568 -0.0131732 0.0260646 0.0257961 0.0183642 
-0.000394188 -0.0111272 0.0200146 0.0136059 0.0054259 -0.0267638 -0.0190955 -0.0108563 0.000155447 
0.0262339 -0.00101198 0.00108138 -0.00527986 -0.013203 -0.0139712 9.23273e-05 -0.000390734 -0.000955674 
-0.00429227 0.000209125 0.0142991 0.00870446 0.0534544 -0.00294333 0.00275908 -0.0213794 -0.00368848 
-0.00390816 -0.0042793 -0.00442784 -0.0043112 -0.00464276 -0.00469613 -0.0048242 -0.00471478 -0.00469122 
-0.00501633 -0.00452145 -0.00442176 -0.00487895 -0.00414723 -0.0039766 -0.00445717 -0.00363413 -0.00342178 
-0.00388545 -0.00306535 -0.00281479 -0.00324139 -0.00245074 -0.00219597 -0.00258014 -0.00186135 -0.00159984 
-0.00193752 -0.00133194 -0.00110802 -0.00137356 -0.000907697 -0.000698697 -0.000919861 -0.000553574 -0.000377316 
-0.000579306 -0.000243714 -0.000117943 -0.000286699 -3.0124e-05 6.02309e-05 -6.23919e-05 9.95884e-05 0.000171382 
7.97777e-05 0.000179143 0.000217319 0.000159289 0.000198942 0.000222638 0.000189311 0.00979496 0.010351 
0.000189991 0.000147731 -0.00246762 -0.00364605 -0.00158628 0.0244842 0.01995 0.0171679 0.0140914 
0.0230096 0.0120068 0.00973033 0.0162994 0.00807485 0.0066514 0.0112742 0.00557684 0.0047685 
0.00778793 0.00405595 0.00345986 0.00556542 0.00284039 0.0025278 0.00404005 0.00238697 0.00219792 
0.00315254 0.00189491 0.00171481 0.00259378 0.00141417 0.00120925 0.00195476 0.000870168 0.000633621 
0.00133632 0.00026666 -3.46451e-05 0.000600359 -0.000417054 -0.00070796 -0.000205962 -0.00115519 -0.0015218 
-0.0011849 -0.00195519 -0.00230024 -0.002195 -0.00269249 -0.00286479 -0.00309534 -0.00311702 -0.00313718 
-0.00367867 -0.00323389 -0.00309458 -0.00398835 -0.00306758 -0.00288149 -0.00386696 -0.00290251 -0.00279466 
-0.00358337 -0.00287808 -0.00281291 -0.00347097 -0.00281889 -0.00283217 -0.00348678 -0.00281209 -0.00253228 
-0.00337549 -0.00162091 -4.25826e-05 0.0029945 0.00486897 0.00733972 0.0123587 0.00356634 0.00170475 
0.000283421 -0.001084 0.000938173 -0.00218833 -0.00286162 -0.00195819 -0.00338066 -0.00354254 -0.00381989 
-0.00372853 -0.00355719 -0.00450625 -0.00340962 -0.00308029 -0.00439693 -0.00279525 -0.0025109 -0.00373412 
-0.0023034 -0.00207934 -0.00304757 -0.0190341 -0.0154249 -0.00226575 -0.0025846 0.0372431 0.0292584 
0.0333262 0.0491126 -0.00577591 -0.0073839 0.00714728 0.00220533 -0.0100455 -0.0118146 -0.00312002 
-0.00506821 -0.012546 -0.00775848 0.0122821 0.0161577 0.0133457 0.0112089 0.0209913 0.000304094 
0.00472047 0.000163095 0.000136779 0.00263306 0.00334083 0.00115524 -0.00279006 0.0583542 0.0608406 
0.062055 0.0635635 0.0535504 0.0655995 0.0673783 0.0565242 0.0701482 0.0718876 0.061256 
0.0737491 0.0744874 0.0659137 0.0745739 0.0747823 0.0678665 0.0746877 0.0751697 0.0677699 
0.0760032 0.0766117 0.0684363 0.0784648 0.0785166 0.0710199 0.0765186 0.0756085 0.0708382 
0.0745849 0.0738221 0.0679264 0.073155 0.072331 0.0663049 0.0712464 0.0704349 0.0645826 
0.0686837 0.0671371 0.0618218 0.0654079 0.0638627 0.0583042 0.0616141 0.059763 0.0545887 
0.057001 0.0549378 0.0500672 -0.00705756 -0.00860829 -0.010396 -0.0136206 -0.0154204 -0.0131005 
-0.00471323 -0.00597847 -0.0082833 -0.0047284 -0.00515702 -0.00686393 -0.0055274 -0.00268124 -0.00108595 
0.00248121 0.00252359 0.00466074 0.00169313 0.00530028 -0.010151 -0.00731168 -0.0111562 -0.015331 
-0.0117096 -0.00155333 -0.00363189 -0.00563877 -0.00377161 0.000218573 -0.00272728 -0.00464392 -0.00622931 
-0.00504975 -0.00753561 -0.00923086 -0.00719834 -0.0106412 -0.0124286 -0.0095917 -0.0138722 -0.0155287 
-0.0121759 -0.0168056 -0.0178993 -0.0144871 -0.0187243 -0.0186444 -0.0157193 -0.0179851 -0.015067 
-0.0093981 -0.0144308 0.0101183 0.0494916 -0.00292774 -0.00321065 -0.00357687 -0.00580501 -0.00205923 
-0.00240788 -0.00266402 -0.00173546 0.0138524 0.00895897 0.00581651 0.00818588 0.0516911 0.000147706 
0.00240822 0.00013762 0.00018816 0.00603002 0.00158721 -0.00420475 -0.00420639 -0.00453981 0.0205792 
0.0218237 0.0164395 0.00548719 -0.0193194 -0.0154022 -0.0202449 -0.00190189 -0.00250473 -0.00167574 
-0.00133646 -0.00279797 0.000185957 -0.00112351 -0.0185203 -0.0198368 -0.00618649 -0.00628934 -0.0166422 
-0.0161169 0.10391 0.109432 -0.00988362 -0.0114804 -0.0075179 -0.00731063 -0.00668158 0.0220942 
0.02111 -0.00247752 0.0168244 0.012425 0.0070499 -0.00246149 0.000212652 0.00156775 0.00553805 
0.00526338 -0.00666781 -0.0109655 0.0514245 -0.00668105 -0.00733567 -0.00847506 -0.0083534 -0.00205245 
-0.00309531 -0.000597379 -0.0200463 -0.0201528 -0.0168579 -0.0175735 -0.00700298 -0.0105243 0.0456303 
0.00780818 0.0100052 0.0371139 0.0441043 0.0447205 0.0271351 0.0103614 0.00965418 0.011593 
0.0126838 -0.00117197 -0.00185246 -0.00373503 -0.00316041 0.00389604 0.00605735 0.0440546 -0.00448892 
-0.00467817 -0.0049942 -0.00509726 -0.00523377 -0.0053803 -0.00535603 -0.0056765 -0.00525597 -0.00512313 
-0.00585044 -0.00470898 -0.00451955 -0.00533136 -0.00405335 -0.00381264 -0.00450525 -0.00339503 -0.00314276 
-0.003714 -0.00268603 -0.00241859 -0.00292543 -0.00197782 -0.00172369 -0.00210865 -0.00139643 -0.00115906 
-0.00141652 -0.000938235 -0.000732338 -0.000911592 -0.000539723 -0.000385776 -0.000497 -0.000266504 0.108848 
0.0914995 -8.65269e-05 8.87486e-06 -0.000132706 6.06648e-05 0.000128354 8.75784e-05 0.00599877 0.00783399 
0.00634795 0.0034538 -0.00310433 -0.000353174 0.0225064 0.0188885 0.0159246 0.0131371 0.0207102 
0.0109833 0.009153 0.0145367 0.00768074 0.00658198 0.0101007 0.00538436 0.00460298 0.00705872 
0.00432251 0.109686 0.0889617 0.00381147 0.0033921 0.00514917 0.00278512 0.00242439 0.00379886 
0.00205338 0.00160468 0.0027233 0.00102662 0.000565689 0.00165496 9.72018e-06 -0.000522073 0.000434293 
-0.0012269 -0.0019073 -0.00104852 -0.00261909 -0.0032695 -0.00274945 -0.00392883 -0.0044148 -0.00434455 
-0.00481238 -0.00501304 -0.00546775 -0.00536746 -0.00517275 -0.00625352 -0.00367275 -0.00340306 -0.00306915 
-0.00279558 0.00188886 -0.000689627 -0.00308157 -0.00459528 -0.00240005 -0.00520516 -0.00548677 -0.00647604 
-0.00602005 -0.00586775 -0.00686984 -0.00550956 -0.0050745 -0.006905 -0.00453637 -0.00408894 -0.00575003 
0.0365133 -0.00609678 -0.00814097 -0.00289761 -0.00782036 -0.0084162 0.0200721 0.0272717 0.0156136 
0.0122016 0.00753774 0.0108997 0.0117794 0.0156996 0.0192369 0.00791732 0.000201656 6.96064e-05 
-0.00337616 0.00341738 -0.00515846 -0.00619477 -0.00927969 -0.0102101 -0.00922934 0.0467462 0.0484339 
0.0384524 0.051475 0.0543611 0.0429819 0.0585784 0.060587 0.0498373 0.0615062 0.0617056 
0.0551129 0.0596954 0.0595142 0.0539736 0.0597066 0.0605422 0.0523797 0.0632452 0.0650783 
0.0550491 0.0630203 0.107569 0.103895 0.0605932 0.0595161 0.0551857 0.0592151 0.0584443 
0.0525031 0.0578639 0.0566673 0.0516497 0.0546254 0.0526666 0.0489762 0.0505266 0.0488277 
0.0446626 0.0469088 0.0449287 0.0409427 0.0423966 0.0400779 0.0313573 0.0368319 -0.0108581 
-0.0120515 -0.0103749 0.00472349 0.00547189 0.00739094 0.000177291 0.00016811 -0.0107204 -0.0101697 
-0.00750164 -0.00853388 0.00193442 0.00373012 0.00466988 0.0016577 -0.00832857 -0.0113896 -0.00727909 
-0.00838674 -0.0111956 -0.0118591 -0.0130024 -0.013066 -0.0103759 0.0262328 -0.00357366 -0.00387712 
-0.00444633 -0.00326723 0.00909396 0.00548943 0.000144549 -0.00387177 -0.00407925 -0.00503902 -0.00422475 
0.0162992 0.0114756 0.00960992 0.013127 0.000179054 -0.00222042 -0.00408818 -0.0102408 -0.00297599 
-0.00349863 -0.00318884 0.0127264 0.01657 0.0106245 -0.00486728 -0.00446092 0.0145867 0.00913933 
-0.00568162 -0.00768356 -0.00453035 -0.00358949 0.00380709 -0.00931898 -0.00914183 -0.0105537 -0.00816084 
0.0328763 0.0344706 -0.00239336 -0.00417956 -0.00549454 -0.000269353 -0.000743708 0.000107388 -0.00869942 
-0.00584991 -0.00249639 -0.0051871 -0.0109634 -0.00922979 0.0337945 0.0368739 -0.00512188 -0.00788876 
-0.00926791 0.0112389 0.0112316 -0.0153454 -0.0147902 0.00785843 -0.00477568 -0.00780881 -0.00908157 
-0.0118893 -0.0122766 -0.00924829 -0.0127499 -0.00555638 -0.0065441 0.0289508 -0.00960945 -0.0107753 
-0.00995209 -0.0122736 -0.0104861 -0.00923556 0.0186174 0.0164275 -0.00664361 -0.00643815 -0.0046447 
-0.00427571 -0.00394741 0.103245 0.10043 -0.00309183 -0.00276021 -0.00370466 -0.00224961 -0.00190059 
-0.00244163 -0.00144555 -0.00119034 -0.0015576 -0.000882013 -0.000660248 -0.000869785 -0.000534254 -0.00033818 
-0.000471735 0.000170319 -0.00630445 0.0188589 0.0156405 0.0127604 0.0107362 0.0165547 0.00949528 
0.00790241 0.0115409 0.0985729 0.0964172 0.00868907 0.0110638 0.00920732 0.00669941 0.00588873 
0.0046954 0.00394805 0.00615259 0.00349015 0.0974946 0.0711516 0.00217042 0.00134893 0.00343167 
-0.000691401 -0.00176104 -0.00754633 -0.00803851 0.0132293 0.00957675 0.013174 -0.00796396 -0.00722086 
-0.00635005 -0.00574343 -0.00756416 0.0304136 0.0387904 0.0158127 0.0134933 -0.0105328 -0.0118343 
-0.00557011 -0.00477631 -0.00343097 0.0430175 -0.0139593 -0.00487011 0.0163457 0.0232839 -0.007637 
-0.00579584 -0.00713879 -0.0085436 -0.00966624 0.0053542 0.00665867 0.0880011 0.0804577 0.0478279 
0.0453131 0.0755175 0.0680061 0.0445067 0.0440774 0.0380099 0.0455438 0.0448429 0.0383552 
0.0437013 0.041204 0.0385631 0.0375393 0.0352425 0.0331758 0.0311867 0.033204 0.0269392 
-0.00789355 0.0113233 0.0116178 -0.0089493 -0.0112352 -0.00605068 -0.0080038 -0.00881414 -0.00511772 
-0.00826709 -0.00782874 -0.0061101 0.0225651 -0.00399812 -0.00471615 0.0612443 0.030515 -0.0026514 
0.0239084 0.000652601 -0.00298493 -0.00408572 -0.00886809 -0.00837738 -0.00139227 -0.00598729 -0.00802961 
0.0278759 -0.000175188 -0.000184094 0.0217311 -0.00595587 -0.00677114 0.035408 0.0027169 -0.00837867 
-0.00771978 -0.0027128 -0.00827085 -0.0366947 -0.00387921 -0.00545371 0.0471514 0.0480241 0.0462276 
0.0440311 0.044163 0.0450952 0.125899 0.037806 0.0347348 -0.0132332 0.0314632 0.000910282 
0.00249645 -0.00782958 0.029152 0.000351542 -0.00269936 -0.00239283 -0.00193968 -0.00610793 -0.00591746 
-0.00563522 -0.0018336 -0.00145878 -0.000743077 -0.000515128 -0.00107798 -0.00237039 -0.00196524 -0.0013592 
-3.35963e-05 -0.00548674 0.0242658 -0.00540359 -0.0069529 8.38572e-05 5.20728e-05 -4.24508e-05 0.00423386 
-0.00548862 -0.0038322 -0.00246784 0.0147425 0.0162972 -0.00103049 0.0302954 0.0294412 -0.0069456 
-0.00640186 -0.00480638 -0.00299269 0.0199021 0.0249263 0.0216076 0.0312263 -4.11183e-05 7.643e-05 
0.0287613 0.0187699 0.0157202 -0.00324528 -0.00242848 -0.00235403 0.0136153 -0.00149506 -0.00376703 
-0.00630421 0.0233292 -0.00180628 -0.00200691 0.0278465 -0.000317721 -0.000243578 0.00809044 0.0326519 
0.0314834 -0.000539628 -0.000449819 -0.000324272 -0.000184642 -0.00104384 -0.00100073 -0.00133171 1.19291e-05 
-0.000310465 -0.00015121 -0.0011891 -0.000698662 -0.000672072 -0.00244707 -0.00171428 -0.00159726 -0.00368099 
-0.00300009 -0.00270053 -0.00474154 -0.00419922 -0.00376666 -0.00536278 -0.00506733 -0.00460789 -0.00547871 
-0.00548594 -0.00503325 -0.00514711 -0.00536646 -0.00503706 -0.00443964 -0.00487433 -0.0046427 -0.00348624 
-0.004037 -0.00395681 -0.00238777 -0.0030288 -0.00308428 -0.00135084 -0.00190347 -0.00213463 -0.000414792 
-0.000898637 -0.00121847 0.000219475 -9.55358e-05 -0.000467229 0.000652099 0.000455037 8.86679e-05 0.000828187 
0.000770046 0.000450689 0.000828197 0.000877028 0.000612766 0.000664785 0.000791488 0.000619633 0.000433583 
0.000587423 0.000496734 0.000218193 0.000346559 0.000329622 5.93708e-05 0.000138535 0.000174405 1.12935e-05 
0.0415134 0.0172208 0.0295855 0.00277754 0.00304829 0.0186655 0.00119016 0.00192215 0.00381254 
0.000737319 0.000906047 0.00131002 0.000431391 0.000543949 0.000580659 0.000292185 0.000320774 0.000301931 
0.000193874 0.000204505 0.000270844 0.000161106 0.000132158 0.000173442 0.000149844 0.000100486 0.000169056 
0.000117031 6.81695e-05 0.000105978 6.84681e-05 4.12598e-05 6.91981e-05 4.33037e-05 2.23937e-05 6.48784e-05 
9.86771e-07 -1.49853e-05 4.42219e-05 -4.7014e-05 -7.6704e-05 -2.57792e-05 -9.54194e-05 -0.000111591 -0.000121014 
-0.000144859 -0.000152218 -0.000176284 -0.000171676 -0.000192485 -0.000216708 -0.000186674 -0.000218543 -0.000227994 
-0.000215986 -0.000213273 -0.000324469 -0.000271428 -0.00023937 -0.000395599 -0.000332526 -0.000263674 -0.000498565 
-0.000199507 -0.000231034 -0.000418384 7.13867e-05 -2.28889e-05 -0.000173683 0.000460009 0.000306276 0.000251731 
0.000700879 0.000599695 0.0007464 0.00055247 0.000688041 0.000747481 0.000267785 0.000403182 0.000647295 
2.78679e-05 0.000103569 0.000351225 -0.000116138 -8.57477e-05 1.49187e-05 -0.000165342 -0.000178684 -0.000189045 
-0.000180484 -0.000205131 -0.00022308 -0.000154448 -0.000191307 -0.000223439 -0.000124696 -0.000159649 -0.00023322 
-0.000131438 -0.000132418 -0.000191051 -0.000122716 -0.000145844 -0.0002119 0.0828907 1.3419e-05 1.87043e-05 
8.24719e-06 1.37509e-05 2.13253e-05 8.97026e-06 1.16162e-05 1.81659e-05 8.32812e-06 1.13291e-05 2.56403e-05 
-1.76895e-06 9.02267e-06 1.07913e-05 -0.00011101 -1.169e-05 -0.000314195 -0.000147809 -0.000212036 -0.000509723 
-0.000365208 -0.00057869 -0.000548643 -0.000530497 -0.000894777 -0.000332271 -0.000466388 -0.000927364 9.67907e-05 
-0.000109725 -0.000408679 0.000410395 0.000285051 0.000242365 0.000497506 0.000473366 0.000585216 0.000487767 
0.000388547 0.000612664 0.000695409 0.000416397 0.000566562 0.00123854 0.000715274 0.000752647 0.00226003 
0.00188888 0.00162391 0.00719891 0.00697118 -0.0152793 0.00625173 0.00253014 0.0320686 0.0940999 
0.0862396 0.109127 0.104174 0.0803305 0.104403 0.106719 0.0868207 0.103786 0.112452 
0.0952344 0.109016 0.109022 0.105912 0.115526 0.111023 0.107028 0.105038 0.104643 
0.101309 0.10888 0.115736 0.101527 0.108552 0.108097 0.111829 0.115111 0.110466 
0.111442 0.106566 0.106418 0.103851 0.108513 0.114008 0.103119 0.108582 0.106862 
0.11144 0.106447 0.108457 0.10975 0.115368 0.108941 0.110556 0.110912 0.114005 
0.102527 0.108891 0.106625 0.10871 0.110769 0.108441 0.107274 0.121178 0.109093 
0.10654 0.115189 0.103841 0.0906306 -0.0608674 -0.0569897 -0.0703175 -0.0626043 -0.054188 
-0.0614354 -0.0530195 -0.0574198 -0.0485682 -0.042133 -0.0466612 -0.0365592 -0.0338831 -0.035688 
-0.028903 -0.028676 -0.0276956 -0.0255703 -0.0229932 -0.022002 -0.0195798 -0.0189286 -0.0164717 
-0.0149255 -0.0142871 -0.011323 -0.00845506 -0.00795843 -0.00580229 -0.00428705 -0.00321907 -0.000147622 
0.00405992 0.0063572 0.00556751 0.0191436 0.035135 0.0133069 0.0281877 0.0152294 0.0118923 
0.0787697 0.0719054 0.0342046 0.00320421 0.0170675 0.0233737 0.0150463 0.000180755 -0.000799718 
0.0129329 -0.00479734 0.0020368 0.00421323 -0.00810902 -0.00974396 0.0012373 -0.013302 -0.0120735 
-0.00367221 -0.0173437 -0.0142551 -0.00815862 -0.0224265 -0.0214805 -0.013371 -0.0285104 -0.0260205 
-0.0189816 -0.0373417 -0.0317348 -0.0255229 -0.0438409 -0.0417524 -0.0342947 -0.0601688 -0.0511199 
-0.0495732 -0.0708412 -0.0532026 -0.0589334 -0.0535021 -0.0398893 -0.050628 0.0661741 0.0202981 
-0.000114136 3.25198e-05 -0.000159759 -1.59566e-05 -1.41874e-05 2.70962e-05 0.00427395 0.00267345 0.0936837 
0.00424676 -0.0179948 -0.0184112 -0.0233501 -0.00644872 0.0789028 0.0206746 0.0580106 0.0541357 
0.0231265 0.0534921 -0.0572181 -0.010672 0.0623314 0.00352955 -0.000261265 0.0705264 -0.00196842 
-0.00147769 -0.00105174 -0.000676119 -0.000659565 -0.00140543 -0.00382021 -0.00339164 -0.00448776 -0.00422784 
-0.0039916 -0.00478488 -0.00467292 -0.00454612 -0.00463617 -0.00472993 -0.00468 -0.00420967 -0.0044346 
-0.00442863 -0.00352723 -0.00387868 -0.00391081 -0.00274662 -0.0031558 -0.00323235 -0.00188209 -0.00232102 
-0.00245065 -0.001094 -0.00150425 -0.00165782 -0.000481265 -0.000788267 -0.000975721 -1.85063e-05 -0.000249426 
-0.000440952 0.000275281 0.00015388 -4.29474e-05 0.000428057 0.000359692 0.000208133 0.000436817 0.000449273 
0.000320669 0.000348393 0.000406964 0.000328998 0.000229375 0.000296574 0.000251521 0.000101803 0.00016586 
0.000153407 -0.00253161 -0.00221476 0.00487388 0.00707602 0.00915561 0.0139667 0.0127342 0.0231993 
0.0432483 0.066573 0.0296387 0.0029448 0.0039699 0.00649312 0.00198312 0.00244872 0.00380462 
0.00137956 0.00161618 0.00251934 0.000974709 0.0010996 0.00177836 0.000692215 0.000763179 0.00126254 
0.000540254 0.000566834 0.000913161 0.000422358 0.000420496 0.000670835 0.000251078 0.000275684 0.000480924 
2.64853e-05 8.89001e-05 0.000262902 -0.000187279 -0.000122961 -4.84899e-05 -0.000459446 -0.000358456 -0.000421655 
-0.000695313 -0.000626926 -0.000790294 -0.000845937 -0.000857094 -0.00108061 -0.000938381 -0.000941105 -0.0013051 
-0.00102523 -0.00100131 -0.0014736 -0.00114731 -0.00108691 -0.00163236 -0.00129553 -0.00119126 -0.00184684 
-0.00110766 -0.00121181 -0.00195839 -0.000242539 -0.000781649 -0.00138627 0.00153708 0.000597557 0.00027988 
0.00311244 0.00248353 0.00282338 0.00319183 0.00346255 0.00446505 0.00193101 0.00286821 0.0044726 
0.000569734 0.00123501 0.00258767 -0.000356622 5.48991e-05 0.000609604 -0.000794229 -0.000708734 -0.000674124 
-0.000913139 -0.000981781 -0.00125109 -0.000848573 -0.000977798 -0.0013651 -0.000719504 -0.000832275 -0.00125992 
-0.000671221 -0.000713485 -0.00109851 -0.000639122 -0.000672563 -0.00098157 -0.000963506 0.0333836 0.0264502 
4.52621e-05 6.17004e-05 -0.000226801 2.78491e-05 4.21224e-05 7.20729e-05 8.87911e-05 0.0638381 0.0292138 
-0.00191896 -0.00132685 0.0204089 0.0146878 -0.0010121 -0.000465228 -0.000568768 -0.0017505 -0.00217476 
-0.00253598 -0.00381778 -0.000267049 -0.00137729 -0.00263992 0.00172813 0.000734123 0.00244362 0.00223767 
0.00282408 0.00249847 0.00258907 0.00370238 0.00303107 0.00256378 0.003972 0.00505973 0.00364012 
0.00535946 0.00936534 0.00631879 0.00935242 0.018855 -0.012312 -0.00127562 0.0180516 -0.00835058 
0.0409837 0.0474004 0.0810109 0.0810604 0.0931425 0.0885574 0.0761516 0.0954013 0.0934382 
0.0858879 0.0950111 0.0948892 0.0895738 0.0953889 0.0970167 0.0908806 0.0985437 0.0987622 
0.0921845 0.0994473 0.0988897 0.0930241 0.0980028 0.0969416 0.0937262 0.0973711 0.0990126 
0.0942056 0.0990818 0.100029 0.0949285 0.0984959 0.0987924 0.0935645 0.0988414 0.097705 
0.0931407 0.0956499 0.0961078 0.0921627 0.0949905 0.0966757 0.0904439 0.0942898 0.0941022 
0.0876974 0.0915284 0.0918942 0.0841332 0.082239 0.0813593 0.0775968 0.0583213 -0.0209205 
-0.0055465 0.00826102 0.019988 0.0542367 0.0372309 -0.043989 -0.0433992 -0.0439643 -0.0378067 
-0.0370185 -0.0380675 -0.0314587 -0.0350999 -0.0310795 -0.0255887 -0.0301368 -0.025388 -0.0204604 
-0.0248242 -0.0200037 -0.0155091 -0.0195627 -0.0148012 -0.0105297 -0.0145374 -0.00944952 -0.00540787 
-0.00961263 -0.00413847 -0.000136235 -0.00512934 0.00154456 0.00659509 -0.000954896 0.0086096 0.0154361 
0.00199999 0.00806059 0.00685613 0.00179735 0.00604367 0.014733 0.000364526 -0.0247506 0.00731506 
0.00641403 0.00292768 -0.00209404 -0.00115081 -0.00645013 -0.0045548 -0.00278575 -0.011174 -0.0087614 
-0.00665839 -0.0162109 -0.0132939 -0.0112152 -0.0217604 -0.018393 -0.0159628 -0.0281908 -0.0240523 
-0.0212732 -0.0351538 -0.0305905 -0.0270218 -0.0401698 -0.0360689 -0.0322661 -0.0405205 -0.0396565 
-0.0327577 -0.018074 -0.0384899 -0.0234934 -0.00290935 -0.00241274 -0.00221663 -0.00313766 -0.0242647 
-0.0413213 -0.0279856 -0.0091745 0.00850736 0.0110377 0.00208596 0.0011 0.00648796 0.00322404 
0.00072188 0.035088 -0.00306161 0.000357677 0.0600172 0.0715841 0.0257146 0.0119636 -0.00364871 
0.000100042 5.08176e-05 1.99584e-05 6.88351e-05 6.95166e-05 5.70086e-05 7.92985e-05 0.0262914 0.0356089 
5.87724e-05 0.000288396 -0.0206546 -0.00144836 0.0163373 -0.0086767 0.067827 0.0511441 -0.027612 
-0.0107167 -0.0190149 0.00483118 0.0181383 0.0357973 0.0117539 0.0393703 6.43271e-05 0.00014159 
-0.000152046 0.000141743 -0.00461852 -0.00466304 -0.00416275 -0.00387234 -0.00426549 -0.00442266 -0.00467494 
-0.00367893 -0.0039468 -0.00416562 -0.00298826 -0.00329046 -0.00347219 -0.0021859 -0.0025575 -0.00269202 
-0.00145623 -0.00180062 -0.00191166 -0.00084515 -0.00113462 -0.00121941 -0.000396272 -0.000618335 -0.000682545 
-5.27322e-05 -0.00022459 -0.000291594 0.00015252 5.01648e-05 -1.62176e-05 0.00024687 0.00019193 0.000137868 
0.000247663 0.000249924 0.000204735 0.00017794 0.000212627 0.000185087 -0.00260159 -0.00470909 -0.00472592 
-0.00389875 -0.00183348 -0.00145844 -0.00147896 0.000556963 0.000101862 0.00898045 0.0116873 0.0275567 
0.0394659 0.0542503 0.0452321 0.00308806 0.00370001 0.00213485 0.0025832 0.00375088 0.00157124 
0.00182007 0.0026882 0.00119767 0.00132674 0.00194028 0.000798191 0.000956114 0.00139056 0.00031946 
0.000535524 0.000866777 -0.000217807 2.04693e-05 0.000244752 -0.000854233 -0.000545181 -0.000510981 -0.00150761 
-0.0012159 -0.00134732 -0.00198123 -0.00182569 -0.00214861 -0.00222927 -0.00222783 -0.00272351 -0.00228736 
-0.00230626 -0.00301972 -0.00231534 -0.00234772 -0.00305981 -0.00242703 -0.0023552 -0.00312376 -0.00239348 
-0.00240347 -0.0032324 -0.00151158 -0.00209343 -0.00304687 0.00147466 -0.00034894 -0.00108816 0.00642321 
0.00389533 0.00333652 0.00855658 0.00829158 0.00887927 0.00606558 0.00789054 0.0109824 0.0025669 
0.00448262 0.00742618 -0.000325226 0.00107346 0.0025358 -0.00180883 -0.00123256 -0.000814575 -0.00230087 
-0.00224006 -0.00266197 -0.00223742 -0.00242478 -0.00316513 -0.00191706 -0.00214998 -0.00296247 -0.00161117 
-0.00175576 -0.00248491 0.0045383 0.00546166 0.00552381 0.00010563 0.000125501 0.000167705 0.0222302 
0.0267299 -0.00522162 -0.00521704 -0.0063415 0.00645583 0.00612636 0.00610259 0.00625611 0.00834378 
0.00556432 0.00449799 0.00777135 0.00957129 0.00715866 0.0093678 0.0286474 0.0128527 -0.00461584 
-0.00448749 -0.00453955 -0.00485561 0.0780483 0.073818 0.0810757 0.0809043 0.0819175 0.081897 
0.0729786 0.0836353 0.0830837 0.0741933 0.0847651 0.0838323 0.0757403 0.0851987 0.0850487 
0.0769843 0.0849757 0.0858441 0.0776171 0.0844023 0.0851647 0.0773299 0.0832879 0.0836818 
0.076111 0.0813469 0.0816707 0.0741047 0.0778153 0.0794719 0.0710753 0.0748027 0.0762294 
0.0672707 0.0717735 0.0727542 0.0636347 0.0588372 0.0411555 0.00981999 0.0173714 -0.00424599 
-0.00335539 -0.0292838 -0.0285892 -0.0274481 -0.0253397 -0.0251488 -0.0237439 -0.0215001 -0.0231783 
-0.0197053 -0.0173201 -0.0199662 -0.0153153 -0.0130312 -0.01627 -0.0110146 -0.00880927 -0.0125514 
-0.00680747 -0.00484352 -0.00915385 -0.00307165 -0.000892387 -0.00638327 -0.000219462 0.00182514 -0.00430058 
0.000244176 -0.000260061 -0.00340597 0.000233497 0.00378566 -0.00184177 -0.00771668 -0.00576396 -0.00392607 
-0.00216498 -0.00558891 -0.0159376 -0.0136149 -0.0205766 -0.0180468 -0.0160204 -0.0244671 -0.0224813 
-0.0196961 -0.0262823 -0.0262717 -0.0220429 -0.0224689 -0.0262503 -0.0210814 -0.0103409 -0.0201923 
-0.0139923 -0.00218633 -0.00169085 0.0029934 0.000177011 -0.00139428 0.00501165 0.0151376 0.0206371 
0.0305723 0.0179878 0.0010163 -0.00237054 -0.0019276 0.00122222 0.00673305 0.00834421 0.0112996 
0.00827136 0.0801727 0.0793039 0.070035 0.0720451 0.0305873 0.0289097 0.0214475 -0.0271405 
-0.0293727 -0.0245609 -0.0117128 -0.00968566 -0.00882415 -0.0122446 -0.00369112 -0.00328794 -0.00289378 
0.0172835 0.000184611 0.000163071 0.000183238 -0.00454768 -0.00322697 0.00285252 -0.00104911 0.00164832 
-0.00146625 -0.00155814 -0.00208807 -0.0019232 -0.00214722 -0.0190722 0.000129802 0.000122102 -0.00213536 
-0.00630981 0.00853997 0.0017287 0.00107515 -0.00911536 -0.00570571 -0.00141362 -0.000535683 -0.000488083 
0.0119606 0.0144361 0.0166979 0.0306253 0.0212281 0.024619 0.0213618 0.0236372 -0.00511852 
-0.00596448 0.0663655 0.00411885 0.060809 -0.0151756 -0.0146302 -0.0154887 0.0426211 0.0635225 
0.0692223 0.0601232 0.0483868 0.0134469 -0.00363809 -0.00737274 0.00593289 0.0125432 -0.0177541 
-0.0264835 -0.0197049 -0.00946932 -0.00228371 0.000155176 -0.000279346 0.00187159 -0.00312524 -0.000807233 
0.000957726 -0.000133767 0.00120573 0.000966059 0.0169883 0.0173647 0.00177973 -0.00196351 -0.00514669 
-0.00373651 -0.00473697 -0.0048714 -0.00246348 -0.00281001 -0.00168147 -0.00200788 -0.00214719 -0.00100498 
-0.00129525 -0.0013569 -0.000529493 -0.000744186 -0.000749134 -0.000194236 -0.00037085 -0.000348112 3.80266e-05 
-8.5104e-05 -7.04311e-05 0.000157909 8.70515e-05 9.55077e-05 0.000190366 0.000149059 0.000159035 -0.00629188 
-0.0050594 0.0086018 0.0125781 0.00261773 0.00303808 0.00360155 0.00425796 0.00421404 0.00508227 
0.00606894 0.00595263 0.0018697 0.00220426 0.00303371 0.00104904 0.00143501 0.00207908 0.000131503 
0.000593535 0.00106807 -0.000994422 -0.000430696 -0.000168847 -0.00226432 -0.00163647 -0.00163859 -0.0033865 
-0.00288553 -0.00317981 -0.00408253 -0.00393157 -0.00448387 -0.00406164 -0.00422465 -0.00517662 -0.00361497 
-0.00390772 -0.00492364 -0.00320619 -0.003464 -0.00417223 -0.00230579 -0.00249964 0.0133246 0.00608054 
0.00980724 0.0165731 0.000471045 0.00313516 0.00516837 -0.00320791 -0.00160654 -0.00134722 -0.00421274 
-0.00399838 -0.00487425 -0.00422721 -0.00444209 -0.00548254 -0.0036264 -0.00403471 -0.00521657 -0.0029616 
-0.00333107 -0.00437936 0.000755811 -0.00640688 0.00714548 0.00874399 0.00838054 -0.00232301 0.0656901 
0.0648586 -0.0041079 -0.00434462 -0.00481619 -0.00655996 -0.00772464 0.00992689 0.0106312 -0.0118084 
-0.0212972 -0.0212655 0.0188817 0.0211959 0.0122187 0.00978343 0.0117642 0.0105392 0.0105717 
-0.0177936 -0.0196979 -0.0165221 0.0678478 0.0670816 0.0586352 -0.00250219 0.022591 0.018568 
0.0633277 0.0629882 0.05573 0.0689472 0.0684149 0.0604905 0.069741 0.0695774 0.0617358 
0.0692142 0.0696413 0.0623272 0.0673397 0.0683154 0.0613496 0.064561 0.0658638 0.0589656 
0.0606474 0.0625929 0.0555583 0.0562149 0.0581279 0.05134 0.0518389 0.0534211 0.0461722 
-0.00184204 -1.66273e-05 0.00370307 -0.00418609 4.30906e-05 0.0597243 0.051922 0.060915 -0.0202132 
-0.0193259 -0.0184357 -0.0182887 -0.0169615 -0.01728 -0.0158039 -0.0141668 -0.0155727 -0.0128131 
-0.0111669 -0.0135854 -0.00994676 -0.00834068 -0.011286 -0.00748405 -0.00618025 -0.00948568 -0.00540633 
-0.00434617 -0.00798528 -0.00498479 -0.00455571 -0.0065355 -0.00447311 -0.00322916 -0.00299965 -0.00571084 
-0.0167506 -0.0156437 -0.0146222 -0.012764 -0.013215 -0.0150324 -0.0175565 -0.00778765 -0.0128394 
-0.00969202 0.0131197 0.00889627 -0.00750918 -0.00697046 -0.0174754 -0.0177201 -0.0138183 -0.00574832 
-0.00419024 -0.00332763 -0.00362173 -0.00398389 -0.00304444 -0.0100462 -0.00279354 -0.00286369 -0.00299492 
-0.00157542 -0.00540025 -0.00509 -0.0050721 -0.00142264 0.0305334 0.0386038 0.0485874 -0.00533607 
-0.00395199 0.0186178 0.0230671 0.0310802 0.00361875 7.95225e-05 0.000212888 0.00947139 0.0138717 
0.0411503 0.000650827 -0.00306142 -0.00230707 -0.00230646 -0.00354262 -2.21603e-05 0.00677983 0.00246385 
-0.00596457 -0.0129815 -0.00268089 -0.00351294 -0.00250954 0.0123974 0.0107676 0.0133071 -0.0086967 
-0.00773002 -0.00341519 -0.00519084 -0.00521251 -0.00339923 0.000198372 0.000146008 0.0126742 0.0134205 
0.0130225 -0.0108029 -0.00744947 -0.00633675 0.0179021 -0.00113453 -0.000216025 -5.62e-05 0.0497492 
0.035241 0.0268737 -0.00490075 -0.00469797 -0.00545365 -0.00678449 -0.00815586 -0.0127186 -0.00829012 
-0.00684869 -0.00613457 0.0553317 0.0641029 0.0636117 0.0152403 0.012488 0.0091696 -0.0127064 
-0.014472 -0.0121744 0.0165775 0.041297 0.00677237 0.0437119 0.00184446 -0.00479312 -0.00411486 
-0.00366294 0.000744685 -0.0143233 0.00175877 -0.000325155 0.00331062 0.0030239 0.0028335 -0.0163515 
0.0205555 0.015109 0.0283275 0.0164588 -0.0124907 0.00379615 -0.0106129 -0.0110003 -0.00948663 
0.000165455 0.00385466 -0.00184351 -0.00224805 -0.000157847 -0.00033458 3.58631e-05 -9.93482e-05 -2.67665e-05 
0.00235432 0.00296582 0.00488887 0.00579077 -0.0077041 -0.0059128 0.0326224 -0.00829171 -0.01052 
0.00657136 0.00523738 -0.00257379 0.00355054 0.00416577 0.00547588 0.00391649 0.00695932 0.00831096 
0.00767796 0.00103941 0.00172231 0.00251148 -0.000670424 0.000208393 0.000786149 -0.00265293 -0.00159405 
-0.001346 -0.00476808 -0.0037153 -0.00382809 -0.00663705 -0.00597373 -0.00651355 -0.00682826 -0.00701636 
-0.00444926 -0.00499764 0.000220633 0.000137346 0.000108104 0.000211977 0.00246949 0.0192967 -0.00665214 
-0.00618408 -0.0066404 -0.00691793 -0.00830136 -0.00566473 -0.00624848 -0.00776867 -0.00462175 -0.00509791 
-0.00639317 -0.00300389 -0.00269335 -0.00495029 -0.00521529 0.0521411 0.0515525 0.00550515 0.00513154 
0.00720763 -0.00198673 0.0515672 0.0500873 0.0442633 0.0124519 0.0107172 0.00856429 -0.0126713 
-0.0144556 -0.00902024 0.0536952 0.0530228 0.0451078 -0.00552842 0.0463246 0.0449651 0.0401752 
-0.0036142 0.0157665 0.00988484 0.0116871 0.0109988 0.0542067 0.0543939 0.0466721 0.0531741 
0.0542062 0.0471446 0.0503687 0.0520265 0.0458991 0.0459601 0.0481694 0.0424275 0.0408106 
0.0434568 0.0376802 0.0348423 0.0374792 0.031869 0.00312788 0.00619402 0.0037228 0.00418305 
0.00633011 0.00710423 0.0373301 0.0279465 -0.000526038 -0.000754626 -0.000274496 -0.00109962 -0.00143597 
-0.0007626 -0.00266848 -0.0136454 -0.0131571 -0.0129225 -0.0120216 -0.0121502 -0.011239 -0.0101489 
-0.0116442 -0.00975416 -0.0088646 -0.0102885 -0.0105611 -0.0101965 0.0158278 0.0206947 0.0148805 
0.0144944 -0.00626458 -0.00917564 -0.00906045 -0.00910296 -0.0100041 -0.011264 -0.00696692 -0.0020047 
0.0540992 0.0262881 0.014448 0.00464267 -0.00147947 0.000153538 7.14795e-05 -0.006163 -0.00416871 
-0.00189155 2.62534e-05 0.00713723 0.0101801 0.0451156 -0.00306052 -0.00554595 -0.00622428 -0.00380346 
-0.00663101 -0.00560906 -0.00576991 -0.00594166 0.0213393 -0.00214483 -0.00307047 -0.00426894 -0.00397792 
-0.00488469 -0.00369001 -0.00321041 -0.00624834 -0.00365708 0.0134057 0.0165224 0.014925 -0.00533196 
0.0052426 0.00432467 -0.0118189 5.39401e-05 -3.28237e-05 -0.000206454 -0.00607298 -0.00602184 -0.00647585 
0.0271008 0.00270776 -0.00804617 -0.00822736 0.00996702 -0.00250271 -0.00285257 -0.00325189 0.012347 
-0.00615815 -0.000117229 -0.00310447 -0.00273093 0.00210819 -0.014208 -0.0144529 -0.0126712 -0.0147834 
-0.0113911 -0.0087804 -0.00693257 -0.0113094 -0.00747747 -0.00721867 -0.0119373 0.0101952 -0.00886835 
-0.00898429 -0.00846652 0.0464089 -0.00975684 -0.00996642 -0.0103018 -0.0117684 -0.00932676 -0.00727559 
-0.00391166 -0.00425326 -0.00363772 -0.00489272 0.0149372 0.0121632 0.000378852 0.00158639 0.000161756 
0.00263482 0.00349764 0.00262396 -0.00842784 -0.00675966 -0.00928441 0.0223064 -0.0108451 -0.00875783 
0.0394722 0.0396339 -0.00494731 -0.00538489 0.0121356 0.0144562 0.0390843 0.0404305 0.0339116 
0.0339742 0.036489 0.0318551 0.0293451 0.0320877 0.0273377 0.0244438 0.0278239 0.0238063 
0.0197293 -0.000595689 -0.00087115 -0.00130476 -0.000320603 0.00941414 0.00982913 0.0080547 0.0131681 
-0.00718902 -0.00541852 -0.00382737 -0.00658086 0.013425 0.0160984 -0.00975177 -0.0103662 0.00800119 
0.00952064 0.0123568 -0.00987159 0.0375702 0.0364825 0.0401298 0.0394237 0.0320656 0.0335079 
-0.00381234 -0.00522193 -0.00393484 -0.00713268 -0.00117532 -0.000530373 0.000165626 0.00414027 0.00487125 
0.00445981 -0.00109867 -0.0017154 0.0180676 0.0122676 -0.002688 0.0119379 0.0175583 0.0335019 
0.0237383 -0.00769827 -0.00851383 -0.010152 -0.00796809 -0.00651942 -0.00178841 -0.00164652 -0.00370041 
-0.00429338 -0.00314733 -0.00269778 0.0170812 0.00661494 0.0052486 0.00582543 0.00682084 0.00858098 
0.0061494 0.0215104 0.0169223 0.036735 0.0369244 -0.000247282 -0.00168129 -0.0103971 0.00806881 
0.0181891 -0.0108636 0.00993545 -0.000225821 -0.000447503 -0.00100095 -0.000673716 0.0194791 0.00258245 
0.000599331 -0.0108555 -0.0105573 0.0302289 0.0222137 -0.00187497 0.00385253 0.0218404 0.00501052 
-0.00108722 -0.0014533 -0.00713597 -0.00795348 -0.00101995 -0.0031676 -0.00642343 -0.00686111 0.0198657 
-0.0024527 -0.00252606 -0.00657701 0.00581928 0.0282341 0.0272568 0.0260272 -0.00707532 -0.00813012 
0.0165475 0.0204611 -0.0026314 -0.00253696 -0.00358583 -0.00433078 -0.00887872 -0.00452257 -0.00588322 
0.0256683 0.0227138 -0.010104 0.0124486 0.0267707 -0.00523338 0.00873211 0.0066444 0.0247069 
0.0103135 -3.82628e-06 0.111663 -0.0518208 -8.28333e-06 -9.12053e-06 -8.07436e-06 -4.60952e-06 -6.11718e-06 
-3.67537e-06 -7.33445e-06 -4.74343e-06 -7.72739e-06 8.10438e-06 -0.000769972 -0.000975975 -0.00197962 -0.00117089 
-0.00222306 -0.00351073 -0.00496942 -0.00621962 -0.00486019 -0.000460949 -0.000447223 1.79424e-06 1.41172e-05 
9.81914e-05 -0.000107337 -0.000122576 -0.000222904 -0.000286478 3.24335e-05 9.90383e-05 6.38763e-05 0.000114947 
0.000144163 0.000228233 0.000240626 0.000270586 0.000257733 0.000246568 -0.00027314 -0.000257649 -0.000368326 
0.108972 -2.17144e-05 7.70883e-06 -0.0542802 0.00452556 -0.00365045 -0.00424179 -0.00179476 -0.00117295 
-0.00100953 -0.000576397 -0.000664923 -0.000145771 -0.000243118 -0.000288029 -0.000204568 -9.16079e-05 -8.45029e-05 
-7.98591e-05 -9.62741e-05 -2.55167e-05 -1.69327e-06 -3.86845e-05 -2.79949e-05 3.203e-06 5.75023e-06 4.9551e-05 
4.57931e-05 5.95534e-05 6.96111e-05 7.8443e-05 9.58471e-05 9.16465e-05 0.000136456 0.000145703 0.000114733 
0.000117586 0.000120377 0.000128191 0.000142755 0.000145856 0.000196237 0.000150376 7.64304e-05 3.55535e-07 
-5.3281e-05 -0.000199753 -0.000253099 -0.000340689 -0.000497228 -0.000485516 -0.000279139 -0.000228473 -0.000152851 
-5.45637e-05 -1.59129e-05 5.0864e-05 7.54126e-05 9.43528e-05 0.00011878 0.000111657 0.000142615 0.000134345 
8.50957e-05 8.4554e-05 7.7451e-05 7.38086e-05 8.52101e-05 1.01971e-05 4.49338e-05 1.40482e-05 2.57259e-05 
-0.000171546 -0.000123318 -2.04032e-05 -1.05141e-05 -0.000156037 -3.82136e-05 2.79814e-06 5.87888e-05 5.76973e-05 
-0.000224628 6.76635e-05 9.46786e-05 -1.5637e-05 -4.21677e-07 0.000133828 0.00011772 -0.000408235 -0.000994977 
-0.00157458 -0.00236898 -0.00297399 -0.00372898 -0.00482583 -0.00533736 -0.0057238 -0.00600325 -0.00612347 
-0.00614211 -0.00600978 -0.00586142 -0.00521653 -0.00468197 -0.00427584 -0.00367233 -0.00314654 -0.00246447 
-0.00195692 -0.00135577 -0.000464276 -5.81445e-06 0.000308931 0.000615837 0.00083682 0.00104669 0.00113962 
0.00122807 0.00119789 0.00109894 0.00100893 0.000857222 0.00071549 0.000540405 0.000402898 0.000243447 
0.000141348 3.97463e-05 -9.50459e-05 -0.00427003 -0.00555567 -0.000919136 0.00121415 0.0981585 0.146529 
0.130569 0.181861 0.189241 0.20862 0.211875 0.223791 0.237225 0.238244 0.262152 
0.244521 0.236881 0.243476 0.246563 0.242934 0.240906 0.250278 0.236853 0.224082 
0.23934 0.215358 0.154486 0.147898 0.108335 0.204104 0.159793 0.153834 0.179068 
0.157746 0.211387 0.197623 0.228679 0.240686 0.235764 0.235843 0.239809 0.235782 
0.247686 0.264701 0.243162 0.251526 0.236812 0.250896 0.236978 0.242369 0.213177 
0.215021 0.194702 0.204482 0.138887 0.181272 0.165075 -0.0291873 0.0974299 -0.0386421 
0.118955 0.105746 0.108276 0.108119 0.114145 0.105435 0.0905476 0.105713 0.10294 
0.10443 0.0817703 0.107276 0.0968379 0.0999027 0.0902302 0.0931266 0.0625151 0.0859418 
0.0679376 0.078636 0.050985 0.0634731 -0.00972488 0.0261912 0.0182318 -0.0306641 0.12439 
0.186445 0.123424 0.108772 0.0162697 0.0889947 0.174889 0.159953 0.218087 0.217612 
0.209811 0.209276 0.218526 0.212854 0.212097 0.0507056 0.20178 0.196898 0.218031 
0.162871 0.19756 0.203271 0.182303 0.111359 0.156686 0.220816 0.209257 -0.0010251 
-0.000799697 -0.0012996 -0.00105071 -0.00114021 -0.00159871 -0.00125308 -0.00523803 -0.00117486 -0.00126179 
-0.000819272 -0.000849514 0.00188813 0.000138278 0.00279178 -0.0013155 0.0891864 0.0808566 0.0891105 
0.10642 0.111834 0.107256 0.00727001 0.0117351 0.00933639 -0.00109217 -0.00050864 -0.000434977 
-0.0276381 -0.0506689 -0.0245104 -0.00260028 -0.00289961 -0.00234944 0.109105 0.109709 0.113687 
-0.00333252 -0.00380374 -0.00387327 0.122764 0.126602 2.5415e-05 4.88635e-05 2.24557e-05 0.0929764 
0.0930291 0.098853 -0.0150077 0.120257 0.000521241 -0.00206364 -0.00210271 -0.00160728 -0.00162616 
0.0912356 0.0923054 0.131999 0.136485 0.0731647 0.0750228 0.065666 0.0674372 -0.00112806 
-0.00157638 -0.00169685 -0.00719357 -0.00765622 -0.00749086 -0.00837933 0.00240548 0.00652225 0.0026331 
0.00900073 0.00587663 0.00407568 0.00691201 0.00477788 -0.0137962 -0.0116344 -0.012216 0.0762334 
0.0753031 0.0677899 0.108338 0.100865 0.0962444 -0.0101416 -0.0104814 -0.00917785 -0.000884904 
-0.00176442 -0.00215788 -0.00356113 0.000156653 0.000165599 0.000191424 -0.00484807 -0.00745316 -0.00413226 
-0.00620685 -0.00694461 -0.00747782 -0.00893902 -0.00898337 0.000925439 0.000682292 0.000950894 0.000668886 
-0.00407163 -0.00402033 -0.00460121 -0.0119827 -0.0141831 -0.0124883 0.0710986 0.0624909 0.072263 
-0.00812494 -0.00488396 -0.00596809 -0.00441074 -0.00468309 -0.00488747 -0.00486346 0.00834982 0.00471255 
0.019734 -0.0024748 -0.00260729 -0.00290459 -0.0029911 -0.00632217 -0.00605088 -0.00568522 0.000183034 
0.000309239 0.000219777 0.000399361 0.000675149 0.000739322 0.00171164 0.00242313 0.00038998 0.000687619 
0.000168141 -0.000260091 0.000781959 -0.0428616 0.000538716 -0.00073453 -0.00729411 -0.0148212 -0.00898976 
-0.0129194 -0.00906059 -0.00364313 -0.00363974 -0.00400038 0.00088133 0.0228108 0.0338946 -0.00830221 
-0.0206568 -0.0249161 0.015577 0.000659979 0.00094208 0.0005664 -0.00272294 -0.00205039 -0.00271677 
-0.00215199 -0.00228068 -0.00270497 -0.00257694 0.00818083 0.089305 0.0252886 -0.0261259 -0.0210563 
-0.0188116 -0.00220425 -0.00246851 -0.00277052 9.5632e-05 0.0809955 0.0801691 0.0731337 -0.000292996 
-0.000330882 -0.000218956 -0.0221991 -0.0262489 -0.0211076 -0.025068 0.0765755 0.0638118 0.0668257 
0.0561735 0.0585686 -0.00670965 -0.00549217 -0.00748072 -0.00615573 0.0100525 0.0145489 0.0123953 
0.0454992 6.97248e-05 5.82873e-05 0.000236377 -0.00482738 -0.0046405 -0.00479571 -0.00452851 -0.00560551 
-0.00589868 0.0910726 0.0972465 0.0812242 0.104856 0.106144 0.109701 -0.00838672 -0.00729296 
-0.00693819 -0.00596996 1.89928e-05 5.93395e-06 -2.77184e-05 0.00127468 0.00146451 0.0261078 0.0214065 
0.0565553 0.000499404 0.000372542 0.000513414 -0.00547703 0.00104697 -0.000678252 -0.0021729 -0.0326406 
-0.0026175 -0.00226775 -0.0026264 -0.0641225 -0.0455641 -0.0169403 -0.00380522 -0.00356107 -0.00365672 
-0.000723719 -0.000431337 -0.000930586 0.00813985 0.0094106 0.0111812 0.000783347 0.000996894 0.00129593 
0.00146916 -0.000113571 -0.000154486 0.00316207 0.0036042 0.00580531 -0.00485743 -0.0054249 -0.00452884 
-0.0011617 -0.00126051 -0.0017868 -0.00869769 -0.0165469 -0.0115971 -0.000138793 1.02675e-05 8.77857e-05 
8.5306e-05 1.11555e-05 -0.00521457 -0.00440889 -0.00491261 5.37817e-05 9.37603e-05 2.6703e-05 6.81945e-05 
-0.00244295 -0.00280972 0.000210924 0.0038826 -0.00218263 0.000176402 0.000203876 0.000956676 0.0165844 
0.0198315 0.014399 0.017421 0.000442056 -0.00350205 -0.00327721 -0.00255707 -0.00237708 0.0740225 
0.0566899 -0.0132151 -0.0172754 -0.0152542 0.000775301 0.00043659 0.000529081 0.0956603 0.109679 
0.110127 -0.0139325 -0.0177958 0.0649861 0.0641895 0.056505 0.0018188 0.00229733 0.00372109 
-0.0100216 -0.0124429 -0.00935401 -0.0112473 1.11741e-05 -0.0120377 -0.0149518 -0.012852 0.000170022 
0.000118293 0.000134959 0.000108379 6.10182e-05 -0.0012876 -0.00185651 -0.00198951 0.000508248 -0.0596649 
-0.00130604 -0.00118494 -0.00100131 0.000178062 0.000156005 -0.00267222 -0.00193841 -0.00273888 0.0191909 
0.016312 0.0117435 -0.0277431 -0.03305 -0.0363787 0.00287048 0.00319475 0.00233042 0.000500092 
0.0631379 0.0519166 0.0707959 -0.0413063 5.12277e-05 0.000289283 -0.00376844 -0.00567139 -0.00588556 
-0.0185943 -0.0179625 -0.0210785 -0.0429903 -0.0381188 -0.0370018 0.0763867 0.0854315 0.0767263 
0.0929542 0.0662689 -0.00761395 -0.00593677 -0.00586278 -0.0314257 0.13467 0.101465 0.13717 
-0.00173766 -0.00136893 -0.00157602 -0.000973003 0.00227271 0.000512411 0.00170598 0.000562632 0.095147 
0.0953294 0.0878092 0.071216 0.0780771 0.0703856 0.0775027 0.085317 -0.00220189 -0.00179913 
0.000423841 -0.000223979 -0.000523143 -0.000468257 -0.0027761 -0.00442305 0.0781459 0.0758331 0.0874449 
0.0199812 0.0248144 0.0239808 -0.00196097 -0.00223548 -0.00196274 1.07787e-05 -0.00109784 -0.00133226 
-0.000821421 -0.0125555 -0.0115096 -0.00905725 0.111846 -0.00271739 -0.00244419 0.0256671 0.0279651 
0.0341506 -0.00467589 -0.00482108 0.113085 0.113299 0.111288 -0.00364549 0.00338454 0.00120699 
0.00431262 -8.31219e-07 -0.000140231 -6.879e-05 -0.00247319 -0.00190035 -0.00232221 0.000271208 0.000404072 
0.000149338 -0.00473624 -0.00453781 -0.00487229 0.0849018 0.09461 0.0868039 0.007124 0.0035071 
0.00421077 0.00462651 0.00546197 -0.0327153 -0.0232451 0.104798 0.0476546 0.0453855 0.0381629 
0.0427424 0.0396503 0.0330767 0.0523729 0.0349675 0.0417672 0.0115473 0.0118708 0.00972981 
-0.0001203 0.00490304 0.00654606 0.00865932 -0.00862414 0.0939149 0.108182 0.0829215 0.0907849 
0.00509602 0.00694703 0.00862582 0.0101969 -2.23877e-05 6.27291e-05 6.03105e-05 0.000113873 5.60719e-05 
0.000109632 -0.00324162 -0.00307163 -0.00337999 -0.00089285 -0.000649114 -0.000848052 0.0226465 0.0269737 
0.0206596 0.0255181 0.0131476 0.00507744 0.00868386 0.00307681 -0.00137904 -0.00194776 -0.00127091 
0.0214514 0.0154288 0.0200549 0.000714083 0.000544332 4.18124e-05 -0.00597945 -0.00673218 -0.00659449 
0.00872883 0.000396298 0.0212968 0.0174544 0.0154836 0.0883018 4.32984e-07 7.5304e-05 -0.00514639 
-0.00547711 -0.00410316 -0.0111912 -0.0107072 -0.00901704 0.00157055 0.000684569 0.00297459 0.00246646 
-0.00350715 -0.00334062 -0.0151912 -0.0119921 -0.0183966 0.00113638 0.00359752 0.000942834 -7.7258e-05 
3.05925e-05 -9.48312e-05 -0.00207422 -0.0018738 -0.000746587 0.00197345 0.00144358 0.00322627 0.00175122 
0.00168619 -0.00020959 -0.0014439 -0.0013505 0.000937946 -0.000329011 0.00425912 0.00426445 -0.00109518 
-0.00114833 -0.00080592 -0.00940326 -0.0101904 -0.00649185 1.02082e-05 2.77936e-05 1.83317e-05 -0.0141812 
-0.0134294 -0.0129624 -0.0123044 -0.00419583 -0.00817492 -0.00640342 6.54733e-05 2.10088e-05 0.000113076 
6.13836e-05 0.0338218 0.067661 0.0329995 -0.00350674 -0.00453052 -0.00445552 -0.00776967 -0.010221 
-0.0102058 -0.00425823 -0.00451738 -0.00464811 -0.00484345 0.00107132 -0.0137068 -0.0151957 -0.0126329 
-0.0537442 -0.0117184 -0.0129955 -0.000769255 -0.00212031 -0.000951369 2.25796e-05 0.00130776 -0.000866783 
-0.000370312 -0.000963343 -0.000367774 -0.0134612 0.00244878 0.00250974 0.00376413 0.0075074 0.00670094 
0.0134742 0.00702354 0.00426867 0.00449087 -0.0122274 -0.0171522 -0.0148777 -0.00207522 -0.00727477 
-0.00904867 3.21021e-05 -0.00965821 -0.00303942 -0.0060554 -0.00041437 -0.00275878 0.00317686 0.00189731 
-0.00283982 0.00091408 -0.00152249 -0.00185195 -0.00114799 -0.00143365 0.059825 0.0654774 -0.0336335 
-0.0354469 -0.0314478 -0.00243106 -0.00301164 -0.00221754 -0.00278885 -0.00374902 -0.00654351 -0.00316742 
-0.00265107 -0.0105158 -0.0475426 -0.0528872 -0.00307572 -0.00149767 -0.00144271 -0.00106812 -0.00194675 
0.000178501 0.000112205 0.000142307 0.00055605 0.0972306 0.0894537 0.109375 0.107569 0.110796 
-0.000885984 -0.0153016 -0.0136534 -0.0153492 0.00410731 0.00341822 0.00219019 0.0124311 0.000727886 
0.000221218 0.000567467 0.00412629 0.00457726 0.00627103 0.00757335 0.0156012 0.0186207 0.0129541 
2.79568e-05 1.24784e-05 -0.000108964 -0.000159485 -6.36237e-05 -0.00138806 -0.000615735 0.114454 -0.00223394 
-0.00339157 0.00438037 0.00600985 0.0068409 0.009177 0.0283521 0.0314715 0.0248805 -8.81875e-05 
2.09078e-05 -0.00654003 -0.00859492 -0.00750616 -0.00499655 -0.00467166 -0.0048212 0.00573708 0.00731641 
0.0090723 0.000207567 -0.00201088 0.0042167 -0.00148868 -0.00170936 -0.000692774 -0.00286882 -0.0037717 
-0.00266592 -0.00366336 -0.00899739 -0.0102263 -0.00989634 0.000148687 -0.000143294 -0.000123564 -0.000260345 
-0.00030311 -0.00268548 -0.00354656 -0.0378901 -0.0329726 -0.0506372 -0.00117681 -0.00106546 -0.00172034 
0.0330117 0.0366805 0.0431832 0.00094433 -0.000101475 0.00114233 -0.000444741 -0.000792405 -0.0117822 
0.00590879 0.00389515 -0.00179743 0.0752196 -0.00992639 0.0653648 0.0650444 0.0562528 0.0571112 
0.033273 0.0435408 0.00788996 0.00473972 0.00953111 0.0148778 -0.000273999 -0.000317202 0.0309602 
0.0257412 -0.00166507 0.00279442 6.42411e-05 0.000898128 0.00313719 0.00715614 0.00530448 0.080866 
0.0732176 0.0815869 0.000958691 -0.00153885 -4.90901e-05 -0.00864534 -0.000451265 -0.000450803 -0.000799086 
-6.64813e-05 -0.000247838 -0.000189385 -0.00205244 -0.0020804 -0.00134603 0.000532366 0.00111289 0.000587883 
0.000955177 0.00135777 0.000754336 0.00130291 0.000784628 0.00255005 0.00420249 0.00390521 0.000603017 
0.000846405 0.00619341 -0.00829161 -0.00971906 -0.00790473 0.0839965 0.0729674 0.0833421 0.122816 
-0.0137629 -0.000153186 -0.000262125 -0.000184253 0.093804 0.0935627 0.105149 0.108657 -0.0282502 
0.00132551 0.039861 0.0322094 0.0409743 -0.0104967 -0.0226294 -0.0192805 -0.0301067 0.00907469 
0.0121521 -0.0132271 -0.0116455 0.0062175 0.111579 0.108873 -0.0020979 0.00329479 0.0310718 
0.110666 0.0991223 -0.00652901 -0.00283958 -0.00779278 -0.00466383 -0.0426064 -0.0544086 -0.0436857 
-0.0351952 -0.00512565 -0.00746993 -0.00626764 0.0917298 0.0896283 0.0827878 0.0809975 -0.00697255 
-0.00686657 -0.00214696 -0.00169756 -0.000985678 -0.000980266 -0.000595392 -0.000604918 0.0950341 0.0871606 
0.086228 -0.0153509 -0.0126056 0.0926984 0.0995215 -0.000113249 -5.51536e-05 0.0136918 0.0217649 
0.00201763 0.0129378 0.0833172 0.1159 0.0412697 0.00621769 -0.00112544 -0.00123579 -0.00191699 
-0.00953205 -0.00268978 -0.00281306 3.43776e-05 3.86584e-05 2.05533e-05 -0.0240358 -0.0230179 -0.0279274 
-0.02246 0.0126285 0.0129193 0.0157264 -0.0288397 -0.0265023 0.00793948 0.00726403 -0.000234113 
0.00253281 0.00149797 -0.00340029 -0.00379313 -0.00381079 -0.00414486 0.0116847 0.00985103 0.00724557 
0.00539719 0.00194869 -0.00284244 0.059367 0.0515948 -0.0059019 -0.0055846 -0.00625325 0.000302715 
0.000574511 0.000258236 0.000480742 0.0116768 0.0158816 0.0205538 -0.000835105 -0.0013315 0.0103542 
0.010409 -0.0040526 -0.00432664 -0.00421012 -0.00639168 -0.00565756 -0.00155609 -0.00233186 -0.00182182 
-0.00466355 -0.00460307 -0.00461739 0.000247576 0.00032649 0.00022585 0.00135758 0.00175554 -0.000115309 
-0.00623189 -1.75408e-05 -0.000214162 0.000222815 4.89115e-05 -0.00455346 1.64875e-05 0.00103226 0.00172865 
0.000284628 0.00134411 -0.00039552 -0.00228408 -0.00266028 -0.0028984 0.0787457 0.0889763 0.080249 
9.30821e-05 0.000158104 -0.00500038 -0.00348986 -0.00340767 -0.00605856 -0.0041032 -0.00561398 0.000236666 
0.000313402 0.000196787 0.0485612 0.0361417 -0.000845082 -0.000353919 0.000256772 0.112404 -0.00412924 
-0.00440803 -0.00547104 -0.0204761 -0.0232452 -0.020674 0.000683133 0.000594965 0.000374605 0.000448349 
0.0066637 0.00537572 -0.0662109 0.00446678 0.00692034 0.0073441 0.000194862 0.00167969 -0.000265006 
-0.000154429 -0.000194857 -0.000953035 -0.000613716 -0.000627277 -0.000107804 0.000250847 0.00033385 -0.000952464 
0.0038541 0.000188272 0.000208206 0.000153036 -0.00035599 -0.000637221 -0.00106587 -0.00151299 0.00851694 
-0.000388292 -0.000570903 -0.000271306 -0.000422374 -0.00156702 -0.00388902 -0.00244021 -0.00334146 0.00114427 
0.00145304 0.0016674 0.120641 -0.0031508 0.00122557 0.00102219 0.000193522 0.00021859 0.0105099 
-0.00205992 -0.00187693 -0.00144576 -0.00135015 0.00248538 0.00254695 0.100439 0.0208691 -0.00493695 
-0.00705038 -0.00462344 -0.00188843 -0.00255069 -0.00244327 -0.00272555 -0.00560469 -0.00365718 -0.0040846 
-0.00122632 -0.000717557 -0.000336857 -6.07584e-05 -0.00026718 -0.000161389 0.00751745 0.0471224 -0.00356145 
-0.00128118 -0.00690678 -0.00439606 -0.0532987 -0.0427569 -0.0483004 -0.00521972 -0.00147756 -0.00190266 
-0.00207359 0.00433053 0.00130465 -0.00711525 0.0326963 0.11466 0.0897251 0.106411 0.0885867 
0.0153989 0.0154301 0.0118381 0.0727713 0.0796876 -0.00157943 -0.00141467 -0.00176714 -0.00023071 
2.60489e-05 -0.00417945 0.0408695 0.0471943 0.0381028 0.0999174 0.102726 0.100319 0.112472 
0.100637 -0.0204754 -0.0232376 -0.00702209 -0.00487118 -7.95233e-05 -2.8063e-05 -0.000270847 -0.000395442 
-0.000403292 -0.00939775 -0.0146297 -0.0121486 -0.00216818 0.00243082 0.0116578 0.00634122 -0.0286605 
-0.028748 -0.000198435 -8.03663e-05 -4.40493e-05 -0.0457551 0.0236606 -0.0196706 -0.0178528 0.0793735 
0.0727596 0.0718407 -0.0020033 -0.00231776 -0.00329611 -0.000434635 -0.00373158 0.00179213 -0.00508705 
-0.00482687 -0.00410824 -0.00374735 -0.00368139 0.0078547 0.0045199 0.0073763 0.00727433 0.00613497 
0.00619913 0.0201695 0.0254418 0.0169097 0.021514 -0.00345456 -0.00389975 -0.000371826 -0.00058807 
0.000697374 0.000246129 0.0393101 0.0287511 0.0144449 0.0187722 0.0175592 -0.0313886 -0.0354241 
-0.01436 -0.0133953 -0.0130387 -0.0590681 -0.0516893 -0.0268393 -0.0332866 -0.031636 -7.73011e-05 
0.00027876 0.000334457 0.000867227 0.0134203 0.0166143 0.00197564 0.0024003 0.026815 0.024749 
0.00113814 -0.000716547 6.5832e-06 -0.0174557 0.000150154 0.000127872 7.84024e-05 7.53838e-05 0.000150848 
-0.00398983 -0.00934194 -0.00879399 -0.00944354 -0.0197324 -0.0168339 -0.0300508 -0.0258563 0.00166474 
-0.00025643 0.00375552 0.00240485 -0.00284435 -0.00361983 -0.0037319 -0.00398156 -0.00426027 -0.00399795 
0.00223692 0.000524478 -0.00145014 -0.00200651 0.00455545 0.000617819 0.000854976 0.000668892 -0.00323416 
-0.000942009 0.000229552 0.00991445 0.00813114 0.000382753 0.0166122 0.0243255 -0.00082757 -0.00317972 
0.110478 -0.0035907 -0.00440482 0.11432 0.11182 -0.00661021 -0.00848521 -0.010147 0.0796956 
0.111312 0.110399 0.110992 -0.00698742 -2.27672e-05 7.99307e-05 0.00273692 -0.0234959 -0.020386 
-0.0278653 0.0330775 0.0343935 -0.0718028 0.0564383 0.0484301 0.0496348 0.0422764 0.0400499 
0.03307 0.000481459 0.0636049 0.0559385 0.0626977 0.137421 0.0623395 0.0698536 0.00757089 
0.00913795 0.0118691 0.00556899 0.00354722 -0.00438131 -0.0183175 -0.00321522 -0.00611028 -0.00737601 
-0.0147872 -0.0149443 0.0609978 0.0525412 0.0066863 0.0132599 -0.00669785 -0.00794283 -0.00283543 
-0.00376131 -0.00698026 -0.00394981 -0.0108536 0.000903896 -0.000223212 -0.000409498 -0.00310525 -0.00369232 
-0.00352122 0.000419785 0.000370955 0.000481198 -0.00461398 -0.00200262 -0.000188578 -0.00018737 -0.000621291 
0.000133701 0.000161688 -0.005452 0.000748558 0.000424225 0.000532248 0.00602693 0.00602368 0.00812024 
0.0016904 -0.00196993 -0.00265042 0.0108687 0.0138543 0.0839607 0.0747733 0.0837778 0.00243135 
0.00191926 0.000503353 0.0840571 0.0934735 0.0934169 0.0197518 0.0262597 0.0244781 0.113643 
0.10989 0.0721973 0.0628163 0.0606874 2.64495e-05 1.24936e-05 0.0993722 0.097592 -0.00136904 
-0.00113284 -0.000609696 -0.00021724 0.0563372 0.0549102 0.0682705 0.0705827 0.0796352 0.0133343 
0.0125536 0.0164823 0.0788872 0.062236 0.0520734 0.0718916 -0.00550336 0.0077571 0.000477338 
0.000379053 -0.00168809 -0.00304092 -0.00512309 -0.00460269 -0.00362661 -0.00202407 0.0227653 0.0156471 
0.00493846 0.00922948 0.00813577 0.0106617 0.009214 0.088709 0.0969493 0.110128 -0.0040973 
-0.00862755 -0.00217329 -0.000757408 -0.00341609 -0.00150906 0.000792742 -0.00322518 0.0168732 -0.00787259 
-0.0223606 0.00837359 0.012117 0.00976482 -0.0125865 -0.0173346 -0.0292546 -0.0161434 -0.0140598 
-0.0169721 0.000232998 0.000264334 0.0002744 0.000316817 -0.0153424 -0.0257435 -0.0248487 -0.000514365 
0.000318281 0.000161808 0.000148882 0.00550179 -0.000923044 0.000225423 -0.0186875 -0.0165568 -0.0123204 
-0.0163476 -0.0108782 -0.00864141 -0.00702021 1.38015e-05 -0.00296157 -0.0037989 -0.00406174 -0.00344471 
-0.0038089 -0.00065806 -0.00083623 -0.000545511 -0.00291166 -0.00865471 0.000200885 0.000181177 -9.07909e-05 
-0.000267243 -0.00020171 -0.0050888 -0.0179146 0.000147356 0.000170641 0.000167336 -0.000123764 -9.90626e-05 
-0.000220374 0.0965641 0.00575157 0.00776001 -0.00381251 -0.00340619 0.095731 0.0111786 -0.00018112 
0.0749898 0.0863316 0.0645107 0.0746899 -9.37848e-05 -0.000362023 -0.00014018 2.31619e-05 1.41436e-05 
0.00012644 0.0224535 -0.000283594 0.000353964 0.00013039 0.000116745 0.000461461 -0.000215841 -0.000177355 
0.0103612 0.00539109 0.0210775 0.0259433 0.0308383 -0.0058391 -0.0104101 -0.00682474 0.000160833 
-0.00267448 -0.0026494 -0.003122 -0.0041911 -0.00454816 -0.00420201 -0.00263721 -0.00211144 -0.00186513 
0.0360889 0.0398455 0.0563373 0.0652711 -0.0353585 -0.0418674 -0.00373886 -0.00473277 -0.00562664 
0.112024 -0.000287166 0.0965034 0.000857048 -0.00463055 -0.00436377 -0.00536302 0.00802041 0.00162964 
0.0176904 0.01178 0.0135736 0.00497262 0.00354484 0.00351454 -0.00492816 -0.00157897 -0.00103994 
-0.0011796 -0.000540606 -0.00311564 2.44868e-05 7.38333e-05 -0.00398624 -0.00370979 0.0556865 0.0477698 
6.77694e-05 0.0452303 0.0644327 -0.00180801 -0.00293703 -0.0380365 -0.00458321 -0.00431362 0.0772677 
0.0691558 0.070102 0.06011 0.0614169 0.047405 0.0555211 0.0482957 0.0488405 0.0522298 
-0.01424 -0.00187874 -0.000358579 -0.000272733 -0.00055537 0.00411295 0.0101396 0.130039 0.124072 
0.103443 -0.0175971 -0.0140673 -0.000836576 0.0011473 -0.00498874 -0.00522569 -0.0053724 -0.00454355 
-0.00428424 -0.00448053 0.0802124 -0.0022737 -0.000773087 0.00874973 0.000200069 -0.00224802 0.00686648 
0.00726463 -0.00521977 -0.00504614 0.0537985 -0.000311319 -0.000221839 -0.0200406 -0.0401923 -0.000135197 
-0.00992784 -0.0113633 -0.0143392 0.000345014 0.0123543 0.0135129 -0.0177072 -0.0187688 -0.0206741 
0.0424262 0.112097 0.114333 0.000187594 -0.00142318 0.120671 -0.00347001 -0.00575192 -0.00132691 
-0.00171424 0.0987518 -0.00422472 0.0517594 0.000270853 0.000161571 0.0178229 0.0248385 0.0637772 
0.0712477 0.0624845 0.100031 0.0955482 0.00788258 0.0061053 -0.0016712 0.00217583 0.00197187 
-0.00283724 -0.00196367 0.00011821 2.90079e-05 -0.00385526 -0.00471865 0.00330789 0.000318153 -0.00465752 
-0.00757964 0.0411995 0.0480906 0.0488829 0.020455 -0.00421821 0.00991813 0.0101787 0.0492784 
-0.00381727 -0.00439752 -0.0050533 0.109703 1.58441e-05 2.49411e-05 8.33267e-05 -0.020895 0.0691295 
1.58258e-05 0.0418666 0.0432636 0.0854576 0.00204781 0.00169144 0.000298392 0.000224994 -0.00498753 
-0.00394619 -0.00500575 -0.00378381 0.00382019 0.00779588 0.00335797 0.0061111 0.000313134 0.00196884 
0.00482293 0.0025411 -0.00022447 -0.000218694 -0.000727861 -0.00743165 -0.0108226 -0.0100923 -0.00230154 
-0.00306329 -0.000736678 -0.000270165 -0.000506331 -0.0107812 -0.0104935 -0.00850893 0.0384734 -0.000825218 
-0.00490453 -0.00466958 -0.00437582 -0.00309143 -0.0021823 7.07757e-05 3.413e-05 5.60232e-05 9.60441e-05 
0.000178739 0.00130235 0.00268143 0.00377574 0.113341 1.76239e-05 0.000153083 0.109936 0.000378019 
0.000465938 0.00100387 0.000118629 0.00189772 0.00510856 -0.00274222 -0.00356412 -0.00304237 -0.00227903 
0.0108231 0.00854975 0.00618542 0.00590092 -0.0102447 -0.0117526 -0.00957293 0.00297421 0.00276108 
0.00431174 0.00399465 0.00971128 0.0140315 -0.0139999 0.0495916 0.0275185 0.034305 0.0328076 
0.040839 -0.000431901 -0.00491109 -0.00630598 -0.00644709 -0.000869297 -0.000610148 -0.00199239 -0.00119631 
-0.00439932 -0.00405181 -0.00518609 -0.00532956 -0.0050671 -0.00550639 0.000287892 0.000114007 -0.000341971 
-0.000499299 -0.000473762 0.00346976 0.00454972 0.016259 0.00611219 0.000157655 0.00113289 0.00171134 
0.00135368 0.00205451 9.54937e-05 0.00370775 -0.000719913 -0.000284909 -0.000227484 0.0167315 0.0242328 
0.0667952 -0.000711936 -0.000654515 -0.00018356 -0.000120016 -0.00020002 0.000716465 -0.000701074 -0.0297526 
-0.0249896 -0.000114235 -0.0334053 -0.00626058 -0.000603359 -0.000926166 -0.00170304 -0.0109573 -0.0117718 
-0.011566 -0.0145637 3.76516e-06 -9.08815e-06 -0.0023164 -0.00297036 -0.000176309 -0.000259069 -0.000544956 
-0.00109387 -0.00744023 -0.00595684 -0.00744843 -0.000788945 -0.000866564 -0.000674235 -0.000801162 -0.00193963 
-0.00920682 0.000287338 0.000226889 0.000234557 0.153048 0.0659738 0.000188001 0.000201393 0.00246677 
0.00210668 -0.00584232 -0.0031203 0.00269861 0.00507695 -0.0164443 -0.00265855 0.104635 0.120059 
0.0961777 0.00481919 0.00840259 -0.000190494 -0.000192713 0.0137127 -0.00478417 -0.00506982 -0.00224635 
-0.00152534 -0.0028661 -1.02112e-05 0.000111246 0.000163057 -0.0275434 5.54789e-05 -0.00317555 0.101372 
0.0143974 0.00921221 0.0111987 0.0892422 0.129645 0.121127 0.000477517 0.00134586 -0.00608494 
0.115255 0.112459 0.00177284 0.00159225 0.00275259 0.0160765 0.052283 0.042659 0.0419734 
-8.82816e-05 -0.000168322 -0.00567602 -0.00808369 0.0503648 0.0251332 0.0521722 0.0437205 -0.00324624 
0.0605177 0.111704 0.108199 0.11589 0.109204 0.000288648 0.00499266 0.00726467 0.0102562 
-0.00799986 -0.0189835 -0.00440931 -0.00452634 0.00593655 -0.00267606 0.0173472 -0.00502106 -0.000740595 
-0.00576168 -0.00331048 -0.00507909 -0.00691909 0.000544027 0.00408993 0.00291259 -0.00195462 -0.00372274 
-0.00536517 0.000644889 0.00114152 0.0009755 0.00972962 0.00573476 -0.00275383 -0.00312999 -0.00159337 
-0.00221238 -0.00153391 0.112188 0.11467 0.112246 0.108046 -0.000737575 -0.000776092 -0.00386291 
0.00411714 0.00484527 -0.000744971 -0.00128292 -0.000797645 -0.0122722 -0.00573518 3.54282e-05 0.010286 
0.00087872 0.033192 0.0521079 0.0220731 0.031807 -0.00289408 -0.000363149 -0.000214194 -0.00421715 
-0.0046771 0.000343976 0.000394347 1.23248e-05 -7.87503e-05 -9.08009e-05 0.000424242 0.00349391 -0.00164136 
0.00177958 0.00345836 0.000208244 -0.00343631 -0.00240696 0.000807779 0.020954 0.0114076 -0.000245823 
-0.000546536 0.000717727 0.100983 0.0999685 0.0943902 0.102843 0.0943909 -0.00218519 -0.00197526 
-0.00163406 0.0736037 -0.0203096 -0.0185793 -0.0198567 -0.0223706 -0.017607 -0.0191869 -0.00458377 
0.00415181 -0.00274158 -0.00130624 -0.00347593 -0.00266096 -0.00211592 -0.00115859 -0.00418352 0.0161338 
0.036414 -0.00434976 0.000881065 -0.00920263 -0.0169028 -0.0141314 0.0141978 0.0298141 -0.00221562 
-0.0115201 0.000558174 0.00139922 -0.0386444 -0.0031462 -0.00246255 -0.00326749 -0.00289963 0.000215576 
0.00174678 0.0423231 0.0033467 0.0232402 0.0109892 -0.0216375 -0.0197371 0.0240292 0.0351644 
0.00036314 0.0494344 -0.00136472 0.0317465 0.00572009 -0.00260587 5.63507e-05 -0.00240506 -0.000961255 
-0.000719032 -0.00903368 -0.0270655 -0.00129792 -0.00359769 -0.00292187 -0.00286978 0.00527133 0.00518441 
0.0129697 0.002346 0.0452719 0.0382288 0.0364205 0.0312012 -2.80256e-05 -8.12735e-05 0.0416475 
0.0498027 0.0419384 0.0496824 -0.00810588 -0.00854745 -0.00703412 -0.00140786 -0.00102355 -0.000425897 
8.75718e-05 0.0781656 0.00681653 0.0346751 0.058406 -0.0169062 -0.0362683 -0.0355636 -0.00969422 
-0.00908109 0.000157834 -0.0121009 -0.0113442 -0.00823425 0.000171775 0.000196418 0.000148849 2.21635e-05 
4.12149e-05 -0.00228346 -0.0164492 -0.0142534 0.000661883 0.000720103 0.000564666 0.000178313 0.000154953 
0.00278709 0.00448587 0.0135252 0.00482544 0.00823353 0.00497557 -0.00628567 -0.00435327 -0.00413381 
-0.0043056 0.00342217 -0.00417836 0.00154009 -0.000120326 0.0142194 0.0123723 -0.00178408 -0.00146909 
-0.00338608 -0.00340839 -0.00301386 -0.00308793 0.0056274 0.00497859 0.0100163 0.0040263 0.00376551 
0.00139384 0.0406751 -0.00248677 -0.000672903 -0.00235926 -0.00142068 -0.00154674 -0.00363902 -0.00145925 
0.000148804 0.00125212 1.56779e-05 0.000201444 -0.000101398 -0.000166272 -0.000485063 -0.00133304 -0.00116951 
0.000374615 -0.000800283 -0.00248083 -0.0149789 -0.00303406 -0.00335233 -0.00268383 -0.00244825 -0.0246036 
-0.0281914 -0.0249915 -0.0082906 -0.00762927 -0.0083211 -0.017294 -0.0292718 0.109439 0.0557727 
0.0480117 0.047876 0.101954 0.0989756 0.0932022 -0.00687471 -0.0019078 -0.00881143 -0.00910241 
0.000437253 -0.00352923 -0.00735606 -0.00889642 -0.00662382 -0.00303134 -0.000212886 0.00138591 -0.00748662 
-0.00783652 -0.00166078 0.0151837 0.0186857 -0.00134434 -0.00102917 -0.00329934 -0.00292021 -0.00958671 
-0.0108255 5.89307e-06 0.000144808 0.000138162 0.000454914 0.000119003 5.7874e-05 7.34577e-05 0.0587775 
0.0679126 0.0213984 0.0304005 0.0326346 0.014764 0.0177863 0.0152806 0.0403269 0.0354471 
0.0100684 0.0120339 -0.00643941 -0.00478456 -0.00647296 0.0020261 0.007788 0.0015583 -0.00182985 
-0.00165776 0.00114021 -0.00128063 -0.00411918 -0.000327424 -0.00769119 -0.00834703 0.0382275 0.0662003 
0.0936032 0.00258423 0.00405348 -0.00481487 -0.0034237 -0.0166952 -0.00467007 -0.00457429 -0.00153223 
-0.0225943 0.00152547 0.001797 -0.000406821 0.0213477 -0.000245887 -0.00368871 0.00108194 -0.000846259 
-0.000846051 2.00265e-05 -6.38746e-05 5.1706e-05 -0.0041864 -0.00289804 -0.00451759 -0.00423808 -0.00997787 
-0.000611425 0.0204268 0.0174542 0.0143979 0.0117041 0.0166468 -0.00494628 0.0236788 0.0220991 
0.0843389 0.013607 -4.39675e-05 -0.000299695 -0.000534152 -0.066827 -0.000469873 0.0779603 -0.0236452 
-0.00551938 0.0641478 -0.00545343 -0.00520413 -0.0050682 -0.00930719 -0.0106094 -0.000512194 -0.000417584 
0.071714 0.0122547 0.0128498 -0.00959007 -0.00890135 -0.00121164 -0.00524897 0.0941689 0.0861999 
-0.000395198 0.0282814 0.0360633 -0.0022997 0.0110207 -0.0138811 0.00759367 -0.00321615 -0.0182721 
-0.017645 -0.0200253 0.000167225 0.0100883 0.00094494 -0.00467023 -0.00318362 -0.000437659 -0.000502048 
0.0242398 0.0121131 -3.11572e-05 -9.68777e-05 -0.015351 1.13658e-05 0.000420123 -0.0267868 -0.0272561 
-0.0210174 0.0570269 0.0572028 -0.00247413 -0.0037098 0.000871871 -0.0026908 -0.000233023 0.00016678 
-0.000445419 -0.00021116 -0.0106723 0.0274228 0.0227297 -3.17262e-05 -0.00949876 -0.000108127 -0.014774 
-0.001368 -0.000460533 -0.00611451 -0.000210687 0.00226741 0.00285959 0.00336184 -0.0165597 -0.0172743 
-0.0185702 -0.010738 0.00294692 0.110728 0.0445286 0.0148082 0.0142403 0.0253785 -0.0045861 
-0.00454734 -0.00894643 -0.0083505 0.0941748 -0.0203178 0.126785 0.0637199 -0.00271856 0.0242795 
0.0180822 -0.00161395 -0.000666739 0.0208916 -0.00122778 -0.00453543 -0.00496742 0.00863092 0.0152957 
0.00565676 0.0259421 0.0373779 -0.00425571 0.00169562 -0.00105317 0.111138 0.114492 0.111098 
0.0940535 -0.00317955 -0.00289953 -0.0031728 8.3492e-05 -0.00445861 0.124309 0.0358487 0.111773 
-0.00217443 0.0593816 -0.000127949 -0.00786586 -0.00358106 0.0711206 0.0429408 0.0560963 0.063507 
0.0137665 0.0104191 0.0172237 0.00756292 0.000185281 1.15625e-05 0.000851273 -0.000447214 -0.000406414 
0.000439171 0.0600752 -0.000213792 -0.000150515 -0.000227832 -0.00044352 -0.00391751 -0.0338408 0.0204778 
0.00795738 -0.071984 0.00347178 0.00182523 -0.00104955 0.0218028 0.0147659 0.000748655 -0.00244379 
-0.00073613 -0.0205461 -0.0167886 -0.000788075 -0.00400115 -0.00530454 -0.0090014 -0.0023174 -0.000473742 
-0.00542981 -0.00519134 0.00287761 0.00413824 0.00499692 0.000406588 0.00072553 -0.00102249 0.000115394 
0.000112005 0.0644229 -0.000102167 0.098174 0.096687 -0.000873943 0.0030026 0.00122541 0.00281725 
-0.0116164 -0.0103363 -0.00104133 0.101101 0.0013015 0.0432748 -0.0228494 0.112796 0.0292363 
0.0792722 -0.020513 0.0859048 0.0191715 0.0103059 0.0108775 -0.0263767 -0.0107233 -0.0115813 
-0.00330671 -0.00333809 -0.00366135 0.00502726 0.00916757 -0.00135806 0.0646422 -0.00175799 -0.00214046 
0.0904227 -0.00112436 -0.0183056 -0.0413268 -0.0356532 0.000458036 0.0215712 0.0899716 0.007788 
0.00884305 0.00662755 0.00270568 0.00572216 -0.011542 0.0881827 0.00233318 0.0105845 -0.00721165 
0.00417679 -0.00291377 -0.0027533 -0.00464176 -0.0126025 -0.0131699 -0.00414388 -0.0031625 -0.00106317 
-0.00167133 0.0364809 0.000163858 -0.000219651 0.0145974 0.0574994 -0.0143057 0.0538002 0.0274029 
0.030885 0.000184637 0.025278 -0.00825193 -0.00363762 0.0220193 -0.0132074 0.00542064 0.0565623 
-0.0102513 -0.00628709 -0.0115163 0.0578868 -0.00181965 0.0581449 0.00971541 0.0111486 -0.00833692 
0.0173606 -0.0104522 0.0133977 -0.00672912 -0.00440413 -0.00532117 0.0171111 0.0132888 0.00206834 
-0.00738103 0.0579449 -0.0058968 0.0784687 0.086923 -0.000276 0.000713271 0.00737777 -0.00434455 
-0.0054246 -0.000846226 -0.00178787 0.0621258 0.0554484 0.060369 0.0143343 0.00692044 -0.00114779 
0.00814523 0.0147348 0.011182 0.0922342 0.0684375 -0.00593585 0.0112737 -0.0033766 0.0671713 
-0.00962223 0.0545518 0.0208378 0.0453805 0.0032115 -0.00657729 0.00493096 0.0137716 -0.00518478 
0.00822725 0.00223438 -0.000275574 -0.000388668 -0.00509875 0.0198197 -0.000923654 -0.00828344 -0.0412348 
-0.000601501 -0.0057165 -0.00744992 -0.0265969 0.0858613 0.00155735 0.00515192 0.000704473 -0.00471334 
0.040997 0.0324951 -0.000466477 0.0347084 -0.00489385 0.00044709 0.0125589 -0.00984061 -5.98124e-05 
-0.000225737 -0.00858899 -0.00441273 0.0285611 0.0310279 0.0452604 0.0369561 0.0172081 0.00888856 
0.0301729 0.0356936 -0.0137023 -0.00677913 -0.00686425 -0.00397502 -0.00597294 0.014509 0.000170502 
0.0519353 0.0540792 0.0448761 -0.0251483 -0.0246873 0.0309504 3.71628e-05 -0.023678 -0.0216144 
-0.00402661 0.11332 -0.000226294 0.0748775 -0.00651347 -0.0290175 -0.00684064 0.0171129 -0.00456909 
6.25377e-05 0.00137352 -0.00302642 -0.000140006 -0.000325341 -0.00165331 0.0895033 0.000213047 -0.000222171 
0.00285782 -0.00294966 -7.61094e-05 0.00460645 -0.00251552 0.00443976 -1.62491e-05 -6.26947e-05 -0.00016469 
0.0711699 -0.00055401 -0.00536101 0.000676874 -0.000586547 -0.00279609 -0.00669308 -0.00154561 -0.00325756 
0.0495942 -0.00499309 -0.00996745 -0.0111514 -0.000423443 -0.00969971 -0.00588412 -0.0413521 -0.0113244 
0.000115204 0.0871332 0.000785907 -5.7213e-05 0.0182694 -0.00595359 0.0867534 0.0412206 3.89496e-05 
-0.00511637 0.00504949 0.00486121 0.13666 0.0744915 0.0560655 0.0506939 -0.00467731 0.114591 
-0.0010561 -0.000776211 -0.00473479 0.013536 0.0111111 -0.00782158 0.00136584 0.0694916 
Stress%20xy%20component 1 8918 double
-0.22341 -0.249946 0.243447 0.221668 1.00182e-05 1.60978e-05 2.11306e-05 2.01145e-05 -0.104781 
-0.111977 -0.0634525 -0.0824147 -0.12811 -0.125419 -0.0658125 -0.0812034 -0.130964 -0.0921345 
-0.0721462 -0.0566881 -0.050731 -0.0420328 -0.0368377 -0.023166 -0.018567 -0.0115934 -0.007797 
0.00533916 0.0113172 0.0189399 0.0266322 0.0315985 0.038246 0.0472783 0.058107 0.0655764 
0.085604 0.126003 -0.122173 -0.0837221 -0.0739393 -0.0622759 -0.0521278 -0.0498964 -0.0461725 
-0.0366466 -0.0257315 -0.0159528 -0.0143354 -0.0134628 -0.0044975 0.00592412 0.0133262 0.0142984 
0.0165566 0.0203943 0.0328669 0.0454959 0.0494542 0.0532015 0.0575361 0.0710388 0.0842702 
0.116025 3.53535e-05 9.77693e-07 -3.16427e-05 -2.88083e-05 -3.57771e-05 -3.32836e-05 -1.23998e-05 3.76376e-06 
-5.50468e-06 8.63684e-06 2.27358e-05 2.94393e-05 3.50614e-05 3.13898e-05 2.15239e-05 2.34569e-05 1.07434e-05 
9.67111e-06 1.10149e-05 -1.50435e-06 -6.05356e-06 -8.53813e-06 -1.30059e-05 -1.26102e-05 -1.02732e-05 -8.16737e-06 
7.02678e-06 0.000823421 -0.00362897 -0.00163624 -0.000709083 -0.000384504 -0.000316662 -0.000362407 -0.000349141 
-0.000241256 -0.000191676 -0.000152981 -0.000162502 -0.0001237 -0.000155739 -0.000149785 -0.000160351 -0.000166888 
-0.000134382 -0.000141149 -0.000153134 -0.00015916 -0.000100853 -2.8761e-05 -3.05024e-05 -1.59711e-05 -1.01847e-05 
0.000181876 0.00029276 0.000287465 0.000316017 0.000343039 2.32175e-05 -0.000284465 -0.000244153 -0.000181276 
-0.000148547 -0.000133658 -0.000125226 -7.83342e-05 7.32436e-06 -8.90374e-06 -2.00291e-05 -1.47127e-06 1.5937e-05 
4.28324e-05 1.35888e-05 -5.18548e-06 -1.32064e-05 -2.0191e-05 -3.27301e-05 -7.87271e-05 -0.000135477 -0.000135027 
-6.58634e-05 0.000191948 0.00042398 0.000527681 0.000423122 0.000180358 0.000203933 0.00025173 0.000280196 
0.000858295 -0.00135288 -0.00173216 -0.0134912 -0.110473 -0.138557 -0.158534 -0.143568 -0.154819 
-0.191958 -0.16271 -0.161748 -0.11259 -0.146921 -0.155434 -0.0501071 -0.0353696 -0.0805507 
-0.13478 -0.128516 -0.158808 -0.115844 -0.16149 -0.157609 -0.151187 -0.173505 -0.124994 
-0.0719381 -0.116591 5.13219e-05 -2.6e-05 -2.80788e-05 -4.33423e-05 -4.78901e-05 -1.85032e-05 -7.66683e-06 
-9.37209e-06 1.2482e-05 3.44526e-05 2.79536e-05 2.94602e-05 2.07822e-05 -3.75474e-07 1.8305e-06 8.94889e-07 
-1.18009e-05 -2.22526e-05 -1.94792e-05 -2.01922e-05 -9.91038e-06 8.65411e-06 0.0173168 -0.00404017 -0.000574451 
-0.000348996 -0.000113961 -0.000198095 -8.98511e-05 -9.67389e-05 -0.000110349 -6.49301e-05 -9.62859e-05 -9.51341e-05 
-0.000107133 -8.38456e-05 -0.000113472 -9.24574e-05 -5.99418e-05 -2.94526e-05 -4.55502e-05 1.69812e-05 9.864e-05 
0.000162185 0.000289036 0.000352457 0.000207548 0.000145642 -5.93528e-05 -0.000170805 -0.00019299 -0.000148054 
-8.97873e-05 -7.03438e-05 -7.18668e-05 -3.33078e-05 -3.45802e-05 1.35816e-05 7.57865e-05 5.43686e-07 -8.0235e-06 
-1.34111e-05 -1.99298e-05 -2.15315e-05 -5.82149e-05 -0.000111786 -0.000178031 -0.000139805 9.70035e-05 0.000353645 
0.000528951 0.000549483 0.000452002 0.000387359 0.000477102 0.000698649 0.00131623 0.00150633 0.00357177 
0.00806504 0.00552913 -0.0379741 -0.066721 -0.0833864 -0.138858 -0.149741 -0.111291 -0.160495 
-0.162491 -0.19303 -0.154925 -0.103345 -0.125996 -0.0469258 -0.0830167 -0.13892 -0.144687 
-0.203028 -0.161302 -0.195376 -0.163736 -0.160099 -0.154318 -0.0977982 -0.131902 -0.0879363 
-0.0466699 -0.000208888 -0.000573553 -0.000836949 -0.000980684 -0.000931295 -0.000753593 -0.000506595 -0.000198136 
0.000136655 0.000404157 0.000637623 0.000794199 0.000871308 0.00086596 0.000793685 0.000673884 0.000538798 
0.000370362 0.000208608 7.64141e-05 -4.83804e-05 -0.000137692 -0.000191443 -0.000207884 -0.000190985 -0.00013288 
-3.50233e-05 0.0671158 0.0254554 0.0142957 0.0081262 0.00453459 0.00235024 0.000879384 -0.000108454 
-0.00080294 -0.00131898 -0.00173975 -0.00203885 -0.00226285 -0.00247275 -0.0025713 -0.00262494 -0.00249272 
-0.00220679 -0.00188671 -0.0013439 -0.000816934 -0.000217111 0.000465579 0.00120738 0.00206433 0.00304492 
0.00389596 0.00437444 0.00410231 0.00272856 0.000528721 -0.00188219 -0.00374509 -0.00475095 -0.00492323 
-0.00456927 -0.00393536 -0.003278 -0.00259306 -0.00199482 -0.00148456 -0.000999549 -0.000615968 -0.000264156 
-0.000280855 -0.00038498 -0.000498869 -0.000614135 -0.000735728 0.000923822 0.00323186 0.00568717 0.00732648 
0.00704159 0.00521195 0.00268533 0.000171271 -0.0033011 -0.00963381 -0.0351694 -0.0643646 -0.096185 
-0.0808647 -0.0707348 -0.0626259 -0.052197 -0.0424528 -0.0339158 -0.0301882 -0.0268118 -0.0202901 
-0.0103996 -0.00293232 -0.000501719 0.00292723 0.00890215 0.0180518 0.0269607 0.0320148 0.0341143 
0.0394157 0.0493322 0.0595999 0.0706454 0.0822848 0.0986344 0.0193948 0.0422918 0.049579 
0.050061 0.0487204 0.0467113 0.044181 0.0416575 0.0390834 0.0357374 0.0297562 0.0142894 
-0.0215284 -0.118203 -0.0191053 0.00963956 0.0290522 0.0342456 0.0366907 0.0389316 0.0410969 
0.043417 0.045533 0.0480059 0.0493488 0.0487207 0.0395356 0.020933 -0.0947403 -0.000157669 
-0.000361696 -0.0241979 0.0331601 -0.0182204 0.0260542 -0.0105536 -0.0100016 -0.00132715 -0.00166849 
-0.00172171 -0.0015412 -0.00114876 -0.000615144 -4.50817e-05 0.000504561 0.000952397 0.00129382 0.00149318 
0.00157103 0.00149969 0.00135078 0.00110751 0.000856291 0.000571739 0.000319248 8.18256e-05 -0.000124435 
-0.000252785 -0.000319459 -0.00032423 -0.000477443 0.0368943 0.0243176 0.0153802 0.0099113 0.00548363 
0.00263673 0.000696621 -0.000658029 -0.00167577 -0.00249361 -0.0030693 -0.00351207 -0.00380643 -0.00391329 
-0.00385949 -0.00355279 -0.00300198 -0.0022077 -0.00127402 -0.000293459 0.00080757 0.00184955 0.00303106 
0.00429854 0.00557907 0.0064906 0.00643354 0.00492154 0.00168969 -0.00247341 -0.00597149 -0.0080272 
-0.00867762 -0.00832152 -0.00744445 -0.0063664 -0.0051892 -0.0040553 -0.00311846 -0.00225103 -0.00151607 
-0.000879752 0.0659251 -0.000588469 -0.000699991 -0.000729231 0.00243113 -0.041669 0.00710267 0.00999778 
0.0106552 0.00835992 0.00430489 -0.000245393 -0.00536196 -0.0123241 0.00106187 0.0231914 -0.0265828 
-0.0689032 -0.0596358 -0.0523391 -0.0467433 -0.0402251 -0.0332274 -0.0258703 -0.0191275 -0.0145578 
-0.00947516 -0.00342405 0.00283841 0.00921689 0.0137002 0.0194838 0.0247931 0.0315121 0.038325 
0.0448259 0.0515151 0.0579572 0.0660366 0.0261454 0.0180846 0.0347787 0.0355983 0.0354122 
0.0336365 0.0305587 0.0266672 0.0206209 0.0109326 0.000207886 0.00276667 -0.000324401 0.0243084 
0.00836141 0.0187343 0.0249694 0.0280328 0.0306135 0.0327051 0.0338464 0.0344205 0.0333043 
0.02969 0.0217822 0.0164783 -0.000454457 -0.0232215 0.00360114 -0.0705301 0.0321199 -0.00121686 
-0.0345816 -0.00516951 -0.0513069 -0.00859177 0.0188494 -0.0373946 -0.035594 0.0120347 -0.00247272 
-0.00236599 -0.00192953 -0.00124989 -0.000427712 0.000413589 0.00109491 0.00164469 0.00201969 0.00222361 
0.00223122 0.00205298 0.0017718 0.00139968 0.00103769 0.000681512 0.000339529 1.33147e-05 -0.000218173 
-0.000348721 -0.00224648 0.00746536 -0.0017259 0.0294829 0.0200282 0.0132807 0.00786677 0.00417344 
0.00175587 -0.000109088 -0.00146122 -0.00250027 -0.00328653 -0.003887 -0.00422362 -0.00429944 -0.00404557 
-0.00343809 -0.00242716 -0.00121563 8.07473e-05 0.00137681 0.0025992 0.00380948 0.00487181 0.00595962 
0.00693423 0.00742055 0.00648943 0.00351576 -0.00246484 -0.00867112 -0.0112853 -0.0119164 -0.0115991 
-0.0104196 -0.00891118 -0.00731102 -0.00579555 -0.00457518 -0.00347364 -0.00252528 0.00415604 0.00595083 
-0.000503268 -0.00051387 -0.000473435 0.0459653 0.0190287 0.0121879 0.00117503 -0.00124428 -0.00610747 
-0.0117792 -0.019594 0.0153846 0.0194071 -0.0258543 0.0104235 -0.0506742 -0.0447262 -0.0392871 
-0.0338042 -0.0276533 -0.0216144 -0.0162886 -0.0111193 -0.00580384 -0.000325591 0.00532841 0.0107368 
0.0158417 0.0212055 0.0267679 0.0323962 0.0377232 0.0433105 0.048452 0.0531706 0.0266965 
0.0249131 0.0233901 0.0209561 0.017444 0.0116639 0.00753293 0.00692962 0.0171933 -0.00454354 
0.0141979 0.017922 0.0208143 0.0227202 0.0236051 0.0239176 0.0226333 0.0197117 0.0147801 
0.0119941 -0.0195469 0.0222548 0.0102366 0.00495523 0.0259667 -0.0161625 -0.00552355 0.00961403 
-0.000435399 0.0171626 0.0069489 0.00357934 0.0116512 -0.00139163 -0.0280196 0.0157507 0.0100185 
0.000521652 0.00531309 -0.00298112 -0.00217722 -0.00105608 0.000117665 0.00121327 0.00197643 0.0025595 
0.0028824 0.00295198 0.00282921 0.00247321 0.00203553 0.00154118 0.00115886 0.000694815 0.000250373 
-8.8217e-05 -0.000360439 -0.00816695 3.93591e-05 0.00973368 0.0300888 0.0215529 0.0148018 0.00929091 
0.00540545 0.00274464 0.000566566 -0.000493812 -0.00172227 -0.00268971 -0.00338322 -0.00373201 -0.00363531 
-0.0030539 -0.00192626 -0.000391213 0.00131944 0.00283602 0.00402861 0.00521185 0.00599435 0.00615964 
0.00624357 -0.0154939 -0.0147666 -0.0127919 -0.0105182 -0.00845907 -0.00675797 -0.0054253 -0.00419717 
0.0137178 0.0415531 0.0138195 0.0110516 0.0155713 0.00340938 0.00787564 -0.0104975 -0.0174009 
0.0116985 -0.000251179 0.0119343 0.000474576 -0.036625 -0.0317001 -0.0267711 -0.0223669 -0.0176101 
-0.012551 -0.0074074 -0.00239373 0.00220985 0.00679824 0.0118158 0.0167826 0.0217298 0.0263125 
0.0304561 0.0346484 0.0383554 0.0142936 0.0122998 0.0101805 0.0115849 0.0122374 -0.0114631 
-0.0159443 0.000203014 0.00991175 0.00886819 0.0128566 0.0137555 0.0148626 0.0152384 0.0146475 
0.0130084 0.00978563 -0.00329545 -0.00316339 -0.017534 0.00906234 0.0148758 -0.00812085 0.0140562 
0.00652448 0.0186048 0.00609322 0.0172306 0.0131308 0.00949987 -0.0160339 0.00811238 -0.00528411 
0.0086164 0.0073671 0.00210125 0.0157374 0.00494058 -0.0284531 -0.00275584 0.00830176 -0.00349365 
-0.00215328 -0.000668166 0.00115326 0.00246334 0.00303685 0.0036783 0.00380852 0.00366551 0.00327953 
0.00267209 0.00190943 0.00115044 0.000378952 0.00902698 0.00413423 0.0212216 0.0147921 0.00973298 
0.00608072 0.00300182 0.00127743 -0.000503016 -0.00112957 -0.00225595 -0.00216862 -0.00175626 -0.000742246 
0.00109937 0.00322261 0.0063937 -0.0193662 -0.0145659 -0.0110263 -0.0079992 -0.00616539 -0.00514927 
0.0065709 0.0110721 -0.0100101 -0.0113348 -0.00880817 0.00119506 0.0100452 0.0106226 -0.0237908 
-0.0201046 -0.0176822 -0.0138759 -0.00915684 -0.00341647 0.00198554 0.00695206 0.0122037 0.016868 
0.0205742 0.0232956 0.0263384 0.0289238 0.0103635 0.00850718 -0.00680313 0.00578587 0.00191617 
0.00685908 0.00824646 -0.00422201 0.00331864 0.00749759 0.0094549 0.0115282 -0.0104621 0.00724833 
0.00977147 0.01042 -0.013201 0.00455141 0.00282637 0.00422875 0.00640854 0.0118375 0.00903835 
0.00867366 0.00577677 0.00548233 -7.58931e-05 0.00452678 0.00512625 0.00465262 0.00434618 0.00353431 
0.00263937 0.013705 0.00961311 0.00720234 0.0087357 0.00507698 0.00304166 0.000570478 -0.00358309 
-0.00321236 -0.0062335 -0.00282845 0.0107457 0.00128148 0.00801517 0.0126181 0.0155425 0.0162491 
0.0193855 0.00296766 0.00718731 0.00193377 0.000679911 0.0012337 0.00795902 0.00316732 0.00593415 
0.00480535 0.00865809 0.00289112 0.00745557 0.011225 0.011367 0.00565216 -0.000360932 -0.000774396 
-0.00100795 -0.00113489 -0.00092727 -0.00050048 -2.19127e-06 0.000423437 0.000771235 0.000989427 0.00105461 
0.000985099 0.000808173 0.000589137 0.000341908 0.000127276 -7.17054e-05 -0.000203049 -0.000262956 -0.00024186 
-0.000127609 0.0795646 0.0286056 0.0128044 0.00623274 0.00304247 0.00109206 -0.000179417 -0.00102491 
-0.00168062 -0.00210044 -0.00250189 -0.00275268 -0.00280321 -0.00264337 -0.00226513 -0.00169329 -0.000888124 
4.38751e-05 0.00102897 0.00208268 0.00339259 0.00443233 0.00484643 0.00385175 0.00118758 -0.00221158 
-0.00447991 -0.00539015 -0.00537777 -0.00463241 -0.00373961 -0.00290188 -0.00211474 -0.00151473 -0.000923581 
-0.000135624 -0.000204264 -0.000340316 -0.000435475 -0.000486943 -0.000706771 9.71323e-05 0.00198316 0.00468806 
0.00728804 0.0080463 0.00677127 0.00447817 0.00193996 -0.000683457 -0.00425927 -0.0114717 -0.0343535 
-0.0630319 -0.0854341 -0.0791121 -0.0663001 -0.0555143 -0.0474391 -0.0394341 -0.0300219 -0.0206797 
-0.0149702 -0.00810787 0.000220835 0.00775983 0.0139065 0.021155 0.0271547 0.0366372 0.0448764 
0.0533722 0.0623116 0.0762073 0.0139877 0.0390851 0.049155 0.0501374 0.0489481 0.0470534 
0.0455439 0.0433273 0.0411045 0.0385459 0.0348036 0.0289447 0.0118445 -0.0183458 -0.0859593 
-0.0221058 0.0118139 0.0243965 0.0333489 0.036629 0.0391272 0.0414216 0.0435454 0.0457184 
0.0480753 0.0496664 0.0457505 0.0378032 0.0136347 -0.0961414 -0.000774328 -0.0213991 0.0209874 
0.0399013 -0.00570943 -0.00498211 -0.00159741 -0.0014367 -0.00191216 -0.00131732 -0.000441396 0.000442246 
0.00113912 0.00162908 0.00183384 0.00184354 0.00163315 0.00128224 0.000892538 0.000462815 0.000116231 
-0.000165754 -0.000338094 -0.000405645 -0.000344071 0.00529483 0.0188941 0.03342 0.0586293 0.0107753 
0.00593373 0.00270916 0.000489458 -0.00113888 -0.00229087 -0.00316835 -0.00376082 -0.00405765 -0.00396612 
-0.00346258 -0.00256526 -0.00135729 9.80743e-05 0.00167726 0.00309418 0.00451994 0.00587268 0.00690665 
0.00644118 0.00289449 -0.00256833 -0.00701659 -0.00907141 -0.00945702 -0.00857428 -0.00713081 -0.00556943 
-0.00428332 -0.00318058 -0.00222475 -0.0596813 -0.000524533 -0.000549276 -0.00065514 -0.034636 0.0021537 
-0.0344596 0.000242198 0.00917092 0.011334 0.0101952 0.0067308 0.00247359 -0.00200537 -0.00782887 
-0.016949 0.0270531 -0.0320129 -0.054179 -0.0472169 -0.0400385 -0.0322799 -0.0253395 -0.0180313 
-0.0105177 -0.00318089 0.00282151 0.0103449 0.0174119 0.0240178 0.0309206 0.0382516 0.0458101 
0.0542762 0.063311 0.0253041 0.00404494 -0.0338535 0.0248041 0.0311109 0.0348626 0.0362775 
0.0360209 0.034939 0.0328839 0.0297502 0.0256355 0.0194131 0.00939415 0.00154868 0.000659243 
-0.0169333 -0.000915069 0.022941 0.0265328 0.0290421 0.0308989 0.0323028 0.0334103 0.0326471 
0.028844 0.0218353 0.0155927 -0.00197028 0.0177359 0.0078847 0.0178322 -0.035185 -0.000584139 
-0.00160406 0.0105617 0.0180158 -0.000720721 0.000191645 0.000122589 -0.00237848 0.00123161 0.00205807 
0.00250483 0.00265071 0.00247221 0.00204825 0.00153589 0.000969446 0.000432001 7.27379e-06 -0.000268211 
-0.00044832 0.0115146 0.00485489 -0.00242922 0.00543505 0.0200255 0.0459319 0.00410507 0.00136343 
-0.000722187 -0.00222955 -0.00329364 -0.00395103 -0.00412929 -0.00376542 -0.00269632 -0.0011064 0.000772214 
0.00263878 0.00435773 0.00538557 0.00609246 0.00674718 0.00726216 0.00484372 -0.00294113 -0.0100826 
-0.0129603 -0.0132606 -0.0118533 -0.00976961 -0.00773589 -0.0059652 -0.00456211 0.00830743 -0.000506082 
-0.0177769 0.00849773 -0.00343523 0.00139053 0.0074557 -0.00836455 -0.0231584 -0.00124891 -0.0392087 
-0.0265031 -0.019984 -0.0136029 -0.00669615 -0.000105784 0.00653042 0.0129348 0.0193263 0.0251361 
0.0312343 0.0374744 0.0434883 -0.0401955 0.00888531 -0.0052891 0.0219984 0.0246588 0.0260768 
0.0262775 0.0253243 0.0232438 0.0201334 0.0163771 0.0114642 0.00762313 0.00830143 0.018976 
0.0164063 0.0212343 0.0222108 0.0214285 0.0188818 0.014959 0.0125257 0.0179364 0.0117659 
0.0308121 0.0165658 0.0142375 -0.0332241 -0.0112836 0.0182359 0.0199412 -0.00297843 -8.45568e-05 
0.00223363 0.00933486 -0.0033875 -0.0125562 -0.0153856 0.0192621 0.000803079 -0.0159333 -0.0273055 
0.00391426 0.0165673 0.00823091 0.0495095 0.00858047 0.00530182 0.01592 0.00493171 0.0129375 
0.012582 0.0149869 0.00115042 0.00352126 0.00338834 0.00290831 0.00228282 0.00157211 0.000831602 
0.000223555 -0.000235943 0.00506844 0.0100725 0.000129477 0.0024055 0.005443 -0.00148912 -0.00257983 
-0.00310671 -0.0030694 -0.00213748 -0.000148085 0.00254932 0.00500239 0.00667015 0.0082947 -0.0202072 
-0.0172447 -0.0149304 -0.0111569 -0.00843667 -0.00658715 -0.0052188 -0.0207633 0.00929859 -0.0153836 
0.00243249 0.0102222 -0.00741195 0.0166637 -0.00186985 -0.00880867 -0.000239559 0.013191 -0.00926815 
-0.0104685 -0.0206897 -0.00334165 0.0029129 0.00885017 0.0145645 0.0194861 0.0241594 0.0286219 
0.0328758 0.0116173 -0.00179165 -0.0315592 0.0171645 0.0178672 0.0183687 0.0182242 0.0158852 
0.0132664 0.0119673 0.0101137 0.0105481 0.0125344 0.0136781 0.0101888 0.00890245 0.00781468 
0.0115847 0.0117179 0.00316637 0.00736437 -0.000643097 0.0376213 0.00299963 0.0250649 0.00122313 
0.00680884 0.010219 -0.0112838 -0.00410372 0.015594 0.0118317 0.0125629 0.00223782 -0.0216039 
-0.00244428 0.0127674 0.0111675 -0.0269817 0.00171727 -0.00371346 0.00686118 0.0132073 -0.0132514 
0.0101121 0.00481819 0.00225475 0.00132181 -5.41056e-05 0.00348136 0.00687452 0.00931252 0.00979518 
0.00137294 0.00642993 -0.000842285 -0.00116981 -0.000838009 0.00114992 0.00544035 -0.0101497 -0.00711439 
-0.00528745 -0.00442584 0.0112448 0.00272396 -0.00571387 0.0102481 -0.0108522 -0.0098118 -0.0140772 
0.00997456 -0.000591776 -0.0145276 0.0100313 0.00507829 0.0100814 0.0145683 0.0176589 0.02021 
0.0217452 0.000264735 -0.00812247 0.00322289 0.00390083 0.0118876 0.0135711 0.0130071 0.0108781 
-0.00976515 0.00579882 0.00567618 0.000615392 0.00528344 0.00683749 0.00064011 0.0080653 0.0116362 
0.0143596 0.00712356 0.00310147 -0.00195454 0.00440016 0.00546509 0.0117989 0.00597363 0.00903655 
-0.00319396 0.00404895 0.0101163 0.00199694 0.00257519 0.00615233 0.00634085 0.00533194 0.0101888 
0.010435 0.0125373 0.0139946 0.0149346 0.00468305 0.00864296 0.00225911 0.00259158 0.00695117 
-0.0027529 0.00202323 0.00197675 0.00288882 0.00674337 -0.0050917 -0.00822087 -0.00169171 0.00883362 
0.00597258 0.00643002 0.00508767 0.00828587 0.00536315 0.00199068 0.00841358 -0.248475 0.244288 
-0.195299 -0.104053 -0.0812025 -0.0653297 -0.0557532 -0.0459182 -0.0372695 -0.0303302 -0.0235221 
-0.0152845 -0.0072785 -0.00120334 0.00623866 0.0154246 0.0235413 0.0324641 0.0335488 0.0418887 
0.0524755 0.0642925 0.0751079 0.100834 0.176619 -0.177478 -0.0931595 -0.0783883 -0.0673109 
-0.0533497 -0.0514586 -0.0482322 -0.0424928 -0.0304719 -0.0179605 -0.0145302 -0.0135429 -0.0113661 
-0.000167369 0.0115355 0.013697 0.0152023 0.0170873 0.0245269 0.0407049 0.048034 0.0511602 
0.0549746 0.0618773 0.0773449 0.0925543 0.18246 3.76813e-05 1.92347e-05 -2.50703e-05 -3.68524e-05 
-4.04113e-05 -3.6997e-05 -1.97898e-05 -5.90125e-06 -2.63775e-06 1.00278e-06 1.51868e-05 2.73511e-05 3.41958e-05 
3.86072e-05 3.04626e-05 2.18532e-05 1.64708e-05 1.10089e-05 1.07361e-05 5.5274e-06 -3.54457e-06 -7.7845e-06 
-1.27886e-05 -1.56206e-05 -1.2932e-05 -9.19551e-06 -1.01497e-06 1.03157e-05 0.119442 -0.00117618 -0.00187464 
-0.00146335 -0.000617538 -0.0003907 -0.000333282 -0.000349383 -0.000326106 -0.000242578 -0.000186692 -0.00014537 
-0.000139059 -0.000148758 -0.000172218 -0.000170206 -0.000153557 -0.000141068 -0.000151809 -0.000166707 -0.000167602 
-0.00013273 -5.05128e-05 -3.55546e-05 -2.35574e-05 -4.31499e-06 5.9118e-05 0.000238805 0.000330877 0.000366833 
0.000392605 0.000228959 -0.000178424 -0.000274674 -0.000241036 -0.000196874 -0.000166673 -0.000142616 -0.000100972 
-2.2248e-05 -9.64314e-06 -1.95767e-05 -1.6384e-05 1.0198e-05 4.38952e-05 2.71649e-05 1.18144e-05 2.36642e-06 
-1.22721e-05 -2.04348e-05 -2.96037e-05 -5.43216e-05 -0.000104024 -0.000139856 -9.75749e-05 6.19469e-05 0.000313952 
0.000479385 0.000471024 0.000305901 0.000160989 0.000189659 0.000188511 0.000319986 9.7815e-05 -0.00143248 
-0.00657646 -0.102694 -0.143756 -0.167655 -0.185424 -0.134483 -0.144957 -0.226369 -0.157281 
-0.157519 -0.154706 -0.145562 -0.194342 -0.09903 -0.122495 -0.16521 -0.119726 -0.0983328 
-0.123278 -0.141885 -0.15045 -0.152732 -0.157022 -0.154697 -0.149097 -0.215887 -0.127453 
-0.115246 -0.105806 -0.164873 -0.167924 3.06611e-05 1.66832e-05 -2.21361e-05 -4.12654e-05 -4.76361e-05 
-3.74881e-05 -2.21615e-05 -3.98643e-07 7.40773e-06 2.58623e-05 3.16469e-05 3.30946e-05 2.70391e-05 1.41894e-05 
5.70638e-06 -2.54684e-06 -8.47976e-06 -1.81624e-05 -2.06641e-05 -2.25715e-05 -1.72094e-05 -1.22445e-06 1.16203e-05 
0.105209 0.00220082 -0.00221335 -0.000575304 -0.0003592 -0.00021308 -0.000148157 -0.000122174 -0.000127704 
-0.000126893 -9.1548e-05 -0.00011289 -0.000120852 -0.000127509 -0.00012764 -0.000124098 -9.32498e-05 -5.90493e-05 
-7.16405e-05 -2.34096e-05 5.98877e-05 0.000179699 0.000270024 0.000376515 0.000348277 0.000133418 7.45365e-05 
-0.000146444 -0.000219715 -0.000200859 -0.000133108 -7.7003e-05 -9.99888e-05 -5.46247e-05 -2.70951e-05 -1.58604e-05 
4.77085e-05 4.16968e-05 5.87392e-06 -1.80185e-06 -1.09575e-05 -2.04578e-05 -2.6654e-05 -3.84196e-05 -8.85984e-05 
-0.000145041 -0.000156141 -2.0084e-05 0.00022983 0.000446144 0.000556416 0.000511881 0.000406128 0.00041112 
0.000574077 0.00101064 0.0014374 0.00256347 0.00519406 0.00328286 -0.118896 -0.0725937 -0.0933688 
-0.10983 -0.126071 -0.140127 -0.147983 -0.152476 -0.157159 -0.157539 -0.22675 -0.144191 
-0.13248 -0.155123 -0.142243 -0.146222 -0.136981 -0.160044 -0.136506 -0.213848 -0.156281 
-0.159284 -0.232183 -0.158322 -0.152856 -0.142914 -0.13018 -0.120023 -0.0920362 -0.0930646 
-0.169854 1.15079e-05 1.22026e-05 -0.0744332 -0.125792 -0.0669077 -0.12159 -0.192345 0.189407 
-0.128562 -0.0965353 -0.0871424 -0.0811073 -0.072917 -0.0674405 -0.0585705 -0.0533967 -0.0525095 
-0.0493631 -0.046733 -0.043674 -0.0421798 -0.0312865 -0.0232095 -0.0187424 -0.0180889 -0.0155203 
-0.0139862 -0.0114368 -0.0112738 -0.0072678 0.000200291 0.0108503 0.0113167 0.0137842 0.0157249 
0.0185616 0.020891 0.0238729 0.0262351 0.0386905 0.041248 0.0446772 0.0475212 0.0511807 
0.0547578 0.0585451 0.0612718 0.067036 0.0776261 0.0927096 0.121641 -0.0378906 0.00670965 
0.0329922 0.0848668 2.78485e-05 -7.94008e-05 -0.0001239 -0.00027105 -0.00030431 -0.000399924 -0.00042675 
-0.000435437 -0.000716244 -0.00050485 -0.000509321 -0.000923784 -0.00048065 -0.000477545 -0.000969202 -0.000401345 
-0.000376154 -0.000849021 -0.000276926 -0.00024928 -0.000632307 -0.000106311 -9.42163e-05 -0.000357765 6.2444e-05 
8.64496e-05 -3.07885e-05 0.000200295 0.000225536 0.000272336 0.00032166 0.00033824 0.000525166 0.000409365 
0.000412543 0.000721395 0.000451501 0.000451392 0.000839641 0.00044862 0.000446022 0.000877439 0.000409878 
0.000406994 0.000832527 0.00035436 0.000339999 0.000736295 0.000282908 0.000273127 0.000606575 0.000193451 
0.000185801 0.000456333 0.000111302 9.57273e-05 0.000288856 4.09733e-05 2.90321e-05 0.000141673 -2.20898e-05 
-3.09133e-05 1.24621e-05 -7.09718e-05 -7.48541e-05 -9.55915e-05 -0.000100633 -0.000102296 -0.000168238 -0.000109084 
-0.00010939 -0.000203986 -0.000101145 -9.68271e-05 -0.000201678 -7.20775e-05 -5.95285e-05 -0.000164487 -1.45009e-05 
-1.09484e-05 -1.31667e-05 -8.17044e-05 0.0744791 0.0366837 0.02568 0.0131908 0.0126319 0.0403532 
0.00647686 0.00656364 0.0197784 0.00378701 0.00361885 0.0109657 0.00211137 0.00191758 0.0061925 
0.00106252 0.000901786 0.00338431 0.000312714 0.000288962 0.00157186 -0.000165764 -0.000175115 0.000345214 
-0.000483442 -0.000509705 -0.00050331 -0.000738541 -0.000746563 -0.00109611 -0.000943988 -0.000978112 -0.00155862 
-0.0010979 -0.00109828 -0.00188464 -0.00120216 -0.00121185 -0.00215358 -0.00129858 -0.0013046 -0.00239424 
-0.00135723 -0.00136509 -0.00254893 -0.00138436 -0.00139134 -0.00261469 -0.00134554 -0.00131173 -0.0025553 
-0.00117405 -0.00116274 -0.00237695 -0.00101352 -0.000991 -0.00207754 -0.000749047 -0.000724614 -0.00164141 
-0.000483472 -0.000435055 -0.00109514 -0.000189834 -0.000121735 -0.000517573 0.000197553 0.000229486 0.000110409 
0.000571257 0.000615811 0.000827793 0.00101625 0.00105834 0.00163782 0.00151018 0.00165488 0.00256499 
0.00200365 0.00207872 0.00347083 0.00231342 0.00232496 0.00418663 0.00220309 0.00216305 0.00434726 
0.0015213 0.00140982 0.0035375 0.000453506 0.000179126 0.00172383 -0.000828212 -0.00107243 -0.000714373 
-0.0019337 -0.00198189 -0.00289465 -0.00246625 -0.00245514 -0.00432427 -0.00255433 -0.00252212 -0.0049037 
-0.00236414 -0.0023221 -0.00479951 -0.00204555 -0.00200337 -0.00428482 -0.00170418 -0.00166143 -0.00361381 
-0.00135545 -0.00128449 -0.00292474 -0.00101437 -0.000999651 -0.00228998 -0.000757168 -0.000734676 -0.00174031 
-0.000515668 -0.000483883 -0.00124325 -0.000319744 -0.000279579 -0.000809361 -0.000133677 -8.94434e-05 -0.000430086 
-0.000142558 -0.000151736 -0.00019747 -0.000206275 -0.000337095 -0.000256994 -0.000270545 -0.000443474 -0.000317119 
-0.000339865 -0.000559733 -0.000389311 -0.000399025 -0.000670513 0.000313326 0.000542017 0.00145498 0.0018548 
0.00201173 0.00280374 0.00314249 0.00448662 0.00377889 0.00390117 0.00661677 0.00380007 0.0036193 
0.00732977 0.00295028 0.00256856 0.0062141 0.00162072 0.00136576 0.00392648 0.000423776 0.000137742 
0.00144351 -0.00119631 -0.00162557 -0.00148098 -0.00417901 -0.00480484 -0.00624166 -0.017097 -0.01883 
-0.0302437 -0.0417312 -0.0481213 -0.0765352 -0.0974934 -0.0882314 -0.0820007 -0.0780583 -0.0862094 
-0.0725851 -0.0672098 -0.0755899 -0.0676942 -0.0582023 -0.0672685 -0.0564863 -0.0466118 -0.0581414 
-0.0486868 -0.0387982 -0.0471277 -0.038646 -0.0301835 -0.0368594 -0.0323119 -0.028279 -0.0326263 
-0.0313481 -0.0221149 -0.0286707 -0.0232727 -0.0138601 -0.0238283 -0.0159515 -0.00694998 -0.0152556 
-0.00731628 0.00151923 -0.0062056 -0.0021455 0.00140875 -0.00166814 -0.000907817 0.00703519 0.00127295 
0.00602627 0.0151988 0.00556952 0.0127456 0.0219423 0.0137906 0.0193726 0.0291365 0.0223324 
0.0262363 0.0362969 0.0294845 0.0282116 0.0396486 0.0324813 0.0369105 0.0468685 0.0369774 
0.0447494 0.0550796 0.0441862 0.0529318 0.0636364 0.0544477 0.0652787 0.0761127 0.0666322 
0.077121 0.0835583 0.0761354 0.0921814 0.10295 0.0904365 0.0471243 0.0458281 0.0562112 
0.0587376 0.0321509 0.0562208 0.0585629 0.0464731 0.0532048 0.0546951 0.0496704 0.049768 
0.0510266 0.0489702 0.0471396 0.0477368 0.0471294 0.0446297 0.0443322 0.0447726 0.0424246 
0.0419875 0.042397 0.0403903 0.0398936 0.0398038 0.0385723 0.0376926 0.0366582 0.035191 
0.0349822 0.0323087 0.022189 0.0270878 0.0224701 -0.039719 -0.000838595 -0.00438819 -0.103266 
-0.0876598 -0.0384545 -0.00513085 0.0181726 0.0239495 -0.00762171 0.0323213 0.0339115 0.0206197 
0.0365996 0.0367987 0.0321107 0.0379101 0.0377692 0.0351124 0.040117 0.0395492 0.0373972 
0.0415526 0.0419232 0.0392836 0.0442243 0.0444479 0.0417181 0.0468607 0.0470876 0.0440187 
0.0493907 0.0514721 0.0462411 0.0533619 0.0548962 0.0485843 0.0562796 0.059399 0.0495594 
0.0562542 0.0584048 0.0454336 0.0461019 0.046987 0.0297934 -0.0976399 -0.0779816 -6.22386e-05 
0.103701 -6.9569e-05 -8.64629e-05 -0.0850254 -0.000287721 -0.000193561 -0.0162854 -0.0107814 -0.0133506 
0.000191933 0.0221484 0.0386242 -0.0702008 -0.0323937 -0.00582688 0.0273072 -0.0434495 -0.051241 
-0.0266535 0.0276744 -0.0322203 -0.0521832 0.0128146 -0.00596213 -0.000222635 0.0945879 -0.000944667 
-0.00108797 -0.00124963 -0.00132328 -0.00151424 -0.00135133 -0.00132643 -0.00171196 -0.00124675 -0.00114158 
-0.00164001 -0.000970851 -0.000807996 -0.00135653 -0.000578444 -0.000392509 -0.000889528 -0.000142668 5.57541e-05 
-0.000328499 0.000299767 0.000472893 0.000230875 0.000667585 0.000809681 0.000737494 0.000959126 0.00105319 
0.00113273 0.00114362 0.00118881 0.00139895 0.00122489 0.001224 0.0015392 0.00118606 0.00114683 
0.00154182 0.00108031 0.00100893 0.0014305 0.000901835 0.000816147 0.0012318 0.000705385 0.000605988 
0.000983362 0.000480494 0.000383049 0.000715271 0.000274422 0.000188401 0.000442861 8.50441e-05 8.63122e-06 
0.000197449 -8.21372e-05 -0.000137021 -2.53207e-05 -0.000194409 -0.000226967 -0.000190586 -0.000257542 -0.000268729 
-0.000289572 -0.000266873 -0.000257453 -0.000326556 -0.000378005 -0.000428992 -0.000232173 0.032142 0.0249849 
0.0198926 0.0159813 0.0301676 0.012026 0.00979177 0.0195293 0.0074534 0.00593502 0.0125285 
0.00402823 0.00306585 0.00757863 0.00179289 0.00120819 0.00401598 0.000309276 -0.000107966 0.00161961 
-0.000727852 -0.00106477 -2.76493e-05 -0.00149999 -0.00177272 -0.0011815 -0.00209822 -0.00230432 -0.00210199 
-0.00256676 -0.0027085 -0.00278468 -0.0029144 -0.00302872 -0.00330076 -0.00316108 -0.00322685 -0.00369074 
-0.00326432 -0.00329668 -0.00387214 -0.00326064 -0.00317726 -0.00389764 -0.00306584 -0.00289772 -0.00371947 
-0.00265823 -0.00245528 -0.00329256 -0.00209182 -0.00179166 -0.00264087 -0.00137173 -0.00105888 -0.00175025 
-0.000610443 -0.000220294 -0.000783447 0.000255368 0.000656364 0.00025301 0.00112392 0.00155367 0.00132614 
0.00209968 0.00258427 0.00243134 0.00316488 0.00371285 0.00366559 0.00429478 0.004789 0.00495172 
0.005262 0.00548198 0.00606454 0.00546136 0.00526752 0.00651578 0.00453986 0.00379136 0.00581982 
0.00232489 0.0010749 0.00346367 -0.000749095 -0.00233172 -0.000318594 -0.00390757 -0.00492629 -0.00432512 
-0.00587027 -0.00638432 -0.0071002 -0.0067157 -0.00678675 -0.00842708 -0.00665076 -0.00644142 -0.00856689 
-0.0060519 -0.00570029 -0.00792652 -0.00521727 -0.00483409 -0.00691662 -0.00428824 -0.00386669 -0.00576515 
-0.00336072 -0.00301715 -0.00461344 -0.00258548 -0.0022973 -0.00358124 -0.00188983 -0.00161463 -0.00268915 
-0.00128339 -0.00104894 -0.00188319 -0.000763454 -0.000551391 -0.00119315 0.081181 0.0676846 0.0453361 
-0.000598204 -0.00048548 -0.000538423 -0.000607818 -0.00065512 -0.000651112 -0.000713237 -0.000725003 -0.000726857 
-0.00319198 -0.00581519 -0.0292002 -0.0633669 -0.0360873 0.00509733 0.00644717 0.00777021 0.00867849 
0.00865499 0.00896127 0.00872831 0.0105278 0.0077891 0.00663181 0.00489324 0.00332332 0.00637984 
0.00137502 -0.000201917 0.00204146 -0.00244926 -0.00461923 -0.00268169 -0.00771915 -0.0115097 -0.00859752 
0.000297235 0.00105563 0.0222802 0.0274414 -0.0069855 -0.0599917 -0.0354643 -0.074935 -0.0688731 
-0.0648621 -0.0584018 -0.0639235 -0.0511483 -0.0562833 -0.05596 -0.0473665 -0.0494045 -0.0492067 
-0.0391835 -0.0434633 -0.043261 -0.0372402 -0.0319631 -0.03731 -0.0276136 -0.0230252 -0.0295223 
-0.0168656 -0.0207962 -0.0223088 -0.0121125 -0.0173916 -0.0171075 -0.0084871 -0.0119098 -0.0118435 
-0.006664 -0.00232171 -0.00671665 0.00121699 0.00639712 -0.000214636 0.0120959 0.00770179 0.00613233 
0.0164099 0.0116181 0.011452 0.0216438 0.016991 0.0167203 0.0257763 0.0228117 0.0222399 
0.0299146 0.035136 0.028027 0.0415551 0.0392094 0.0349848 0.0483998 0.0440058 0.0415382 
0.0550181 0.0509721 0.0481981 0.0618985 0.058399 0.0549622 0.0663764 0.0724635 0.061595 
0.0744827 0.0357774 0.0331467 0.0273385 0.0195421 0.0203949 0.0219851 0.0403244 0.0416901 
0.0397856 0.0416105 0.0352806 0.0384844 0.0406012 0.0354619 0.0363682 0.0386807 0.0344798 
0.0335052 0.0358913 0.032002 0.0297139 0.0327119 0.028584 0.0234274 0.0280048 0.0237828 
0.0109704 0.0196756 0.0160024 -0.00731357 0.00412714 0.0043872 -0.00468993 -0.00546449 -0.000240783 
-0.000303581 0.0247974 0.0259981 0.00783354 0.0166953 0.0215993 0.0248241 0.0138405 0.0281211 
0.0305872 0.022013 0.0314223 0.0334973 0.0265656 0.0338823 0.0357021 0.0293177 0.0360219 
0.0379173 0.0316177 0.0376917 0.0396123 0.03331 0.0390889 0.041018 0.0341695 0.0398547 
0.0410433 0.0340421 0.0383337 0.0376244 0.0318571 0.032987 0.0287175 0.0258607 0.0246321 
0.0186904 0.0185864 -0.000637774 -0.000370636 -0.000582405 -0.0165138 -0.0243179 -0.0174069 0.00222285 
0.00348325 0.005326 0.00225851 -0.0545951 -0.0717663 0.0394488 0.0398645 0.0335736 -0.00948546 
0.000462781 0.00225628 -0.0548999 -0.0274471 -0.000527874 -0.00074142 -0.00111203 -9.35772e-05 -0.000536182 
-0.000404844 -0.000260784 -0.000228103 -0.000146483 0.0504512 0.00148231 -0.00887908 -0.000401366 -0.0380515 
-0.0453817 0.0663191 0.00970354 0.000184686 -0.0272472 -0.01329 0.0217563 0.0276346 -0.0825842 
-0.0743103 -0.0701336 0.0293875 -0.0302999 -0.0318996 -0.0439246 0.00259447 -0.0017597 -0.0272315 
-0.0601373 -0.0370187 0.0189822 0.0163367 0.00715248 0.0205245 -0.00521533 -0.0201578 -0.00207275 
-0.00209378 -0.00204646 -0.00194433 -0.00243267 -0.00174796 -0.00152974 -0.00216644 -0.00121811 -0.000921146 
-0.00160062 -0.000540689 -0.000222277 -0.000844232 0.000167651 0.000471143 -4.66849e-06 0.000788449 0.00103561 
0.000765778 0.0012893 0.00147706 0.00138168 0.00164993 0.00175843 0.00184522 0.00185841 0.00189656 
0.00213378 0.00190176 0.00186544 0.00223617 0.00178144 0.00169991 0.00215033 0.00156873 0.00143781 
0.0019163 0.00126182 0.00112468 0.00158922 0.000954355 0.000798758 0.00122003 0.000633063 0.000494208 
0.000859807 0.000334318 0.000205404 0.000507136 5.24293e-05 -5.98166e-05 0.000172105 -0.000166729 -0.000237212 
-0.000106462 -0.000298874 -0.000333513 -0.000286452 -0.00178066 -0.0019585 -0.00237177 0.00470172 0.00425781 
-0.0012885 -0.00153328 -0.00199487 -0.00162528 0.0273075 0.02254 0.0180542 0.0149294 0.0245794 
0.0117718 0.00927895 0.0165528 0.00679671 0.00516443 0.0104808 0.00345258 0.00236484 0.00597245 
0.00124941 0.000478732 0.00292985 -0.000352408 -0.000962792 0.000802029 -0.00156447 -0.00204828 -0.000810563 
-0.00250672 -0.00282154 -0.00199474 -0.00319548 -0.00343743 -0.00290248 -0.00372282 -0.00388995 -0.00360439 
-0.00403216 -0.00411627 -0.00407145 -0.00413415 -0.00410215 -0.00428302 -0.00399901 -0.00381014 -0.00419028 
-0.00354939 -0.00322396 -0.00376333 -0.00277285 -0.00233552 -0.00295613 -0.00175547 -0.00125275 -0.00183909 
-0.00062805 -0.000108904 -0.00056668 0.000491954 0.00108752 0.000733563 0.00166933 0.00221864 0.001991 
0.00281755 0.00341478 0.0032084 0.00396939 0.00458287 0.00434263 0.00517041 0.00577628 0.0054062 
0.00630997 0.00669195 0.00647604 0.00704 0.00694276 0.00727923 0.00649351 0.00570288 0.00699491 
0.00440176 0.00258375 0.00515208 -0.000158838 -0.00255874 0.00067511 -0.00552143 -0.00723187 -0.00587469 
-0.00867905 -0.00961287 -0.0101062 -0.00999137 -0.0102643 -0.0116606 -0.0101997 -0.00995358 -0.0118164 
-0.00944964 -0.00894372 -0.0110436 -0.0082495 -0.00766175 -0.00966244 -0.00689049 -0.00626853 -0.00809918 
-0.00552182 -0.00492613 -0.00653871 -0.00435004 -0.00385271 -0.00517544 -0.00332727 -0.00287298 -0.00402224 
-0.00240601 -0.00201958 -0.00212106 -0.00299476 0.00153978 0.00557862 0.00386375 0.00286699 0.0050714 
-0.000495077 -0.00053698 -0.000559484 -0.000591321 -0.0878408 -0.000597788 -0.000611291 -0.0597582 0.0563867 
0.0540872 0.0417826 0.0218299 0.0196855 0.0110644 0.0113508 0.000346463 0.00114072 0.00163889 
-0.000790005 -0.00315644 -0.00580713 -0.00367414 -0.00857769 -0.0121603 -0.00874778 -0.0296716 -0.0156878 
0.0161947 0.0195885 0.0254364 0.0226509 -0.0270683 -0.0346637 -0.0241742 -0.0607102 0.0106148 
0.00919911 0.0116169 -0.0548325 -0.0513998 -0.0483571 -0.0458624 -0.0476066 -0.0429534 -0.0395614 
-0.0420833 -0.0369423 -0.0338663 -0.0366006 -0.0301647 -0.0269836 -0.0307046 -0.0234787 -0.020492 
-0.0246282 -0.0176938 -0.0155543 -0.0189017 -0.0127393 -0.0104388 -0.0137371 -0.0076503 -0.00491858 
-0.00847325 -0.0015624 0.00105455 -0.00305191 0.00438031 0.00718621 0.00252218 0.0100205 0.0121253 
0.00803433 0.0147665 0.0179651 0.0133 0.0205737 0.0231434 0.0185343 0.0259884 0.0289572 
0.0239781 0.0323454 0.0352268 0.0295974 0.038022 0.0410568 0.0350496 0.0438456 0.0474506 
0.0405412 0.0499869 0.0535203 0.0459062 0.0557201 0.0593851 0.0502615 0.0508837 0.0300449 
0.0308927 0.0301517 0.0296545 0.0268738 0.0283589 0.0251295 0.0237019 0.0255486 0.0222862 
0.0189775 0.0218067 0.0193559 0.0114742 0.0156768 0.0147513 0.0044805 0.00826969 0.00935177 
0.000432111 0.00498272 0.0209501 0.016128 0.0164671 0.00636763 -0.00759623 0.0163704 0.0191723 
0.0211811 0.0228312 0.0161441 0.0243525 0.0256212 0.0194826 0.0266097 0.0276305 0.0218217 
0.0281148 0.028634 0.02322 0.0287991 0.0290327 0.0238325 0.0284468 0.0278669 0.0234277 
0.0263738 0.0244834 0.0214052 0.0218114 0.0181305 0.0173208 0.0164249 0.014026 0.0135209 
-0.000480548 -0.0159446 -0.0213251 -0.0257702 -0.0238071 -0.0153849 0.0282823 0.0269495 0.0210009 
0.0237857 0.0351765 0.00864716 0.0101716 0.00680715 0.00449684 0.00175651 0.00783469 0.0306267 
0.0306466 0.0256618 0.0264342 -0.0244161 -0.0115353 -0.056349 0.00281497 -0.0148603 0.00942901 
0.0136078 0.0119507 0.00668247 -0.00037274 -0.000385866 -0.000326018 -0.000509243 0.00779449 -0.000385997 
-0.000486993 0.020179 0.0180371 0.0182098 -0.000453866 0.0112781 -0.00930178 -0.00377241 0.00527892 
0.00702117 0.00861557 0.00228684 0.00232227 0.0155763 0.0148067 -0.0108602 -0.00428678 0.00278288 
-0.0158442 -0.0182056 -0.0315391 -0.0229353 -0.0322596 0.0206289 0.0170279 0.0162638 -0.000471821 
0.0372881 0.00761008 0.013762 0.0108131 0.00493982 0.0132952 1.58067e-05 3.80801e-05 0.000762928 
0.0035939 -0.000391812 0.000603925 0.00412979 -0.0511662 0.00353735 0.00600815 0.0176574 -0.00267671 
-0.00243552 -0.00206356 -0.00170326 -0.00259564 -0.00117126 -0.000729797 -0.00163628 -0.000176688 0.00027717 
-0.000478403 0.000795743 0.00115526 0.000676277 0.00152267 0.00181 0.00161542 0.00209028 0.00228565 
0.00228645 0.00244118 0.00255058 0.00273628 0.00258408 0.0025888 0.00293368 0.00253021 0.00243665 
0.00290421 0.00226471 0.0021211 0.00265689 0.00190993 0.00171733 0.00225665 0.0014743 0.00128731 
0.0017889 0.00110529 0.00091613 0.00135232 0.000692461 0.000513573 0.00092406 0.000298628 0.000129793 
0.000468769 -2.91518e-05 -0.000156746 7.97701e-05 -0.000283698 -0.000355631 -0.000236559 -0.00479837 -0.0069751 
-0.000253436 -0.000179343 0.012018 0.0135955 -0.00239124 0.0301602 0.0250433 0.0210658 0.0173636 
0.0256455 0.0141915 0.0112622 0.0180227 0.00869157 0.00671253 0.0119311 0.00486003 0.00356442 
0.00730139 0.00229258 0.00125646 0.00404576 0.000246199 -0.000485851 0.00165171 -0.000980308 -0.0015426 
1.75531e-05 -0.00212343 -0.00253577 -0.0011287 -0.00301229 -0.00332621 -0.00222269 -0.00364373 -0.00384235 
-0.00305547 -0.00399292 -0.00404697 -0.00358051 -0.00399279 -0.00385585 -0.00370781 -0.00360006 -0.00325596 
-0.00337968 -0.00274457 -0.00217725 -0.00252237 -0.00145345 -0.000825918 -0.00117815 7.16955e-06 0.000670746 
0.000459329 0.00142324 0.00208871 0.00209081 0.00266637 0.00329044 0.00344462 0.0038784 0.00446208 
0.0046476 0.0049262 0.00536754 0.00562616 0.0055918 0.00601111 0.00608894 0.00619458 0.00654719 
0.00617187 0.00659131 0.00678786 0.00647267 0.00590924 0.00432276 -0.0120177 -0.0133189 -0.0136626 
-0.0134521 -0.0131272 -0.0152266 -0.01232 -0.0116265 -0.0138497 -0.0105272 -0.00973906 -0.0116478 
-0.008736 -0.00794185 -0.00946434 -0.00706189 -0.00633109 -0.00759018 -0.00562791 -0.00502208 -0.00608082 
-0.00441054 -0.00385266 -0.00480408 0.0164472 0.0148108 0.00598204 0.00552776 0.044028 0.0355221 
0.0355873 0.0474489 0.0164182 0.0132822 0.00913329 0.00945636 0.0182734 0.0192965 0.00229192 
0.00353817 0.0112035 0.00993224 -0.00844052 -0.0111746 -0.00910976 -0.0213302 -0.0191608 0.0119443 
0.0110208 -0.000387167 -0.000372816 0.013818 0.0147451 0.00511332 -0.00214006 -0.0406742 -0.0379584 
-0.0354406 -0.0328375 -0.034155 -0.0301675 -0.0273594 -0.0292757 -0.0249774 -0.0220889 -0.0246451 
-0.0196222 -0.0169505 -0.019992 -0.0144234 -0.0118642 -0.015094 -0.00923709 -0.00660168 -0.00998305 
-0.00401663 -0.00139028 -0.00492016 0.00095981 0.00371254 -8.90594e-05 0.00604717 0.00873955 0.00450516 
0.0113048 0.0138019 0.00931506 0.0163458 0.0189636 0.0143123 0.0215115 0.0242385 0.0192486 
0.0266571 0.0292905 0.0240523 0.0315275 0.0340696 0.0284123 0.0363735 0.0389381 0.0326289 
0.0410546 0.0433056 0.036615 0.0159072 0.0174332 0.0150577 0.0203806 0.0218325 0.0165428 
0.0121119 0.0146648 0.0133479 0.00920022 0.0106087 0.0109938 0.0109859 0.0118985 0.0119113 
0.0145631 0.0119339 0.0121866 -0.00923305 -0.0178417 -0.0110046 -0.0244606 0.00561742 -0.00172849 
-0.00747205 0.00860252 0.00872071 0.0100469 0.0104856 0.0120128 0.00826537 0.0153278 0.0166561 
0.0113735 0.0172452 0.0180896 0.0133812 0.0187544 0.0191245 0.0143344 0.019356 0.0194517 
0.0151638 0.0192622 0.018588 0.0150177 0.0177579 0.0163167 0.0139523 0.0146225 0.0122215 
0.00878425 0.0114058 0.00146849 -0.044141 -0.00288255 -0.00281903 -0.00316578 0.00523749 -0.00270292 
-0.00281249 -0.00324843 -0.00285234 -0.0171075 -0.0131101 -0.0142776 -0.0225573 -0.0413652 0.000312791 
0.0103491 -0.000432453 -0.000307539 0.0107902 0.00940595 0.0169484 0.014429 0.0162562 -0.0133531 
-0.0052385 -0.0133125 -0.0165833 0.0167139 0.0139693 0.0180192 -0.00333032 0.00641638 0.00538316 
0.00789132 0.00645795 -0.000405928 0.0106541 0.0221992 0.0216811 0.00470946 0.00470621 0.0214591 
0.0180593 -0.0805813 -0.122744 0.0132487 0.0145428 0.0150654 0.00834161 0.00977215 -0.013016 
-0.0141074 -0.00367682 0.00379384 0.00754219 -0.0146829 -0.0220353 -0.00010416 -0.00527037 -0.00259174 
-0.00797903 0.0110897 0.00999075 0.0453034 0.00549246 0.00708316 0.00847518 0.00678092 0.00165756 
0.00266412 0.00134158 0.0202021 0.0188927 0.0150226 0.0173207 0.010538 0.00485599 -0.0370856 
0.00793143 0.00481356 -0.0326481 -0.0325293 -0.030118 -0.0178673 0.00111856 -0.00204966 -0.00577938 
0.000831503 0.00913831 0.0110124 0.0090754 0.00736571 0.00555473 0.00993114 0.040133 -0.00323367 
-0.00280766 -0.00217234 -0.00160395 -0.00283309 -0.000880292 -0.000261203 -0.00143058 0.000608782 0.00119079 
0.000228831 0.00181456 0.00220971 0.0018511 0.00249329 0.00279619 0.00276506 0.00309563 0.00327203 
0.00336491 0.0033406 0.00337379 0.00377864 0.00331158 0.00323754 0.00375768 0.00305228 0.00287014 
0.00348004 0.0025749 0.00235296 0.00297617 0.00198642 0.00172789 0.00229203 0.00152499 -0.134415 
-0.106914 0.0011613 0.000919071 0.00153189 0.000546967 0.000315535 0.000756795 0.010408 0.00955804 
0.0101196 0.0113861 0.00600406 0.00650274 0.021477 0.0180099 0.0148724 0.0120199 0.0178629 
0.00960929 0.00755739 0.0121775 0.00579197 0.00440005 0.00784752 0.00288712 0.00176269 0.00450362 
0.00124003 -0.150478 -0.116139 0.000382337 -0.000249845 0.00210027 -0.00109603 -0.00159248 0.00037704 
-0.0019214 -0.00231272 -0.000828385 -0.00281942 -0.00300426 -0.00172479 -0.00297727 -0.00291451 -0.00223448 
-0.00274472 -0.00241442 -0.00200452 -0.00194927 -0.00133789 -0.00129263 -0.000473452 0.000365276 0.000142113 
0.0013887 0.00226043 0.00216212 0.00378966 0.00453232 0.00482813 0.00735513 0.00765059 0.00718188 
0.00709904 -0.017446 -0.0168229 -0.0150746 -0.0138094 -0.0172068 -0.0119328 -0.0108262 -0.012719 
-0.00937824 -0.00834931 -0.0095371 -0.00733062 -0.00656323 -0.00704548 -0.00595404 -0.00534597 -0.00565583 
0.0344144 0.0049433 0.00643067 -0.00374664 0.0118365 0.0125352 -0.0103524 -0.0130068 0.00222225 
0.00641748 -0.0114901 -0.0141443 -0.00878507 -0.00969258 -0.00916786 0.00866709 0.000586906 0.000876746 
-0.0187712 -0.0233936 0.0118576 0.00941191 0.0124336 0.0128614 0.0107824 -0.027604 -0.025432 
-0.026123 -0.0233672 -0.0213755 -0.0220494 -0.0200154 -0.0177165 -0.0189065 -0.0157119 -0.0132152 
-0.0157986 -0.0108293 -0.0083496 -0.0115426 -0.00534844 -0.00294952 -0.00630041 -0.000163866 0.00209532 
-0.00071413 0.00435908 -0.157865 -0.164023 0.00689665 0.00930852 0.0044698 0.0120518 0.0144359 
0.00958455 0.0168578 0.0192246 0.0145418 0.0212196 0.0233541 0.0187443 0.0249178 0.0268238 
0.0219996 0.0285479 0.0304248 0.0248795 0.0319901 0.0335943 0.0296886 0.0277651 0.0129053 
0.0135481 0.0105826 0.0102171 0.0105559 0.00875958 3.99622e-05 0.000214029 -0.00359151 -0.0109303 
-0.0151572 -0.0106166 0.00737547 0.00882425 0.00710718 0.00489883 0.00513727 0.000990459 0.0100186 
0.010413 0.01098 0.0106484 0.0113554 0.0105995 0.00763359 0.025334 -0.00374992 -0.00358109 
-0.00389793 -0.00424336 0.00620817 0.00202942 -0.000167596 0.00638015 0.00867719 0.0100967 0.00576302 
-0.00145523 0.00934318 0.00908393 0.00686023 0.000784414 0.0113221 0.0110218 -0.00205454 0.0132365 
0.0128564 0.0108348 -0.0136475 -0.00977102 -0.0110423 0.0050106 0.00559591 -0.00515694 -0.000663478 
0.0107095 0.0101146 -0.0046789 -0.0048302 -0.0185279 0.00813505 0.00783159 0.0120384 0.0118146 
-0.0115448 -0.0147492 0.00331658 0.00401232 0.0054409 0.00163945 0.00243028 0.002 0.00697125 
0.0060489 0.00406748 0.00739183 0.0101043 0.0081847 -0.0196434 -0.0181066 0.00816903 0.00739244 
0.00871651 -0.00990097 -0.00973353 0.0151664 0.0137875 -0.00833117 0.0138006 0.00440642 0.00904769 
0.0120595 0.0114648 0.00983308 0.0132913 0.0100214 0.0103436 0.0249663 0.0116738 0.0118361 
0.00700369 0.0093014 0.00777277 0.00780147 0.00762615 0.00430511 -0.000397964 0.000604568 0.00348327 
0.00374235 0.00408524 -0.162732 -0.164416 0.00439814 0.00443193 0.00488566 0.00422109 0.00415027 
0.00488333 0.00399794 0.00380214 0.00452453 0.00340994 0.00309782 0.00394933 0.0026547 0.00226933 
0.00307441 0.000131855 0.00687468 0.0143299 0.0117516 0.00971857 0.00780966 0.0116533 0.00668718 
0.00509617 0.00834531 -0.162225 -0.16258 0.00605435 0.00795807 0.00698155 0.00405397 0.00319407 
0.00213041 0.00120512 0.00406076 0.000933501 -0.157438 -0.114036 -0.00020535 -0.000841612 0.00176839 
-0.000848925 -0.000590311 0.00596197 0.00757022 -0.00683998 0.00875835 0.00925917 -0.0057175 -0.00502676 
-0.0046417 -0.0042703 -0.00341323 -0.0082065 -0.00972806 0.00014591 -0.00388557 0.00922733 0.0108562 
0.0104706 0.0119582 0.0128161 -0.016725 0.0145249 -0.00431504 -0.00584074 -0.0065454 0.00499903 
-0.00339149 0.00388618 -0.00101424 -0.00503573 0.00570121 0.00621498 -0.151925 -0.14878 0.00162191 
0.00403792 -0.141804 -0.137917 0.00755592 0.00999952 0.0047307 0.0123889 0.0146222 0.0103348 
0.016285 0.0179669 0.0141256 0.0184618 0.0195884 0.0159491 0.0238769 0.0227764 0.0204171 
0.0107026 -0.00909817 -0.00721751 0.00788326 0.0103775 0.00205041 0.00489411 0.00556221 0.00107285 
0.0101936 0.00268777 0.00473909 0.0171365 0.00853012 0.00692927 -0.125517 -0.0833685 0.0111598 
0.0164552 -0.000768295 -0.000299071 0.000251146 0.00990873 -0.00752728 0.00371229 -0.00266858 -0.00922393 
-0.00439796 0.00229788 0.00192813 0.00140815 0.00666264 0.00494725 -0.107137 -0.0679046 0.000825096 
-0.00179407 0.000827092 -0.0794864 -0.0540492 0.00583979 0.00537473 -0.0154061 -0.0135573 -0.0112641 
-0.00762471 -0.0049399 -0.000984226 -0.0601313 -0.00252758 0.0213761 0.0122398 -0.0217335 0.00242001 
0.00319114 0.00438608 0.0178529 0.000561469 0.00906785 0.00762766 0.00965925 -0.00189715 0.00209862 
0.0028036 0.00527297 0.00511198 0.00459582 0.00417371 0.00538136 0.00976825 0.0101481 0.00834375 
0.00153648 0.00205808 0.0150706 0.00394164 0.00159146 0.00118424 0.0020286 0.00288167 0.00439755 
0.00888153 0.00909576 0.0080234 0.00988407 0.0103041 0.0023587 0.0034664 0.00661844 -0.0017306 
0.00347414 0.00273062 0.0023865 0.0101946 0.00856813 0.0114168 0.00982955 0.00240225 0.00156981 
-0.000814542 0.0123833 0.0105056 0.00609225 0.00653642 0.0055412 0.0092786 0.00693262 0.00593789 
0.00807496 0.0135861 0.00506396 0.00667266 0.0137794 0.00383084 0.00390776 0.00703665 0.0119684 
0.0132818 0.00417664 0.00530002 0.00322679 0.0027823 0.00625382 0.00687977 0.00710797 5.45419e-05 
-0.000213467 -0.000123609 -0.000414388 -0.000382662 -0.000576011 -0.00053078 -0.000515817 -0.0009084 -0.000587708 
-0.000599289 -0.00109232 -0.000458849 -0.00050939 -0.0010454 -0.000236804 -0.000284123 -0.00072452 1.25763e-05 
-2.66676e-05 -0.000250091 0.000241185 0.000193615 0.000213927 0.000415899 0.000382409 0.00060616 0.000516446 
0.000508443 0.000888259 0.000545857 0.000546447 0.0010303 0.000502837 0.000515786 0.00102673 0.000399367 
0.000430707 0.000903035 0.000288164 0.00030722 0.000700406 0.000159866 0.000181086 0.000465528 4.42866e-05 
7.11692e-05 0.000231218 -5.47971e-05 -3.57523e-05 2.3431e-05 -0.000116148 -0.000109394 -0.000140929 -0.000145338 
-0.000143747 -0.000237119 -0.000126356 -0.000134855 -0.00025701 -5.53582e-05 -7.22161e-05 -0.00019017 -2.95567e-06 
0.0779687 0.039688 0.0588646 0.0130375 0.0133151 0.0523673 0.0059449 0.00640797 0.0197804 
0.00282438 0.00309143 0.00918642 0.00127558 0.0015954 0.00452538 0.000396709 0.00049278 0.00202984 
-0.000213614 -0.000128743 0.000410976 -0.000636118 -0.000572129 -0.0006566 -0.000938265 -0.000898108 -0.00136992 
-0.00113721 -0.00108803 -0.00191437 -0.0013394 -0.00131169 -0.00231597 -0.00146586 -0.0014533 -0.00266122 
-0.00146669 -0.00147916 -0.00279727 -0.00138454 -0.00139857 -0.00275061 -0.00119949 -0.00124482 -0.00247387 
-0.000880731 -0.000951834 -0.00201665 -0.000444111 -0.000525906 -0.0012969 2.92624e-05 -4.60854e-05 -0.000438606 
0.00055549 0.000454126 0.000530626 0.00113751 0.00102131 0.00154222 0.00186244 0.00172132 0.00273272 
0.00243049 0.00229666 0.0039513 0.00263723 0.00260783 0.00472185 0.00200089 0.00223353 0.00455567 
0.0005361 0.000848932 0.0026273 -0.00125263 -0.000913585 -0.000527 -0.00238823 -0.00223177 -0.00341884 
-0.00281933 -0.00279534 -0.00504346 -0.00277431 -0.00283729 -0.00547 -0.00235195 -0.00244116 -0.00503965 
-0.00188834 -0.00196475 -0.00418798 -0.00146791 -0.0015372 -0.00332819 -0.00106186 -0.00112816 -0.00250711 
-0.000749083 -0.000806818 -0.0018222 -0.000429698 -0.000505722 -0.00121633 0.0985413 -7.3594e-05 -6.33871e-05 
-0.000106195 -0.000100165 -0.000174077 -0.000182406 -0.000176907 -0.000270599 -0.000233894 -0.000229118 -0.000393109 
-0.000260801 -0.000245289 -0.000470655 -0.000409214 -0.000425887 6.39375e-05 -9.0814e-05 -0.000376236 0.0011714 
0.000815993 0.000955989 0.00266242 0.00227073 0.00330032 0.00401359 0.00375826 0.00605557 0.00433174 
0.00433407 0.00781676 0.00355414 0.0037735 0.00753711 0.00231962 0.00257908 0.0056599 0.00107287 
0.00127203 0.00319087 -0.000154936 2.68551e-05 0.000658965 -0.00171862 -0.00160567 -0.00234073 -0.00535564 
-0.0046987 -0.00744437 -0.0163445 -0.0155407 -0.0277633 -0.0204411 -0.0427321 -0.0774557 -0.0910749 
-0.10719 -0.0748472 -0.0852074 -0.0825198 -0.0599557 -0.0705234 -0.0734741 -0.0506899 -0.0571805 
-0.062519 -0.0415181 -0.0526166 -0.0517439 -0.0383021 -0.0447228 -0.0437519 -0.0247904 -0.0352329 
-0.0341806 -0.0162753 -0.0221561 -0.0259416 -0.010534 -0.0194618 -0.0180187 -0.0073444 -0.0126861 
-0.0112757 0.00451066 -0.0056022 -0.00360888 0.0127678 0.00642679 0.00331105 0.0198806 0.00987155 
0.010802 0.0260843 0.0161793 0.0173872 0.0303408 0.0227282 0.0241509 0.0418404 0.0329522 
0.0315321 0.0503391 0.0397923 0.0407887 0.0593221 0.0468724 0.0490163 0.064899 0.0563471 
0.0579774 0.081701 0.0698114 0.0710886 0.0298941 0.043236 0.0579282 0.0550154 0.0288586 
0.0596042 0.0563521 0.0451995 0.0558693 0.0536755 0.0495685 0.0519776 0.0505761 0.0492312 
0.0486346 0.0475319 0.0476474 0.045872 0.0458702 0.0457421 0.0434884 0.0435361 0.0438826 
0.0412817 0.0417417 0.0416257 0.039489 0.0396323 0.0394641 0.0367973 0.0374885 0.0362242 
0.0338008 0.0343619 0.0317033 0.026455 0.0206089 0.0223178 7.4639e-05 -0.0396126 -0.0047722 
-0.0832942 -0.101187 -0.00205302 -0.0411488 0.0256294 0.0192344 -0.00647892 0.0322521 0.0322813 
0.0184423 0.0357805 0.0364321 0.0294508 0.0380415 0.0384951 0.0351196 0.0394442 0.0396401 
0.0373152 0.0419231 0.0416944 0.0396915 0.0442535 0.0434082 0.0420316 0.047339 0.0462245 
0.0441026 0.0512919 0.049607 0.0463662 0.0568698 0.0528383 0.0483916 0.0590642 0.0557774 
0.0476311 0.0574714 0.0537148 0.0432154 0.0369552 0.0419873 0.0294844 -0.0847852 -0.104694 
-0.000117762 -6.17963e-05 -0.000194866 -0.000774808 -0.000455625 -0.000438265 -0.00931227 -0.0154999 -0.103352 
-0.00997221 -0.0362027 -0.0104079 0.026892 0.0301479 0.0835187 -0.00744766 -0.030178 -0.0493362 
-0.0095977 -0.0343604 -0.0290372 0.0249628 -0.054601 -0.0271065 -0.000635925 0.0808976 -0.0013048 
-0.00117361 -0.00110778 -0.000874488 -0.00120107 -0.0015299 -0.00140818 -0.00153202 -0.000888767 -0.00114449 
-0.00163627 -0.000197242 -0.000506831 -0.000887329 0.000453265 0.000197514 4.5863e-06 0.000969749 0.000762869 
0.000802636 0.00131617 0.0011907 0.00139875 0.00144821 0.00140763 0.00174341 0.001415 0.00145196 
0.00185301 0.00121635 0.00131931 0.00174936 0.000929462 0.00106056 0.00146445 0.000604406 0.000753256 
0.00108896 0.000285563 0.000411658 0.000674598 1.19778e-05 0.000130264 0.000285989 -0.000189628 -0.000113674 
-3.02314e-05 -0.000302669 -0.000268119 -0.000257626 -0.00032493 -0.000334998 -0.000379086 -0.000235102 -0.000292505 
-0.000380374 0.00502621 0.00359418 0.0123014 0.0162423 0.0227805 0.03191 0.0256555 0.0442117 
0.0685551 0.0697048 0.0455153 0.0066988 0.00873438 0.0146371 0.00341537 0.00465225 0.00827164 
0.00119145 0.00202948 0.00425076 -0.00034678 0.000208051 0.00154135 -0.00149258 -0.00104947 -0.000361884 
-0.00226798 -0.00197778 -0.00174938 -0.0028674 -0.00265691 -0.00275592 -0.00329385 -0.00314369 -0.00348236 
-0.00348077 -0.00342546 -0.00393359 -0.00332587 -0.00342198 -0.00404224 -0.00285659 -0.00311992 -0.00375576 
-0.00211122 -0.00246362 -0.00303814 -0.00110945 -0.00155822 -0.00197809 7.56932e-05 -0.000456875 -0.000645151 
0.00136747 0.000785567 0.000875481 0.00261503 0.00202589 0.00238475 0.00400504 0.00330919 0.00380095 
0.00521125 0.00466721 0.00519365 0.00590978 0.00573257 0.00644415 0.00508985 0.00570366 0.00681909 
0.00187618 0.00344717 0.00490742 -0.0024115 -0.000522377 0.000208471 -0.00572754 -0.00447155 -0.00491324 
-0.00722132 -0.00673709 -0.00816302 -0.0074026 -0.00745511 -0.00937373 -0.00658273 -0.00700325 -0.00906185 
-0.0054234 -0.00593219 -0.00785936 -0.00423921 -0.00471355 -0.00635445 -0.0031918 -0.00366036 -0.00492584 
-0.0023332 -0.00269786 -0.00372884 -0.0015669 -0.00190281 -0.0026948 -0.00182895 -0.0485848 -0.0407687 
-0.000480365 -0.000440764 -0.000616253 -0.000662752 -0.000590988 -0.000543267 -0.000589119 -0.0242624 -0.0575689 
0.00212583 0.00109018 -0.0295771 -0.02289 0.000207964 -0.000250821 -0.000236699 0.0011016 0.00822064 
0.00689454 0.00723717 0.00965274 0.00930839 0.010355 0.00842432 0.00916598 0.00553684 0.00683593 
0.00854469 0.00212338 0.00363399 0.00461116 -0.00147719 0.00012893 0.000257059 -0.00626674 -0.00405383 
-0.00474054 -0.0145239 -0.010254 -0.0120247 -0.0249887 0.0240037 0.0277631 -0.0579111 -0.01734 
-0.060601 -0.0770891 -0.0571621 -0.0593907 -0.0500828 -0.0494173 -0.0507266 -0.0424686 -0.0395583 
-0.043863 -0.0321817 -0.0333715 -0.0363919 -0.0257222 -0.0263147 -0.0287067 -0.0186868 -0.017619 
-0.0214331 -0.011387 -0.0107103 -0.0143015 -0.00254097 -0.00357347 -0.00707332 0.00280059 0.00284582 
-6.68183e-05 0.00976705 0.0113343 0.00685107 0.0162781 0.019372 0.0140748 0.0244338 0.0253903 
0.0204414 0.0313919 0.0322972 0.0273595 0.038656 0.039153 0.0347472 0.0454744 0.0482164 
0.0423402 0.0557025 0.0581683 0.0500388 0.0677294 0.0670623 0.0583496 0.0613747 0.0288154 
0.0251337 -0.00473785 0.000410477 -0.0245714 -0.0565524 0.0319536 0.0355654 0.0395901 0.0394583 
0.0282811 0.0421454 0.0410043 0.0332321 0.0424428 0.0406296 0.0357061 0.0413708 0.0395831 
0.0361221 0.0400366 0.0377777 0.0354567 0.0378843 0.0356017 0.0338606 0.0352575 0.0326541 
0.0313404 0.0317889 0.02851 0.0277104 0.0267553 0.0221122 0.0227261 0.0182017 0.00918836 
0.0148849 0.00239462 -0.00654689 0.00465728 -0.00674813 -0.00344918 -0.0488403 0.00237299 0.00264217 
-0.00843829 0.000363799 0.0282308 0.026661 0.0320624 0.0300745 0.0247984 0.034385 0.0327075 
0.0278892 0.0364776 0.0348337 0.0300103 0.0381198 0.0367319 0.0316645 0.0396793 0.0383041 
0.0329559 0.0397964 0.0389238 0.0331582 0.0372852 0.037961 0.0310242 0.0293636 0.0332122 
0.0257114 0.0179678 0.0263718 0.0188066 -0.00154673 -0.00148818 -0.00179172 -0.00196298 0.0204615 
0.0275301 0.0207204 0.0206428 0.0160622 0.00825836 0.00303786 0.0247343 0.0210255 0.0134709 
0.0205382 -0.0454975 0.00365594 0.0110012 -0.0570294 -0.0645762 -0.0357496 -0.0502672 -0.0317463 
-0.000435306 -0.000338026 -0.000585579 -0.00068313 -0.000133233 -0.000280586 -0.000238419 -0.0036314 -0.0171209 
-0.000612975 0.0213706 0.00736132 0.0175278 -0.0347316 -0.00908589 -0.070449 -0.0709196 0.0175517 
0.0213023 0.00443438 0.00296157 0.00262617 -0.00380076 0.000363136 -0.0175323 -0.000706026 -0.000611021 
-0.00015556 -0.000205747 0.000299232 -0.000185621 -0.00182344 -0.00215716 0.00119601 0.000821069 0.000691645 
0.0018443 0.00158414 0.00166667 0.00216726 0.00205956 0.00230084 0.00224432 0.00224236 0.00259905 
0.00204843 0.00216148 0.00257623 0.00166151 0.00185254 0.00227198 0.00121039 0.00142012 0.00179744 
0.00070768 0.000941125 0.00125184 0.000269568 0.000455652 0.000697404 -8.27106e-05 6.83151e-05 0.000211817 
-0.000304289 -0.000213463 -0.000136844 -0.000427275 -0.000389308 -0.00035828 0.0115268 0.0104613 0.00506734 
0.00350042 -0.00201479 -0.00193265 -0.00235268 0.00591939 0.00317899 0.0152086 0.019568 0.0397899 
0.0515457 0.054583 -0.0445565 0.00223223 0.00351865 2.42966e-05 0.000987237 0.00267264 -0.00158281 
-0.000917524 0.000273926 -0.00274139 -0.00226139 -0.00151152 -0.00356179 -0.00324617 -0.0027915 -0.00404102 
-0.00385964 -0.0036511 -0.00407392 -0.00410899 -0.00407379 -0.00362239 -0.00391764 -0.00399045 -0.00262074 
-0.00314349 -0.00328049 -0.00124522 -0.00189727 -0.0019303 0.000417627 -0.00036056 -0.000192148 0.00213894 
0.00129839 0.00170767 0.00368301 0.00297453 0.00350886 0.00489933 0.00425626 0.00488613 0.00592796 
0.0053777 0.00574257 0.00686707 0.00643242 0.00639488 0.00684034 0.00714345 0.0070934 0.00362899 
0.00558922 0.00626297 -0.00279092 0.000193715 0.00134177 -0.00847157 -0.00627368 -0.00671333 -0.0109917 
-0.0100324 -0.0117367 -0.0112803 -0.0112502 -0.0132749 -0.0102309 -0.0107643 -0.0126441 -0.00847708 
-0.00923314 -0.0108216 -0.00670102 -0.00749774 -0.00874109 -0.00514977 -0.00581658 -0.00684411 -0.00386471 
-0.00445277 -0.00526201 0.00543458 0.00727563 0.00611708 -0.000576729 -0.000516747 -0.000543365 -0.0102402 
-0.0251929 0.00875042 0.00690174 0.00996388 -0.00272735 -0.000437534 0.00193272 0.00419107 -0.00110544 
0.00701086 0.0088497 0.00440182 -0.00819892 -0.00513727 -0.00576009 -0.0286308 -0.0287207 -0.000824576 
-0.00131395 -0.00183907 -0.000563259 -0.0399653 -0.0433769 -0.0258772 -0.0294086 -0.0190399 -0.0225615 
-0.0232644 -0.0120429 -0.0158866 -0.0168074 -0.00506109 -0.00861606 -0.0101551 0.0014944 -0.00168281 
-0.0033861 0.00841551 0.00484266 0.00319176 0.0151081 0.0115668 0.00974576 0.0217032 0.0182884 
0.0161475 0.0280659 0.0246031 0.022219 0.0348077 0.0311896 0.0282151 0.0418371 0.0380302 
0.0344036 0.0488594 0.044914 0.0405051 -0.0469963 -0.0380507 0.00676423 0.00469246 -0.0165869 
0.00273983 0.0263653 0.0282202 0.0295299 0.0303285 0.0235697 0.0309849 0.030954 0.0255334 
0.030985 0.0305145 0.026291 0.029984 0.0290179 0.0259166 0.0279211 0.0264067 0.0243781 
0.0247938 0.0228087 0.0218049 0.0207689 0.0178373 0.0183527 0.0149721 0.0107583 0.014048 
0.00778033 0.00479925 0.00932469 0.00520594 0.00599641 0.0079461 0.0238591 0.0226521 0.0213442 
0.0195725 0.0178488 0.026622 0.0260362 0.0275793 0.0271978 0.0218607 0.0267401 0.0272949 
0.0218908 0.0236537 0.02549 0.0202746 0.0182922 0.0216345 0.0170276 0.0141457 0.0173439 
0.0137684 0.0148132 0.0215428 0.0108771 0.0115887 0.0120663 0.00971561 0.0247382 0.0322473 
0.0382119 0.0253571 0.0207588 0.0168767 0.0146337 0.0168533 0.00994697 0.0127795 0.0170158 
0.0111049 -0.0327675 -0.0367854 -0.0362131 -0.0298311 -0.00670424 -0.0209298 -0.017576 0.0214486 
0.0244056 0.0202641 0.0252663 0.0244403 0.0195454 0.0206147 -0.00271542 -0.00242695 -0.00247172 
-0.0273275 5.1935e-05 -0.000322466 -0.000304159 0.00346968 0.00221891 0.00865968 0.00705655 0.0130647 
-0.00280736 -0.00331065 -0.0039693 -0.00290381 -0.0246403 -0.0148009 -0.000457345 -0.00049203 0.00123546 
0.00666365 -0.0195534 -0.0218236 -0.0110034 0.0188817 0.0223168 0.000540965 0.000108419 0.000440596 
-0.0118019 -0.0118428 -0.0166825 -0.0310158 -0.0221355 -0.0212399 0.00187001 -0.00351763 0.0181798 
0.0199256 -0.0440464 0.00895769 -0.0398116 -0.00115593 0.0132512 -0.00276604 -0.0337898 0.0557178 
0.0519872 0.0465282 0.0481487 0.00650875 0.00237003 0.00904822 0.00305444 0.00196006 0.0169782 
0.0204652 0.0171032 0.0174433 -0.00220371 -0.000479966 0.00252869 0.00245386 0.0147039 0.0176744 
0.0152548 0.013444 0.0112003 0.0149475 -0.00293249 -0.0101817 0.00549439 0.00518071 0.0168542 
0.0160769 0.00120349 0.000616949 0.00307544 0.0030071 0.00292453 0.00301575 0.00347636 0.00247075 
0.00269934 0.00316695 0.00190539 0.00217689 0.00260338 0.00126529 0.00156049 0.00192604 0.000629758 
0.000908099 0.00119567 0.000114451 0.000337651 0.000522049 -0.000253049 -0.000104829 -1.82519e-05 0.00495159 
0.00364131 0.00936461 0.00700985 -0.00109562 -0.000286629 0.000777768 0.00192412 0.00122568 0.00335971 
0.00484748 0.00385748 -0.00242487 -0.00186708 -0.000711139 -0.00330875 -0.00295372 -0.00206401 -0.00365813 
-0.00355213 -0.00287478 -0.00342766 -0.00363256 -0.00313634 -0.00241669 -0.00300724 -0.00266443 -0.000622832 
-0.00149755 -0.0011931 0.00163093 0.000641072 0.00116488 0.00377648 0.00280747 0.00378701 0.00547461 
0.00461276 0.00587773 0.0066745 0.00626722 0.00753879 0.00595628 0.00599915 -0.0131488 -0.0162839 
-0.0153282 -0.0192479 -0.0151929 -0.0151485 -0.0187311 -0.0133669 -0.0143488 -0.0161418 -0.0105187 
-0.0115732 -0.012989 -0.00816847 -0.00917545 -0.00977148 -0.00634496 -0.00717901 -0.00749166 -0.00493661 
-0.00560917 -0.00589682 -0.0271971 -0.0181426 0.0066586 0.00889103 0.00729853 0.00141109 -0.0145709 
-0.017626 0.00224458 0.00181032 0.00181741 0.0106277 0.00952101 -0.00509632 -0.00288992 0.0141528 
0.0193019 0.0205723 0.000897771 -0.00617314 -0.00853435 -0.00620183 -0.00797991 0.000498543 0.00370797 
0.0156549 0.0173722 0.014913 -0.00805486 -0.011396 -0.0123757 -0.00272735 -0.0111836 -0.0167578 
-0.0204511 -0.0235666 -0.0180614 -0.00177029 -0.0049814 -0.00631421 0.0046716 0.00143184 -0.000230202 
0.0108504 0.00773852 0.00588032 0.0168924 0.0138045 0.01172 0.0222262 0.0194615 0.0170392 
0.0276077 0.0247489 0.0218582 0.0329661 0.0301026 0.0264698 0.0381751 0.0354436 0.0308702 
0.0060383 0.0101835 0.0102959 -0.0034875 0.00299582 -0.0354691 -0.0358365 -0.032683 0.0208411 
0.0215372 0.0169577 0.0218366 0.0220122 0.0176684 0.022218 0.02183 0.0182278 0.0216379 
0.0206933 0.0184498 0.0194157 0.0179648 0.0171268 0.0165072 0.0148656 0.0145913 0.0139027 
0.0117986 0.0126783 0.0106266 0.00898585 0.0110397 0.00922369 0.00943424 0.0112027 0.0101242 
0.0168155 0.0172547 0.0177488 0.01734 0.0131178 0.0125208 0.0143993 0.010707 0.0119966 
0.00954852 0.00162469 -0.0271861 0.00811089 0.00635464 0.0150978 0.016277 0.0109434 0.0151833 
0.0139504 0.00282881 0.00259959 0.00283465 0.00336877 0.0157516 0.00639593 0.00660206 0.00644649 
0.00841438 0.000272379 -0.000239316 -0.000975888 0.0112089 0.0343685 0.0417744 0.043655 0.00395589 
0.00264252 0.0227088 0.0278668 0.0312175 0.0111267 0.000723721 0.000515773 0.00830754 0.00543505 
-0.029672 0.0132777 0.0115168 0.00952216 0.00188939 0.00788785 0.00618838 0.00500554 0.00636915 
-0.0163094 -0.0118458 -0.00435132 -0.00465894 -0.00375388 0.012364 0.0119374 0.0150588 0.0091927 
0.00645528 0.0135677 0.0139397 0.011238 0.0115959 -0.000154585 -0.00036681 -0.00404271 -0.0184219 
-0.0125598 0.0106201 0.0158423 0.0141002 -0.00628411 0.00154767 0.00115331 0.00176675 0.0408921 
-0.024588 -0.0189319 -0.00181996 -0.00244175 -0.0015531 0.0123055 0.0146122 0.0142326 0.0153572 
0.0149571 0.0115139 -0.0238495 -0.0267214 -0.0300236 0.00251239 0.0032805 0.0070818 -0.00487552 
0.00474808 -0.00510878 0.0196225 0.0353447 0.00932996 -0.0262753 0.0116323 -0.0031391 -0.00303463 
-0.00334171 -0.00824477 0.0121321 0.00290916 0.00755317 0.0156192 0.0149214 0.0115543 0.0152646 
-0.0146243 -0.0108625 -0.0171173 -0.0107458 0.0129758 0.00978147 0.0119568 0.01546 0.0149564 
-0.000347619 0.0129808 0.00407229 0.00415561 0.00191375 0.00227603 0.00107614 0.00145131 0.00178071 
-0.00134521 -0.000791789 0.00177731 0.00296326 0.0059249 0.00487777 0.0291465 0.0109618 0.0112507 
0.00875179 0.011037 -0.00322747 -8.72373e-05 0.000747481 0.00239679 0.000626122 0.00440233 0.00598158 
0.00490563 -0.00199623 -0.00172681 -0.000496271 -0.00213743 -0.0021579 -0.00104412 -0.00149163 -0.0019927 
-0.00106647 0.000511435 -0.000566565 8.30911e-05 0.00399818 0.00251872 0.00322495 0.00744652 0.00618345 
0.00999692 0.00917341 0.000905918 0.00129277 0.000958082 -0.0191845 -0.0205515 0.0201396 -0.0107516 
-0.0127257 -0.00792853 -0.00926421 -0.0086197 -0.00604574 -0.0068395 -0.00615456 -0.00489824 -0.00549465 
-0.00485784 0.0129743 0.0116261 0.00257462 0.00190617 -0.004593 -0.00742739 0.0116196 0.0116766 
0.0100989 0.00984912 -0.0101398 -0.0131051 -0.00829479 -0.00925866 -0.0090322 -0.0151525 0.0116181 
0.0132201 0.00961919 0.00110466 -0.00191437 -0.00320373 0.0105942 -0.0150959 -0.0174935 -0.0127905 
0.0120585 -0.00107426 0.00773824 0.00975449 0.00816394 0.00688434 0.00402133 0.00223948 0.0122651 
0.00952324 0.00759617 0.016947 0.0146077 0.0123369 0.0207719 0.0186281 0.0161642 0.0242927 
0.0223284 0.0190122 0.0271515 0.0254002 0.0211053 -0.000681045 0.00338453 -0.0113256 -0.00536616 
-0.00374305 -0.0111963 -0.0181461 -0.0140335 0.00274272 0.00307541 0.0027259 0.00339957 0.0036405 
0.0035836 0.0105943 0.0147313 0.0150518 0.0159284 0.0158824 0.0127577 0.0154477 0.0144434 
0.0132874 0.0132195 0.0120699 0.0119601 0.00882015 0.00946697 -0.00525241 -0.0115193 -0.00938451 
-0.0094273 0.00733757 0.0080097 0.0105838 0.00937481 0.00786571 0.00854881 0.00577546 0.00248695 
-0.0293277 0.0236329 -0.00887688 0.0110304 0.00436232 0.000425875 0.00072314 0.00594467 0.00414267 
0.00376467 0.00175364 0.00678291 0.00834447 -0.021309 -0.00353347 0.00884974 0.00804252 -0.0174836 
-0.0136687 0.000917018 8.09565e-06 0.00168507 0.0187992 0.00975504 0.0098092 0.0086387 -0.00446182 
-0.00407772 0.0133977 0.0114734 0.0120493 -0.00394891 0.011795 0.0151074 0.0121048 -0.00341847 
0.00876875 0.0101299 0.00725274 0.0021342 0.00269116 0.00319096 -0.00127163 -0.00224148 -0.000626707 
-0.0119147 0.00868143 0.01074 0.0113665 0.00385167 0.0046371 0.00395223 0.00378127 -0.0108108 
-0.00327167 0.00784941 0.0072058 0.00556308 0.00617806 0.013377 0.0147434 0.0119144 0.0143544 
0.0091247 0.0057824 0.00343611 0.00868288 0.0109751 0.0103857 0.0109296 -0.0115928 0.00587581 
0.00837333 0.00706561 -0.0243739 -0.0106574 -0.00695181 -0.00707238 -0.000953528 0.00801 0.0103675 
0.00358488 0.00321613 0.00425534 0.00344286 0.00872839 0.00973324 0.000390776 0.000545765 8.05411e-05 
0.000882416 0.00125597 0.00226336 0.00776139 -0.00355588 -0.00547245 0.0180566 0.00410575 0.00915673 
0.00812927 0.00579002 0.00464441 0.00396316 0.0083998 0.0102084 0.012447 0.0103047 0.00840606 
0.0149454 0.0135734 0.0115196 0.0168946 0.0158482 0.0133294 0.0180902 0.0176223 0.0145369 
0.0147521 0.00392882 0.00429438 0.00480098 0.00393411 -0.00912343 0.00932412 0.009239 0.00943824 
0.00402125 0.00171711 0.000691634 0.00392818 0.00139139 0.00465942 0.00839718 0.00931834 0.00521329 
0.00673047 0.0085577 0.0100262 -0.00171533 -0.00412411 0.00346133 0.000777184 -0.000371335 0.00419973 
0.00382797 0.00371221 0.00205797 0.00754244 0.000370657 0.00190819 0.000256098 0.00142695 0.00215171 
0.00271283 0.00566902 0.00577842 -0.0076319 -0.00754827 0.000556724 -0.00262911 -0.00121798 -0.0113244 
-0.00905526 -0.00364499 -0.00427192 -0.00232786 -0.00185906 0.00906002 0.0100636 0.00842663 0.00502758 
0.00573776 0.00515875 0.0102526 0.0125187 0.00835413 0.00678541 0.00320636 0.004246 0.00596047 
0.00394682 0.0056035 0.00742982 -0.0070995 -0.0095086 0.0026696 0.00374979 0.00936108 0.00748847 
0.0124015 0.0103877 -0.00629238 0.00420478 0.005096 0.0061399 0.00376911 0.00931681 0.0045377 
0.00369842 0.0112089 0.0110729 -0.0055168 -0.00644677 0.00524599 0.00475143 -0.00387794 0.00452993 
0.00705658 0.00781549 -7.64683e-05 0.000228438 0.00668279 0.00676105 0.00242253 0.00128299 0.0121723 
0.0063784 0.00537761 0.00374166 0.00462927 0.00927383 0.00736321 0.00440295 0.00573564 0.00380422 
0.0102496 0.0117264 0.00866631 0.00754316 0.00710557 0.00997199 0.00193426 0.00692223 0.00761638 
0.0103913 0.0112697 0.0017219 0.00917452 0.00231062 0.00718834 0.00691341 0.00571949 -9.71464e-05 
0.00773508 5.66856e-06 -0.0994608 -0.00471038 8.43615e-06 3.42309e-06 -6.4066e-06 -7.78393e-06 -1.38198e-05 
-1.52293e-05 -2.03572e-05 -2.07933e-05 -2.49816e-05 -4.3446e-05 0.000425481 0.000755721 0.000904319 0.00107158 
0.000605195 0.00106284 0.00129138 0.00377859 0.000813608 0.000463756 0.000295423 -6.23793e-05 -9.74394e-05 
0.000498306 0.000536217 0.000430483 0.000460574 0.000345567 -0.000109503 0.000457366 -0.000160643 -0.00014571 
-0.000134753 -9.58195e-05 1.23721e-05 0.000146785 0.000258664 0.000378574 0.000249863 0.000296829 0.000222115 
0.100197 3.05971e-05 5.53264e-05 0.0073489 -0.00218015 -0.00236878 -0.00233871 -0.00110762 -0.000589878 
-0.00050558 -0.000319601 -0.000289224 -0.000156163 -0.00021601 -0.00020757 -0.000216256 -0.000132733 -0.000132657 
-0.000124987 -0.000107963 -5.22971e-05 -8.54563e-05 -0.00010246 -0.000116698 -0.000130619 -0.000113746 -0.000102462 
-0.000116655 -0.000113635 -0.000106459 -0.00011618 -9.35315e-05 -0.000110096 -7.72426e-05 -4.3853e-05 -3.34801e-05 
-3.64309e-05 -5.53076e-06 -2.33516e-06 3.33519e-05 3.88159e-05 9.03738e-05 0.000203431 0.000282388 0.000255422 
0.000290736 0.000311404 0.000242142 0.000268883 0.000160887 -3.32665e-05 -0.000174508 -0.000152202 -0.000200666 
-0.000162536 -0.00017425 -0.000154843 -0.000132063 -0.000130679 -9.29866e-05 -0.000105413 -7.00492e-05 -4.0159e-05 
-3.0938e-05 -3.26462e-05 -1.62653e-05 -2.46961e-05 -1.51201e-05 -1.51123e-05 2.24445e-06 1.2546e-05 3.44337e-05 
-0.000146036 -0.000156619 -0.000111333 -0.000111737 -0.000223516 -8.81078e-05 -0.00010931 -5.31993e-05 0.00015009 
8.87075e-05 -6.74988e-05 2.63427e-05 1.17522e-05 7.27316e-06 3.58792e-05 -5.24795e-06 -2.12445e-05 -2.91612e-05 
-2.58229e-05 -3.22384e-05 -3.72362e-05 -3.3224e-05 -2.35255e-05 -1.09901e-05 -1.09389e-05 -4.18867e-07 -6.55946e-06 
-8.25249e-07 -2.91418e-06 1.00613e-05 1.24667e-05 2.6474e-05 2.73771e-05 2.96819e-05 2.76723e-05 2.57611e-05 
2.02107e-05 1.26837e-05 1.10112e-05 2.18325e-06 6.27023e-06 5.20432e-06 6.00021e-06 2.67266e-06 6.59471e-07 
-6.85042e-06 -5.71147e-06 -1.29505e-05 -1.34392e-05 -1.5126e-05 -1.48155e-05 -1.43959e-05 -1.24449e-05 -7.40414e-06 
-7.55488e-06 1.54762e-06 -1.25372e-05 -3.35046e-05 1.18019e-05 1.59813e-05 -6.42764e-06 -0.138398 -0.200482 
-0.240277 -0.265454 -0.295009 -0.308363 -0.330064 -0.337325 -0.346832 -0.354227 -0.355589 
-0.359556 -0.365602 -0.362423 -0.364265 -0.358212 -0.355426 -0.342665 -0.346163 -0.33481 
-0.321507 -0.2989 -0.26384 -0.206183 -0.175967 -0.277747 -0.162888 -0.185945 -0.263792 
-0.240927 -0.31304 -0.297487 -0.337392 -0.323435 -0.351906 -0.343938 -0.359882 -0.357107 
-0.364249 -0.356698 -0.363437 -0.362268 -0.359013 -0.358712 -0.334447 -0.347103 -0.318153 
-0.33236 -0.276245 -0.298552 -0.165243 -0.260393 -0.128323 -0.151074 -0.0861124 -0.0576869 
-0.0653687 -0.11334 -0.0777298 -0.139986 -0.133607 -0.15432 -0.112106 -0.158794 -0.163588 
-0.161045 -0.12064 -0.161178 -0.161545 -0.163702 -0.156589 -0.1604 -0.10675 -0.153687 
-0.137766 -0.141173 -0.120681 -0.130055 -0.0881339 -0.106825 -0.0769057 -0.168223 -0.10859 
-0.332005 -0.200439 -0.268362 -0.17 -0.204439 -0.311407 -0.288533 -0.363717 -0.367778 
-0.357075 -0.370815 -0.370523 -0.367284 -0.353217 -0.141292 -0.358657 -0.349268 -0.368941 
-0.309281 -0.335454 -0.340411 -0.322142 -0.256079 -0.279628 -0.369747 -0.360776 0.00136349 
0.000957413 0.00148746 0.00107189 0.000804054 0.000883471 0.000401953 0.0386944 -0.00138453 -0.00103912 
-0.00115407 -0.000841196 0.0134085 0.00951842 0.00912147 0.035867 0.00142272 -0.000218949 -0.0018393 
0.00214143 0.00283402 -8.75229e-05 0.00488152 0.00517217 0.00180221 0.00383505 0.00320637 0.00269066 
0.0186438 0.031676 0.0202892 -0.00146582 -0.00105583 -0.000992478 -0.0408409 -0.040278 -0.0428001 
-0.0010269 -0.000479673 -0.000935335 0.00157735 -0.00308979 -0.000362513 -0.000455225 -0.000409989 0.0280466 
0.0241782 0.0256315 0.0422635 0.000366062 -0.000138361 -0.00278322 -0.00327081 -0.00247447 -0.00294073 
0.0857978 0.0792865 0.0917879 0.0842663 -0.00124261 0.00103784 0.000305829 0.00255844 -0.00415966 
-0.00442268 -0.005016 -0.0065263 -0.00753555 -0.00448954 -0.00522052 -0.00551132 -0.0173872 -0.00912447 
-0.022773 0.00406447 0.00208039 0.00545351 0.00334919 0.0319032 0.0307463 0.0267206 0.0231612 
0.0259622 0.0233857 -0.00275647 -0.00381897 -0.00317231 0.0258537 0.0213392 0.0299384 0.00389117 
0.00341139 0.00546756 0.00491596 0.000126726 -3.51432e-05 1.3688e-05 0.00750507 0.00628494 0.00919086 
0.0083071 0.0199054 0.0163943 0.0204949 0.0168067 2.90562e-05 6.09919e-06 -2.4057e-05 -5.73772e-05 
-0.00333212 -0.00395145 -0.0036127 0.0180111 0.022455 0.022078 -0.0362252 -0.0325663 -0.0334194 
0.0248396 0.0012343 0.0020839 0.000237717 -0.000161279 -0.000447065 0.00012171 -0.0310165 -0.0357434 
-0.035047 0.00243431 0.00277621 0.00236472 0.00268735 -0.00129787 -9.47997e-06 -0.000651708 -0.00390644 
-0.00376957 -0.00411393 -0.00395814 -0.00410151 -0.0030529 -0.00524972 -0.0039878 -0.00463672 -0.00688598 
-0.00505749 0.00103601 0.000101551 0.0376731 0.0252039 0.0255474 0.0333619 0.0124451 0.0189778 
0.00993584 0.0151805 0.00114402 0.00145455 0.00102395 4.7271e-05 -0.0254366 -0.0348083 0.0149619 
-0.0436433 0.0223974 -0.0236398 -0.00389093 -0.00356651 -0.00379098 0.00463561 0.0034542 0.00511181 
0.00399611 0.00170605 0.00169916 0.00130615 -0.0350278 -0.0956867 -0.0644101 0.0217213 0.0170657 
0.0149575 0.00243372 0.00203788 0.00202262 -0.000691617 0.00589674 0.00861423 0.00666719 0.000277513 
-8.20406e-05 1.44936e-05 0.0208277 0.0260235 0.0220949 0.0274555 -0.0533838 -0.0522263 -0.0490547 
-0.045348 -0.0424084 0.0103474 0.0108757 0.00907691 0.00930461 0.0114967 0.0152208 0.0145821 
-0.0388106 -0.00247732 -0.00260165 -0.00315939 -2.10354e-05 0.000187567 0.000229313 0.000474187 0.000230236 
0.000892741 -0.0740821 -0.0800411 -0.075377 -0.0325564 -0.0302074 -0.0333999 0.00758614 0.00735145 
0.00611182 0.00589863 -0.00267056 -0.00149216 -0.00269475 -0.00617707 -0.0085243 -0.00192354 -0.00695347 
-0.0129371 -0.000165784 -0.00014159 -9.33951e-05 -8.59023e-06 -0.018186 -0.0200805 -0.0168509 0.0504999 
0.00637946 0.00683596 0.00637202 0.0479807 0.0310312 0.0195888 0.00184286 0.00204598 0.00230467 
0.00541173 0.00413417 0.00496266 0.00728943 0.00757342 0.00957715 -0.00194984 -0.00138659 -0.00187407 
-0.0012567 -0.00134938 -0.00164392 0.00756212 0.00548348 0.00579224 0.00960247 0.0123095 0.0108175 
-0.00236974 -0.00283383 -0.00342211 0.0419427 0.0414725 0.0426576 -0.000772336 -0.000200958 -0.00050128 
-0.000553595 -0.000175573 -0.00478523 -0.0051879 -0.00582578 -0.000506092 -0.000620932 -0.000464311 -0.000573579 
-0.0018142 -0.00184244 0.0371965 0.0351756 -0.00132354 -0.000904617 -0.000487841 -0.000182704 0.0123999 
0.0149484 0.0119557 0.0146102 0.0028265 0.00106634 0.000101538 -0.00021702 -0.001133 -0.0567381 
-0.0531018 0.0120514 0.0154579 0.0136796 0.00231855 0.00158178 0.00103184 0.0480026 0.0462679 
0.05178 0.012833 0.0162433 -0.00288629 -0.00533388 -0.00337436 -0.00405876 -0.00685465 -0.010599 
0.00714343 0.0103952 0.00652377 0.00965626 -0.00022782 0.0109788 0.0144396 0.0118573 -0.000539575 
-0.000576263 -0.000630038 -0.000678977 -0.000714891 -0.00536211 -0.00567427 -0.00642687 0.000393675 0.0582327 
0.002117 0.00170001 0.00190761 -0.000301034 -0.000509891 0.00111511 0.000744609 0.00201712 -0.0186635 
-0.0199614 -0.0146439 0.0492909 0.0498133 0.0514335 -0.000960637 -0.000274721 -0.00153818 8.70603e-07 
0.0576012 0.0548489 0.0645499 0.0536053 -0.000608475 -0.0023623 0.00382427 0.00475904 0.00589217 
0.0280703 0.0230836 0.0285208 0.0503116 0.0405111 0.0506066 -0.0241519 -0.0233373 -0.0208287 
-0.0623983 -0.0604186 0.00824966 0.00450554 0.00571364 0.0413716 -0.0713537 -0.0736975 -0.0773803 
-0.00121214 -0.00080609 -0.0014608 -0.000673886 0.00441603 0.00193983 0.00323988 0.00101215 0.0119249 
0.0100746 0.0105187 -0.0156531 -0.0149628 -0.0187552 -0.0181182 -0.0197426 0.00044252 0.000413437 
0.00359237 0.000563489 0.000664031 0.00083806 0.00952622 0.0108247 0.0418877 0.0446282 0.0455658 
0.00130462 -0.00663014 -0.00139952 0.00092267 0.00127495 0.00166612 -0.0013169 -0.00357476 -0.00338982 
-0.00387944 0.00996862 0.00865461 0.00593857 0.0421817 0.00054331 0.000956157 -0.025082 -0.0232417 
-0.0279096 -0.000820588 -0.00114711 0.0230264 0.0358805 0.029096 0.00776896 0.00835103 0.00542178 
0.010754 0.00162349 0.00175455 0.00209634 0.00591303 0.00490083 0.00605177 0.000338591 0.000273536 
0.000452809 0.000656705 0.00122196 0.00118053 0.0529453 0.0525146 0.0484134 0.0335501 0.000355328 
0.00149176 0.00156843 0.00273048 0.0260073 0.0184276 -0.0271725 0.0237873 0.0258899 0.0217047 
0.0379809 0.0395495 0.0337729 -0.0383488 -0.0320418 -0.0320713 -0.007782 -0.00842392 -0.00575943 
-0.000255571 -0.00576318 -0.00660172 -0.00998343 0.00733941 0.0564677 0.0618245 0.0559707 0.0608071 
-0.00365288 -0.00409374 -0.00696102 -0.00721403 -0.000622117 -0.00065761 -0.000743512 -0.00236423 -0.00115548 
-0.00216206 0.00524087 0.00569244 0.00709015 0.00245845 0.00215925 0.00203933 0.013942 0.0151005 
0.014311 0.01571 0.0296997 0.0235731 0.0183188 0.0155621 0.00124754 0.00155161 0.000482343 
0.00404394 0.00279252 -8.83236e-05 0.00352122 0.00230409 -0.00265031 -0.00383934 -0.00419222 -0.00256791 
0.0326859 -0.00361915 0.0106577 0.0106651 0.00977912 0.00790573 -0.00332799 -0.00330388 0.0169673 
0.0141659 0.0142155 0.00172517 0.00548225 0.0039017 0.00420742 0.0032519 0.00394597 0.00285274 
0.00285275 0.00253796 0.0149581 0.0132591 0.0160356 -0.00199104 -0.00301585 -0.000262446 0.00457831 
0.00255163 0.00226935 -0.000102574 0.00132038 -0.000276349 0.0145084 0.0174512 0.0151541 0.0168553 
0.0114796 0.0137681 0.00901639 0.00780325 0.0201635 0.0207823 0.0125724 0.0126926 0.00309401 
0.00358611 0.00327073 0.00830339 0.00954892 0.00716873 -1.79359e-05 -8.43606e-05 -5.95231e-05 0.0293427 
0.0243888 0.0332446 0.0280144 0.00320601 0.00673669 0.0051107 -0.000270469 -0.000241493 -0.00033225 
-0.000307838 -0.0676018 -0.077655 -0.0526965 0.014888 0.0143022 0.0168362 -0.0129606 -0.013373 
-0.00887191 0.00086873 0.000673669 0.000582693 0.000413453 0.00713722 0.0139744 0.01867 0.0144596 
0.0567286 0.00640775 0.000897958 0.00143771 0.00282462 0.00259841 -0.00018084 0.0200522 0.00198739 
0.00112413 0.00256277 0.00162701 0.0182584 0.00440624 0.00253627 0.00339722 0.00340572 0.00159014 
0.00026999 -0.00663761 -0.00419053 -0.00969999 0.0440922 0.0388855 0.0452222 0.00203234 -0.0122612 
-0.00858876 -0.00146452 0.0120071 0.00674419 0.00690301 0.00483978 0.00489911 0.00159699 0.0116105 
0.0116164 0.0112031 0.00459411 0.00421889 0.00411802 0.00377835 0.00244863 0.00482987 0.0407218 
0.0499638 0.04908 0.00496891 0.00474719 0.00430754 0.00410206 0.0213469 0.0188505 -0.000583736 
-0.000503657 0.0317374 0.0499487 0.0468432 -0.00141353 -0.00207761 -0.00167308 -0.00157473 0.00473147 
-0.00018857 -0.000129576 -7.32337e-05 0.000177754 -0.0691274 -0.0678039 0.043477 0.0371201 0.0371497 
0.000349348 0.0224694 0.0209639 0.0260381 0.00523959 0.00352349 0.00270523 0.00990072 -0.000805666 
-0.00116837 -0.00128181 0.0124685 0.010613 0.010822 0.00948306 -0.00944649 -0.0167685 -0.0128363 
-1.52853e-05 -8.43242e-06 -0.00122133 -0.00222889 -0.00113666 0.00688909 0.00549324 0.0186211 -0.00126301 
0.00022524 -0.0120867 -0.0151171 -0.0108391 -0.0138709 0.02054 0.0198173 0.0171048 -0.000650187 
-0.000748938 0.00326592 0.006167 0.00426929 -0.000339096 -0.000563878 -0.000503709 -0.0077697 -0.00567709 
-0.00934439 -9.70848e-05 0.0109106 -0.00915918 0.000627424 0.000759031 -0.00012357 0.0129697 0.013349 
0.0110493 0.0112736 0.00816675 0.00971111 0.00993345 -0.00240506 -0.00013486 -0.000382593 -0.000513178 
-0.000842146 0.000443442 0.00183348 0.0290984 0.0253217 0.0397506 -0.00128994 -0.00177123 -0.00125879 
0.024067 0.0231751 0.0274836 0.00637854 0.00665272 0.00683693 0.00711895 0.000416576 0.023388 
-0.00715931 0.00019455 -0.000639966 0.00436102 0.0267553 0.00783571 -0.0266455 -0.0236945 -0.0268199 
-0.0421607 -0.0429864 -0.00616717 -0.0208541 0.00268063 -0.00397207 -0.00309251 -0.00349427 0.0148381 
0.0127141 0.0183768 0.00392638 0.00409296 -0.000727658 0.0115379 0.0093401 0.0109158 0.00252746 
-0.030017 -0.0331265 0.00807533 0.0092689 -0.000293286 0.0103991 -0.00121485 -0.000911953 -0.0014822 
-0.000136633 -0.000316218 -0.000575622 -0.00799812 -0.00723103 -0.00672317 -0.000736831 -0.0020642 0.000236628 
-0.000804425 -0.0023902 -0.00264074 -0.00295865 -0.003226 0.000910322 -0.00112783 0.0010836 -0.00128028 
0.00485552 -0.00186155 0.0206066 0.0221221 0.0251866 -0.0469559 -0.0459562 -0.0492966 -0.0329561 
0.0180769 -0.00198584 -0.00382238 -0.00194832 -0.0489401 -0.048077 -0.0548987 -0.0486587 0.0400802 
0.0273273 -0.00932249 -0.00469721 -0.0221465 0.0145161 0.0193244 0.016944 0.0220805 -0.0135366 
-0.0178919 -0.0054289 -0.00563323 -0.00843014 0.020218 0.0190945 -0.0434268 -0.020023 -0.00448 
0.0225531 0.0200944 0.00841136 0.00884458 0.0105552 0.000469083 0.0321476 0.041663 0.0368888 
0.0257844 0.0100121 0.0099307 0.011125 0.0343575 0.0384839 0.0316292 0.0353785 -0.0131512 
-0.00655481 -0.0294078 0.00439211 0.00315351 -0.00366939 -0.00261307 -0.00305479 0.0160641 0.013062 
0.016594 0.0125549 0.0118215 0.0311808 0.0325372 0.000728773 0.000590678 -0.00544015 0.01377 
0.00414193 0.0111577 -0.098115 -0.114305 -1.13732e-05 -0.0409929 -0.00798542 -0.00727013 -0.00876369 
0.00906051 0.00169855 0.00169163 -0.000539309 -0.000696187 -0.000328366 0.0340624 0.0279765 0.0403797 
0.039326 -0.00149644 0.00225948 -0.00396865 0.0398581 0.0488093 0.00314849 0.00621336 -0.000767763 
0.00421725 0.00199094 0.00341263 0.00385088 0.00311376 0.00351702 0.00588738 0.0061077 0.00871492 
0.00895544 -0.00183802 0.000959958 -0.000669924 0.000683739 0.00292085 0.00194194 0.00183116 -0.00278446 
-0.00309177 -0.00297117 -0.0033207 0.00772685 0.00513757 0.00301058 0.00664428 0.00680829 -0.000707029 
0.002429 0.00157706 0.00115971 0.0011177 0.012095 0.00930753 -0.00304524 -0.00229162 -0.00251789 
-0.000233427 -0.00043277 -2.84403e-05 -0.000278496 -0.000290274 -0.000362832 0.00466122 0.000992246 0.00503377 
0.00919788 -0.00904764 -0.00718643 -0.00695146 -0.00514989 0.00711874 -8.3724e-05 0.000336804 0.0016779 
-0.000125791 0.00125076 0.000328213 -0.00245366 -0.00221374 -0.00272092 -0.0399164 -0.0403175 -0.0371585 
0.000341038 0.000214021 0.0070018 0.00277133 0.00335937 0.0236479 0.0221431 0.0186081 6.7708e-05 
0.000100768 0.000226742 0.0498275 0.0459991 0.00144195 0.000748665 0.000359919 -0.0274423 0.00536074 
0.00454902 0.00618671 0.0357289 0.0358063 0.0308821 0.00595833 0.000101383 0.000220962 0.000112054 
0.00813477 0.00617063 0.0560528 0.00550665 0.00384911 0.00493631 -0.000222475 -0.00380287 -0.00150555 
-0.000942144 -0.00178487 -0.0023677 -0.00226585 -0.00190556 -0.000951409 -0.000214584 -0.000106164 0.0368446 
0.000432964 0.000602308 -2.48132e-05 0.000322921 0.00139594 0.000646276 0.00216679 0.00150453 0.00954677 
0.00128094 0.00146956 0.000963682 0.00114135 0.00310661 0.00596506 0.00696575 0.00654757 -0.00331577 
-0.00297458 -0.00261047 -0.00183748 -0.000773958 0.00863057 0.0104859 0.00754107 0.00913826 -0.00610825 
-0.00455574 -0.00399324 -0.00385217 -0.0033181 -0.00758803 -0.0101121 0.101244 0.0691631 0.00152567 
0.00437127 0.000500825 -0.00233487 0.00365874 0.00322945 0.00319276 0.00291833 0.000886803 0.000785708 
0.000616507 -2.94397e-05 -0.000149671 -0.00073652 -0.00055466 -0.000532594 -0.0529834 -0.0967542 -0.0495654 
0.0391154 0.0337558 0.0405197 0.0606445 0.0576807 0.0467202 0.001172 -0.000424052 -0.000919647 
-0.000512798 0.0103151 -7.64574e-05 0.0285723 -0.0360393 0.0600346 -0.0541004 -0.0580798 -0.0594233 
-0.0200731 -0.0140956 -0.0156542 0.00983644 0.0118131 0.00157125 0.00183908 0.00195028 0.00771065 
0.0043001 0.00104181 0.0294914 0.0337881 0.0308307 0.0142719 0.00923527 0.00946036 0.0154364 
0.0172027 0.0447402 0.0457517 0.0132185 0.0126259 0.00256963 0.00300195 0.00306398 0.00253893 
0.00408054 0.0429018 0.0377998 0.0366087 0.0016077 0.00316357 0.0092995 0.0084288 0.0356325 
0.0415911 -0.000977 -0.000507531 -0.000349449 0.0551555 -0.0286784 0.0398291 0.0351892 -0.0391255 
-0.00453263 -0.00707263 0.0101288 0.0113062 0.0115952 0.0268998 0.0266461 0.0251202 -0.000102472 
-0.000279109 0.00800302 0.00901225 0.00677591 -0.0023648 0.0002689 0.00774554 0.0095275 0.00738968 
0.00945019 0.0251562 0.0274621 0.0209774 0.0232609 -0.00134056 -0.00122231 -0.0123539 -0.010483 
-0.0125537 -0.0106056 0.0436412 0.0373628 -0.00961737 -0.011807 -0.0101838 0.0348792 0.0413896 
0.0178427 0.0179469 0.0153914 0.057545 0.0441834 0.0241899 0.0292935 0.0316414 -0.00040746 
0.00102965 0.00127785 0.00275436 0.0119983 0.0152525 0.00026276 0.00116193 -0.000443582 -0.00278993 
0.0283122 0.030087 0.024065 0.0165152 0.000302608 0.000243843 0.000464665 0.000606673 0.00050587 
0.00122949 0.0125939 0.013794 0.015109 0.0176404 0.0160438 0.0216533 0.0203256 0.00557006 
0.00722674 0.0064565 0.00804838 0.0154809 0.0129624 0.0172209 0.00251421 0.00219431 0.00202061 
0.00391752 0.00311968 0.00247068 0.00285741 -0.0114604 -0.000167675 -7.5467e-05 -0.000106867 0.0119302 
0.0119457 0.0120848 -0.00403818 -0.00235583 -0.00183365 -0.00416617 -0.0121818 0.00073782 0.00404422 
0.00917067 0.00462772 0.00428172 0.0142515 0.0127467 0.00497913 0.00578454 0.00777914 -0.00621113 
-0.0163376 -0.0203725 -0.0215719 0.00403902 -0.00133298 -0.00396409 0.000636473 0.0189948 0.0171517 
0.0221691 -0.00441946 -0.00081148 0.0485362 -0.0146264 -0.0142859 -0.0123561 -0.0120147 -0.00597945 
-0.00724565 0.00216246 0.0132061 0.0133661 0.0156494 -0.0871387 -0.10312 -0.0809298 0.000361309 
0.00123974 -0.00275617 0.00310393 0.00513598 0.000815561 0.0436775 0.00479642 0.0158414 0.0124544 
0.0129196 0.0123431 -0.0353469 -0.0316467 0.00512198 0.00163303 0.0153699 0.0128732 0.00286235 
0.00290342 0.0403718 0.0397567 0.0394002 -4.04698e-05 0.00244997 0.00291885 -0.00369235 -0.00351093 
-0.00417492 -0.00026005 -0.000287475 -0.000225586 0.00392095 -0.00163095 -0.00179297 -0.00150246 -0.002356 
-0.00092366 -0.00147097 0.0124909 -0.00237137 -0.00203233 -0.00166693 0.000639759 0.00293008 4.58742e-05 
-0.000614061 0.00214835 0.00264048 -0.00750013 -0.00961071 -0.026354 -0.0270859 -0.029999 0.00926248 
0.00745536 0.00693573 0.0288617 -0.0255748 -0.0295584 0.018384 0.0215047 0.0231629 0.0533826 
0.0558539 0.0512094 0.0458674 0.0489144 -0.000308599 -0.000146965 0.0387073 0.0382215 -0.00239197 
-0.00146762 -0.00258564 -0.00164051 0.0251988 0.0272273 0.0375691 0.0344096 0.0380077 0.00931336 
0.00871573 0.0107319 0.0143784 0.0308528 0.0295264 0.0317719 -0.000102673 -0.00972651 -0.000223092 
-0.000210345 0.00794976 0.00758298 0.00834538 0.0102078 0.00877413 0.00902475 0.0214474 0.0267379 
0.00260241 0.00698613 0.00702632 0.00869633 0.0087872 -0.0428894 -0.042548 -0.0456185 0.018865 
0.0109032 0.0156506 0.0232967 0.0261781 0.0298906 0.00387207 0.00302415 0.0229758 0.00448302 
0.0193678 0.00886368 0.0123522 0.00932057 0.0100337 0.0142432 0.0331552 0.0375542 0.0441423 
0.0379645 -0.000380462 -0.000360865 -0.00034049 -0.000326528 0.0343085 0.0359671 0.030446 -0.00887245 
-0.000223953 -0.000335244 -0.00039465 0.0343339 -0.00315148 -0.000109573 0.0332069 0.0278481 0.0243181 
0.0325456 0.0144843 0.0130611 0.0416689 -0.00025937 0.0036162 -0.00239155 -0.00213886 -0.00212939 
-0.00193077 0.00408695 0.00372762 0.00337832 0.0139468 0.0122826 0.00121118 0.000902334 0.00136212 
0.00173875 0.00136276 6.66853e-05 0.046336 -0.000476898 -0.000399883 -0.000440481 0.000792015 0.000824447 
0.00100819 -0.00064824 0.013836 0.0171754 -0.000215369 -0.00100616 0.0449026 -0.00914533 -0.00238511 
0.0724531 0.0706538 0.0433523 0.0486125 -0.00392309 -0.0038606 -0.00418733 -0.00390256 -0.00415501 
-0.00415693 0.0181916 -0.00340077 -0.00339472 -0.000436851 -0.000471797 -0.00406082 -0.00111484 -0.000541628 
0.00840641 0.00981961 -0.0212869 -0.0152827 -0.0257804 0.016925 0.0164078 0.0147553 6.47841e-05 
-0.00308504 -0.0036217 -0.00312435 -0.000833944 -0.000701221 -0.00104275 -0.00199512 -0.0025666 -0.00284765 
-0.0376508 -0.0611294 -0.0309906 -0.0577364 0.0388517 0.0491377 -0.0137436 -0.0148241 -0.0129073 
0.00715571 0.000877027 0.00285848 -0.00320049 0.000269331 -0.0173904 -0.0187054 0.0108641 -0.0238704 
0.0251724 0.0196063 0.0200348 0.00612075 0.00418571 0.011083 0.0114725 0.00634071 0.00572241 
0.00530636 0.00474735 0.0055428 0.000570091 0.00052102 0.0013866 0.0016432 -0.0293095 -0.0254647 
-5.84785e-05 -0.0549748 -0.0299296 0.00832374 0.00782123 0.0374028 0.00196157 0.00107834 0.0202613 
0.0205632 0.0180313 0.0205738 0.018149 0.0156804 0.0157637 0.0134057 0.0455908 0.043649 
0.0017506 0.000122377 -0.00286459 -0.00307955 -0.00348534 0.0138953 0.0165199 0.0742117 0.0722434 
0.0728213 -0.00923233 -0.00874447 0.00663312 0.00548539 0.00180089 0.00259146 0.0011489 0.00182279 
0.00160111 0.000817666 -0.00285263 0.00279495 -0.00332503 -0.00475532 -0.00262136 -0.00210905 0.00569451 
0.00507398 -0.000255412 0.000627895 0.0181517 -0.00426761 -0.00458591 0.0182926 0.0281819 -0.00231525 
0.0102606 0.0118454 0.0135647 -0.000291983 -0.00923226 -0.00906461 0.0218409 0.0261574 0.0261061 
-0.0964008 -0.0229571 -0.0182664 -0.000416847 0.00333954 -0.0285076 0.0022617 0.00961418 0.00288051 
0.00310203 -0.0256613 -0.000404276 -0.0340771 0.000221767 0.000390809 -0.0125833 -0.0146152 -0.0108721 
-0.0130807 -0.0140092 -0.00959945 -0.00613095 0.00579502 0.00326023 -0.00945759 0.00635046 0.00563229 
0.00938782 0.0100169 0.00126853 0.00172627 -0.00470946 -0.00435501 -0.000156522 0.000439521 0.0146619 
-0.00268542 -0.00351362 -0.00460564 -0.00198783 -0.0298301 0.0027379 -0.00791524 -0.0105033 0.0111269 
0.00527997 0.0063376 0.00489133 0.0282848 0.000989531 0.00123891 0.000879892 0.0440952 -0.0391811 
-0.000497817 0.0135557 0.0113622 0.0226104 -0.00107247 -0.00182354 0.000506155 -2.64231e-05 -0.00843901 
-0.00910936 -0.00943144 -0.0101162 0.00801006 0.0122222 0.00575727 0.00954786 0.00034284 0.00699985 
0.0210523 0.0136384 -1.16857e-05 -0.000502129 0.000197647 0.00659639 0.0117586 0.0117972 -0.00191995 
-0.00141922 0.00119445 0.000721224 0.00106172 0.0102576 0.011161 0.00710146 -0.0138826 -0.00277226 
-0.00230293 -0.00171209 -0.00227737 -0.000726631 -0.00174394 -0.000141529 -0.000145477 -7.94877e-05 -0.000407884 
0.000151845 -0.0143051 -0.0124598 -0.0141984 0.0477676 -0.00107624 -0.00204034 0.0478398 0.00207901 
0.0039821 0.00523983 0.00446624 0.0267487 0.03567 -0.00498971 -0.00531251 -0.00567358 -0.00524681 
0.00786599 0.00598417 0.00397039 0.00325862 0.00916053 0.0108421 0.00833371 0.000726661 -0.000580591 
0.00279859 0.00149691 -0.0264882 -0.0478813 0.0135768 0.0223214 0.0119351 0.0126224 0.0139663 
0.0151468 0.00512206 -0.010811 -0.00823233 -0.00958423 0.00278659 0.00294504 0.00317278 0.00723602 
-0.00294764 -0.00267459 -0.00085837 -0.00229126 -0.00172229 -0.00140213 -7.83204e-05 0.000404937 0.00156214 
0.00190492 0.00153547 -0.000109964 0.00134213 -0.0377671 -0.0279816 -0.00015691 -0.00326302 -0.00251748 
-0.00274619 -0.00195149 0.000299247 0.00290626 -0.00348808 -0.00273592 -0.00242384 -0.0137849 -0.0163181 
0.0403069 -0.00104316 -0.00149003 -0.00144703 -0.00103611 -0.00495613 -0.000264974 -0.00659995 0.0250877 
0.0208501 -0.0027653 0.0497602 0.0160992 0.00732249 0.00648895 0.00851355 0.0142391 0.0146223 
0.0169151 0.0148125 -0.000393222 -0.000441043 0.00742879 0.00958195 0.000615869 4.92504e-06 0.000497537 
0.00268477 -0.0105565 -0.0110601 -0.00907699 0.00171642 0.00152363 0.00133903 0.00933507 0.0106873 
0.011625 -0.000279701 -0.000240145 -0.00030736 0.106259 0.0863919 -0.00031005 -0.000392898 -0.00158095 
-0.00207513 0.0189362 0.0131942 0.00635763 0.010371 0.0230458 0.00407946 -0.0635782 -0.0316387 
0.00580056 -0.0174859 -0.018775 0.00237868 0.00196237 0.000352368 -0.000368703 -0.000267084 -0.0111046 
-0.0117143 -0.0122944 0.00035063 -0.000116521 0.000141547 0.00925333 -0.000406177 0.00225456 0.00309019 
0.00587689 0.00898074 0.00726126 0.00421875 -0.0649856 -0.0630183 -0.001716 -0.00154095 0.00263545 
0.0104202 0.00587357 -4.02416e-05 0.00135791 0.00162979 0.0408921 0.00354695 0.00314178 0.000372016 
-0.00255128 -0.00321874 0.0282251 0.0301804 0.0315582 0.0470019 0.0722348 0.0617971 0.0112812 
0.0338576 0.0370939 0.0274388 0.0325012 0.0275384 -0.000187973 -0.0150821 -0.0279252 -0.0343079 
-0.0280025 -0.0144694 0.00076189 0.00043009 0.0130866 0.00348093 0.0184371 0.000269807 -8.40825e-05 
0.00422483 0.00422556 0.00987862 0.00885449 0.000174078 0.000718469 -0.000799576 0.00274521 0.00314048 
0.00328829 -0.00267019 -0.00235901 -0.0028372 0.0214947 0.00272042 0.00599434 0.00618965 0.00376953 
0.00468376 0.00305956 -0.00787737 -0.0107577 -0.00623384 0.0673742 -0.00400955 -0.00447837 -0.00808535 
0.00117497 0.00210412 -0.00599293 -0.00594938 -0.00501034 0.020743 0.0232725 0.000904913 0.0016116 
-0.000858396 -0.0188283 -0.0255997 -0.00359358 -0.00686629 -0.00931171 0.000413343 0.00384814 0.0157643 
0.0179248 -0.00256401 -0.0022963 2.79712e-05 -6.52814e-05 -5.34833e-05 -0.000110789 -0.00648172 0.000973112 
0.00574933 0.00627145 0.00651174 0.00444406 0.00427814 -0.00364471 0.000981375 0.00296295 -0.000140077 
-0.000287917 0.0010195 0.031387 -0.01477 -0.0122622 -0.00997957 -0.01028 0.00585717 0.00637992 
0.00570002 0.0290721 0.017957 0.0162704 0.0209735 0.0255919 0.0179967 0.0222228 0.0274096 
0.00223758 0.0114249 0.0136217 0.00843511 0.00783448 0.0105087 0.0114734 0.000406187 -0.0365171 
-0.057032 0.000699216 -0.00121262 0.0265327 0.00481264 0.0188979 0.0333684 0.0475407 0.0204932 
0.0163881 0.0127851 0.0159921 0.0341344 0.0170411 -0.0043727 -0.00470338 -0.00413803 0.00373068 
0.0250855 0.0747663 0.0115896 0.0515772 0.0164126 0.0390797 0.0463643 -0.0373579 -0.0492595 
-1.05448e-05 -0.0642432 0.00178283 0.0181671 0.00480563 -0.0100566 -0.0159115 -0.0148443 -0.00342848 
-0.00372271 -0.00701509 0.0336952 -8.46533e-05 -0.00171626 -0.00828489 -0.00750852 0.00840749 0.00538105 
0.0056692 0.00596052 -0.0274825 -0.0226406 -0.0257335 -0.0104636 -0.0012762 -0.00139026 0.00900774 
0.00856364 0.00663166 0.00601358 -0.000862648 -0.00263929 -0.00105429 0.00839949 0.00666658 0.00209521 
0.000387368 0.0175851 0.00666654 0.0170383 0.0230161 0.0182777 0.0289473 0.0317855 0.0107545 
0.00925593 -2.56801e-05 0.036169 0.0353243 0.00654392 -0.000241311 -0.000157721 -0.000371586 0.000561406 
0.000564407 0.00524599 0.0184254 0.0136227 -0.000101933 -0.000108087 -0.000196818 -0.000300494 -0.000377589 
0.0022702 0.00417618 -0.0245854 -0.0201468 -0.0166457 0.00799163 0.0101199 -0.00128301 -0.00161559 
-0.0017991 0.0100635 0.0378768 0.037437 -0.000672071 0.00953832 0.00920912 0.00123639 0.00116957 
0.00156282 0.00181835 0.00165634 0.00192978 0.00477334 0.00295376 0.00708407 0.0184222 0.0257664 
0.0212206 0.0205422 0.0258422 0.0184407 0.0203795 -0.00246851 -0.00190225 0.00619319 0.00734633 
-0.000502645 -0.00205064 0.000764809 -0.000183065 -0.00240037 -0.00206756 -0.0025949 -0.0030532 -0.00295789 
0.00722285 -0.00186391 -0.0058704 -0.000936667 -0.00217736 -0.00635794 -0.00660403 0.0059546 0.0236065 
0.0283338 0.0222383 0.00994033 0.0103548 0.0106104 0.0418398 0.026867 -0.0513304 -0.00922424 
-0.00736875 -0.0100198 -0.0194244 -0.0192297 -0.0183274 0.0376549 0.0382314 0.0100286 0.0109749 
0.00789648 0.00921404 0.0055654 0.00759677 0.0329806 0.0116298 0.0151918 0.0113824 0.010737 
0.0116398 -0.0132132 0.00152556 -0.0049988 0.00247237 0.00225963 -0.00181901 0.00127628 -0.0225948 
-0.0142963 -0.00024774 -0.000626233 -0.000404708 0.00957495 -0.00187526 -0.00102677 -0.00090306 -0.021567 
-0.0243898 -0.0176928 -0.0206834 -0.0186863 -0.00630189 -0.00927775 -0.0105916 -0.00850553 -0.0106373 
-0.012622 -0.0121603 0.01124 0.0107491 0.0101591 0.0104722 0.0187324 0.00617128 -0.00191409 
0.00157672 0.0023916 0.00465395 0.0090019 -0.00373915 0.006282 0.00865962 0.0165954 0.0257783 
-0.0223974 0.011021 0.00950103 0.00179778 0.00160403 0.0220677 0.00243862 0.0032669 0.00873862 
0.0405085 0.000616829 0.00684167 0.00368444 0.0125532 -0.00205349 -0.00722074 -0.000846273 -0.00224108 
-0.00270229 0.00201634 0.00296745 0.00205541 0.00287179 0.00213178 -0.000806478 -0.00122728 0.0401106 
0.0024782 -0.00742902 -0.00392841 -0.00695454 -0.00522433 -0.00923202 0.00365168 -0.0118675 -0.00986724 
0.0253221 -0.067031 -9.31974e-05 -0.000287762 -0.000484159 0.0575617 -0.000610688 0.0604172 0.024834 
6.93418e-05 0.0287109 -0.0032672 -0.00393938 -0.00297247 0.0183778 0.0196849 0.00298695 0.00385796 
0.0123722 0.0333174 -0.0100164 0.0124943 0.00943904 -0.000581757 -0.000244645 -0.016627 -0.0172043 
-0.0139838 0.00381801 0.0016413 0.0378161 -0.00991407 0.0416705 -0.0132323 -0.00265308 0.0171511 
0.0180048 0.0228402 0.0021344 0.0138053 0.00388152 0.00968373 0.01084 -0.00152668 -0.00187391 
-0.0311977 -0.00506266 -0.00262327 -0.00330428 0.0176377 0.000476535 0.000184707 0.0295001 0.0472243 
0.0194223 0.0105885 0.0078703 0.00585927 0.00813953 0.0159684 0.0025185 0.00439543 -0.0032416 
0.00207185 0.00108447 -0.00501643 0.0058322 0.00694035 -0.00251443 0.0351113 -0.00514451 0.00614026 
0.0115845 0.0110022 -0.00206675 -0.00124615 -0.000383931 -6.57715e-05 0.000996877 0.0306879 0.0265342 
0.0307013 0.015864 -0.00103294 -0.0367007 -0.00750658 0.0179175 0.0241 0.0305047 -0.000531035 
-0.000829774 5.40472e-06 0.00195201 0.0218073 0.0200837 -0.0276356 -0.0522543 -0.00148063 0.00981515 
0.00881029 0.00264807 -0.0031936 -0.0146353 0.00713419 0.000343623 0.000314108 -0.0239867 -0.00555452 
-0.00775855 0.0395307 0.0513791 0.00290484 0.00308592 0.00542971 -0.0100654 -0.0146039 0.0596968 
0.018113 0.00584764 0.00674284 0.00679642 -0.000229565 -0.000951836 -0.0925182 0.00392675 -0.0138253 
0.0056939 0.0630348 0.00027049 0.022157 -0.00299471 0.0149191 0.0190696 -0.00629835 -0.00833849 
0.0287845 0.0242746 0.0350569 0.0274535 -0.000280388 -9.88556e-05 0.00298674 -0.00398773 -0.00408067 
-0.00381911 -0.0379195 0.00160877 0.000212365 0.00050175 0.00245921 -0.000410125 0.0336519 0.0114803 
0.02175 0.0566737 -0.013375 -0.00661006 -0.00196999 0.0186105 0.0242258 -0.0112742 -0.00373146 
-0.000594939 0.0442503 0.0448771 0.000960481 -0.00594622 0.00503374 0.00782169 -0.00378394 -0.00678018 
0.000180645 0.000213903 -0.00238202 -0.00485463 -0.00253142 -0.00023342 -0.00888176 -0.000401712 -0.000548761 
-0.000505364 0.0103123 -0.000751109 -0.0340055 -0.0396566 -0.00367167 -0.000508076 0.000835427 0.00129182 
0.0108997 0.00940603 0.0051996 0.0255758 0.011232 -0.0299957 0.0306872 -0.0491369 0.00811187 
-0.00888152 0.04726 0.065333 0.0313784 0.0309487 0.0261785 0.0468316 0.0180689 0.0400724 
0.000928888 0.00123236 0.000512475 0.00700439 0.0153846 0.00617974 -0.0647454 0.0035232 0.00361298 
-0.0361785 -0.0100069 0.0159459 0.05329 0.0508598 0.00134529 0.0302051 -0.0820987 -0.0193223 
0.00627837 0.00422686 -0.000576165 0.0111881 0.0143915 -0.00459306 -0.0013666 0.00800407 0.0339819 
-0.0197226 0.0069869 0.0063988 0.00316952 0.0119495 0.0144556 0.0317564 0.00610326 0.00395168 
0.00627871 0.033089 -0.000263096 -0.00388816 0.00432986 0.00496201 0.0272409 0.0408923 -0.00906693 
-0.012173 -0.00169778 -0.0055041 -0.0148667 0.00281364 -0.00969654 0.0132037 0.00236321 0.0388856 
-0.000428127 0.0102474 -0.00178792 0.0513164 0.00235554 0.0360453 0.00684356 0.00798749 0.00922226 
0.0118818 0.0174101 -0.0548593 0.000305476 0.00424464 0.00422149 0.0121928 0.0098312 -0.00097568 
0.000950385 -0.0115998 0.00433273 -0.0123299 -0.0108268 0.0012532 -0.000222831 0.00469321 -0.00666346 
-0.00639365 -0.00843817 0.00537166 -0.0164783 -0.0165298 -0.0187834 -0.0186317 0.00430603 -0.00477134 
0.0053204 -0.0141755 -0.00997918 -0.0326628 -0.021162 -0.00523403 0.035332 -0.011206 -0.0420475 
0.020268 -0.0290755 -0.00773665 0.017331 0.034575 0.00773467 0.00783323 -0.00132924 -0.00549012 
-0.00265416 -0.0163476 0.00397078 0.00378245 0.0297518 -0.00171997 0.00451738 0.0120887 0.0553226 
0.0017852 0.0183168 0.0203937 0.0471402 0.0191715 -0.00233926 0.0110533 -0.00352395 0.0240001 
-0.0173001 -0.0152878 0.000975161 0.00715745 0.0111206 0.00777948 -0.00895873 0.0398471 0.00126594 
0.00208649 0.012065 -0.0119209 0.0270465 0.0252541 0.0355819 0.0115322 0.00599949 0.00775418 
0.0109109 0.00925174 0.010803 0.00260495 0.0121792 0.00641378 0.00582056 0.00995059 -0.00052728 
0.0200829 -0.0191558 -0.0161061 0.040794 0.0481689 0.0361278 -0.00277474 0.0471502 0.0337083 
-0.00144748 -0.00241888 -0.00410102 -0.0432746 -0.00572002 0.0481054 0.00416793 0.0214573 -0.00125173 
-0.00133985 -0.0104566 -0.0248059 -0.00106583 0.00169251 0.00506015 0.0413901 0.00553386 0.00562272 
0.0143852 0.031328 0.00100112 0.0133317 0.00821152 -0.000386019 -0.000508738 0.000833305 0.00106339 
-0.0104663 0.00167072 0.021838 0.00078397 0.00244644 0.00554126 0.0106971 0.00225575 0.000443283 
-0.0203516 0.00612994 0.0138224 0.0119641 -0.015537 -0.00343306 0.00425993 0.0388965 0.0111623 
-0.000225234 -0.00825478 0.00196598 0.0021942 -0.00320865 -0.00724702 -0.0134241 -0.0209274 -0.00124716 
0.00778917 0.010608 0.00791858 -0.10671 -0.0885559 -0.0889219 -0.0234848 0.0119682 -0.0546287 
0.00444733 -0.00552401 -0.00746401 0.00823103 0.00943996 0.0170536 0.00978076 0.053995 
Stress%20xz%20component 1 8918 double
0.0271348 -1.6595e-08 -7.91745e-09 0.0269799 -1.23147e-06 4.32441e-07 -8.10951e-06 5.49839e-06 0.0232346 
-0.0251792 0.00176579 -0.0165192 -0.0283514 0.0263861 -0.00360251 0.0118567 0.00543786 -0.000412064 
0.0021699 0.000331256 0.000363992 -0.000551174 -1.10689e-07 0.000560677 0.000892219 0.000143681 0.000601376 
1.70236e-05 0.000378282 -0.000248003 -0.00118075 -0.000690553 0.0005349 -0.00018025 -0.000568257 -0.000343744 
0.000787133 -0.00118748 -0.00044737 -0.0013098 0.000912301 0.000657042 0.00159054 -0.000670951 -0.00131319 
0.000158422 0.0011316 0.00276489 0.00073295 -0.000653979 -0.00110826 -0.000431396 0.00248537 -0.000403562 
-0.00255581 -0.00353369 -0.000976918 0.00247485 0.00204224 4.80138e-05 -0.00118509 -0.000792839 0.00315896 
6.6902e-06 -1.40584e-05 3.97031e-06 4.12251e-06 4.81975e-06 4.12e-06 7.93394e-06 1.47622e-07 -2.22132e-06 
6.83714e-07 -5.33701e-06 -3.98735e-06 -1.07827e-05 -6.734e-06 -5.62523e-06 -8.27274e-06 -6.74398e-06 -5.58822e-06 
-1.84652e-06 -3.1884e-06 -1.99574e-06 -2.10756e-06 1.26084e-06 4.01598e-07 3.14232e-07 2.4367e-06 8.1237e-07 
-2.30307e-06 -0.0148328 -0.000793316 -0.000112542 -0.00014691 -8.64009e-05 6.30747e-06 -2.97317e-05 -2.1945e-05 
-2.23846e-05 -1.64612e-05 -1.11643e-05 -1.3558e-05 4.4143e-06 -5.66523e-06 -4.96208e-06 3.62641e-06 1.41467e-06 
6.05712e-06 1.27229e-05 1.00174e-05 2.06216e-05 1.53347e-05 1.63534e-05 2.06587e-05 2.26618e-05 2.19601e-05 
1.78845e-05 2.23335e-05 -1.09823e-05 -3.92394e-05 -4.74964e-05 -5.76917e-05 -4.04921e-05 -1.17482e-05 -4.30402e-06 
9.19149e-06 1.34958e-05 1.64515e-05 1.15614e-05 1.28914e-05 1.40335e-05 1.30747e-05 -6.25396e-06 1.50604e-06 
1.41591e-05 6.3611e-07 6.02189e-07 -1.33279e-08 -2.29215e-07 -8.68666e-07 2.34912e-06 1.02712e-05 2.16129e-06 
-8.70658e-07 3.68181e-06 3.28818e-06 -4.77099e-06 -5.39019e-06 1.4661e-06 -3.91762e-06 1.58461e-05 2.94479e-05 
3.67552e-05 0.000386139 0.000618752 0.00598943 -0.0159031 -0.00801324 -0.00760801 -0.00871338 -0.00976326 
-0.00778051 -0.00886494 -0.00881246 -0.0117068 -0.00959621 -0.00946449 -0.00762526 0.00734125 0.00918931 
0.0135297 0.00895403 0.00981556 0.0113619 0.0081065 0.00864383 0.00841091 0.00856613 0.0150861 
0.0141475 0.0153414 1.20219e-06 3.60199e-06 -6.58356e-06 -7.26719e-06 -4.76825e-06 -3.4358e-06 -1.18603e-06 
-1.51793e-06 -7.91463e-07 -1.36181e-06 1.94485e-06 -8.20713e-07 -2.13611e-06 -8.16691e-07 -5.1858e-07 -2.69952e-06 
-3.27055e-06 -2.57982e-06 -4.32502e-06 -2.05761e-06 -1.46358e-06 -1.6381e-06 0.00316621 -6.34309e-05 3.42815e-05 
5.74569e-05 2.20796e-06 -2.1106e-05 1.31968e-05 7.78488e-06 -1.61775e-06 6.18785e-06 -1.13564e-05 2.02047e-06 
-1.71988e-06 -3.8718e-06 3.87746e-07 -4.52644e-06 -5.53942e-06 8.74167e-07 -3.75628e-06 -5.93673e-06 -7.40297e-06 
-1.29364e-06 -9.06408e-06 4.07433e-06 2.92256e-05 -1.97361e-05 2.75016e-05 1.1849e-05 -1.84551e-06 -7.98855e-06 
-8.59673e-06 5.7658e-06 -3.13543e-06 -4.64405e-06 5.35377e-06 -4.17532e-06 -9.43558e-07 -6.58323e-07 -1.67347e-06 
-2.78308e-07 -4.35255e-07 -1.55259e-07 -5.40926e-07 -4.58532e-06 -7.61495e-06 -1.50433e-05 -5.30548e-06 -1.12014e-05 
-7.17383e-06 -6.71228e-06 -3.26804e-05 -4.92505e-06 -1.84182e-05 -6.07308e-05 -0.000109376 4.02311e-06 -0.000261062 
-0.00228809 -0.00962172 0.0121781 0.0102236 0.0116836 0.00887591 0.00870006 0.0111143 0.0108828 
0.00991134 0.00882276 0.00912804 0.0109019 0.00627935 0.00366368 0.0125105 -0.00705397 -0.00776219 
-0.0128897 -0.00937224 -0.00792708 -0.0101219 -0.00987018 -0.00948113 -0.0120532 -0.00855502 -0.00865607 
-0.0102654 -4.15319e-06 -2.17614e-07 1.41196e-06 9.40263e-08 1.98927e-06 8.58125e-07 -3.64165e-06 1.67868e-06 
1.0744e-06 1.14174e-06 -4.51976e-08 1.03899e-07 1.30997e-08 -1.13232e-07 5.06264e-08 6.38511e-07 1.13149e-06 
4.50985e-07 -1.4338e-06 -5.29928e-07 6.09479e-07 6.12035e-07 2.02431e-08 1.15069e-08 4.23395e-09 9.51788e-07 
2.19576e-07 0.00182314 0.000471528 1.38563e-05 -2.11277e-05 -8.20195e-06 -4.79757e-07 1.79435e-05 1.96769e-06 
-3.24678e-06 -7.95715e-07 9.71795e-07 -5.04784e-07 7.72967e-06 -3.69174e-07 -4.38665e-06 2.38219e-07 -1.70098e-06 
-4.2547e-07 -2.16612e-06 -6.43537e-06 -1.00031e-05 -7.74499e-06 -6.72541e-06 -8.46743e-06 -5.87467e-06 -4.85592e-06 
-9.42009e-06 -1.06352e-05 -4.10617e-06 6.81046e-06 2.996e-05 2.27764e-05 8.58241e-06 9.76618e-06 -9.59237e-07 
-4.17116e-06 -8.21766e-06 -8.66641e-06 -7.6774e-06 -2.02369e-06 -1.27744e-06 -4.21111e-06 1.19767e-06 -1.53246e-07 
5.88392e-07 8.19675e-07 7.89571e-08 7.69528e-07 -7.76183e-06 -6.11069e-06 -1.5518e-05 -1.59753e-05 -1.12826e-05 
-5.97475e-06 8.16116e-06 6.21074e-06 8.10009e-06 7.05493e-06 9.15206e-05 -0.000152668 -0.000733091 -0.00586487 
0.000348956 -0.000312425 0.00359271 -0.000903043 -0.000463538 -0.00330998 -0.000176734 0.00348318 -0.00011356 
-0.000306468 -0.00388307 0.0001815 0.0033681 0.000329234 -7.61579e-05 4.32138e-05 -0.00204864 0.0028989 
0.00060564 0.000138019 0.000319933 -0.00235213 0.000664239 -0.000531573 0.00269609 0.00146574 0.00105568 
0.00140078 0.00180108 0.00152238 0.00176222 0.00176603 0.00174067 0.00183576 0.0015509 0.00179465 
-0.00240233 0.00421527 0.00176155 -0.000309567 -0.000243013 -0.00256655 -0.00114345 -0.00142842 -0.00143802 
-0.00145555 -0.00134261 -0.00104451 -0.00242926 -0.00127202 -0.00156029 -0.00329218 -0.00515255 3.56549e-07 
-7.95019e-06 -0.000114093 0.00327833 0.00180357 -0.00148224 -0.00209642 -0.00152114 1.53883e-06 1.08851e-06 
1.25109e-06 -2.35609e-08 -4.31846e-06 6.07333e-07 -1.96183e-06 1.26623e-06 2.07109e-06 -9.73761e-07 -8.49731e-07 
-1.88375e-06 -1.41503e-07 4.87862e-07 3.19691e-07 -1.15426e-06 2.26722e-07 -9.77158e-07 -1.00026e-06 2.32029e-07 
-5.15525e-08 4.09641e-07 6.98364e-07 1.99314e-06 0.000260186 5.32443e-06 4.05501e-05 7.45016e-06 -8.16775e-06 
2.64605e-05 1.45157e-05 9.09876e-06 2.42355e-06 1.56272e-06 -1.04975e-06 5.12042e-06 -2.72812e-06 1.41822e-06 
-2.06743e-06 -7.23817e-07 -2.80431e-06 -8.71956e-06 -2.56678e-06 2.55224e-06 -1.13341e-06 -1.7731e-06 1.7789e-06 
2.37388e-06 -4.16103e-06 7.83488e-06 3.75722e-06 2.40723e-05 1.17606e-05 -6.27317e-06 1.03788e-05 -3.61158e-06 
-2.3199e-06 -6.06366e-06 -7.48227e-06 -3.90738e-06 6.39224e-06 -3.15606e-06 -2.803e-06 -3.20618e-06 9.76004e-07 
1.12056e-06 2.04639e-05 2.20195e-07 -3.24476e-06 6.85506e-06 8.2916e-05 0.000906205 -8.56647e-06 -2.41827e-05 
-1.06185e-05 -1.20147e-05 7.19638e-06 2.29208e-05 1.61974e-05 2.35415e-05 4.01573e-06 0.000325984 -0.00103816 
0.000206089 -0.00018002 4.24815e-05 -0.000270198 -0.000420121 0.000249842 -0.000306745 0.000597564 3.57392e-05 
-0.000507094 0.000467602 -0.00028924 0.000599151 0.000149658 -0.000362688 -0.000419553 -5.08276e-05 0.000313935 
0.000384297 -3.69268e-05 -0.000418431 0.000306074 0.000109525 -8.45769e-05 2.06518e-05 -6.70089e-06 -7.32373e-07 
1.70719e-06 1.94175e-05 -1.65797e-05 -3.16793e-05 5.91414e-05 -0.00031909 0.000340586 3.65848e-07 -0.000194727 
-1.66764e-05 -0.000199926 -0.000317107 -1.64196e-05 1.29391e-05 1.54063e-05 -3.75583e-05 -3.94951e-05 -0.000199453 
-0.000270986 -0.000145627 7.73612e-07 3.26885e-06 -3.65624e-05 -1.5463e-06 0.000751558 5.65364e-05 -0.000404739 
0.000356276 -0.000204864 0.000135699 0.000267494 -0.000454908 -0.00010869 -0.000155331 0.000244379 2.5179e-06 
2.09093e-06 -3.9764e-06 -8.56873e-07 2.88943e-06 -2.46003e-06 1.80613e-06 1.39526e-06 -2.46213e-09 -2.61551e-06 
-5.4648e-07 4.8967e-07 2.54282e-07 -1.02775e-06 -6.1443e-08 3.7081e-07 -1.60463e-06 -8.42662e-07 -5.38792e-07 
-7.4308e-07 1.62352e-06 4.34965e-05 3.86615e-06 9.46219e-06 -2.48222e-05 -1.20718e-05 -1.17136e-06 1.3499e-05 
2.01231e-05 -1.89337e-06 1.08804e-06 -6.0797e-06 1.56563e-06 -7.51942e-07 -1.14996e-06 5.29822e-06 -2.47341e-06 
3.61238e-07 -8.07036e-06 -2.7997e-06 6.33173e-06 3.3549e-07 7.50433e-06 5.86601e-06 1.69484e-05 -9.44874e-06 
4.62312e-07 1.81279e-05 1.76191e-05 -1.00893e-05 4.71799e-05 7.87027e-06 -5.52121e-06 -8.10488e-06 -8.74097e-06 
-7.26515e-06 2.72542e-06 5.75482e-06 4.4214e-07 4.93879e-06 -4.93926e-07 1.98384e-06 -0.000105412 3.05174e-05 
-6.63361e-07 -1.17359e-06 -6.42851e-07 3.86046e-07 5.454e-05 -6.18663e-05 1.97655e-06 4.61275e-05 3.98219e-05 
1.03427e-05 7.91951e-05 -2.60004e-05 1.94067e-05 -0.000279743 -3.57387e-05 0.000182077 8.61946e-05 1.28831e-05 
8.94572e-05 -3.87135e-05 -2.04188e-05 1.50663e-06 -3.25126e-05 4.14303e-05 1.00552e-05 -2.01465e-05 1.15732e-05 
2.20991e-05 3.01048e-05 3.26294e-05 -3.39195e-05 -2.34663e-05 2.60643e-06 -7.15562e-05 2.2832e-05 -2.57036e-05 
3.20413e-06 3.96548e-08 1.03599e-05 -4.22893e-06 8.45446e-06 -7.79565e-05 -1.3956e-05 6.32947e-05 2.1036e-05 
1.30154e-05 -4.45869e-06 6.02866e-06 9.22454e-06 7.77372e-06 1.63715e-05 2.39458e-05 -7.21767e-06 2.8574e-05 
-4.57101e-05 -2.54825e-05 1.39336e-05 2.20588e-05 -6.1064e-06 1.7222e-05 -5.28624e-05 6.32706e-05 6.72739e-05 
-4.81295e-08 0.00011979 -4.23091e-06 -3.17996e-06 1.61656e-06 0.000111603 4.28471e-05 -6.27827e-05 -1.54689e-05 
8.57274e-06 -2.81212e-05 -2.53504e-06 -3.75989e-06 3.31179e-06 -1.66812e-06 -3.14533e-07 4.58397e-06 2.1523e-06 
-2.07202e-06 -3.1742e-06 3.89311e-07 1.35675e-06 -2.4538e-07 -7.94828e-07 8.9642e-08 -2.06052e-06 9.94983e-07 
4.4358e-07 -4.11103e-07 1.18906e-05 -3.17619e-07 1.01591e-05 7.33419e-06 -1.73288e-05 -4.20219e-06 -1.62324e-05 
-3.63332e-06 1.2179e-05 -5.43349e-06 1.29484e-06 -4.04738e-06 3.85131e-06 -3.297e-06 7.83931e-07 -3.86563e-06 
1.19776e-06 -9.06608e-07 -1.38348e-05 3.31043e-06 -7.06243e-07 1.78117e-06 9.76273e-07 8.03788e-06 -8.56857e-06 
-5.30578e-05 2.53407e-05 1.38499e-05 1.53168e-05 5.29108e-06 3.65903e-06 9.73933e-06 -8.64782e-07 5.18145e-06 
-3.22079e-06 4.25097e-05 -2.89973e-05 -5.87206e-06 1.72861e-05 8.98342e-06 -2.40639e-05 7.46135e-06 3.59052e-05 
5.51616e-05 -1.5882e-06 1.32367e-05 -5.07901e-05 -2.42768e-05 1.9338e-05 -1.43247e-05 -2.31704e-05 1.21939e-06 
1.15806e-05 1.48983e-06 2.56967e-05 -1.26899e-06 -9.88603e-07 3.97056e-06 1.61211e-06 8.02896e-06 7.88881e-06 
-1.78053e-05 3.37709e-06 1.19937e-05 6.86851e-06 9.67736e-06 -5.54963e-06 -9.9802e-06 4.66393e-05 -1.49362e-05 
2.04919e-05 2.09795e-05 7.5231e-06 4.24429e-06 2.42721e-05 8.57654e-06 2.32149e-06 1.54999e-05 2.72366e-06 
8.07031e-07 2.19141e-05 2.86895e-06 2.17279e-06 -1.36229e-05 1.0555e-05 5.35349e-05 5.91181e-05 6.8126e-06 
1.48776e-05 1.44557e-06 5.47552e-07 6.36524e-06 2.79824e-05 3.00727e-05 -8.32371e-06 3.54192e-06 -2.69275e-05 
-4.53601e-05 -4.09482e-07 8.40231e-06 1.0941e-05 4.59411e-05 -3.95603e-05 4.5186e-05 4.45101e-06 -6.88003e-06 
1.10172e-05 -2.8504e-06 -2.16208e-06 6.39022e-06 -2.62457e-07 1.01077e-06 -6.22331e-07 -4.07632e-07 2.3605e-07 
1.00616e-06 -9.20595e-07 1.74647e-06 -8.09171e-08 1.71979e-05 -4.74324e-06 -1.65132e-05 -1.39323e-05 3.19424e-06 
-6.88547e-06 3.57395e-06 -2.28376e-06 -8.59469e-07 2.28061e-06 -3.56748e-06 3.98808e-06 -1.63534e-06 1.15669e-06 
-3.69667e-08 4.22665e-06 5.1728e-06 8.13857e-05 -3.98991e-05 2.51696e-05 -1.53949e-05 8.42608e-06 5.65643e-06 
1.29376e-05 -1.21792e-05 -5.83397e-05 2.23219e-06 -1.54598e-05 -2.1453e-06 -1.86856e-05 -1.18593e-05 -1.976e-06 
4.54856e-06 1.17232e-05 -1.53482e-05 -1.61501e-05 1.16458e-05 -4.52705e-06 -1.51497e-06 8.52227e-06 -3.49299e-06 
-9.28609e-06 -2.40142e-05 6.84702e-06 2.41123e-05 8.16845e-06 -1.81318e-06 8.40978e-06 2.20503e-06 2.39206e-05 
4.50566e-06 1.43964e-05 -6.2219e-07 -1.98402e-05 3.82166e-06 6.42163e-06 -1.10178e-05 1.42037e-05 -1.16683e-07 
2.64513e-06 3.33227e-05 -2.67203e-05 -2.56744e-06 -1.53846e-05 -1.3353e-05 -2.17345e-05 1.29714e-05 -1.77772e-05 
1.23007e-05 2.72613e-06 -2.15492e-05 -3.14666e-05 4.54618e-06 -5.54745e-06 -5.7569e-06 2.70733e-06 -3.9219e-06 
1.31718e-06 -2.15628e-05 -1.07619e-05 1.21514e-05 2.72959e-05 1.34303e-06 -1.55518e-05 -2.46612e-06 2.32769e-05 
-2.75643e-06 -2.1589e-06 -2.73209e-05 -1.28132e-05 1.34636e-05 -1.60976e-06 -6.67796e-06 -1.09964e-05 3.68073e-05 
-1.17252e-05 7.63466e-06 6.7884e-07 -1.56244e-06 4.81348e-06 1.20658e-06 -8.53675e-06 6.04056e-06 -3.80644e-06 
-6.02831e-06 7.17689e-06 3.50714e-06 1.44056e-05 -1.22376e-05 3.36176e-05 1.28509e-05 6.81435e-07 1.79577e-06 
7.02477e-07 1.00861e-06 3.58428e-06 1.88354e-06 -2.2037e-06 -1.54239e-06 -1.49307e-06 -5.41989e-07 8.41713e-08 
-6.16328e-07 -1.02152e-06 -6.58312e-07 -2.35399e-08 1.05012e-06 8.22148e-07 4.34946e-07 -4.46442e-08 1.34304e-07 
2.01653e-07 -0.00176008 0.00021362 1.80413e-05 -1.24328e-05 -1.62009e-05 -1.70784e-05 -6.40472e-06 -2.00963e-06 
1.52131e-06 -3.82179e-06 -6.84327e-06 3.75208e-06 2.48982e-06 -5.67218e-06 -1.22682e-06 7.28729e-06 3.42395e-06 
-3.83628e-06 2.73904e-06 -2.27503e-06 -1.2395e-05 2.22981e-06 7.34384e-06 -7.83783e-06 -1.58468e-05 -3.60673e-06 
-6.92392e-06 1.06718e-06 1.60741e-06 9.94031e-06 4.30127e-06 -2.39294e-06 -2.34875e-07 1.01264e-06 3.14009e-07 
-3.61981e-07 -1.88014e-07 -2.30172e-07 -3.78273e-07 1.33704e-06 4.3397e-06 4.84724e-06 1.66076e-05 9.65651e-06 
4.00722e-06 4.63083e-06 8.91252e-06 -4.58173e-07 9.15686e-07 -8.82833e-06 -3.56753e-05 -9.22202e-06 -6.13891e-05 
-0.00287539 0.00053526 -0.00100661 0.000595637 0.000250873 -0.000309788 -0.000531129 -1.15746e-06 -0.000461337 
-0.00022215 -0.000498191 1.22049e-05 -0.000551526 -0.00051366 0.000866478 0.000882042 -0.00032803 -0.00071838 
0.000267731 -0.00019198 -0.000766678 -0.00161179 -0.000795905 -0.00139121 -0.00150944 -0.00125061 -0.00130905 
-0.00150185 -0.00167105 -0.00168142 -0.00141673 -0.00158745 -0.0011579 -0.000616942 -0.00166922 -0.00902741 
0.000941209 0.00185819 0.00265459 0.00177803 0.00158813 0.00114754 0.00095036 0.00119661 0.00134609 
0.00131727 0.00158332 0.00333803 0.000559782 0.00362788 0.00547876 2.11683e-06 9.00949e-05 0.00588017 
-0.00548946 -0.00237772 -0.00106332 -6.46475e-07 6.77323e-07 3.03266e-06 1.5388e-06 1.69025e-06 -1.53543e-06 
-9.2578e-07 -1.89665e-06 -2.57216e-07 -8.50091e-07 -1.43681e-06 -3.56723e-07 2.22757e-07 -4.69554e-07 5.87375e-07 
8.18266e-08 -8.60406e-08 -4.22098e-07 -5.05364e-07 2.82475e-07 2.29187e-05 3.32335e-05 -0.00028305 -8.2876e-06 
8.91701e-06 -7.9296e-06 -1.30603e-05 -4.12851e-06 1.95607e-06 -2.59525e-06 -9.70147e-07 -1.85547e-06 -2.50245e-06 
1.4114e-06 3.75697e-06 2.89779e-06 -1.30123e-06 -1.66365e-06 -4.72644e-06 3.39266e-07 -1.34244e-05 -3.14733e-06 
6.70123e-07 -3.12179e-05 2.74198e-07 1.57458e-05 1.66265e-06 1.24213e-05 1.05971e-05 2.08834e-07 2.73701e-06 
-1.34214e-06 -3.49997e-06 -8.50714e-07 -7.31987e-05 -6.92882e-07 9.25052e-07 7.51788e-07 -0.000273643 -1.10247e-06 
-2.04258e-05 -2.91343e-06 -1.81997e-07 3.9515e-05 2.88157e-05 1.1369e-05 -7.75756e-06 -2.33637e-05 -2.52354e-05 
-5.1829e-05 -0.000233144 -0.000164754 5.3812e-05 0.000102003 7.46016e-05 5.37896e-05 -2.38484e-06 6.96039e-05 
-5.02621e-05 4.84444e-05 1.5568e-05 1.03066e-05 4.90059e-05 3.95847e-05 4.1304e-05 -0.000111224 -6.97642e-05 
-9.84823e-06 2.13251e-05 -0.000185756 -7.63958e-05 -0.000865929 9.69295e-05 -1.17221e-05 -3.0895e-05 -1.51938e-05 
-5.55336e-06 -3.46736e-05 2.11583e-05 2.73916e-05 3.17286e-05 1.31463e-05 2.56658e-05 2.8022e-05 -0.00018714 
-0.000219926 -0.000119113 -3.8755e-05 -0.000113592 -0.000186853 -0.000165903 -0.000161471 -0.000144876 -8.4551e-05 
0.000212189 -3.24661e-05 0.000274652 6.86531e-07 -6.48756e-05 7.94665e-05 -4.16333e-05 0.000366078 -5.36724e-07 
0.000101469 4.6187e-05 -1.50954e-05 0.000171523 -3.44404e-06 -1.60338e-06 2.25994e-06 -1.92314e-06 -3.57004e-06 
-6.0497e-07 6.40815e-07 -2.3068e-06 2.66899e-07 2.1391e-07 2.77318e-07 -1.54366e-07 6.95785e-08 -3.54695e-07 
2.06403e-07 1.74849e-05 -2.92251e-06 -2.57774e-06 2.47326e-05 -2.31398e-06 -1.08464e-05 3.92523e-06 -6.68456e-06 
2.40821e-06 -1.87299e-06 8.96811e-08 -1.92856e-06 1.1929e-06 -8.14937e-07 1.54943e-06 2.76748e-06 3.18078e-06 
-4.34136e-06 -6.91303e-07 -8.53116e-07 7.23899e-06 -7.29281e-06 -1.69188e-05 4.33682e-05 -0.000127118 2.46804e-05 
8.87093e-06 1.0913e-05 1.19019e-05 4.59584e-06 -2.79816e-06 -2.31516e-06 -4.26594e-06 7.32241e-06 9.83786e-08 
8.32062e-05 6.46227e-06 -5.42506e-05 -9.81207e-06 3.18595e-05 -1.54024e-05 -5.74149e-06 1.79793e-06 1.59378e-05 
-1.07583e-05 -2.56285e-05 1.00248e-05 1.89969e-05 8.91369e-06 -8.42091e-06 1.11234e-05 1.97084e-05 2.02084e-05 
-7.93708e-06 -1.04638e-05 -1.27834e-05 2.60198e-05 1.80269e-05 4.21589e-05 1.22826e-05 -1.28716e-05 7.17955e-06 
-4.19031e-07 1.98668e-06 5.46676e-06 1.86601e-05 8.26882e-06 1.41827e-05 1.73492e-05 -6.18604e-06 -3.3832e-06 
-1.00835e-05 -5.11354e-06 -9.45276e-06 2.63509e-06 -1.1942e-05 -8.82373e-05 2.76304e-05 -2.33213e-05 1.53653e-06 
1.81569e-06 4.35277e-06 -1.17194e-05 2.84186e-05 -0.000265742 3.6117e-05 -4.81354e-06 1.99872e-06 1.21775e-06 
-5.84074e-06 2.09155e-05 3.02846e-08 -0.000142944 7.7601e-05 6.87663e-06 -3.00253e-06 1.2677e-05 5.03052e-05 
3.40817e-05 -8.18251e-06 0.000207794 -8.87517e-06 -2.63224e-05 -3.92706e-06 2.00779e-05 6.59298e-05 -6.6089e-06 
-3.44462e-05 9.5218e-06 -2.54229e-06 -1.49334e-06 1.05096e-07 -1.46072e-06 -1.60492e-06 5.06609e-07 -6.67135e-07 
-2.93268e-07 1.53031e-06 7.20718e-07 -3.73249e-05 4.27465e-07 3.04718e-07 1.92224e-06 9.2055e-07 -3.38186e-06 
2.87552e-06 -1.3634e-06 -1.27014e-07 7.06349e-06 1.17809e-06 -5.90113e-06 7.34238e-06 -3.27826e-06 -6.78532e-07 
-5.13715e-05 1.49311e-05 -5.11724e-06 -3.75539e-06 -5.57076e-06 -3.8097e-06 -1.69401e-05 5.20985e-06 -1.04116e-05 
-2.97129e-06 -5.15244e-05 1.94229e-05 1.67942e-05 -5.60127e-05 1.30519e-05 5.25959e-05 -2.50376e-05 7.2762e-06 
-3.48689e-05 1.67921e-05 5.76526e-06 6.67185e-06 1.02191e-05 4.64706e-07 1.02442e-05 2.91159e-05 -3.89623e-06 
-1.75782e-05 -4.44171e-05 8.10872e-05 4.73112e-05 -4.12775e-06 -2.84812e-05 2.26062e-05 -2.38008e-06 -2.29642e-05 
-1.69317e-05 8.41328e-06 -3.65495e-05 4.59668e-05 1.5394e-06 -2.37948e-05 -2.47165e-05 -8.20827e-07 -9.13205e-06 
-1.16078e-05 -1.05048e-05 -1.65678e-06 5.19672e-06 -9.40856e-07 -1.36049e-05 -1.29366e-05 6.75875e-06 2.68572e-06 
1.16148e-06 -1.41214e-06 5.30151e-05 7.87897e-07 1.06826e-05 2.29031e-05 -5.52041e-05 3.32042e-06 3.39014e-05 
6.28789e-06 -4.65125e-05 2.25361e-06 9.46253e-06 3.4153e-05 4.76465e-06 3.31455e-05 -5.3072e-05 4.3714e-06 
9.59121e-07 -9.11287e-07 1.16287e-06 -1.3523e-06 2.69753e-07 -3.5517e-07 1.31985e-05 -1.68636e-05 -2.67129e-05 
-5.19735e-06 7.51186e-06 -5.34094e-06 -2.5031e-07 3.16939e-06 -8.93899e-06 -4.64917e-07 2.03126e-05 -3.64252e-05 
-4.11465e-06 -1.2989e-06 -1.65371e-05 -9.93658e-06 -3.01117e-06 -1.6284e-05 3.22519e-05 2.98981e-05 -7.87105e-06 
1.30516e-05 5.63751e-07 -9.80179e-06 -1.14217e-05 1.35265e-05 3.21141e-07 1.38995e-05 2.04159e-05 1.11904e-05 
1.22746e-05 1.26994e-05 2.14283e-05 -8.89687e-07 -5.02013e-07 -3.65368e-05 2.67762e-05 1.27751e-05 8.21809e-06 
8.57523e-05 -5.1184e-06 -7.1199e-06 -4.48841e-07 -4.19204e-06 1.45943e-05 7.73797e-06 1.14128e-05 8.02431e-06 
1.22954e-05 -1.55524e-05 8.71889e-06 4.2254e-06 7.83085e-07 -1.24896e-05 -9.42918e-06 -6.25717e-06 -5.29417e-07 
-3.85254e-05 -4.17891e-06 3.62924e-07 -8.24427e-06 4.94909e-07 -1.76034e-06 7.96763e-06 -2.60305e-05 -3.76656e-06 
1.61472e-05 8.43498e-06 -3.26835e-06 -3.99514e-06 -8.8609e-06 -3.82197e-05 -1.47544e-05 6.97757e-05 3.11602e-06 
2.192e-05 -3.6071e-05 7.6626e-06 4.20805e-06 -1.5963e-07 1.6273e-05 -1.76253e-05 1.98996e-05 -1.4246e-06 
5.64961e-06 7.8317e-06 -5.9479e-06 2.186e-05 -7.84957e-06 1.55895e-05 1.29133e-05 3.86194e-08 5.55948e-08 
-7.18093e-08 0.00306588 0.000459978 0.00051448 -1.17004e-08 9.17128e-09 1.61216e-08 9.81363e-05 -1.62363e-08 
-9.21645e-10 1.5741e-08 0.000116576 -1.69078e-08 2.63906e-09 1.17195e-08 1.9598e-08 -1.01689e-08 -9.76076e-09 
-3.44261e-10 1.00065e-08 -0.000632867 -0.00387643 0.0156728 0.0154054 -2.34241e-08 3.75447e-09 6.08296e-09 
4.11592e-08 -3.05291e-09 -5.62377e-10 -2.58256e-08 9.15605e-10 2.8223e-08 -3.38219e-09 4.18934e-10 -3.20956e-08 
-2.99073e-10 3.23993e-08 -1.08335e-09 1.93339e-09 2.43096e-09 -3.14595e-08 2.40811e-08 -7.03962e-09 -5.23955e-09 
1.96023e-09 -2.48135e-08 -1.04364e-08 4.03805e-09 -7.14297e-08 -1.57935e-05 -4.25704e-06 3.01856e-06 1.1624e-05 
1.38658e-05 9.30796e-06 5.59425e-06 6.51592e-06 4.63966e-07 -1.02144e-05 -4.84855e-06 -6.84821e-06 -1.14002e-05 
-1.28042e-05 -1.10365e-05 -8.36968e-06 -6.99785e-06 -8.44552e-06 -3.15011e-06 -5.52001e-07 -1.7427e-06 -5.02825e-07 
1.66321e-06 3.68911e-06 3.79567e-06 1.92509e-06 -7.01793e-07 -3.34907e-06 0.00145214 -0.0128071 -9.914e-05 
-0.000725645 -0.000396194 -0.000228809 -1.59687e-05 7.45125e-06 -4.68364e-05 -5.38349e-05 -5.85279e-05 -5.27378e-05 
1.11234e-05 2.21133e-05 -9.38517e-06 -2.68473e-05 -2.68772e-05 3.80288e-05 4.14494e-05 3.02113e-05 1.77975e-05 
7.07225e-06 4.27069e-05 5.52227e-05 5.62098e-05 6.96306e-05 6.45463e-05 -1.76819e-05 -3.98237e-05 -7.41357e-05 
-8.889e-05 -7.63157e-05 -7.39537e-05 -5.16225e-05 -6.23685e-06 1.66679e-05 2.53803e-05 2.16401e-05 6.14481e-06 
3.89523e-05 4.20157e-05 3.84408e-05 1.84203e-05 -1.01552e-06 1.05862e-05 -1.95482e-06 6.943e-07 3.03266e-06 
2.4185e-06 1.79688e-06 4.4709e-07 -5.43975e-06 -1.68593e-05 -2.83963e-05 -4.25142e-05 -3.70781e-05 -4.60236e-05 
-1.35844e-05 2.51682e-05 4.31422e-05 0.000109997 0.000132307 0.000192622 0.000213632 0.000354251 0.00141782 
0.00529563 0.00676234 -0.027315 -0.0115447 -0.00933948 -0.0109037 -0.012074 -0.00791622 -0.0124532 
-0.0117172 -0.0140222 -0.0120056 -0.00790212 -0.0149352 -0.0241773 -0.00396702 0.0160858 0.0116802 
0.0139978 0.0145565 0.0125055 0.0107978 0.0139753 0.0121289 0.0110034 0.0109392 0.0118975 
0.0136666 0.0188116 0.0245938 0.0202484 5.40533e-06 8.70692e-06 -1.07846e-05 -1.37321e-05 -1.56669e-05 
-1.39318e-05 -4.93704e-06 -1.36699e-06 7.20122e-06 -2.30085e-07 4.49261e-06 2.98259e-06 1.02202e-06 4.88362e-06 
1.70899e-07 -2.08425e-06 -6.57046e-06 -2.66009e-06 -5.41642e-06 -4.83731e-06 -2.88806e-06 -1.45426e-06 -4.93628e-07 
0.00536355 0.00473123 0.000590825 0.000356096 0.000133156 8.90947e-06 7.83896e-05 4.92809e-05 2.697e-05 
1.60612e-07 8.75573e-06 1.94384e-05 8.10537e-07 -1.09529e-05 5.67831e-06 -1.67539e-05 -3.22241e-05 -2.76665e-05 
-2.03346e-05 -3.49121e-05 -4.16333e-05 -2.14739e-05 -4.45993e-05 -3.31256e-06 8.98706e-05 0.000119614 8.81888e-05 
7.8693e-05 1.99431e-05 -1.9835e-05 -4.13192e-05 -3.87907e-05 -1.94594e-05 -2.41841e-05 -2.09105e-05 -5.57471e-06 
-8.91813e-06 7.60934e-06 1.27348e-06 -2.28079e-06 -3.31194e-07 5.29822e-07 -1.87082e-07 -3.14121e-07 1.41614e-06 
1.48499e-05 1.54288e-05 2.4306e-05 2.80756e-05 1.73388e-05 -6.46608e-06 -5.55251e-05 -4.99024e-05 -7.828e-05 
-0.000121194 -0.000227562 -0.000280761 -8.18714e-05 -0.00141711 -0.0138377 0.00304368 0.0167708 0.0112876 
0.0127795 0.0101811 0.0117846 0.0145952 0.0118159 0.0129519 0.0119507 0.0117325 0.0123168 
0.0122036 -0.000802042 0.0268302 0.0120933 -0.00875856 0.0105729 -0.00561925 -0.00817025 -0.0129172 
-0.0121756 -0.00808232 -0.0125612 -0.0121477 -0.0113468 -0.014668 -0.00892615 -0.0102281 -0.024055 
-0.0171663 -5.68436e-07 -6.90658e-07 0.0219998 0.0101122 -0.0273249 -0.000245835 -1.6595e-08 -7.91745e-09 
0.0133318 -1.81818e-08 -0.000683907 3.19345e-09 0.00145657 2.78868e-09 0.00120244 -0.0102927 0.0127595 
-0.0113151 0.0112753 -0.0106514 0.0102538 3.19686e-10 0.00151508 -0.0088718 0.0124408 -0.0110749 
0.0116066 -0.0109043 0.0112223 -0.00147803 6.50328e-10 -0.0088629 0.0113648 -0.0116215 0.0110556 
-0.0117236 0.0101694 -0.0118077 0.00834663 -0.00880173 0.0107737 -0.0104168 0.0115724 -0.0112951 
0.0113387 -0.0114044 0.00993275 -0.00163361 -6.35045e-09 6.00944e-09 2.92213e-05 -0.000636547 0.000102422 
-0.00103382 0.00256277 -4.70568e-06 -4.22118e-06 -8.34527e-06 7.92112e-06 2.91523e-06 -2.33938e-06 3.58626e-06 
3.41561e-06 -4.81172e-07 2.98472e-06 2.08617e-06 2.92118e-06 3.22919e-06 4.02246e-06 2.59449e-06 -3.65612e-06 
-1.95682e-07 -2.3498e-06 -1.38119e-05 -5.41762e-06 -2.39994e-06 -1.97263e-06 1.37081e-06 2.09841e-06 3.53798e-06 
8.53622e-06 -1.94687e-06 -3.88524e-06 4.63375e-06 2.09191e-06 -4.91915e-06 2.53155e-07 3.03141e-06 -4.91822e-06 
-2.71192e-06 3.83547e-06 -2.50281e-06 -1.93883e-06 -7.43337e-07 -1.68614e-06 -1.00057e-06 -2.58186e-06 1.62161e-06 
-8.10129e-07 1.73936e-06 2.06866e-06 -1.08554e-06 1.70495e-06 4.71822e-06 5.44288e-07 1.68607e-06 -4.71276e-07 
-1.92521e-06 -1.88906e-06 -2.72753e-06 -6.69911e-06 2.83763e-08 5.66748e-07 -4.0142e-06 -1.59656e-06 1.44652e-06 
-1.45025e-06 -9.23527e-07 1.7714e-06 3.8087e-07 -1.01672e-06 -5.63677e-08 -2.58965e-07 6.3296e-07 -5.04683e-07 
-3.45893e-07 1.43351e-06 -8.36947e-07 1.35156e-06 -1.39362e-06 6.3187e-08 2.02507e-06 -7.62635e-07 -1.56212e-06 
-1.47458e-06 5.30709e-08 2.22004e-06 0.0112997 -0.0115819 -0.000311439 -0.00015196 0.000143808 0.00316106 
-0.000196844 2.93704e-05 8.42087e-05 -3.64702e-05 2.37222e-05 -9.42188e-05 -6.47165e-05 1.2895e-05 -7.55242e-05 
3.27533e-05 -3.34981e-05 -3.63084e-05 3.76746e-05 2.53116e-05 4.83192e-05 1.70294e-05 1.8243e-05 2.488e-05 
-3.7113e-06 9.83177e-06 -9.79878e-06 -2.33715e-05 -7.04575e-06 -3.33904e-05 -1.97425e-05 -6.87424e-06 -1.66439e-05 
4.69674e-06 5.9293e-06 -1.27143e-05 1.39521e-05 1.87012e-05 2.20465e-05 -2.21046e-07 4.26196e-06 1.7956e-05 
-1.83405e-05 -6.56508e-06 -1.77897e-05 -9.68211e-06 -4.02752e-06 -2.47607e-05 7.28361e-06 1.77187e-05 1.13728e-05 
5.88558e-06 1.63599e-05 1.47069e-05 -7.2562e-06 -3.61413e-06 1.21287e-05 -1.39939e-05 1.17454e-07 -1.35321e-05 
-3.49631e-06 -8.58234e-06 -3.02789e-05 -3.10539e-06 1.02474e-05 -1.59833e-06 4.86252e-06 6.53599e-06 -7.83969e-07 
1.12046e-06 -3.57378e-07 -8.72857e-07 1.01314e-05 1.03587e-05 -1.39037e-05 1.92883e-05 4.4147e-06 2.91097e-08 
-8.51465e-06 -1.261e-05 1.46108e-05 -1.10216e-05 -3.68203e-05 -6.85573e-05 -4.8107e-06 -9.99732e-06 -5.4984e-05 
2.34957e-05 1.6353e-05 1.6099e-05 3.04931e-05 4.04616e-05 5.15112e-05 1.66195e-05 -1.42292e-05 3.10713e-05 
-2.95666e-06 8.28473e-06 5.8765e-05 1.76403e-05 1.35812e-05 3.68132e-05 -1.58603e-06 3.24892e-06 2.58377e-05 
-8.21251e-06 -5.76514e-06 -3.38916e-06 -1.32624e-05 -4.50849e-06 -2.32848e-05 -9.35714e-06 -1.97474e-05 -2.93928e-05 
-2.42691e-06 7.64822e-06 -1.22684e-05 5.09644e-06 1.02918e-05 -2.51002e-06 -2.26568e-06 9.02248e-07 8.02219e-06 
-1.40882e-06 -5.92151e-06 -5.01988e-06 -8.26279e-06 7.55097e-06 -5.44449e-06 -3.29314e-06 1.45806e-05 2.52288e-07 
4.54517e-07 6.17787e-07 1.65875e-07 5.11041e-07 -2.43699e-06 -4.58461e-07 -1.87047e-06 -3.19433e-06 1.67481e-06 
-2.37201e-06 -1.01755e-07 -6.39962e-06 8.94677e-06 -2.25114e-05 -1.81539e-06 1.08272e-05 5.82422e-06 8.47422e-06 
3.65409e-05 1.43373e-05 -8.14179e-06 3.52068e-05 1.58662e-05 -1.52885e-05 1.12389e-05 9.68908e-06 -2.02246e-05 
9.64977e-06 -4.94664e-06 -2.96257e-05 1.17847e-05 2.36548e-05 -3.64755e-05 3.12155e-06 7.3547e-06 -3.48268e-05 
6.67948e-06 1.04495e-05 -5.21865e-05 -1.23941e-05 4.65707e-05 -0.000185501 -3.99831e-05 1.99779e-05 -0.000182644 
0.000774306 0.00570882 -0.000394485 -0.012593 0.00723609 0.0004622 -0.000267435 -0.00028153 -0.000537834 
0.000975242 -0.000301022 -0.00063305 -0.00346315 -0.00322752 -0.00108232 0.000615365 -0.000757903 0.000331067 
-0.000291644 -0.00150218 0.000954438 0.000947079 0.00239148 4.88955e-05 0.000967837 8.18279e-05 0.000228167 
-0.00164742 -0.000931535 -0.00066073 0.00130314 0.000631698 -0.000286567 0.000369055 -0.000693897 -0.000469462 
0.00181666 0.00221541 0.000122732 -0.00022619 -0.000915777 0.000645632 -0.00287715 -0.00122874 0.000469588 
0.00123908 -2.32025e-05 -0.00100389 0.000146362 -0.00255979 0.000655506 -0.00140001 -0.0023966 0.000610371 
0.000639471 0.00237857 0.000621808 -0.0025977 -0.000261627 0.000188594 0.00270504 0.00187851 -0.00123599 
0.00236738 0.000291877 -0.000506458 0.000248802 -0.000592116 0.000195739 0.00127083 0.00181324 0.000328466 
0.00107676 0.00197115 0.00145626 0.00188058 -0.00747254 -0.00110461 -0.00424307 -0.000501084 -0.0048819 
-0.00472409 0.00308536 -0.00523499 -0.004598 0.00161926 -0.00471328 -0.00403467 0.00165546 -0.00426219 
-0.00407304 0.00209708 -0.00517432 -0.00456271 0.00211099 -0.00445493 -0.00515622 0.0022996 -0.00429794 
-0.0047442 0.00236294 -0.00430291 -0.00497784 0.0023987 -0.00409677 -0.00471045 0.00226479 -0.00543786 
-0.00532446 0.00224239 -0.00559506 -0.00693842 0.00212723 -0.012008 -0.0102039 0.00156614 -0.0164282 
-0.00550885 0.0100058 0.00393655 0.0062482 0.00487855 -0.00168597 0.00532279 0.00667765 -0.00134984 
0.00714356 0.00519621 -0.00115523 0.00520874 0.00641686 -0.00264212 0.00500483 0.00551876 -0.00229985 
0.00474374 0.00607514 -0.00224082 0.00488872 0.00597624 -0.00239556 0.00487234 0.00565906 -0.00245908 
0.00530881 0.00653831 -0.00221096 0.00409265 0.00609506 -0.00303784 0.0062698 0.00537548 -0.00156323 
0.00521905 0.00592192 -0.00173642 0.0048785 0.00128377 -0.00207135 0.00720702 0.00267357 9.35646e-06 
0.00172063 9.27773e-07 8.72036e-07 -0.00753983 -1.33363e-06 1.28674e-05 -0.000116634 0.000360677 0.000149985 
8.97896e-06 0.00558063 0.0022006 0.00260264 -0.0081223 -0.00185943 -0.00903239 0.00686246 -0.00677938 
0.00243596 -0.00593701 0.00969809 -0.000443465 -0.000516181 0.000874974 -1.25277e-06 0.000777939 2.74298e-06 
1.48953e-06 -3.14396e-07 -1.05838e-07 -2.14308e-06 -2.35904e-07 4.11499e-07 3.65163e-06 -2.68129e-06 1.61341e-06 
-2.50886e-06 -5.77543e-06 -3.94079e-06 -5.62842e-06 -3.88705e-06 4.2689e-06 -4.87396e-06 3.09187e-07 2.10619e-06 
-2.98016e-06 -2.03723e-06 4.55288e-06 2.87702e-06 3.5203e-06 5.25539e-06 2.29834e-06 -1.74068e-06 2.68898e-06 
2.22866e-06 1.60301e-06 4.08977e-06 8.79572e-07 2.72504e-06 1.86191e-06 -7.11032e-07 2.76484e-06 -6.12564e-08 
-1.06857e-07 -1.07288e-07 -2.88753e-07 2.37807e-06 1.74956e-06 7.46831e-08 1.07238e-06 1.36406e-06 1.52346e-06 
1.34656e-07 3.43605e-06 2.19388e-07 -2.11902e-06 1.92022e-07 -2.19463e-06 -1.57526e-06 -2.21533e-06 -2.82351e-06 
-1.08383e-06 2.44836e-07 -1.40384e-06 -1.1624e-06 -1.1593e-06 -2.45635e-06 -5.16171e-07 -1.44632e-06 -9.3177e-07 
3.57015e-07 -7.54795e-08 -4.8105e-07 1.35659e-06 -7.5596e-07 -8.56961e-08 -2.3169e-06 0.00076852 -9.20265e-05 
6.51992e-05 -3.4867e-05 -0.000248164 -1.61191e-05 8.31427e-05 -1.1281e-05 1.80279e-05 2.89793e-05 1.91037e-05 
4.91195e-05 4.17448e-05 3.8796e-05 3.97381e-05 1.75318e-05 3.40463e-05 4.7817e-06 5.13592e-06 2.75384e-05 
-1.03911e-05 1.43948e-05 -1.83256e-05 3.12875e-06 -1.41785e-05 2.01498e-06 2.35843e-06 -1.19658e-05 -1.04388e-05 
1.65915e-05 1.01497e-05 1.44176e-05 3.17298e-06 1.21446e-05 9.79461e-06 -1.49946e-05 -7.41807e-07 -4.33893e-06 
-5.07224e-06 -2.14536e-05 -6.23024e-06 6.17187e-06 -3.40231e-07 -1.41756e-05 1.12545e-05 1.73498e-06 1.40421e-05 
-1.0653e-05 1.17318e-05 -2.63343e-06 -1.27785e-05 -2.98879e-06 -7.09875e-07 -1.10699e-05 -2.33862e-05 -1.15965e-05 
3.67446e-06 -9.07927e-07 -8.13275e-06 4.82766e-06 -1.86488e-06 4.12095e-06 -5.63725e-06 3.91783e-07 -5.26049e-06 
-2.77183e-06 9.67036e-07 -2.65226e-06 3.37627e-06 1.03708e-05 -1.05362e-06 1.05446e-05 1.37005e-05 1.04627e-05 
-2.82105e-05 -7.22563e-06 -1.19846e-05 1.91054e-05 -2.62284e-05 -2.31759e-05 -3.41378e-06 6.36156e-06 -2.50394e-05 
2.79031e-05 2.58839e-05 7.46807e-05 2.77977e-05 1.65791e-05 3.64414e-05 -7.30989e-06 2.51395e-05 -2.53961e-05 
-1.07054e-05 1.00521e-05 1.64628e-05 9.28071e-06 4.69572e-06 2.18296e-05 -4.70931e-06 -5.74912e-07 8.33761e-06 
-1.73537e-05 -7.1561e-06 -1.90658e-05 -1.42927e-05 -1.59835e-05 -1.80266e-05 -5.15908e-07 -8.35029e-06 -9.16032e-06 
5.07919e-06 -4.70848e-06 7.89205e-06 -4.20548e-06 8.63848e-06 -7.18424e-07 -2.9933e-07 5.18417e-07 -2.13634e-06 
1.34358e-06 -5.35827e-06 -1.20755e-08 -5.00604e-07 3.41388e-06 -1.26076e-06 -2.90356e-05 0.00206213 -7.14958e-05 
-6.97449e-06 -1.57991e-06 9.88557e-07 -4.37696e-06 8.23286e-07 -1.90654e-06 1.18389e-05 -1.27848e-05 2.35243e-06 
0.000132265 0.00126196 -7.36718e-06 0.00391035 0.00214616 -1.61629e-05 -1.61484e-05 -6.05368e-06 -5.02097e-05 
2.84095e-05 2.20915e-05 -5.43311e-05 5.52757e-06 1.44037e-05 -1.27716e-05 -7.27791e-08 1.30477e-05 2.08568e-05 
3.391e-06 2.535e-05 -6.20221e-06 -9.73485e-07 6.50534e-05 -2.3632e-05 -2.78022e-05 0.000203307 -6.5958e-05 
-1.94933e-05 -1.44181e-06 0.00185064 0.0017223 0.000709982 0.00109166 0.000477649 -0.000410673 0.000759522 
-0.000653758 0.00212759 7.90945e-06 0.00289279 -0.00161855 -0.00057748 9.57243e-05 -0.000424125 0.000186306 
-0.000338414 -0.00066545 -0.000147795 -0.000724732 0.000701217 -0.000107059 -0.000932237 0.00117305 3.51548e-05 
0.00176827 -2.56285e-05 -0.000291841 0.000990966 -0.00101253 0.000206041 0.000108961 -0.00185021 -0.000164355 
-0.00118939 0.000857572 0.000432213 -0.00048308 0.00136011 -2.43376e-05 0.00142304 0.000142139 -0.000238189 
0.0013546 -0.000160645 0.000451472 0.00016865 -0.00119581 -8.83782e-05 -0.000373292 -0.000769926 -0.000553948 
-0.000709923 0.000532666 -3.6825e-05 0.000227291 7.68358e-05 5.38534e-05 0.000689194 -5.29679e-06 0.000612144 
3.05946e-06 -7.00206e-05 0.000398851 0.000217133 -0.000260992 -7.42011e-05 -0.000669675 0.000467034 -6.08389e-05 
-0.000653179 0.00107804 0.000512664 0.00119306 0.000606917 0.000385145 0.000293174 0.00104408 0.000585227 
0.000871185 0.000716092 -0.000118309 0.000819485 0.000845013 -0.000131889 0.000761091 0.000966532 -0.000132311 
0.000733256 0.00100124 -0.000110828 0.000642891 0.00106642 -0.000114654 0.00050635 0.00122751 -0.000157453 
0.000478363 0.00121058 -0.000112329 0.000394048 0.000974308 -1.55692e-05 0.00197493 0.000712918 -5.25013e-07 
3.20163e-07 -0.00196022 -0.000479537 -0.000799046 -0.000968997 -0.00166997 -0.00195223 -0.000233215 -0.00219812 
-0.00155437 -0.000217674 -0.00119215 -0.00164662 -9.30294e-05 -0.00141072 -0.00151298 3.85914e-06 -0.0013151 
-0.00150781 2.4945e-05 -0.00136946 -0.00162474 -4.87684e-05 -0.00141393 -0.00162967 -5.29476e-05 -0.00155022 
-0.00235449 -0.000106799 -0.00245184 -0.00130615 -0.000112361 -0.0016319 -0.00122908 -0.000293454 0.000444145 
-0.00100199 8.0041e-05 7.78648e-06 2.15248e-05 -1.76064e-05 -0.000171223 0.000106064 -0.000181414 -1.04342e-05 
-1.13263e-05 2.83135e-05 2.19619e-05 0.000687019 0.000756484 0.00108506 0.000505638 -9.8783e-05 -0.000412248 
-0.0010332 -0.000332688 -0.000383041 -0.000449387 1.63668e-06 1.00481e-06 1.08594e-06 -1.11555e-07 -6.74419e-06 
-4.67242e-06 -1.54953e-06 -2.42245e-06 -7.37057e-07 -3.74693e-06 0.000288067 -0.000542669 3.49171e-05 -0.000272046 
3.9918e-05 0.000181333 3.12042e-05 -1.36734e-06 -0.000377315 0.000886253 -0.000223506 0.000572963 -0.00365762 
-0.000504196 9.17942e-05 -3.2407e-05 3.02843e-05 8.99786e-05 2.01279e-05 0.000166889 7.21575e-05 0.0010788 
-0.00135258 0.000243859 0.000529819 0.000158718 -8.68804e-06 -0.000755785 -0.000714377 8.15122e-05 -1.86601e-06 
-4.21639e-06 -4.46275e-07 4.07991e-06 1.84622e-06 1.06995e-06 -2.43401e-06 -2.9793e-06 2.20241e-06 -2.04011e-07 
-8.17792e-07 1.97801e-06 -2.01194e-06 -2.18268e-07 -6.41783e-06 -3.18931e-06 1.91376e-06 3.13683e-06 -1.40937e-06 
5.71958e-07 2.23362e-06 -1.93376e-06 1.20449e-06 -2.84685e-06 -1.92068e-07 4.00896e-07 -1.80296e-06 -1.58193e-06 
2.96014e-07 2.35419e-07 -1.42434e-06 -9.0539e-07 -1.02343e-06 1.1827e-06 3.127e-07 -4.22976e-07 9.69698e-07 
-9.66478e-08 -2.27202e-06 -2.55665e-06 -1.07773e-06 -6.01249e-07 8.73529e-07 3.83103e-07 7.4695e-07 7.95057e-07 
-8.96953e-07 -2.51889e-06 -1.24117e-06 3.23782e-08 7.06056e-07 1.35381e-06 -2.55769e-06 1.0203e-06 1.14622e-07 
-1.32949e-06 9.58784e-07 -1.15283e-06 1.0038e-07 -3.31624e-06 -1.24594e-06 -1.32797e-06 0.000281112 0.000135155 
-5.5944e-06 2.4498e-06 4.52344e-06 4.26945e-06 -3.08357e-05 5.83752e-05 3.93686e-06 6.00351e-05 2.26944e-05 
3.97547e-05 5.26934e-05 -4.04704e-06 -1.63055e-06 3.23735e-05 2.1355e-05 5.71203e-06 2.50509e-05 1.33077e-05 
-2.64259e-07 2.50076e-05 1.3769e-05 -2.39105e-06 1.46395e-05 8.61266e-06 1.36226e-05 -2.91638e-06 -5.85588e-06 
1.72001e-05 -4.02246e-06 -1.27348e-05 4.63037e-07 6.6573e-06 1.10484e-05 -1.17982e-05 5.87734e-06 -3.4355e-06 
-6.75798e-06 1.51111e-07 -8.43726e-07 7.60425e-06 -1.42998e-05 -9.08076e-06 8.8301e-06 -7.99938e-06 1.39276e-05 
-9.64777e-06 5.28261e-06 6.22324e-06 -1.26507e-05 4.09958e-06 -1.21289e-05 -8.73271e-06 -2.25496e-06 -2.54448e-06 
3.84979e-06 -1.665e-05 -2.95738e-06 7.03048e-06 7.1432e-07 4.86793e-06 -1.80115e-06 1.41015e-05 -4.86312e-07 
-2.62156e-07 -3.4641e-06 -1.85931e-06 9.47632e-06 -6.9615e-06 9.9113e-06 7.56414e-06 4.2873e-06 -4.77142e-06 
-9.80025e-06 4.02426e-05 1.02297e-05 1.71039e-05 2.97812e-06 -1.86627e-05 2.51802e-05 -3.76472e-05 -4.40544e-06 
2.22899e-05 -3.05398e-05 -4.31304e-06 1.67677e-05 3.26989e-06 -3.45425e-06 -2.03194e-05 1.85016e-05 1.84189e-05 
-7.51896e-06 -2.12035e-05 2.876e-05 3.36525e-06 -2.19368e-06 3.65885e-06 -1.52208e-05 1.9459e-05 -2.42089e-05 
-1.84926e-05 6.7588e-06 5.15287e-06 -7.31282e-06 -2.84906e-06 -9.28014e-06 -1.9389e-06 -1.92754e-05 -2.91959e-06 
1.52293e-05 -5.87877e-06 -5.17442e-07 7.87179e-07 5.82132e-06 5.77963e-06 7.2674e-07 5.97808e-07 1.59671e-06 
-6.14839e-08 3.90469e-06 4.4561e-06 -1.68112e-06 -4.96065e-05 -0.000188272 6.91552e-05 1.40193e-05 5.22243e-05 
-5.81801e-08 -5.45346e-07 3.72462e-07 3.58153e-06 -0.00883497 -8.7479e-06 6.94979e-06 -8.5482e-05 7.94572e-05 
-0.000165645 0.000136132 5.70579e-05 0.000221774 -9.87794e-05 -0.000122576 2.50141e-06 -3.1143e-06 -2.41226e-05 
5.74177e-05 -1.17377e-05 5.10144e-05 -2.29432e-05 -3.27703e-05 6.87033e-05 -8.8638e-06 0.000254051 0.000292546 
-0.000360184 -0.000252316 4.12324e-05 2.33585e-05 -0.000427218 0.000241076 0.00026406 -0.000220698 2.71615e-05 
-6.18151e-05 -2.051e-05 -0.000366353 -0.000154138 6.85275e-05 -5.25921e-05 8.63756e-05 0.000118463 -0.000150912 
7.09114e-05 -4.83336e-05 0.000150501 4.5682e-05 -0.000149028 -8.30244e-05 1.14729e-05 -0.000217738 -9.3048e-05 
5.40895e-06 0.000165832 -6.4479e-05 -5.1371e-06 9.86297e-05 -0.000156489 -3.05069e-05 0.000126979 0.000197446 
-1.36197e-05 -3.06123e-05 -8.33793e-05 2.12687e-05 -0.00016326 -0.000110149 1.51927e-05 0.000142625 8.65671e-05 
1.04835e-05 0.000162841 -0.000141292 -6.77786e-06 -0.00014095 -6.51305e-05 7.95824e-05 0.000136615 8.1483e-05 
-1.03674e-07 -0.000158815 -0.000135767 -1.05435e-05 1.28352e-05 0.000134557 -7.30232e-06 4.01866e-05 2.76319e-05 
-7.91885e-05 -0.000276534 -5.48962e-05 -2.62691e-05 -0.000279222 0.000380081 -4.33388e-05 4.01266e-06 9.31893e-06 
4.29739e-05 1.50929e-05 4.94294e-05 5.4445e-06 1.69088e-05 -3.18123e-05 -3.32357e-06 1.82968e-05 1.69178e-05 
-1.82352e-05 -1.65413e-05 2.09008e-05 -6.74805e-05 -0.000120145 2.15019e-05 -9.56576e-05 -0.000168436 5.59036e-05 
0.000121539 3.24562e-05 -0.00013463 3.84272e-05 1.03853e-05 -0.0005863 0.000211025 -0.000175803 -5.72185e-05 
-0.000152901 9.02967e-06 2.61341e-05 -3.45786e-05 2.8336e-05 3.08186e-05 -7.98556e-06 2.10058e-05 2.09616e-05 
-1.47198e-05 2.50972e-06 1.4433e-05 -2.95694e-05 1.61294e-05 8.31357e-06 -2.93187e-05 6.79351e-06 -1.11243e-05 
-9.57713e-05 -0.000109736 2.11493e-05 -0.000192147 -2.98008e-05 -5.55704e-05 0.000210863 -0.000134129 -0.000211096 
-5.92365e-06 -8.20398e-05 4.17031e-05 0.000134088 5.99514e-06 -2.98875e-05 3.39342e-05 4.30499e-05 4.76673e-05 
2.88282e-05 1.77444e-05 -2.10957e-05 5.7159e-05 -6.7387e-06 2.08789e-05 -9.9906e-07 5.6426e-06 -7.19568e-06 
3.29441e-05 -1.36657e-06 -3.56186e-05 -0.000105301 0.000128292 7.40798e-05 5.41658e-05 8.7606e-05 -3.83554e-05 
-7.02636e-05 6.9357e-05 4.07381e-05 1.09966e-07 1.67353e-06 -7.21565e-07 -1.92208e-06 3.97178e-05 -8.18996e-07 
3.41521e-06 9.04459e-05 3.37837e-05 -4.84834e-05 -1.4703e-06 2.6528e-05 -0.000136285 -6.66567e-05 -1.53247e-05 
-5.42775e-06 4.87202e-05 1.03607e-05 -9.61793e-06 -0.000103842 -0.000132514 -0.00026398 0.000255796 -4.30987e-05 
-2.46732e-05 -0.000278708 -0.000351204 -0.000320599 0.000208492 4.69135e-05 -2.0792e-05 5.77989e-05 -2.78447e-06 
0.000177171 6.43848e-05 0.000133394 -0.000114551 3.8996e-05 -1.40346e-05 8.05689e-06 1.83651e-05 -3.60294e-07 
-7.84713e-06 2.68186e-07 -0.000142261 0.000143185 0.000467843 0.00015076 9.33296e-06 5.25351e-05 -5.9801e-07 
-6.84737e-06 3.94338e-06 -4.23987e-06 1.11203e-06 5.08002e-06 7.19458e-06 -2.93527e-06 1.97831e-06 -3.47221e-06 
1.73985e-06 -1.73547e-06 -4.2801e-06 -4.0799e-08 5.55061e-06 3.72603e-06 -3.55237e-07 -3.48712e-06 -1.99185e-07 
5.28808e-06 -2.60793e-06 -1.85855e-06 9.31125e-07 -2.52471e-06 -2.71624e-06 -1.62384e-06 -1.03383e-06 -3.68575e-07 
-4.74094e-07 -2.0129e-07 1.44961e-06 7.05716e-07 -2.10687e-06 -7.0299e-07 -1.34794e-06 -2.70355e-06 -4.20541e-06 
-1.35613e-06 -1.66967e-06 1.95381e-06 9.88901e-07 -1.70288e-06 2.10408e-06 -2.70684e-07 -1.04229e-07 1.36911e-06 
-5.59701e-07 -2.22289e-07 1.25779e-06 2.41816e-06 3.82029e-07 1.98652e-06 -1.13846e-06 -0.000105411 7.41627e-06 
3.7697e-06 -1.21117e-07 -5.07679e-05 1.28151e-06 8.15003e-07 -1.46304e-05 8.75582e-05 -3.2368e-05 6.92523e-05 
-2.89024e-05 -2.92661e-05 4.02576e-05 -1.64045e-05 -1.07479e-05 1.48745e-05 1.79424e-05 1.93706e-06 9.0258e-06 
-4.76613e-06 2.81682e-06 3.19869e-05 -1.13169e-06 1.28128e-07 9.6367e-06 1.17605e-05 1.12392e-05 -8.6259e-06 
-1.00976e-05 5.4528e-06 -2.61347e-06 1.13418e-05 -8.5914e-06 1.17788e-05 2.95558e-06 -6.32375e-06 -2.77828e-07 
2.20276e-06 2.97596e-06 -6.38286e-06 -3.73316e-06 1.11229e-05 -9.01283e-06 -1.62197e-05 4.11119e-07 -4.305e-06 
1.16826e-05 -1.11699e-05 -1.6419e-07 -6.45593e-07 -1.59222e-05 5.58486e-06 -1.75048e-05 -4.04565e-06 -8.22476e-06 
-5.52694e-06 2.45967e-05 -2.36004e-07 5.26127e-06 -2.52752e-08 6.01153e-06 -1.02458e-05 -1.11912e-05 2.29438e-05 
-9.01759e-06 -8.04702e-07 -7.93991e-06 1.24308e-05 2.02048e-05 -1.51803e-05 -2.34758e-06 -4.51403e-06 1.17386e-06 
-1.1246e-05 -2.14001e-05 8.3506e-05 -5.84283e-05 -5.70917e-07 -9.39473e-06 -4.71793e-05 1.23438e-05 1.1381e-05 
1.34113e-05 -8.53886e-06 9.26366e-06 -7.30931e-06 2.22956e-05 -2.06382e-05 -2.43235e-06 7.47868e-06 5.60019e-06 
7.78433e-06 -9.86572e-06 7.14721e-07 9.53768e-06 -2.08442e-05 3.97342e-08 8.61691e-06 3.31402e-06 1.50429e-06 
1.64123e-06 2.27168e-06 3.9117e-06 2.13024e-05 -6.44024e-05 -2.64974e-05 -0.00010564 -4.78201e-05 6.17018e-05 
2.20095e-06 6.69946e-05 5.24488e-06 -3.88986e-05 0.000100642 7.70736e-05 -3.39405e-05 1.23226e-05 3.2604e-05 
-2.02706e-05 5.50065e-05 -4.11074e-05 -4.2878e-05 5.8531e-06 4.36541e-05 -0.000231149 -0.000170694 3.91407e-05 
-5.4191e-05 3.15855e-06 -2.49496e-06 -5.93581e-05 -8.91787e-05 0.000115239 -9.52904e-05 -2.17372e-05 2.49869e-05 
4.40454e-05 7.2678e-05 -2.03194e-05 3.43383e-05 3.42126e-05 9.4669e-06 -4.14085e-05 -1.98517e-05 -3.31514e-05 
-3.76141e-05 -7.70168e-06 -3.43985e-06 6.51912e-06 -1.55329e-05 4.54344e-06 -9.08011e-06 3.37863e-05 5.73969e-06 
2.17728e-05 2.74851e-05 7.03857e-06 -1.02205e-05 -2.82561e-06 1.67232e-05 -1.85101e-05 1.83254e-05 7.30973e-07 
1.56136e-05 -9.20318e-06 -1.45393e-06 1.82764e-06 2.12117e-05 4.80955e-06 2.7602e-06 3.67882e-05 3.93695e-06 
7.81241e-06 1.36062e-05 -4.26879e-06 -3.18682e-05 -1.86321e-05 2.81934e-07 -2.9275e-05 -2.47308e-05 -2.21162e-05 
-3.19437e-05 -7.09278e-05 -3.45196e-05 -2.23708e-05 -1.06192e-05 2.95837e-05 -1.81886e-05 -7.317e-06 -9.35707e-06 
-2.72548e-05 -1.53095e-05 4.98712e-05 -4.10663e-05 3.60518e-05 1.53003e-05 -1.70847e-05 -0.000117191 9.77186e-05 
2.77095e-05 -6.42422e-05 3.02794e-05 3.54399e-07 3.18706e-05 0.000156565 -0.000181607 6.46326e-05 0.000103336 
0.000267133 1.47358e-05 3.99575e-05 1.04314e-05 -0.000105742 -3.67067e-05 -6.21678e-05 -1.83827e-05 2.13521e-05 
2.15841e-05 -1.48024e-05 2.99178e-05 3.99012e-05 -2.58498e-05 1.11909e-05 1.97445e-05 -1.59766e-06 3.4149e-05 
1.55057e-05 -1.13195e-05 1.68744e-05 2.04832e-06 -5.88757e-05 -3.81667e-05 -7.35786e-06 -9.90565e-05 3.58596e-05 
-1.03931e-05 -3.38887e-05 -8.93675e-06 0.00011886 4.9326e-06 1.82465e-06 2.82932e-06 1.68976e-05 -2.28753e-06 
2.42979e-06 -2.03201e-06 7.09692e-06 -0.000164471 -7.11756e-05 -5.76204e-05 -4.07069e-05 -1.29301e-05 -4.4489e-06 
-3.74129e-05 -2.39604e-06 2.3387e-06 6.54983e-06 -6.58808e-05 4.34883e-05 -2.04512e-05 -6.57516e-05 7.01682e-05 
0.00010565 6.63611e-05 -6.07108e-06 -2.2242e-05 -2.87683e-05 7.42584e-06 4.08784e-07 -1.57291e-05 -2.26671e-05 
-3.36777e-05 5.07002e-05 3.37655e-06 -1.40302e-05 2.40139e-05 -1.85134e-05 3.71472e-05 1.07076e-05 2.93274e-05 
5.24436e-06 -0.00293756 -0.00258982 8.59763e-06 -4.23043e-05 -1.51588e-05 -1.91673e-05 1.21482e-05 -2.94536e-05 
-6.77394e-05 5.31337e-07 -9.05727e-06 -3.99588e-05 7.22051e-05 0.000199218 4.45691e-06 2.89191e-05 1.84779e-05 
-2.68271e-05 -8.53138e-05 -9.75991e-05 -3.23292e-06 4.78636e-06 -3.31341e-06 -8.1595e-07 1.34815e-05 -6.82299e-06 
2.73195e-05 2.34994e-05 1.10106e-05 -1.53146e-06 2.09522e-05 5.06184e-05 2.31765e-06 3.54078e-05 -2.07003e-05 
-2.25986e-05 6.41677e-05 -6.15315e-05 8.48988e-07 9.77796e-06 -7.56705e-06 -8.29291e-05 0.000126167 -5.33006e-05 
-5.56804e-05 -2.7101e-05 1.70006e-05 6.86157e-06 2.57267e-05 6.68169e-05 -2.83278e-05 1.52452e-05 -2.29945e-06 
-1.29321e-05 1.394e-05 1.12773e-05 1.43205e-05 -8.44071e-07 -2.61378e-06 -1.60326e-05 -2.5532e-06 -6.07762e-06 
4.74161e-06 1.06113e-06 -6.62058e-06 2.84937e-06 -9.1113e-07 -1.978e-06 6.20068e-06 -1.3571e-06 -2.97603e-06 
-5.44212e-06 -2.95792e-06 -5.68146e-06 1.73074e-06 -9.23761e-07 -1.4381e-06 3.61196e-08 -1.25253e-06 1.37679e-06 
-4.48032e-06 -3.01209e-06 1.55362e-06 -1.03954e-06 -3.92822e-06 -6.19687e-07 -2.96995e-06 -8.20946e-07 0.0046433 
0.000523207 -1.84322e-06 3.3282e-06 1.63618e-06 -1.60861e-06 -1.63716e-06 2.44007e-06 5.475e-05 -3.65174e-05 
-1.95285e-05 3.15611e-05 -4.74721e-05 -6.02982e-06 8.55257e-06 7.6216e-05 2.61788e-06 -7.57706e-06 3.80641e-05 
8.36714e-06 1.31161e-05 1.98233e-05 -1.25694e-06 -8.30574e-06 8.63256e-06 3.58574e-06 6.28608e-06 -1.4561e-06 
-2.84117e-06 -3.94798e-05 -0.00399633 9.55337e-06 -8.42362e-06 4.84423e-06 -5.55299e-06 3.91053e-06 5.75665e-06 
-9.46897e-06 7.03699e-06 -7.24989e-07 -1.44981e-06 -4.84667e-07 3.97884e-06 6.71086e-06 -8.77857e-06 -1.18836e-05 
1.74444e-06 -7.67826e-06 1.22084e-05 -7.38392e-06 -4.6251e-06 8.44467e-06 -1.22363e-05 1.14769e-05 -8.46859e-06 
-8.93594e-06 1.20768e-05 1.04396e-06 -3.49671e-06 -3.35601e-05 1.52958e-05 -1.27955e-05 1.90739e-05 -4.49853e-06 
-3.78438e-05 -6.95298e-05 4.8177e-05 4.9849e-06 3.56972e-05 0.000130474 7.23439e-06 1.23682e-05 -6.7644e-05 
7.94927e-06 -2.19918e-05 1.17356e-05 2.07573e-05 -9.31767e-06 -1.66975e-05 1.3927e-05 -9.13578e-06 6.9824e-07 
5.43662e-05 1.01387e-05 1.7502e-05 7.76784e-06 2.3995e-05 -3.58765e-05 -0.000100848 4.13726e-06 0.00012524 
4.66191e-05 -2.74217e-05 0.000108994 -4.72886e-05 2.13348e-05 6.25941e-05 -5.8883e-05 -1.0892e-06 -4.22444e-06 
8.89566e-06 0.000109815 -3.8074e-07 4.72662e-06 -5.60405e-05 -2.92797e-05 7.0728e-06 4.458e-05 2.52851e-05 
-3.25457e-05 2.07786e-05 -1.84525e-05 1.17269e-05 -2.67544e-05 -5.21489e-06 6.45846e-05 -3.83843e-06 9.48611e-06 
-2.55072e-05 2.19827e-05 -1.46606e-05 -2.19782e-05 -6.91186e-06 -9.02947e-06 -1.37336e-05 -5.34324e-06 -2.74355e-06 
7.25483e-06 2.24155e-06 -0.00308919 0.000643771 -3.13873e-06 2.37328e-06 -5.68327e-06 -5.77394e-06 1.21353e-05 
8.06735e-06 -2.18586e-06 3.44436e-05 2.27721e-06 3.65449e-06 1.77222e-05 -1.8914e-05 -2.28669e-05 -3.7496e-05 
-3.86833e-05 -2.92445e-05 1.28883e-05 1.10178e-05 4.56707e-06 3.03895e-05 -2.06451e-05 7.85749e-06 1.13701e-06 
2.08196e-06 2.92946e-06 -8.88201e-06 -4.97327e-05 3.35069e-05 -3.17997e-07 3.88676e-06 -0.000123991 -2.57154e-05 
-3.28404e-06 -5.97914e-05 -2.10637e-05 -4.42579e-05 9.11987e-06 -3.41483e-05 7.45154e-06 -2.05118e-05 1.01299e-05 
1.64069e-05 -7.85678e-06 -9.69398e-06 -4.39263e-05 -5.22156e-06 1.29083e-05 0.000127507 3.59248e-06 4.6515e-06 
-3.34411e-06 2.76482e-06 3.08864e-05 -4.92191e-05 -1.5517e-06 -1.97636e-06 3.36751e-05 -8.62757e-07 -1.18154e-05 
-4.95791e-05 2.87053e-05 7.09218e-09 5.90096e-05 -2.85472e-06 -4.24162e-05 8.38956e-05 2.7999e-05 3.45346e-05 
-6.74283e-05 -1.51579e-05 3.71178e-05 -0.000226492 -0.000161248 2.73013e-05 1.1336e-05 -1.02182e-05 8.9373e-05 
4.32185e-05 2.4139e-05 1.29572e-05 1.15055e-06 3.16849e-05 -2.32483e-05 1.19398e-05 2.23541e-05 7.58047e-05 
3.30986e-05 2.44422e-05 7.14255e-06 -8.65746e-06 -7.96844e-05 1.56645e-06 -1.30217e-05 5.01341e-06 1.31418e-05 
-1.37545e-05 -4.11548e-05 -3.31536e-05 5.22264e-06 2.0831e-05 -2.91683e-05 -4.58211e-05 9.73958e-06 9.7927e-05 
-2.53592e-05 6.17862e-05 -8.35286e-06 3.70507e-05 -3.96091e-05 -7.20351e-05 -3.59869e-05 -8.26611e-05 -3.64941e-05 
7.30647e-05 7.42067e-05 -3.95713e-05 -2.65127e-06 3.64987e-05 -2.35545e-05 4.59331e-05 1.60405e-06 1.35765e-05 
-2.27374e-05 -4.45165e-05 1.60152e-05 1.57494e-05 2.90756e-05 -1.59645e-05 4.85546e-07 -1.08721e-05 4.82414e-06 
1.93725e-05 -7.44441e-06 0.000819954 0.000710205 2.78824e-06 2.09274e-06 -4.03483e-06 -9.13123e-06 -6.31056e-06 
-4.21527e-07 -4.11962e-06 4.67565e-06 -4.81533e-06 -3.61159e-06 1.4974e-06 -7.14248e-07 1.60491e-06 -4.50806e-07 
-3.40993e-06 2.12145e-06 5.36148e-06 -5.52574e-06 -1.77328e-05 -1.71239e-05 -9.35471e-07 2.56633e-05 1.86464e-05 
1.0859e-05 -1.43474e-06 0.000989599 0.00200291 -3.6106e-06 -8.73015e-06 2.70847e-05 2.0218e-06 -7.91854e-06 
-1.1007e-05 -2.74173e-05 -2.70024e-05 -2.15158e-05 0.00504769 0.000789145 1.26838e-05 1.14539e-06 2.07996e-05 
6.40386e-06 -1.1675e-05 1.5594e-05 -1.49783e-05 3.43467e-05 -3.20176e-05 -1.27412e-05 3.3167e-05 1.20252e-06 
1.19515e-05 -1.41611e-07 1.45868e-05 4.46069e-05 -3.19221e-05 -4.43562e-05 -1.66542e-05 -1.18737e-05 2.33356e-05 
1.32297e-05 1.21491e-05 3.91331e-05 -7.46461e-05 1.18266e-05 8.56189e-06 4.23702e-05 -0.000106092 1.0237e-05 
1.23654e-05 -1.51251e-06 9.80948e-05 -7.49857e-05 2.66577e-05 3.67501e-05 -0.000798146 0.00028633 1.00115e-05 
2.12723e-05 0.000170986 0.000756749 3.28243e-06 -9.86723e-06 4.78851e-06 -9.7429e-06 1.43884e-05 2.44792e-06 
1.00686e-05 4.30799e-05 -1.85579e-05 5.44345e-05 -1.80123e-05 -1.20106e-05 5.06072e-05 -3.06609e-05 -1.83973e-05 
-2.71788e-05 -6.42814e-05 1.74657e-05 2.19704e-05 -3.69956e-05 2.21615e-06 -6.8853e-06 -1.91001e-05 -1.04993e-05 
8.78247e-05 1.65714e-05 -3.63356e-05 -1.50971e-05 2.28502e-05 1.40451e-05 0.00487771 0.00157518 -2.29363e-05 
-5.03198e-05 -1.08469e-05 -3.29443e-07 -7.41441e-07 6.42629e-06 -9.36153e-06 1.85614e-05 -1.6296e-05 0.000100728 
1.93866e-06 1.62718e-06 -7.6586e-07 2.75373e-05 2.71541e-05 -1.18016e-05 0.00381038 -0.000495873 2.81452e-05 
-1.10689e-05 1.68353e-05 0.00244195 0.00119495 1.06926e-05 -8.67835e-06 2.53267e-05 1.52015e-05 3.00256e-05 
2.55605e-05 5.41854e-06 8.53848e-06 -0.00557928 -1.4185e-05 -2.76398e-05 -6.78325e-05 7.97253e-06 -2.31532e-05 
-1.6419e-05 8.69436e-06 3.46335e-05 1.27537e-05 -1.21591e-05 -3.08298e-07 3.90264e-06 1.0228e-05 -1.08325e-05 
-1.49685e-05 2.10062e-05 7.67639e-06 -1.57077e-05 4.13127e-06 -1.74809e-05 3.44455e-05 -2.68974e-05 -2.19064e-05 
-2.42248e-06 6.53851e-06 -4.51301e-06 1.16289e-05 -3.91468e-06 -6.97063e-06 -3.69604e-06 -1.4305e-05 1.02621e-05 
3.20668e-05 -1.59372e-05 2.22393e-05 3.64916e-05 3.50241e-05 -1.8437e-05 2.9762e-06 -5.81044e-05 -3.6864e-06 
-8.07422e-06 -2.50028e-05 -1.78216e-05 -5.72411e-05 2.27442e-05 2.54266e-05 6.76927e-05 4.74442e-06 -6.5966e-07 
6.4938e-06 -5.45689e-06 -3.52065e-05 2.12201e-05 -1.28962e-05 -1.52567e-06 -5.22292e-05 3.93799e-05 -6.99131e-06 
1.17501e-06 3.41215e-05 4.29142e-05 -4.73919e-05 -2.31078e-05 1.16343e-05 -1.66529e-05 1.5021e-05 7.24804e-05 
-7.30003e-05 -7.05577e-06 -7.42793e-06 -5.86626e-06 -2.92602e-06 -1.10087e-05 1.44209e-05 -4.63629e-07 7.67806e-06 
-1.37263e-06 1.36487e-05 1.3469e-06 -1.31598e-06 -1.57559e-06 -3.9274e-06 -3.59677e-06 1.50983e-06 -3.02885e-06 
-8.55813e-07 1.73895e-06 -4.41473e-07 -4.35801e-06 1.09681e-06 -1.35436e-06 -2.16731e-06 2.0506e-06 -1.87181e-06 
-4.68308e-07 -4.95169e-06 5.73068e-06 -1.95779e-06 1.0562e-06 2.14348e-06 1.02309e-06 -8.63807e-07 -2.02349e-06 
-6.06759e-07 -1.21389e-06 -1.51767e-08 -4.4818e-07 -3.99509e-07 -3.28347e-07 5.7765e-07 -5.78942e-07 -1.82646e-06 
1.16521e-06 -9.04411e-08 -1.07198e-06 -1.49943e-06 4.0612e-07 -6.46374e-07 -1.20044e-06 -2.30039e-06 -4.05205e-06 
-4.04146e-07 -2.34542e-07 -2.36894e-06 -2.01532e-06 9.61052e-07 -5.22342e-08 -1.00927e-06 4.37136e-07 -6.79299e-07 
-7.39932e-07 7.16805e-07 -2.94464e-07 -1.5679e-06 -6.32057e-07 6.71258e-08 -2.07799e-06 -8.37072e-07 -1.56499e-07 
-0.00717768 -0.000903037 0.00322589 0.00028647 -0.000191216 -0.000448558 4.06551e-05 -0.0001184 -0.000114696 
-3.68927e-05 -2.84535e-05 -7.822e-05 2.74702e-05 3.84372e-05 6.0884e-06 1.06367e-05 -9.06781e-06 7.35128e-06 
-7.62683e-06 -3.57252e-06 1.63053e-06 1.10867e-06 6.28388e-07 -1.61516e-05 -4.06182e-06 -8.81551e-06 -4.47203e-06 
-2.60097e-06 6.08859e-06 -6.19833e-06 1.11159e-06 -1.81539e-06 -3.14116e-06 1.99213e-06 1.50206e-06 -2.55038e-06 
-2.14955e-06 -9.67321e-06 -1.9728e-06 3.7544e-06 5.61701e-06 5.20604e-06 -2.45393e-06 -5.99203e-06 -8.94204e-07 
4.46896e-07 -2.40946e-06 9.2748e-06 -4.98762e-06 -6.90765e-06 7.71353e-06 -1.56565e-06 4.11896e-06 5.11286e-06 
-5.44497e-06 -6.10854e-06 1.09895e-05 -4.57154e-06 -3.33808e-06 1.6372e-05 8.53298e-06 -8.4407e-06 1.23079e-05 
-2.71246e-05 -1.19074e-05 1.05867e-05 -4.67697e-06 -1.00386e-06 1.21519e-06 9.09255e-06 -2.91667e-06 -2.3331e-05 
-9.25393e-06 1.73209e-05 -2.95565e-05 2.17172e-05 1.75378e-05 -1.77646e-05 1.3051e-05 9.56977e-06 -7.72291e-06 
2.36652e-06 7.16301e-06 2.01331e-06 -2.06582e-06 9.61697e-07 3.55308e-06 -3.01296e-06 -2.25713e-06 6.07901e-06 
-1.97772e-06 -5.44069e-06 6.48012e-06 -3.7723e-07 -8.81293e-06 -5.5269e-06 -2.52284e-06 -4.09996e-07 7.73415e-06 
5.05716e-06 -1.1452e-06 1.43579e-05 -7.64892e-06 -7.40908e-06 1.7366e-06 -0.00132137 -2.10177e-07 -1.41709e-06 
2.03169e-06 -1.89539e-07 1.73611e-06 6.09694e-07 -1.7164e-07 1.71566e-06 1.74389e-07 2.16566e-07 2.00048e-06 
4.30347e-07 -1.53625e-06 -1.19366e-06 -2.05545e-06 1.83157e-06 -8.60718e-06 -6.85598e-06 2.47887e-06 -1.2904e-05 
-2.81628e-06 -1.58285e-05 -9.00424e-06 1.03782e-05 -3.98767e-05 -5.85914e-06 8.28034e-06 -5.13322e-05 -4.7617e-06 
8.91053e-06 -2.68099e-05 -2.55899e-05 2.53167e-05 2.84659e-05 -5.06751e-06 3.77714e-05 5.15546e-05 4.0501e-06 
4.90912e-05 2.60382e-05 2.88373e-05 5.11905e-05 2.79867e-06 4.008e-05 4.38108e-05 -1.10821e-05 5.54207e-05 
5.20023e-05 3.75562e-05 -0.000632811 0.00045939 -0.00723215 -0.00245913 -0.00110583 0.015585 -0.000828261 
-0.0053951 0.000962331 5.085e-05 0.000654712 0.00491858 0.00201334 -0.00104477 -0.000175294 0.00412168 
-0.00168876 -0.00263734 -0.000414712 1.44651e-05 -0.00467104 -0.00191385 0.000879685 0.00351173 -0.00343037 
0.00101083 0.00108979 0.00462505 -0.00144916 -0.000811671 0.00108261 0.000102367 -0.00440326 -0.00104746 
-0.000284326 0.00317284 -0.00307783 0.0011573 0.00116956 0.00458881 -0.00132353 -0.00144361 0.00083709 
-0.000198953 -0.00240263 -0.000242 0.000347864 -0.00316742 -0.00174737 0.000805666 0.00139082 0.00116017 
0.0010251 9.80754e-05 0.00211534 -0.0005545 -0.000942578 0.000819673 -7.71004e-05 -0.00363283 -0.00103138 
0.00027513 -0.000966958 -0.00376861 0.00095287 0.00242916 0.00604068 0.0063335 0.00527748 -0.00332492 
0.00546729 0.00479311 -0.00220469 0.00532089 0.0046109 -0.00209747 0.00575419 0.00474406 -0.00209277 
0.00543192 0.00464827 -0.00203633 0.00495392 0.00514315 -0.0020595 0.00505224 0.00462286 -0.00221764 
0.00485397 0.00473193 -0.00215194 0.00510935 0.00485865 -0.00201752 0.00401284 0.00457744 -0.00189734 
0.00434351 0.00544069 -0.00170298 0.00452682 0.00633398 -0.0013415 0.00335571 0.0125515 -0.00232283 
-0.00487004 0.000935295 -0.0102587 -0.00884174 -0.00569732 -0.00623722 0.00210539 -0.00334523 -0.00232715 
0.00222645 -0.00741625 -0.00525499 0.00307417 -0.00475634 -0.00716131 0.00123974 -0.00424822 -0.00492801 
0.00181045 -0.00428147 -0.00515466 0.00158725 -0.00457385 -0.00453901 0.00142322 -0.00440739 -0.00473784 
0.00165858 -0.00408343 -0.0048441 0.00173276 -0.00441953 -0.00516526 0.00173334 -0.00370118 -0.00241651 
0.00355773 -0.00651802 -0.00608465 0.00294334 -0.00837898 -0.00455468 0.00422926 -0.00365234 -0.00155088 
-3.29414e-06 -1.34841e-06 -1.27197e-06 8.11774e-06 -3.80147e-06 2.65352e-06 0.000554843 7.22077e-06 -0.00191045 
-4.86062e-05 -0.00193667 0.00689636 -0.00297741 -0.0036568 -0.000389592 -0.00361253 0.00802015 -0.00812869 
0.00210017 -0.0121605 0.00220786 0.00191687 0.00153954 0.000287737 2.08819e-06 -0.00202713 3.56026e-06 
-2.50556e-06 6.98459e-07 6.50154e-07 1.08854e-06 5.81545e-07 3.72613e-06 2.12012e-07 3.59188e-06 -1.59099e-06 
4.70069e-08 1.55464e-06 -5.196e-08 -4.18755e-07 3.47753e-06 1.02874e-06 1.95209e-06 2.38396e-06 -2.31842e-06 
-1.64246e-06 1.43266e-06 -1.22532e-06 -1.20934e-06 3.73984e-06 4.01676e-06 -2.4624e-06 4.9088e-07 2.16837e-06 
-2.02083e-06 -5.79066e-07 1.15222e-06 -1.43371e-06 1.6144e-06 1.39926e-06 -1.6272e-06 1.51541e-06 1.15622e-06 
2.62376e-07 -1.7911e-06 -4.07101e-08 -1.03406e-06 -1.20937e-06 1.06472e-06 1.07514e-06 -8.32024e-07 2.12657e-07 
-9.04288e-07 -1.69007e-06 -2.21661e-06 8.02385e-07 1.42782e-06 -4.25756e-07 1.00687e-06 -6.32175e-07 -1.64153e-06 
-1.8713e-06 6.79873e-06 1.64629e-05 -4.02663e-05 0.000102707 -7.08037e-05 0.000250528 -0.000111205 7.04861e-07 
0.000194725 -0.000508912 -9.74623e-05 7.34373e-05 7.98752e-05 -3.11465e-05 4.37375e-05 -8.38422e-07 4.03937e-05 
6.38391e-07 -8.98061e-06 1.35534e-05 -1.07466e-06 6.35021e-06 -3.11205e-05 7.19172e-07 1.58346e-05 1.07319e-06 
8.50164e-06 5.97622e-06 -7.666e-06 -6.48581e-06 -1.60898e-06 4.60921e-06 1.7123e-06 -2.89498e-07 -8.89496e-06 
-2.34087e-07 7.33323e-06 3.10285e-06 -1.43497e-06 -5.52439e-06 -8.17869e-06 -1.14851e-05 -6.76788e-06 4.41423e-06 
-8.32466e-07 -4.65814e-06 -7.99816e-06 2.31885e-07 1.64541e-06 7.1566e-06 -7.77224e-06 -1.01601e-05 8.90639e-09 
-8.35096e-06 -3.28514e-06 3.63394e-06 5.82097e-08 -3.31708e-06 -4.01992e-06 1.22354e-06 -1.18748e-05 7.05098e-06 
-1.46651e-05 -1.014e-05 1.34022e-05 1.4193e-05 -9.07402e-07 -2.70913e-05 2.73448e-06 4.45005e-06 -4.7823e-06 
-7.0362e-06 6.47363e-06 -5.65803e-05 2.93751e-05 1.32132e-05 -3.52646e-05 3.66513e-05 1.87991e-05 -1.64419e-05 
7.43993e-06 -7.15409e-06 2.37186e-05 -4.78632e-06 -7.41079e-06 -8.42979e-06 1.64352e-06 2.91963e-06 1.19649e-05 
-4.95904e-06 2.92323e-06 3.8042e-06 -7.15525e-06 -8.91921e-06 -3.64819e-06 -1.33384e-05 1.07792e-06 5.08162e-06 
-9.42488e-07 -1.82764e-06 -1.96881e-06 3.05855e-06 -4.14885e-06 3.64356e-06 2.42331e-06 -0.000328995 -0.000192306 
-2.66674e-06 8.10042e-07 4.29296e-06 -9.1134e-06 -4.80274e-06 2.575e-06 1.95067e-06 -0.000275017 0.00265251 
1.51955e-06 3.81483e-06 0.000277455 -1.26658e-05 -1.16724e-05 5.38012e-06 2.58186e-05 -1.81089e-05 5.58089e-06 
3.62974e-05 -3.72934e-05 -8.98752e-06 2.70184e-05 -5.42888e-05 -2.20339e-05 2.47095e-05 -2.13992e-05 5.90303e-07 
4.39094e-05 -9.47936e-06 7.41035e-07 4.69485e-05 3.0601e-05 -1.18718e-06 2.97152e-05 9.22582e-05 -3.14823e-05 
1.1482e-05 0.000205612 -0.000105005 -1.42454e-05 -1.48532e-05 0.00251239 0.00122839 -0.00145602 0.00059921 
0.00016068 0.00260253 -2.48864e-05 0.000308163 -0.000412828 0.000829011 0.0001259 -0.000257631 0.00122107 
-0.000219274 0.000102463 0.000124515 -4.99246e-05 -0.000201135 0.000171762 3.79864e-05 -0.000466748 0.000387098 
0.000181344 -0.000504044 0.000339996 -1.849e-05 4.87171e-05 8.20002e-05 -0.000192199 -0.000191194 0.000185906 
1.73908e-05 -0.000469115 0.000369921 0.000168352 -0.000103976 0.000874298 -0.00014505 -9.23502e-05 0.000755999 
9.19594e-05 -0.00011862 0.000432089 -0.000147808 -0.000778372 0.000190847 6.5611e-05 -0.00073945 7.92376e-05 
-0.000107165 -0.000752426 0.000883272 -0.000128814 0.000477571 0.000838289 7.14595e-06 -8.18416e-06 -0.00491799 
-0.000146464 1.68164e-05 -0.00083033 -0.000568798 -0.00309568 -0.000851776 -0.000624611 -0.00125411 -0.000688198 
-7.75805e-05 -0.00139539 -0.00063294 1.77604e-05 -0.00124514 -0.000634929 0.000105322 -0.00101283 -0.000810727 
0.000118496 -0.000993591 -0.000842639 0.000131835 -0.000874219 -0.000877871 0.000111742 -0.000782187 -0.000857096 
0.000137129 -0.000606611 -0.00103654 0.000161691 -0.000559685 -0.00124367 0.000144518 -0.000688526 -0.000896337 
3.8855e-05 0.000268799 0.000457741 -7.72171e-06 0.00126419 0.000298323 0.000227863 -0.000794561 0.000995086 
3.8011e-05 9.19632e-05 0.000614853 0.000983168 0.000377711 0.000521321 -6.51068e-05 0.000332691 0.000392316 
-0.000163908 0.000393482 0.000368187 -0.000186144 0.000359977 0.000416997 -0.000163526 0.000336462 0.000442562 
-0.000155002 0.000654936 0.000431517 -0.000179059 0.00117623 0.00117086 4.22102e-05 0.000905394 0.000550313 
0.000226497 0.0028179 0.00188169 4.54344e-05 -1.9814e-06 3.48719e-06 2.52967e-06 3.29056e-06 -0.00121442 
-0.000216097 0.000133769 0.000194483 0.000261649 0.000435004 8.46203e-05 0.000911949 0.000316104 2.77612e-05 
-2.34778e-05 0.000262546 -2.58357e-05 2.75719e-05 1.75784e-05 0.000274625 -0.000325112 0.000459258 -0.00020007 
-3.23845e-06 -2.64915e-06 8.69483e-06 5.88275e-06 -5.33755e-07 -2.08694e-06 7.41137e-07 0.000798075 -6.56744e-06 
3.29387e-06 -0.000607564 0.00186889 -6.62286e-05 0.000540887 0.000224465 2.45476e-05 -6.78136e-05 -0.00207831 
-0.000199694 -0.000137527 -0.000177835 -0.000164023 -1.68217e-05 0.000406282 -0.000231968 -2.39241e-07 1.09596e-06 
2.09616e-06 -5.52401e-06 -6.6727e-08 -1.92369e-06 4.63839e-07 -3.51151e-06 3.2791e-06 -8.37771e-07 -1.3716e-06 
2.02839e-06 4.09021e-07 -5.12146e-06 -4.6528e-07 7.19235e-07 -7.97146e-07 1.2101e-06 2.31294e-06 -2.70629e-06 
-6.70031e-07 8.91131e-07 -2.32198e-06 -6.96254e-07 5.06416e-07 -3.5873e-06 1.966e-07 -7.20711e-07 -3.77621e-07 
-3.75341e-07 -1.41832e-07 6.95547e-07 -5.12858e-07 3.69189e-07 8.14774e-07 4.99284e-07 2.35754e-06 -1.13857e-06 
2.60074e-07 -1.40516e-06 -5.80919e-07 1.44317e-06 1.51627e-06 1.772e-06 6.87456e-05 -4.34987e-05 -6.99257e-07 
1.22335e-05 -1.09427e-06 1.45489e-06 -3.25558e-07 0.000108002 -0.000106642 0.00010383 5.4109e-05 6.08714e-05 
-1.4389e-05 -1.55817e-05 -1.77137e-05 5.42855e-06 -7.1418e-06 1.27758e-06 1.00624e-06 5.72097e-06 -4.77203e-07 
6.46919e-06 1.62324e-06 5.16529e-06 4.3724e-07 -1.47691e-05 -5.17692e-06 -3.30599e-06 9.04479e-07 -3.45076e-07 
9.54708e-06 5.49036e-06 3.54135e-06 -5.95466e-06 -6.29684e-06 -2.86997e-06 -6.1856e-07 9.36749e-06 -8.65939e-06 
-1.18542e-05 -4.48232e-06 -5.71684e-07 9.18121e-07 -1.21545e-05 7.91087e-06 -4.03228e-06 1.34885e-06 -4.35916e-06 
3.53224e-07 4.50889e-06 -5.32286e-06 -7.97671e-07 -1.22328e-06 1.06101e-05 -5.13817e-06 7.96135e-06 1.84717e-06 
-6.40685e-06 6.46646e-06 -1.92162e-05 7.81937e-06 6.34162e-05 -1.03718e-05 -9.32666e-06 -4.14371e-05 -7.67379e-05 
-5.94406e-06 -6.24907e-05 -2.24601e-05 -9.26895e-05 -0.000187354 -1.5925e-06 -8.71929e-05 3.31532e-05 4.1183e-06 
-2.21194e-05 3.27642e-05 1.77874e-05 -2.38699e-05 -2.75414e-06 6.61161e-06 -4.0172e-06 -2.54494e-05 -2.27588e-06 
6.64315e-06 1.06138e-05 -5.99994e-06 -3.05665e-06 4.27752e-07 1.53993e-06 -5.30844e-06 -6.27615e-06 -9.24816e-06 
4.11785e-06 -3.04764e-07 4.58993e-05 -1.09397e-05 8.54109e-06 2.71442e-06 -3.83823e-06 6.50455e-06 -9.68472e-05 
9.63959e-05 -2.10065e-06 1.56389e-05 2.83022e-08 -7.00317e-06 -1.87525e-06 -2.8632e-05 -4.66479e-07 1.99486e-05 
-3.39182e-05 2.78724e-05 3.98702e-05 2.24676e-05 -2.26494e-05 2.36548e-05 -0.000151473 4.35934e-05 6.14236e-07 
-2.96608e-06 2.71862e-06 -1.15853e-06 -4.92984e-05 0.000174191 -6.848e-05 4.69542e-05 -3.76223e-05 -1.27299e-05 
3.71528e-06 4.55772e-07 1.3377e-05 3.13182e-06 1.26757e-05 3.86466e-05 -5.69414e-06 -4.6404e-05 8.25525e-05 
-8.6288e-06 -3.16111e-05 1.14647e-05 2.30812e-05 -5.5602e-05 1.76063e-05 9.90816e-06 -1.72342e-05 1.90183e-05 
3.41061e-05 -3.95588e-05 3.8205e-05 1.71777e-05 -3.83351e-05 3.13738e-05 6.56224e-06 -2.53344e-05 8.35007e-06 
4.46843e-06 -0.00012184 9.01018e-05 -3.66324e-05 7.41563e-05 -0.000299785 4.4174e-06 -0.000214107 0.000400878 
0.00042959 4.29352e-05 -4.1986e-06 -8.29682e-06 -1.32126e-05 -4.23915e-05 -2.11684e-05 -1.66539e-05 -1.2518e-05 
-1.52613e-05 -1.88099e-05 8.64304e-06 -3.51226e-05 8.9142e-06 -5.33924e-05 -2.57292e-05 1.25397e-05 -3.99526e-06 
-4.48352e-05 1.09713e-05 2.12125e-05 -5.76301e-05 2.30734e-06 1.9517e-05 -5.69221e-05 0.000136834 -6.85437e-06 
0.000287621 -1.03992e-05 -5.16376e-05 -1.61371e-05 9.39406e-05 5.26471e-07 4.29657e-06 -7.48646e-06 3.81051e-05 
1.44614e-05 6.81143e-06 -1.1433e-05 -2.60515e-05 5.21162e-06 -3.35524e-05 -6.97829e-06 -3.55521e-05 -6.70496e-05 
-2.12153e-05 -7.4677e-05 -5.63467e-05 -7.66072e-06 -0.000152313 -9.7215e-05 -4.21153e-05 0.000155437 5.09635e-05 
-9.94221e-05 -0.000176095 5.92923e-06 -7.90463e-05 3.29618e-05 -3.76717e-05 2.54521e-05 0.000106004 2.50892e-05 
7.04025e-06 -3.67044e-05 0.000205271 -0.000100749 -0.000138415 -9.43498e-05 5.8376e-05 -3.16046e-05 7.39473e-05 
2.2725e-05 6.22528e-06 3.98744e-05 2.07498e-05 -4.49264e-06 0.000221449 -0.000730506 0.000122994 0.000160642 
3.92259e-05 -7.88319e-05 3.77642e-06 -2.76524e-05 -1.64923e-06 -8.47572e-06 6.38959e-06 -2.47055e-06 -2.22492e-06 
0.000148722 2.04399e-06 3.67311e-06 1.30519e-06 -7.35187e-06 -1.455e-05 -5.70437e-05 0.000100479 9.7522e-05 
-3.47787e-06 -1.01687e-06 3.99236e-07 -2.14598e-06 4.51709e-05 -0.000162867 6.47919e-07 2.21054e-07 2.89171e-06 
-1.74086e-05 5.09187e-05 0.000352006 -0.000100638 -6.24365e-05 0.000295718 -2.11797e-06 1.8601e-06 2.83022e-05 
-4.35085e-05 4.43322e-06 1.2255e-05 -2.83279e-05 -2.03239e-05 -4.18676e-05 8.42807e-05 -1.22208e-05 -4.94339e-05 
0.000122278 7.06762e-05 -8.95001e-05 -4.39591e-05 5.2495e-05 0.000383637 -0.000170083 6.38658e-05 -0.000165795 
0.000227794 -5.5544e-05 -0.000119727 -9.55266e-06 -0.000292901 -2.75357e-05 -4.3594e-05 0.00021134 3.34275e-05 
0.00031362 8.81379e-05 -3.61448e-05 -3.04976e-06 7.75423e-07 9.07183e-05 0.000136739 4.27785e-06 9.99503e-05 
-3.37919e-05 0.000140947 -0.000103662 6.55347e-06 -0.000179392 -9.62455e-05 0.000125897 7.60865e-05 -5.33537e-05 
-0.000112658 2.91429e-06 1.44039e-06 1.02529e-06 2.08534e-06 -6.79054e-07 -1.3328e-06 -4.79144e-06 -1.21542e-06 
-8.15482e-07 1.10835e-07 -2.34316e-06 -9.95008e-07 -3.24096e-06 3.59497e-09 -8.74504e-07 -1.42371e-06 -1.38468e-06 
-1.20566e-06 4.0415e-07 -3.2083e-06 9.083e-07 8.92769e-07 1.09554e-06 2.35974e-06 1.47232e-06 4.57839e-06 
3.41026e-06 3.24862e-05 -8.89056e-05 5.30874e-06 1.08324e-06 -4.19602e-06 -4.29587e-06 -9.41422e-06 1.56224e-05 
-5.96668e-06 3.65181e-06 -3.53554e-06 -1.19589e-06 2.86877e-06 -7.24996e-07 4.6119e-06 -3.87694e-06 -3.9525e-07 
-7.31893e-07 -1.54217e-06 4.3643e-06 -5.27632e-06 -1.00959e-05 -1.20756e-06 -5.9096e-06 4.38343e-06 -6.05789e-06 
-1.43426e-05 -7.14553e-06 -1.20335e-06 9.52372e-06 5.69734e-07 1.38661e-05 -5.29166e-06 -5.7878e-08 -6.18059e-07 
-8.41699e-07 -5.69552e-06 1.57159e-05 -1.1095e-05 1.51882e-06 -3.91153e-05 1.97327e-05 0.000107278 5.79479e-05 
6.14305e-05 -0.000198905 -2.14843e-05 -1.22154e-05 -3.39698e-05 2.66776e-05 -6.55335e-06 -1.27594e-05 -6.83818e-06 
1.74989e-05 -4.88834e-06 -8.48231e-06 3.66006e-06 5.48371e-06 -6.23084e-06 -7.04892e-06 -6.79902e-06 3.84871e-06 
-9.69393e-06 -1.05217e-05 0.000110012 0.000146796 3.6643e-05 -1.2555e-05 1.52891e-05 4.11976e-06 -4.13865e-06 
-9.65926e-06 3.56096e-07 -9.06022e-07 -2.05903e-06 -3.46625e-05 8.8607e-06 2.21267e-05 3.80409e-06 0.000236589 
5.50629e-05 4.02506e-05 6.11444e-05 -0.000250904 3.82223e-05 -1.73361e-05 -6.3391e-05 -2.45239e-05 -1.17332e-06 
4.73657e-05 4.36751e-05 -4.36767e-05 -4.16003e-06 1.15224e-05 -5.17471e-06 1.28863e-06 -1.33363e-05 0.000232993 
1.85828e-05 -5.87997e-06 -3.00183e-05 1.70913e-05 8.40965e-06 9.70875e-06 -2.14092e-07 5.81048e-06 -1.82051e-06 
-4.38405e-06 1.41243e-05 2.76776e-05 -2.38918e-06 1.53241e-06 1.60041e-05 3.19086e-07 1.01643e-05 1.48991e-05 
-1.32725e-05 -3.07321e-06 1.73902e-05 -2.7515e-06 -3.26515e-05 3.8118e-05 6.23526e-06 -1.1504e-05 -2.02435e-05 
7.12039e-05 -6.34862e-05 1.47311e-05 0.000110135 0.000120366 8.38528e-06 2.72415e-05 7.70593e-05 -4.6206e-06 
4.33856e-06 4.28216e-05 -4.17715e-06 -3.61576e-05 -6.23219e-05 2.04621e-05 5.23438e-06 -1.33673e-05 1.62546e-05 
-4.17612e-05 -7.15038e-06 6.12575e-06 4.29484e-06 -7.43444e-06 -3.6028e-06 -1.41648e-06 -1.71427e-05 -4.87896e-07 
3.32513e-05 -3.05374e-05 -7.12121e-05 -2.88999e-05 2.76929e-05 -2.34095e-05 5.52794e-05 -2.38541e-05 -2.98878e-06 
-1.86982e-05 -3.64466e-05 -1.10576e-06 -6.82695e-06 5.13661e-06 -7.45822e-05 -7.23365e-05 4.90656e-05 -2.79742e-05 
-4.50611e-05 0.000141672 0.000292196 -4.21861e-06 -8.90024e-06 -2.87217e-05 -2.09147e-05 -3.15537e-05 3.34667e-05 
-2.78499e-05 -2.19996e-06 -3.44942e-06 -8.87144e-07 -5.37894e-06 0.000203457 -1.88799e-05 1.29389e-05 -1.68276e-05 
-7.39054e-05 1.58712e-06 1.6787e-06 -6.82135e-07 3.65784e-05 -2.55784e-05 4.84774e-05 -2.61455e-05 2.68458e-07 
6.93346e-06 -2.99183e-05 8.53852e-05 3.21894e-05 -9.98616e-05 2.69802e-06 -4.49278e-06 6.61431e-06 7.14279e-06 
-5.3586e-06 6.51403e-05 -1.50133e-05 -3.40743e-05 1.02811e-05 -4.63723e-06 5.6695e-05 1.69037e-05 1.71754e-06 
-4.56442e-06 -0.000139649 4.54335e-06 4.87926e-06 2.3379e-06 2.56072e-05 6.35834e-05 1.20218e-05 3.52013e-05 
2.36061e-06 0.000107121 -3.24545e-05 -1.2783e-05 0.000110914 -1.04475e-06 2.27602e-06 3.76562e-05 1.19724e-05 
-0.000170539 1.18614e-05 -4.66393e-05 -8.8812e-05 8.88389e-05 -2.5394e-05 -1.48288e-05 2.05365e-05 -2.95971e-06 
2.88025e-05 -5.3349e-05 5.12144e-06 1.40589e-07 1.90452e-06 -1.28278e-06 -7.64976e-05 -5.58412e-05 -6.74738e-06 
-4.89091e-05 5.75203e-06 3.57996e-05 2.47702e-05 2.21955e-05 -9.57212e-05 -3.568e-06 -5.29296e-05 1.28914e-06 
-1.30781e-05 8.11977e-05 6.86911e-05 -6.75919e-05 8.55125e-06 -1.11074e-05 -0.000164121 1.15451e-05 -3.83214e-06 
8.81048e-07 0.000152169 -1.02267e-05 -3.067e-06 3.01336e-05 -8.20557e-05 -8.32347e-05 -6.94571e-05 6.5815e-05 
5.24523e-05 -5.74876e-05 -5.80615e-05 -2.5124e-05 -2.70082e-05 -1.06213e-05 -8.50498e-07 3.3216e-05 -1.08298e-05 
-9.924e-08 -3.55583e-05 -3.0503e-06 -6.26816e-07 -1.83486e-06 -9.43543e-07 2.31227e-06 7.5306e-07 -2.66821e-06 
-7.83354e-06 -2.54072e-06 7.98863e-06 -9.75402e-07 6.05449e-06 -6.68176e-06 5.03211e-05 -3.24078e-05 1.07995e-05 
1.14667e-05 -2.28834e-06 -1.87959e-06 1.48143e-06 -1.83579e-06 7.66238e-06 -3.17711e-07 1.31897e-05 -1.07727e-06 
-7.19883e-07 -3.12955e-06 1.39831e-06 -2.76087e-06 6.18891e-07 -4.75105e-06 -2.40509e-05 -1.8995e-06 -2.75634e-06 
-2.88672e-07 -4.97223e-06 -1.95e-05 -1.45919e-06 -1.32675e-06 8.11566e-06 -9.50075e-06 2.97582e-06 -1.68546e-05 
6.92122e-06 -1.39452e-05 -3.94076e-07 2.73124e-06 -2.43695e-06 7.03206e-05 -0.000179857 -5.4913e-05 1.31234e-05 
-2.96213e-05 -3.84756e-05 -1.95478e-05 -2.43461e-06 -2.95319e-06 -2.75024e-06 -1.69586e-05 1.28512e-06 -4.4653e-06 
1.36055e-06 -1.75212e-05 3.14665e-05 6.54773e-06 -1.04474e-05 -3.48246e-05 -7.98773e-06 2.24275e-05 -5.9817e-06 
-9.29293e-05 1.84022e-05 -1.64237e-05 2.98846e-05 2.60423e-05 1.84037e-05 -7.83266e-05 -3.13871e-05 2.00819e-05 
-5.47078e-05 3.15626e-05 -2.27201e-05 1.70666e-05 -1.7014e-05 -1.18691e-05 -2.30773e-06 -9.9561e-06 -5.2695e-05 
2.67099e-05 2.50431e-06 8.90357e-06 -9.9545e-06 7.13317e-06 -1.44887e-05 1.03025e-05 -7.14673e-06 -1.13756e-05 
5.95068e-06 1.06042e-05 -5.18844e-06 4.28286e-06 4.70835e-06 -8.13237e-06 -7.99471e-06 1.98339e-05 -2.08677e-05 
-2.91522e-06 -1.13135e-05 2.46889e-05 -2.29121e-05 3.975e-05 -3.44001e-05 6.48465e-05 -0.000130272 1.54722e-05 
4.87225e-05 2.53735e-05 9.81435e-06 -3.81514e-05 -2.92172e-06 -5.87891e-08 2.03477e-06 -3.55582e-06 -3.30454e-06 
1.57733e-06 -5.47311e-05 -1.06028e-05 -9.41773e-05 2.74793e-05 3.6232e-06 -3.43827e-05 8.24416e-06 -2.11404e-05 
6.4893e-06 -3.05887e-05 9.84288e-06 -2.12608e-05 -1.46092e-06 -4.46094e-05 -1.83341e-05 5.45565e-05 -6.00564e-05 
-9.92877e-05 2.38001e-05 -3.86994e-06 -2.80105e-05 -1.29316e-05 -2.13708e-05 -3.90241e-05 -2.06791e-05 1.53523e-05 
1.12786e-05 -9.33665e-06 -1.16132e-05 1.63787e-05 -6.01533e-06 1.05729e-06 -2.63142e-06 -8.76419e-06 -3.75648e-05 
2.51222e-05 -1.08006e-06 3.32326e-05 -1.81187e-05 -4.44231e-05 -5.06544e-06 3.45067e-05 -2.73629e-05 7.04786e-05 
-5.91653e-05 3.37805e-06 1.22859e-05 -8.81453e-06 -7.04568e-06 2.2253e-05 -1.53204e-05 3.35402e-05 3.10688e-06 
8.84329e-06 5.54156e-05 9.06956e-06 3.19134e-06 4.11526e-06 3.10142e-05 2.45301e-05 7.91081e-06 -1.20813e-05 
-4.21108e-05 -3.94191e-05 0.000150085 -1.13546e-05 1.59937e-06 4.82362e-06 -2.66357e-06 5.16937e-07 9.18387e-06 
2.36322e-05 -3.351e-05 1.51245e-05 4.27577e-05 -4.31098e-05 -2.58801e-06 -1.29695e-06 -4.82957e-06 7.92929e-05 
4.77509e-06 3.31959e-05 1.77049e-06 -2.74951e-05 -3.16273e-05 4.17506e-05 6.97775e-05 2.51999e-05 1.73129e-05 
1.7065e-06 -8.71069e-06 3.279e-06 -1.02382e-05 -4.05284e-05 -4.94691e-05 -3.16993e-05 -4.62231e-05 9.3069e-06 
-1.92884e-05 3.53116e-06 3.56904e-05 5.87713e-05 -0.000107452 0.000120922 -9.89452e-06 -1.02885e-05 -5.98164e-06 
5.35921e-06 -8.88576e-06 -6.73052e-06 -5.23527e-06 1.3859e-05 -1.88551e-05 -1.57171e-06 -7.6512e-06 3.53134e-06 
7.37589e-06 1.92647e-06 -4.41451e-06 -1.31431e-05 -8.45769e-06 -7.3101e-05 1.75322e-05 -0.000104373 -1.12515e-05 
2.9314e-06 2.47645e-05 5.61935e-06 -2.29408e-05 -3.37528e-05 -1.08622e-05 7.88885e-07 1.52237e-05 -3.98406e-06 
3.71197e-05 -3.89986e-06 9.15295e-06 4.96107e-05 -4.87253e-05 -3.42154e-05 3.40005e-05 2.7078e-05 -6.62739e-07 
-1.49488e-05 -9.25827e-06 6.02798e-07 2.10883e-07 9.92163e-06 6.02134e-05 -5.83307e-05 -1.70774e-06 5.03497e-05 
1.37185e-05 -1.46317e-05 -2.15995e-06 -1.45409e-05 1.6396e-05 8.85821e-05 3.83914e-05 -3.77556e-05 7.42552e-06 
3.50384e-05 4.19389e-05 1.06967e-05 1.84791e-05 6.18089e-05 3.14599e-05 1.20927e-05 -7.9085e-05 1.7077e-05 
2.8468e-05 -9.9232e-06 1.50768e-05 -4.30921e-05 -2.27702e-05 -8.91751e-07 4.76622e-06 -2.23009e-06 1.20395e-06 
-1.19153e-05 3.5629e-06 -1.02606e-05 1.49842e-05 2.50082e-05 1.26677e-05 -7.07715e-06 -4.3504e-05 -1.29449e-05 
9.87702e-05 1.61382e-05 1.83379e-05 -3.17688e-05 1.99021e-05 -2.27959e-05 1.07949e-05 -1.27197e-05 -4.10844e-06 
-1.81301e-05 -1.92253e-05 4.90061e-05 -1.32983e-05 -2.40299e-05 1.91197e-06 8.11325e-06 1.2652e-05 -5.1858e-05 
9.90543e-06 -3.63758e-05 4.87518e-05 -4.15364e-05 -2.92956e-05 1.62148e-05 9.53049e-06 2.48341e-05 6.7252e-05 
-3.65537e-05 1.28665e-05 -4.97226e-05 -2.44251e-05 -3.85653e-06 4.21132e-06 1.34066e-05 -1.61905e-05 4.36164e-07 
-8.45278e-06 -3.43638e-05 1.42115e-05 2.53835e-05 1.93697e-05 6.69245e-06 5.72278e-06 2.15574e-05 -4.54164e-07 
3.31567e-05 -2.97213e-05 -1.06243e-05 -1.98068e-06 -6.0685e-05 3.7976e-05 2.62977e-05 -2.55488e-05 -2.74997e-05 
4.79462e-06 9.34097e-06 8.60035e-06 1.76202e-05 -2.53572e-05 1.85942e-05 2.03706e-05 5.34318e-05 -7.944e-06 
8.55052e-05 -4.21454e-05 -1.38955e-05 9.40223e-06 -2.27757e-05 -4.16662e-05 6.67021e-05 1.14721e-05 -1.52572e-05 
2.29902e-05 -4.8265e-05 -1.22137e-05 3.85001e-05 -2.74049e-05 6.25716e-06 -1.54049e-05 4.40167e-05 9.34667e-05 
-6.46728e-05 1.18009e-06 0.00241955 -0.0093318 -5.02358e-07 2.32404e-07 -2.47541e-06 2.06223e-06 -4.86408e-06 
4.5714e-06 -8.31839e-06 7.87271e-06 -1.06336e-05 1.01652e-05 -1.30862e-05 -0.000110561 -0.000267216 -0.000361436 
-0.00010014 5.53631e-05 -4.03921e-06 -0.000188179 0.00536649 -9.27844e-05 4.39127e-05 -1.335e-05 1.99278e-05 
0.000125371 -0.000140015 0.000127107 -0.000130069 -8.2512e-05 -2.47215e-05 -0.000125606 3.65898e-05 -3.2678e-05 
1.7196e-05 -1.89918e-05 -2.77867e-05 5.22014e-05 -9.38275e-05 0.000102423 7.38617e-05 -7.80549e-05 5.82711e-05 
0.000821868 3.25836e-06 1.05886e-05 -0.0122271 0.00638095 -0.000784577 -0.000593972 -0.000247112 -0.000110722 
-6.0255e-05 -4.99282e-06 -5.19238e-05 -1.96702e-05 2.34994e-05 -1.91235e-05 -3.85024e-05 1.72933e-05 -2.55484e-05 
1.40648e-05 -7.21113e-06 2.7176e-07 -1.99272e-05 2.70572e-06 -2.41214e-05 2.00974e-05 -2.94697e-06 5.63859e-06 
-1.52955e-05 2.06714e-05 -1.24022e-05 2.57018e-05 -8.55467e-06 2.53144e-05 1.4823e-06 7.15977e-06 3.66158e-06 
1.10207e-05 9.80594e-06 6.55676e-06 1.43252e-05 2.91817e-07 8.12239e-06 2.44256e-06 4.1067e-05 -2.20646e-05 
3.39297e-05 -5.31664e-05 1.12082e-05 -5.50373e-05 -2.34731e-05 -7.57834e-06 -1.03153e-05 -3.16541e-06 -1.94337e-05 
5.81168e-06 -2.2213e-05 2.1498e-05 -1.55609e-05 2.64618e-05 -7.01886e-06 2.30566e-05 4.79035e-06 5.59485e-06 
-1.81526e-06 1.09466e-05 6.40087e-07 1.27156e-05 6.74387e-06 1.1732e-05 -6.32937e-06 4.94875e-06 -1.23258e-05 
8.10002e-06 -3.10636e-05 1.72098e-05 -1.58478e-05 -4.8876e-05 -7.53866e-06 -3.38112e-06 2.12729e-05 2.34565e-05 
-0.000104191 2.8184e-05 -5.45877e-06 -9.99992e-07 -2.41406e-06 -1.39234e-05 5.90616e-06 -1.81929e-06 -2.79023e-06 
-8.85488e-07 -1.06977e-06 -1.13676e-06 -3.91993e-06 3.19827e-06 -9.73106e-07 4.42311e-07 -4.64529e-07 -1.26008e-06 
-3.20487e-06 -2.30176e-06 -6.79801e-06 -5.03344e-06 -1.18903e-05 -2.74969e-06 -2.62667e-06 -2.48296e-06 -3.57826e-06 
-9.29156e-06 -6.31319e-06 -8.16386e-06 -3.85321e-06 -3.06462e-06 -1.49371e-06 -1.33902e-06 -2.35355e-06 -3.34022e-06 
-6.15127e-07 -1.47525e-06 1.99216e-06 -1.92839e-06 -1.8434e-06 -1.89826e-06 -7.97032e-07 2.25063e-06 6.06638e-07 
-1.02891e-07 -1.37833e-06 1.07214e-05 7.62306e-06 -4.99932e-06 -8.61252e-06 -1.7836e-06 -0.0338073 -0.0100192 
-0.0154125 0.0016111 -0.00241619 -0.000279399 -0.000301779 -0.00103756 0.00118749 0.000495662 0.000379939 
-0.00274955 -0.00123605 -0.000803092 -0.000362463 -0.000556874 -0.000767809 0.00294465 0.000572982 0.000383053 
0.000533792 0.00154586 0.0022014 0.0146263 0.0363679 -0.00343892 -0.0350485 0.0282823 -0.00208683 
-0.000743779 -0.0013268 -0.00150694 -0.00138256 0.000620399 -0.00210616 4.94686e-05 -0.00269625 -0.000524799 
0.000375626 -0.000674806 -0.00052901 0.000592468 -0.000315897 0.000775183 0.000641575 0.000238199 -0.00364266 
0.00019637 -0.00524769 -0.00237143 0.00226912 0.0016389 -0.0148004 -0.0183344 -0.00498499 0.000329854 
0.0118685 0.00186379 0.0105177 0.00533602 0.00598633 -0.00473091 0.00386352 0.000689321 0.000557459 
-0.000282575 0.00140152 0.00489823 -0.000540624 -0.00215134 -0.000385156 -0.000943154 -0.00369301 -0.00112134 
-0.00038275 -0.0034496 0.00652719 0.00636468 -0.000642205 -6.69704e-05 0.00671459 0.0168836 -0.0212284 
-0.00684912 0.00463823 0.0074481 -0.0219421 0.00332185 -0.00521297 -0.00676206 -0.00551516 0.00554633 
0.00500616 -0.0053098 -0.00637467 -0.00673841 -0.00595038 0.0145266 0.00467635 0.00577323 0.00538936 
-0.0064707 -0.00618625 0.00599043 -0.00655949 -0.0126931 -0.00328585 -0.00625178 0.00513537 -1.71929e-06 
8.67308e-07 -2.74139e-06 -2.25974e-08 -2.45665e-06 -4.36603e-06 -7.69768e-07 0.00482497 6.21807e-07 1.19387e-06 
-2.22387e-06 1.06223e-06 0.000103201 6.37424e-05 4.53753e-05 0.00430969 -5.78116e-05 1.26429e-05 0.000138984 
-0.000472724 0.000767737 0.000114699 5.01354e-05 3.03598e-05 -8.86234e-05 -3.11237e-07 -2.05713e-05 -1.01507e-05 
-6.53727e-05 -0.000276633 0.000745806 -1.40806e-06 6.07251e-07 -8.16872e-09 -0.000664201 0.00498956 -0.00234492 
3.78546e-06 -5.30262e-07 1.51861e-06 0.000630502 -0.00113692 -4.74705e-06 1.52371e-06 7.23597e-06 -0.000114008 
-5.83418e-05 0.000348902 0.00518544 0.00143681 4.64531e-07 -3.69773e-07 4.20282e-06 -1.01057e-06 -7.21584e-07 
-0.00223564 -0.000204521 0.00046317 0.000767325 1.71755e-05 1.14498e-06 1.52921e-05 -6.21752e-07 -2.97217e-06 
5.22229e-06 -1.23773e-06 -4.24833e-06 -3.85279e-05 2.78732e-05 2.92764e-06 -3.23181e-05 -0.000213517 0.00039805 
-0.000269544 9.44671e-06 7.02322e-06 -2.3656e-05 -3.67229e-06 -0.000175326 -0.000143823 5.00162e-06 3.35716e-05 
4.76882e-05 -6.20688e-06 0.000595084 0.00104191 0.000185049 -3.12832e-05 1.37695e-05 -0.000208761 4.3741e-05 
-9.92954e-06 3.34278e-06 -1.9823e-05 -1.56088e-07 -1.52944e-06 8.69171e-07 2.59894e-05 4.87608e-06 4.44797e-05 
-9.22082e-06 -2.61541e-07 -2.68035e-05 1.01993e-05 8.81107e-06 -1.27212e-06 1.25403e-06 5.57817e-07 1.90931e-06 
1.05135e-06 -1.31778e-06 2.35649e-07 -1.02774e-06 6.75869e-06 2.77083e-06 4.36475e-06 2.41137e-05 1.33577e-05 
3.44299e-06 -1.09494e-06 1.87901e-05 -1.69221e-05 -9.13444e-07 -2.12443e-06 -3.30064e-06 0.000416717 0.000297891 
0.000287622 -1.63568e-06 8.07364e-07 -3.27641e-06 1.23865e-06 2.84593e-06 1.87997e-05 -1.11231e-05 -6.02657e-06 
9.19255e-06 -1.01344e-05 3.22316e-06 -3.35509e-05 8.30718e-06 1.73816e-05 -3.24266e-06 6.27542e-06 -1.27011e-05 
-2.22776e-05 -8.69836e-06 -1.62658e-06 -0.00104002 0.00279114 0.00291083 -0.00221764 -0.000207268 -0.000155207 
5.19988e-05 -2.49264e-05 2.48595e-06 -3.75678e-06 -3.17734e-07 -5.51279e-07 -8.46359e-05 0.000299716 -0.00851928 
0.00734879 0.00236278 -0.000222218 -6.15834e-06 4.94742e-06 -3.13933e-06 8.52869e-07 -3.95192e-06 7.54116e-06 
6.27698e-06 -3.39185e-06 -3.78489e-06 9.63935e-07 0.00936307 -0.00489846 -0.000330098 1.05301e-05 5.54079e-05 
1.6101e-05 -2.14381e-06 1.34321e-06 1.22208e-06 -3.12929e-07 -2.85161e-05 9.11786e-06 -7.85373e-06 -2.88264e-06 
-9.17334e-06 -9.86623e-06 5.80605e-05 6.38593e-05 3.79857e-05 6.35425e-05 -0.000188635 8.3589e-05 0.000161507 
0.000184356 4.07777e-05 -2.14823e-05 -1.6879e-05 -5.18564e-05 3.87472e-05 1.54112e-05 -7.7518e-06 -4.29361e-05 
3.16305e-05 9.8835e-06 -1.49396e-05 2.43847e-08 -1.49729e-06 2.09628e-07 -4.73951e-08 -2.05723e-07 2.09423e-06 
1.48435e-05 -0.000746399 -0.00019094 -0.000336492 0.000581167 -0.000114395 -0.000492538 2.32684e-05 4.05235e-05 
-3.05238e-05 -2.38122e-05 -2.39004e-06 1.08092e-05 6.97971e-06 -1.0091e-05 -1.30958e-05 -1.05804e-05 -0.00481122 
9.32566e-05 -1.61364e-06 1.57226e-06 -5.07362e-07 5.1608e-07 1.22347e-05 2.57448e-06 9.48278e-05 0.00528672 
1.06947e-06 -2.10193e-05 -9.20867e-06 -0.00724577 0.00110332 0.000557111 -2.47966e-06 -1.10708e-06 -9.88867e-07 
7.65053e-06 7.00397e-06 1.128e-05 1.12637e-05 -7.56244e-07 1.09367e-05 8.1275e-07 3.65392e-06 -2.15652e-06 
-5.63674e-06 1.2855e-06 4.01379e-06 -8.45679e-05 0.000108364 1.17517e-05 -5.358e-07 -9.56719e-06 2.2351e-05 
1.0626e-06 1.67586e-06 -1.86124e-06 0.000143977 -0.00409397 -0.00105913 -1.01959e-06 7.86487e-07 7.57201e-06 
-7.40267e-06 -1.28081e-06 2.92342e-06 8.96747e-07 1.5388e-06 1.8686e-07 1.18128e-05 -8.15049e-06 1.53928e-06 
3.32273e-06 6.25122e-07 0.000689776 -0.00157214 1.70445e-06 -2.10899e-05 1.14428e-05 3.71748e-06 1.91461e-05 
-2.59135e-05 1.76392e-05 -2.64405e-05 6.97193e-06 -3.06691e-06 -1.02753e-06 3.83599e-06 9.28447e-06 -0.00024073 
0.000235728 -6.33207e-06 1.02559e-05 -5.81779e-05 -7.45034e-05 -7.58337e-07 -1.32787e-05 -0.000429147 -0.00596287 
0.00543863 -3.08216e-05 4.25928e-05 1.90204e-05 7.26954e-06 1.08898e-05 -1.72148e-06 5.22968e-05 0.000112779 
1.84935e-05 9.61687e-06 -3.46384e-07 8.30331e-07 -1.2793e-06 -7.81636e-06 2.85e-05 6.22038e-06 7.72475e-06 
4.04762e-07 3.46647e-06 -1.2238e-05 1.18308e-05 1.02161e-05 6.36656e-06 4.46065e-06 -7.99454e-06 -0.00442889 
-1.85373e-06 1.34545e-06 -1.04882e-06 -1.5776e-06 -9.02628e-06 3.06848e-06 4.09736e-06 -1.06024e-05 -0.000142125 
-0.00015137 1.74485e-05 0.000848679 -0.00067394 -0.00456585 6.2405e-06 -8.65884e-06 -4.16139e-06 -4.10939e-07 
5.63485e-05 5.59215e-05 0.000309493 0.00512163 -3.5948e-06 -8.12067e-06 3.41989e-05 -3.98621e-05 -2.07258e-05 
-1.67763e-05 2.8679e-05 3.02319e-05 -0.000981511 -0.00104373 0.000471308 -3.55835e-06 2.41185e-05 -4.95681e-05 
0.000303805 -5.99937e-05 -1.55637e-06 3.6471e-06 -5.96063e-06 -0.000988021 0.00148161 -0.00185743 0.000859973 
-1.30763e-06 1.08892e-06 -2.18897e-06 -8.46088e-07 -4.62446e-05 -2.36574e-05 -3.99762e-06 -4.2117e-05 0.00014015 
0.000242564 -3.32163e-05 1.37783e-05 9.33431e-06 -1.14406e-05 -3.7109e-05 -1.61406e-05 -2.09647e-07 4.72459e-07 
-1.0989e-05 -2.12706e-06 -3.19623e-06 7.30898e-07 -1.84553e-05 -7.27773e-05 -8.32523e-05 5.62638e-05 -8.6108e-05 
0.000160791 -8.42642e-05 0.000214779 -2.72867e-06 1.88773e-06 -3.98295e-06 4.59579e-07 2.94953e-06 1.0444e-05 
-1.23041e-05 2.41422e-05 -2.02294e-05 -7.79863e-06 0.00185515 -2.35545e-06 -3.29971e-06 0.000162796 9.41652e-05 
-4.33422e-05 7.6411e-07 6.38438e-07 -0.0029171 0.000632125 -0.00366398 -2.028e-05 2.16556e-06 1.28243e-05 
5.4651e-05 -2.27092e-06 -1.77819e-06 -1.08431e-06 -6.47946e-05 -2.89827e-05 2.55381e-06 8.42195e-07 5.40711e-07 
8.12477e-07 6.69942e-07 -2.83887e-06 3.21228e-06 -0.000473402 0.000107814 0.00046886 -0.000937417 -7.32496e-06 
-5.12955e-07 -2.27118e-06 1.60186e-05 8.51795e-05 3.94587e-05 -0.000496113 -1.8648e-06 2.4229e-05 -3.12676e-06 
6.42168e-05 2.12547e-05 -4.85065e-05 -2.11515e-05 -9.31742e-05 3.83689e-05 -5.88047e-05 0.000105151 -0.000127616 
-1.05427e-05 0.000115974 -3.72509e-05 -8.36035e-06 6.85954e-05 0.000144497 0.00544713 0.000275026 -0.000352891 
2.79192e-05 -8.16992e-05 0.000109356 3.3067e-05 1.76518e-05 -7.99128e-06 2.31946e-06 -1.62698e-05 -7.59252e-06 
-2.07714e-06 2.76574e-06 1.43739e-06 4.34071e-06 -4.4128e-07 -4.68557e-07 1.74073e-06 -1.22935e-05 2.92676e-05 
-2.19319e-05 4.13814e-05 -0.000395726 0.00101329 -0.000967161 -4.52427e-05 -4.13909e-06 4.19382e-07 1.52727e-06 
-4.04858e-05 8.91442e-06 0.000108733 7.40764e-05 -2.70069e-05 1.38239e-05 2.21618e-06 -4.23008e-06 -8.88435e-07 
0.000590207 -1.01891e-05 -5.5012e-05 -3.22362e-05 1.41384e-05 -6.78405e-05 1.44933e-07 3.17686e-06 3.55575e-05 
2.81763e-05 -7.20114e-06 -8.43073e-05 3.84238e-05 -4.0034e-05 1.18225e-06 -5.16924e-05 1.62081e-05 -2.45182e-05 
-9.1758e-07 2.82629e-06 -7.01096e-05 -5.25706e-05 9.36862e-05 5.55742e-05 -5.97049e-05 -7.74026e-05 3.73214e-05 
2.26549e-05 5.32028e-06 -5.89188e-06 -1.89926e-05 9.73005e-07 8.75667e-05 0.000105829 -3.36913e-05 8.65415e-05 
-8.19225e-05 0.00012749 -1.7788e-05 3.70704e-06 -0.000125365 2.00095e-05 8.17298e-05 5.03737e-05 1.52119e-06 
-2.63555e-06 4.39949e-07 4.62068e-05 3.06077e-05 -2.09926e-05 2.90637e-07 -1.1173e-06 -2.01141e-07 1.18272e-05 
1.1613e-05 7.8929e-05 -1.05387e-05 -3.65112e-05 5.62958e-05 3.25125e-05 5.10135e-07 -2.18165e-06 2.83375e-06 
1.98642e-07 0.00116133 -0.000138643 0.000679487 3.22701e-05 -2.42744e-05 2.33138e-05 -5.59007e-05 -4.79026e-05 
0.000112814 9.81378e-07 -3.89755e-06 -1.82165e-06 -2.46945e-06 -3.63369e-05 1.04819e-05 1.28095e-05 1.46967e-06 
0.00491182 4.55753e-05 -2.19076e-05 1.82731e-05 -5.81877e-06 1.53365e-05 6.42724e-07 0.000113402 4.01174e-06 
4.2937e-06 9.06695e-07 -3.67787e-06 -2.1408e-06 -1.64747e-05 4.20217e-06 -7.93524e-05 -4.53156e-05 -0.000205432 
7.85696e-05 -9.94806e-05 -3.88233e-05 7.67715e-05 -0.000672439 0.00101271 0.000719296 2.42819e-06 -8.412e-05 
0.000114246 7.00233e-06 -6.11578e-07 -4.28844e-05 -2.16796e-05 3.70114e-05 -3.41071e-06 -1.65282e-05 8.75801e-05 
-3.18544e-06 -7.93409e-06 3.50241e-06 -1.86756e-06 1.05131e-05 -5.74256e-06 6.91019e-06 3.10329e-06 0.00101266 
-0.000109727 -0.000709954 -6.97567e-06 2.68382e-06 -3.50031e-06 6.65556e-06 2.9557e-06 5.31763e-06 2.22348e-06 
-1.5496e-06 -5.64161e-05 0.00039525 -0.000884395 -2.68788e-07 -3.07807e-07 3.87769e-06 1.77573e-06 -5.20207e-06 
1.09021e-06 8.77348e-07 -4.2943e-07 -2.06781e-06 0.000192333 0.00121699 0.00474947 -0.00697815 0.00149909 
-6.9744e-07 -1.16234e-06 -9.85637e-06 -1.73437e-05 5.41944e-06 4.88535e-06 -2.6069e-05 -3.53067e-05 4.52001e-06 
8.61417e-06 1.82037e-06 6.82316e-05 3.75701e-05 -8.09592e-06 2.74408e-05 -3.9716e-05 0.000199241 4.02878e-06 
1.19869e-07 3.58766e-08 -7.52134e-06 -1.18866e-05 6.21728e-07 -3.33537e-05 7.82834e-06 -0.0020885 -1.28112e-05 
1.62044e-05 -1.17916e-05 -6.63215e-06 3.03712e-05 -2.87434e-05 2.46043e-05 -7.06559e-06 1.28008e-05 -7.21257e-06 
-2.60966e-05 1.93819e-06 1.28445e-05 7.30114e-06 1.92608e-06 1.7179e-06 3.78976e-06 -6.23427e-06 6.19176e-06 
-9.79424e-06 2.44653e-08 -6.53448e-05 1.21622e-05 -2.99638e-05 9.05374e-06 3.07132e-05 7.36037e-06 5.49104e-05 
4.5021e-06 -5.30794e-05 1.45807e-05 -1.82444e-05 -1.41919e-05 -7.04622e-06 -5.43325e-06 -1.76597e-06 1.89625e-06 
2.39689e-06 7.45059e-06 8.54899e-06 -0.000616321 -2.8895e-05 -0.00130647 1.38626e-05 -2.95726e-06 -7.11595e-06 
1.77103e-05 -3.24485e-06 -2.46198e-05 2.26268e-05 -2.1468e-05 6.45825e-06 1.93052e-06 3.23048e-06 2.55295e-05 
-0.000351819 -0.000186996 4.31975e-06 6.48131e-06 1.62135e-05 9.00017e-06 -8.4051e-07 -8.89609e-06 -4.09591e-05 
2.96069e-05 -0.000165716 -0.000414755 -0.00246082 -0.000675517 -4.75464e-05 4.98438e-06 9.48453e-06 -4.37855e-05 
6.02325e-05 -5.51986e-05 -1.33773e-06 5.51994e-05 -0.000119727 6.42106e-05 -1.22262e-05 -1.14381e-06 2.10282e-05 
-1.81108e-05 3.18837e-05 -5.76866e-05 -3.10635e-05 3.56147e-06 -0.000179131 1.85446e-06 3.07404e-06 2.57016e-06 
-3.19976e-06 4.28278e-06 1.20091e-06 -4.70777e-06 -1.42415e-06 1.39321e-05 -5.789e-06 -4.89506e-06 -4.02901e-06 
-2.79557e-05 -1.39945e-06 -7.03166e-06 7.48139e-06 1.1205e-06 -3.72073e-05 -6.28621e-05 7.2939e-05 -1.14809e-06 
-8.58389e-05 4.07601e-05 3.66561e-05 3.3438e-05 -3.76891e-06 -9.95348e-05 0.000120662 0.000260512 -0.000845107 
-0.000687444 1.14245e-06 1.96312e-06 1.03411e-05 0.000806969 2.63449e-05 -0.00687859 0.00701059 0.00454028 
-0.00306599 5.38844e-05 0.000540773 -0.000231155 -4.55585e-05 0.000306641 8.6142e-05 4.31003e-05 0.00022939 
-0.000148334 4.606e-05 2.17451e-05 -7.51599e-05 0.00623614 -0.000434871 -0.00575795 0.00126805 0.00455302 
-0.00457373 0.000601511 2.83399e-05 2.32951e-06 -3.91101e-05 -5.12409e-07 0.000837281 0.000793989 -0.000931463 
-3.65334e-05 -2.97174e-05 -9.25537e-06 4.31343e-05 0.000150725 -3.44888e-06 7.52069e-05 -9.81497e-05 0.00177288 
-0.00116608 -0.00116215 -6.9583e-06 -2.33368e-06 -2.30217e-07 -2.30686e-06 -3.17249e-06 -0.000115743 -2.36929e-05 
-4.86775e-05 5.18332e-05 6.86109e-06 4.73595e-05 0.000986925 -1.00832e-06 -1.61202e-07 -0.000454539 0.000616763 
-0.000329382 0.00102414 0.00785944 0.0079205 0.00387198 0.0097227 1.84261e-05 -1.2012e-06 9.77474e-08 
-3.73784e-06 5.36968e-06 3.63109e-05 -7.66837e-06 1.26061e-05 -1.07222e-06 -0.000160221 -2.29841e-05 0.000789238 
0.000688296 9.30728e-05 -1.84263e-05 7.21989e-05 0.000654437 0.000530116 -8.97404e-05 0.000111932 1.38575e-06 
6.72316e-06 -4.67369e-06 1.84811e-06 -3.90675e-06 -2.74029e-06 -2.18655e-06 8.82975e-05 8.9318e-05 -8.10064e-05 
-7.42125e-05 -4.06435e-06 -2.68483e-06 -1.38985e-05 -2.76796e-06 -7.07051e-06 -8.59015e-06 -4.37865e-06 -3.08845e-06 
-1.56527e-05 1.52575e-06 3.63469e-06 9.77556e-05 -5.82489e-05 -0.000129948 1.97058e-05 1.15023e-05 -3.62254e-06 
-6.25659e-05 -6.2081e-07 -2.07642e-08 -1.84957e-07 3.09848e-05 1.40952e-05 -7.19208e-06 1.80097e-05 8.15974e-06 
1.49855e-06 5.39299e-07 5.86229e-08 -8.57287e-07 -1.22491e-06 2.59924e-06 -6.93102e-05 -0.000242011 -0.000138486 
-2.85737e-06 -8.52257e-06 -7.93228e-06 -4.79705e-06 1.68821e-05 9.15182e-06 1.56264e-07 1.39188e-05 2.58426e-06 
-2.94312e-05 -1.77486e-05 -3.26851e-07 -8.6614e-07 -2.21368e-06 6.57285e-06 -0.000114046 9.98058e-05 7.61236e-05 
4.42301e-07 -1.23567e-06 4.46383e-06 -6.73017e-06 4.84433e-06 -8.23176e-06 4.5213e-05 1.24514e-05 -7.72069e-07 
4.98688e-07 -6.52276e-07 -8.29527e-05 -6.74308e-05 2.25307e-06 -1.27828e-06 -4.19454e-07 0.000415751 -8.32067e-07 
5.46486e-06 1.04131e-05 -6.24202e-05 6.21521e-05 -9.16068e-06 0.000123905 1.00101e-06 3.89598e-07 1.73605e-06 
-3.87634e-05 8.175e-06 0.0039383 3.51125e-05 -9.02632e-07 7.8033e-05 -8.21442e-06 -8.7708e-05 2.01555e-05 
5.12697e-06 -1.03593e-05 1.21462e-05 1.29621e-06 -4.88841e-06 -4.2108e-06 1.60492e-06 -1.25811e-06 -0.00467426 
-1.08166e-06 1.10181e-08 -4.01756e-06 1.24977e-06 -1.8353e-05 2.44078e-05 -6.10793e-05 2.59995e-05 1.52245e-05 
1.95229e-06 -4.12343e-07 1.375e-06 1.6076e-07 -2.83746e-06 1.12636e-05 -7.13176e-06 2.52466e-05 1.09932e-06 
3.17283e-06 -8.74449e-06 -0.00112225 8.26139e-06 -4.49732e-06 -6.12418e-05 0.000126857 -8.70725e-06 3.0327e-05 
-2.7772e-06 -3.98989e-06 5.03539e-08 7.6744e-07 2.22304e-05 -4.54519e-06 -0.000359622 -0.00777539 7.64891e-08 
4.84668e-06 1.65948e-05 6.86079e-07 1.58533e-06 -2.99276e-06 -1.53274e-06 -2.89018e-06 -2.3232e-06 -1.17885e-06 
9.19457e-06 -1.66426e-05 3.54373e-05 2.72839e-05 1.03506e-05 -3.91062e-05 0.00110956 -0.00109326 0.000351883 
-0.000569078 0.00104596 0.000626464 -0.00417475 -0.00454407 0.00214643 -4.44083e-07 -9.011e-07 5.75727e-07 
2.40192e-07 0.000269038 1.25341e-06 -0.000179189 -0.000323272 -0.00132154 0.000379248 0.00674444 -0.000971793 
-0.00024884 -8.46841e-05 0.00022235 5.57623e-06 1.85408e-05 -2.35955e-06 9.16357e-07 1.35127e-06 -0.0001252 
3.62752e-06 -1.25523e-06 -1.42721e-06 3.21153e-05 -4.8989e-05 -0.00020643 -0.000300454 -1.61799e-06 -0.00577703 
0.000218634 0.00548647 -0.00533269 -5.28408e-05 5.82423e-05 6.64648e-06 1.47678e-05 -4.08819e-07 2.9218e-05 
-4.64863e-05 0.000690757 -0.00100516 0.00101546 3.72752e-05 9.94905e-06 0.00108754 0.000151105 8.06384e-05 
0.000991226 9.64508e-07 4.45955e-06 8.49021e-07 -0.00452822 0.000214955 -0.00105683 5.19945e-05 0.00692059 
1.0947e-05 1.37154e-05 2.91209e-05 -3.69723e-05 8.01564e-06 -0.00227995 -8.23129e-05 0.000385377 -1.93401e-06 
-2.02817e-06 1.64159e-05 1.56019e-05 -6.183e-06 0.000115255 -1.58684e-05 8.23703e-06 4.07666e-05 -2.73292e-05 
1.62434e-05 -5.19029e-05 9.71058e-06 -1.65548e-05 -4.5864e-05 -3.05722e-06 6.68472e-07 1.61122e-05 1.74585e-05 
-7.97626e-06 2.85761e-06 2.42052e-05 8.91409e-05 -2.48807e-05 8.72531e-05 0.000181677 -4.32787e-05 0.000887298 
3.152e-05 -7.33844e-06 1.66755e-05 -0.0046998 0.00156498 6.42128e-05 -8.9747e-06 -8.39872e-05 1.24148e-05 
-9.67619e-06 2.12703e-05 -2.1337e-05 -2.7128e-05 9.7959e-06 -8.19778e-06 4.65857e-06 2.16023e-07 1.04945e-05 
0.00106241 0.000774672 -0.000226004 3.93458e-05 -1.64323e-06 -1.49248e-07 -1.10808e-06 -5.61381e-07 1.7623e-06 
-1.11425e-06 7.63259e-06 1.66734e-06 1.77527e-05 -0.000214526 -0.000120382 8.59245e-05 0.000136592 -7.67888e-06 
-2.22218e-05 5.10633e-05 -1.03379e-05 1.63929e-05 1.4019e-05 -1.38427e-05 1.59211e-06 -1.0431e-06 -9.96722e-08 
-1.63338e-05 -2.61974e-07 -1.02083e-06 6.27327e-06 0.000186164 1.24031e-06 -1.12157e-06 4.81629e-07 0.000113392 
-1.0712e-05 -6.95076e-05 7.58674e-05 -5.90011e-05 -1.29964e-05 -8.4225e-05 8.46598e-05 -3.0186e-06 7.7124e-06 
0.000723151 -9.0409e-06 6.6913e-06 -0.000737946 0.00602704 -1.4624e-05 3.6346e-05 4.3784e-05 3.60729e-05 
0.00588592 0.000809028 -0.0081102 1.94146e-05 1.67629e-08 1.22991e-05 -6.6733e-06 -4.70492e-05 -1.84551e-05 
-4.50243e-05 6.23659e-06 -8.33458e-06 0.00729173 -1.56745e-05 2.06849e-05 4.90774e-06 3.87949e-05 1.12581e-05 
-2.88737e-05 2.49362e-07 1.68596e-05 5.32588e-06 9.20162e-06 0.000495541 0.0180575 -0.00804645 4.65135e-05 
5.02792e-05 -2.76224e-05 -7.1733e-07 -1.27761e-05 -5.76298e-07 -0.00539825 6.39154e-06 2.28953e-05 -2.21658e-06 
1.34253e-05 2.40948e-05 -2.06701e-05 2.11525e-05 -0.000106028 1.10278e-05 -4.70989e-05 -7.61431e-06 -9.2348e-06 
-1.66688e-05 -0.0010776 0.00016877 -0.0044041 -1.6303e-06 4.07081e-06 -1.90322e-06 1.45194e-06 1.76606e-06 
-2.49043e-06 -1.27001e-06 -1.23683e-06 1.39084e-06 -3.36999e-06 -1.79425e-06 5.34032e-06 -3.20026e-06 -1.08767e-06 
1.31695e-05 -3.26449e-06 2.84008e-05 7.1193e-08 2.01901e-06 -6.19979e-06 -2.0455e-05 -2.17184e-05 9.23038e-05 
-1.39124e-05 9.48176e-06 -4.22059e-07 0.000154084 -0.000138111 -7.46003e-05 -2.58174e-05 8.00327e-05 0.00011941 
-1.00284e-05 -0.000108261 -8.61789e-05 -0.000206778 8.75651e-05 -1.03111e-05 -5.85714e-05 -7.22047e-05 8.26923e-05 
-0.00494112 -2.16821e-05 -3.17017e-05 1.39115e-05 3.65887e-06 1.71217e-07 -0.000718641 -0.000408182 3.56666e-06 
5.55225e-06 -2.63539e-06 8.66533e-06 3.86559e-05 2.74632e-05 3.46253e-05 1.30599e-05 -3.20659e-05 2.5597e-05 
-1.81307e-05 -2.95707e-05 9.47862e-06 -3.60566e-05 2.49102e-05 1.95626e-05 9.6302e-08 0.000148433 -1.31911e-06 
1.73849e-06 -2.27129e-05 -8.87112e-05 2.03439e-05 1.77421e-05 -2.45248e-05 -3.90721e-06 -0.00602249 0.00487487 
-9.00383e-06 9.62821e-06 -1.64571e-05 -2.45981e-05 -3.44577e-05 -0.000302775 -1.49479e-05 -0.00544979 0.000569705 
0.000353954 0.000135775 -7.30321e-05 9.50083e-05 0.00111003 -3.48527e-05 -3.83284e-06 0.000887208 -1.27234e-05 
3.27257e-05 -1.47342e-05 1.89856e-05 -3.46485e-05 3.00501e-05 -1.30085e-06 -0.000132693 0.000804865 0.000383781 
0.000680368 -2.0586e-06 2.02752e-06 -1.70459e-06 9.31184e-07 -9.11992e-05 -5.30687e-05 2.65423e-05 1.94726e-05 
7.62821e-07 1.66258e-06 6.74115e-07 -0.00583049 -4.47148e-06 1.07684e-06 -0.000184043 1.2528e-05 -0.00082801 
-0.000121472 4.06132e-05 6.15123e-05 -0.000734581 9.98643e-07 5.0145e-07 1.53024e-06 1.58073e-06 2.4225e-07 
-3.07655e-06 -8.35106e-06 9.73756e-07 -8.43323e-07 -4.37647e-05 7.40186e-05 3.79651e-06 -4.34274e-06 2.11797e-06 
1.76048e-06 -1.30884e-06 -2.71018e-06 -0.000734148 -5.8229e-06 -2.73374e-06 2.77524e-06 -4.76305e-08 -6.04853e-07 
-1.31445e-06 7.62206e-05 6.19807e-06 3.91529e-05 2.68518e-06 -2.57729e-06 -0.000444613 0.000164092 9.75802e-06 
-0.000710523 0.00059324 7.52164e-05 -0.000101875 2.29218e-06 3.43829e-07 5.37449e-06 -4.144e-06 -6.1106e-07 
5.04014e-07 1.28411e-05 -3.47162e-06 1.35593e-05 -2.48086e-06 4.21172e-06 1.00708e-05 -1.54369e-06 8.10756e-06 
6.15375e-05 -1.29917e-06 0.00016176 -0.000207229 -0.000414478 0.000132931 4.72696e-05 -3.54164e-05 2.0079e-07 
5.77031e-07 -1.60881e-06 -2.67738e-06 5.30662e-06 5.95013e-06 -1.10773e-06 7.78585e-06 -1.01657e-05 4.19923e-06 
3.1239e-05 -0.000413033 0.00114974 -0.00382322 0.00103507 0.000932972 4.03209e-05 -7.97843e-06 -9.98932e-06 
-0.00802742 -1.85609e-06 -0.000162559 7.10987e-06 1.36613e-06 7.68291e-05 -1.12583e-05 5.45533e-06 1.49394e-05 
4.43106e-05 -5.59332e-06 -6.95588e-05 1.14561e-06 -6.1076e-06 0.000124808 -7.75392e-05 -1.77018e-05 -8.74942e-06 
-7.21596e-06 -5.86604e-06 -8.55196e-06 7.05731e-07 -1.83491e-06 7.63977e-07 1.49292e-06 1.6152e-06 -8.73356e-06 
3.71608e-07 0.00014409 -2.73511e-05 2.81236e-05 -1.16409e-05 -0.000861949 9.82131e-06 -3.95779e-06 3.38254e-05 
-1.2411e-05 4.06088e-06 2.54712e-05 3.15339e-05 1.03249e-05 -1.97378e-05 2.93351e-05 3.34422e-05 1.61211e-06 
0.000212249 -9.54883e-07 -1.25588e-06 5.07809e-06 -8.99673e-06 -3.19094e-05 0.000470477 -0.00110404 -0.00198416 
-7.88231e-05 0.000162745 -2.02874e-05 4.31622e-05 1.80459e-05 8.39463e-08 -2.46764e-07 -7.05437e-06 -2.72579e-09 
-7.7494e-07 9.91531e-07 -9.35055e-06 2.65451e-06 -2.20347e-06 8.34664e-07 4.71844e-06 3.70442e-06 1.5198e-06 
-7.17594e-07 2.79156e-06 5.8383e-08 -3.15671e-06 2.28623e-05 -8.38419e-06 -0.00037708 -0.000751839 -2.74361e-06 
2.08784e-05 9.58724e-06 3.7815e-07 1.27339e-06 -0.00010874 -0.000178369 -7.27326e-06 2.05664e-05 1.07842e-05 
-0.00691197 0.00525937 0.00215622 -2.78599e-06 2.68612e-06 0.00181115 -7.1399e-05 8.45746e-05 -1.10848e-06 
-9.02382e-07 -0.001022 -6.11264e-07 4.35672e-05 4.59759e-08 -6.44984e-07 0.000132778 -3.15321e-05 1.37172e-05 
1.05616e-05 -1.42278e-05 -0.000224234 -2.27902e-05 6.37657e-06 -1.45209e-05 -7.75902e-06 8.69374e-06 -2.06173e-05 
3.12429e-05 -3.84624e-05 -1.37118e-06 -6.47594e-08 -3.98964e-06 -1.32198e-06 1.13335e-07 -2.67846e-05 -2.26917e-05 
1.75673e-05 -2.28846e-05 -1.12191e-05 2.8964e-05 0.00023371 -7.69056e-06 -0.00011048 0.000149032 -5.66653e-07 
5.78474e-06 -1.86153e-05 -2.44848e-05 -0.00102879 3.47982e-06 -8.3436e-07 4.41163e-08 0.00523917 1.6859e-05 
1.04492e-05 -1.62048e-08 -3.31115e-05 5.2744e-06 5.38951e-06 -1.49453e-06 -5.89686e-06 3.57367e-06 1.21465e-06 
1.44358e-06 9.91279e-06 -1.95793e-06 -1.2113e-05 -4.56826e-05 -5.10314e-05 1.10814e-05 -2.30731e-05 -8.47344e-05 
0.000276372 -3.84284e-05 -1.98419e-06 -3.05956e-05 -2.13702e-05 -1.24157e-05 3.17921e-05 8.24814e-06 3.81908e-07 
1.46368e-05 -1.62446e-06 2.6301e-07 6.03637e-08 -2.40753e-05 -9.97281e-06 1.65355e-05 -7.36584e-05 -6.27448e-06 
8.40736e-07 -1.44564e-06 1.14005e-06 1.30268e-07 -3.12733e-06 1.78414e-07 -2.5707e-07 1.11726e-06 -1.81479e-06 
2.14115e-06 3.36989e-05 -5.47475e-06 4.66539e-05 0.00164707 -6.71459e-06 -7.79689e-06 0.000592038 -8.01742e-06 
3.48802e-05 1.33042e-05 -3.34209e-05 -0.00095292 -0.000465998 -1.95276e-06 -4.48765e-06 2.60222e-06 2.72125e-06 
1.71959e-05 -4.03257e-06 -2.74324e-07 -2.77272e-07 -2.97641e-05 -1.21089e-05 -1.90877e-05 9.81871e-06 1.08815e-05 
-1.74296e-05 -1.35036e-05 -0.000201368 0.000465339 8.02952e-06 -1.53992e-05 4.71277e-05 2.2642e-06 -6.30127e-06 
7.53817e-06 -4.23849e-06 -2.875e-06 -1.62294e-05 -7.90454e-06 -1.34759e-06 1.10648e-06 -1.8469e-06 3.22063e-05 
-1.87105e-06 -1.42719e-06 -3.3214e-06 1.61201e-05 -1.31915e-06 1.69655e-06 -1.93414e-06 1.22143e-07 4.82185e-08 
5.96972e-07 7.60821e-07 -1.87811e-06 -1.2104e-05 0.00066934 -0.000311851 1.58266e-06 -1.0018e-05 -1.43476e-06 
-1.7345e-06 8.85339e-07 -9.24387e-07 1.05582e-05 3.38649e-07 -5.64953e-06 2.47248e-08 8.40298e-05 -7.60018e-05 
-2.81902e-05 -5.00288e-07 -2.05027e-07 -7.2758e-06 2.5087e-06 2.26138e-05 2.30571e-06 1.00324e-05 9.4498e-05 
8.6891e-06 2.77935e-06 0.00483404 -1.2142e-05 0.00011034 -0.000104634 -1.87301e-05 1.15857e-05 -2.31163e-06 
3.47961e-05 1.99279e-05 -5.26968e-06 8.97928e-06 3.86719e-05 8.32272e-05 5.426e-09 2.01515e-05 -2.84495e-05 
-7.25079e-07 3.75967e-05 1.67534e-05 2.2421e-05 9.63438e-07 2.74895e-08 5.56234e-07 2.2824e-05 -8.38276e-05 
-1.2842e-05 -1.21884e-06 -1.66579e-08 1.29271e-06 0.00188867 -0.00194577 -1.90776e-06 1.1703e-06 -1.11252e-05 
6.30058e-06 -3.53979e-05 4.556e-06 -6.58821e-06 -1.98662e-05 7.08766e-06 6.83555e-06 0.000799042 -0.00209427 
6.9135e-08 -3.23123e-05 0.00010982 1.79488e-05 2.87249e-06 -4.15228e-05 -5.35406e-08 -2.9073e-06 1.54982e-05 
-5.58404e-06 2.19915e-05 -1.30019e-05 -8.94888e-06 1.38224e-06 -0.00570979 1.53506e-06 -1.80675e-06 -0.000987061 
-6.78122e-05 5.28053e-05 4.07816e-05 3.04859e-05 0.00159312 0.000767773 -3.49641e-06 1.13953e-05 1.12498e-05 
0.00220537 0.00475702 -7.04325e-06 -7.2579e-06 2.22169e-05 0.006305 9.31845e-06 1.8662e-05 8.81552e-06 
-1.60213e-05 -4.8775e-06 -6.02817e-05 9.54539e-05 4.42593e-06 5.5337e-05 -0.000408114 -9.04034e-05 -0.00010113 
8.87575e-06 0.00431993 -0.00041741 -0.000553868 0.00758286 -1.49785e-06 -0.000276204 1.55846e-06 -9.23981e-06 
3.63117e-05 -0.000467709 -1.69447e-06 -2.89907e-06 -4.48242e-05 9.34779e-08 -3.52108e-05 -3.7565e-06 -2.78602e-06 
2.09481e-05 5.75145e-06 -3.47902e-05 1.44825e-06 1.23712e-06 1.65791e-06 -2.61989e-06 1.53088e-06 8.71731e-06 
-1.66984e-05 -6.12038e-06 -2.73279e-06 -5.32315e-07 4.95935e-05 -0.000240007 -1.87452e-05 -3.58622e-06 1.44551e-06 
9.33893e-06 1.29915e-06 0.00735269 -0.00202642 -0.00644152 -0.00491039 5.45361e-06 5.27482e-06 -5.14058e-06 
-4.59205e-06 1.13993e-06 -2.11877e-06 1.31542e-05 -7.67901e-07 -6.40025e-07 -2.31301e-05 1.48221e-06 -0.000642274 
-0.000199385 -5.74078e-05 -0.000720459 -0.000396417 8.60936e-05 1.33748e-05 -2.61322e-05 -1.45506e-05 -1.19696e-05 
-0.000128744 -3.45356e-06 -1.57435e-06 -2.21166e-06 1.46034e-06 8.24732e-07 -1.23891e-06 1.88609e-05 -3.86759e-05 
3.66743e-05 -3.35694e-05 1.71619e-05 -5.0719e-06 1.36722e-05 -1.34904e-05 8.25024e-05 0.00011345 1.9822e-07 
-1.73629e-07 6.66109e-05 -0.000442524 -0.00010723 5.91926e-05 0.000141283 -0.000248012 1.09675e-07 5.57721e-06 
-1.87993e-05 1.1229e-05 4.32592e-05 -2.70936e-05 -3.95618e-05 -1.99373e-06 -3.49551e-05 2.51047e-05 -0.000195126 
-4.92016e-05 -4.53236e-05 1.80045e-05 8.62492e-06 3.14452e-05 2.56332e-05 5.47502e-05 -3.24933e-07 -0.000651242 
-0.00163123 -3.94214e-06 -1.44205e-05 0.000876816 -0.000780506 -0.000844703 0.000451847 -0.000114326 -0.000247499 
0.000336956 -3.62656e-05 0.000196855 0.000776546 -0.000286112 4.58639e-08 -9.94825e-08 1.5675e-06 -1.29245e-06 
0.00141696 -0.000856205 -2.49881e-05 -0.000960266 3.93151e-05 0.000772495 0.000435079 -4.05008e-05 -0.00014923 
1.03972e-07 6.72093e-05 6.10249e-07 1.67878e-05 6.30843e-06 -1.54622e-07 -2.04246e-05 2.28558e-05 1.58119e-05 
3.35572e-06 2.82387e-06 -9.87839e-05 -1.00259e-06 5.58117e-06 1.01652e-05 9.47461e-06 -4.16199e-05 -2.06409e-05 
-1.16889e-05 -1.3808e-05 1.63609e-05 9.60693e-06 -4.82195e-05 0.000396949 -7.5507e-06 -1.29806e-05 -3.40798e-06 
6.94092e-06 6.2037e-06 -1.3769e-05 -2.38301e-05 1.70067e-05 -1.2032e-05 -5.00858e-05 1.39702e-05 -1.72845e-06 
-3.13957e-07 5.69751e-05 -1.98983e-06 -3.50036e-06 2.25242e-05 -5.16148e-05 5.67821e-05 -5.09871e-05 4.08801e-05 
-2.51285e-05 -2.5924e-06 0.000621269 0.000700891 -2.77883e-05 -4.4538e-06 1.40799e-06 -1.18803e-07 -3.05487e-07 
-5.36046e-07 -2.05144e-06 -2.0945e-05 1.4691e-05 -1.99162e-06 7.78645e-07 1.02641e-06 1.95854e-06 8.41212e-07 
-4.30749e-06 -2.13958e-05 -0.000282053 9.1973e-05 0.000129306 1.0209e-05 -3.54595e-05 6.80351e-07 -8.64614e-07 
1.34464e-06 5.89397e-06 0.0047673 0.000789415 5.66969e-07 7.87722e-05 -2.67714e-05 1.58028e-06 2.32446e-06 
-3.92929e-06 9.3791e-07 -3.63147e-06 1.48562e-06 3.22722e-06 -1.37595e-05 1.85316e-05 -0.000190627 0.00134211 
-0.000117319 -1.09127e-05 -0.00018871 0.000111207 1.57815e-05 2.57634e-06 3.35776e-06 2.08626e-05 2.88974e-05 
5.14283e-06 2.95487e-06 -2.28121e-06 -1.83861e-06 2.66304e-06 1.71268e-05 2.96005e-06 4.81889e-06 -7.86619e-07 
2.8027e-05 -3.16355e-07 -2.93408e-07 -2.38615e-05 -4.02911e-07 3.83519e-06 1.25561e-05 4.57546e-06 -5.43435e-06 
5.20015e-05 -5.89993e-06 5.00487e-05 -7.26354e-05 -7.67786e-05 0.00465847 -1.74801e-05 0.000139637 -1.02002e-05 
-8.67303e-06 6.80007e-06 -0.000304541 0.000208864 0.000266836 -0.00446255 -0.000900476 6.18385e-05 -1.78113e-05 
-1.1629e-05 -2.88902e-05 -3.03181e-05 8.79457e-06 0.000708959 0.000104423 -1.12653e-05 -3.49092e-05 2.35356e-06 
9.14438e-06 -1.72002e-05 -7.42132e-05 4.24815e-05 3.33361e-07 8.23612e-07 4.68166e-06 1.81789e-06 -0.000163984 
-5.9082e-05 -5.56112e-07 8.87855e-06 7.80116e-06 9.12891e-05 6.90598e-07 3.78199e-06 9.88807e-06 -1.46456e-05 
-6.42349e-06 -6.31454e-05 0.000123306 6.66626e-05 -5.93601e-05 6.08009e-06 -7.5329e-05 5.05362e-05 -5.80073e-05 
-0.000118964 6.0584e-05 -1.13918e-05 -2.64592e-05 5.072e-06 7.77121e-05 0.00019755 6.30729e-05 1.43451e-06 
-7.72769e-08 -9.85799e-05 -1.7108e-05 -3.30245e-05 2.96374e-07 -8.06253e-06 -2.39167e-05 5.09652e-05 -2.14174e-05 
-7.09679e-07 4.50886e-06 -3.44758e-05 -2.59338e-05 1.44145e-05 1.13813e-05 2.27521e-06 1.2997e-06 -4.97767e-06 
0.000970039 -2.84931e-05 -6.52852e-06 5.08368e-06 -2.92524e-06 -2.31574e-07 3.78258e-06 -8.74325e-06 -1.59443e-07 
4.32997e-07 -9.7621e-06 -2.46353e-05 -3.01538e-06 -3.19448e-06 -2.25703e-05 2.49761e-06 2.0106e-06 0.00526764 
8.96005e-07 -6.3476e-05 -7.17468e-05 0.000133166 5.20454e-05 5.68035e-05 -2.34432e-06 -0.000159768 -1.07504e-05 
6.37544e-05 -0.00890397 -4.36817e-06 -1.99531e-06 -3.5139e-06 0.00530413 -4.94367e-07 -0.000554252 3.59604e-06 
-3.55163e-07 -7.21969e-06 -4.00161e-06 -7.00527e-06 -3.95973e-06 -6.77436e-06 -1.82745e-05 -2.89564e-05 3.98311e-05 
1.88377e-06 -0.00529383 -3.60569e-05 1.69273e-05 -1.16446e-05 3.66781e-06 -3.06604e-06 -8.41269e-05 3.20575e-05 
3.63168e-05 -3.1944e-05 7.98083e-06 -0.00527936 -0.000102919 -0.0054695 -0.000121322 4.08392e-06 2.56583e-05 
2.09184e-05 2.84185e-07 3.893e-06 -8.7412e-05 2.75777e-05 -3.05052e-05 -1.94709e-05 9.12376e-07 -1.37449e-06 
0.000184951 -1.03583e-06 -4.51517e-07 1.69953e-06 2.06282e-05 -1.70622e-06 -6.3999e-08 2.72182e-06 0.00488202 
-8.4332e-06 1.52887e-06 2.42891e-06 -1.70598e-05 -3.95421e-05 -2.26469e-06 3.22591e-05 -1.25457e-05 -2.09388e-06 
-4.15755e-06 9.25677e-07 -4.85646e-05 -1.01926e-05 1.98465e-05 -6.08498e-06 -0.00101422 -2.0183e-05 -5.08249e-06 
4.02068e-06 0.000124125 -3.21849e-06 1.92364e-06 -8.21344e-07 -4.37035e-06 -1.10571e-05 -2.21966e-05 -2.46565e-05 
1.3242e-05 2.34887e-05 5.47813e-05 -0.00526786 -0.0013387 -1.34238e-05 -1.48031e-05 4.059e-05 1.19143e-06 
-2.68658e-06 6.19055e-05 -5.52101e-06 -0.000160948 3.87228e-05 0.00108457 -0.000456354 -1.86445e-06 7.11572e-06 
7.59438e-06 1.5555e-06 9.73857e-06 7.97117e-05 -1.56215e-05 7.95492e-07 -3.81839e-06 2.03753e-05 0.00112722 
0.000826229 0.000100164 -0.000264887 -4.1484e-05 -5.50317e-06 -2.39665e-05 -0.000284138 0.000434678 -0.000543384 
3.95721e-05 3.28426e-06 9.12481e-06 1.26746e-05 2.99537e-07 1.58358e-06 0.00122802 -2.04475e-05 -0.00649254 
3.82077e-05 -0.000145992 -5.83743e-08 -0.000400461 1.04227e-06 -4.03573e-06 3.84256e-06 1.94836e-05 2.54968e-06 
-7.00461e-05 1.14359e-05 0.000132013 0.00015363 2.65947e-07 -6.32836e-07 3.76456e-05 9.09504e-07 -1.05918e-06 
-1.12938e-06 -3.91771e-05 -8.94968e-06 3.6983e-07 -1.07892e-05 4.77485e-07 5.20681e-06 6.17932e-05 0.000643884 
0.000539679 -0.00414197 -0.000125645 0.000135704 -2.95752e-10 -0.00583738 0.00497916 6.10782e-05 2.91117e-05 
7.29408e-06 -0.00460565 -0.000998452 2.94023e-06 8.76804e-06 1.48703e-05 2.24641e-06 3.6009e-06 -4.13507e-06 
-1.84723e-06 -9.60627e-07 -8.77374e-06 -4.10621e-05 -2.9355e-06 1.43761e-06 8.74439e-06 3.30236e-06 9.28e-07 
-4.07409e-07 -7.46065e-07 -2.8798e-06 0.000750245 -0.000246574 -1.01303e-06 1.77319e-05 -3.20862e-05 -3.01335e-06 
1.67207e-05 7.68809e-06 6.97514e-05 0.00070795 -1.28047e-06 1.93831e-05 -5.97555e-06 -0.00156839 -6.08461e-06 
-8.01027e-06 0.000703127 0.000131982 -3.29033e-06 0.00165275 0.00245226 0.00522813 7.89846e-05 0.00524215 
-1.75949e-06 1.48492e-06 -3.70651e-06 -1.81665e-05 -5.87285e-05 2.79177e-06 -0.000319412 3.96312e-06 1.27936e-06 
-0.000318154 -2.43955e-06 3.13841e-05 0.00495993 -0.00403632 4.87257e-06 -9.01851e-05 0.00104632 0.000139488 
-1.64866e-05 -1.15646e-05 -2.47825e-07 2.02853e-05 3.45067e-06 1.44877e-06 -1.70905e-07 3.70035e-06 0.000681396 
3.32947e-05 1.66033e-05 1.06718e-05 4.91156e-06 -4.73017e-06 -4.2073e-05 -0.000896284 -9.42986e-06 -4.94527e-05 
-1.35613e-05 -5.23286e-05 -1.69795e-06 -3.29454e-06 9.99178e-05 1.15759e-05 -1.65358e-05 -3.38331e-05 2.65036e-05 
5.41514e-05 1.11301e-05 -1.77737e-05 -0.000403202 3.35824e-05 -0.000128876 0.000750695 7.28521e-06 1.49702e-05 
7.93423e-05 2.09584e-05 -0.000110523 -4.05266e-05 -2.28788e-06 -3.3753e-05 3.92604e-05 -1.13803e-05 -8.41354e-05 
1.85315e-05 -2.92571e-05 -0.00132447 -2.12927e-05 2.73931e-05 3.48202e-05 3.65099e-07 8.39912e-06 -4.63014e-06 
-1.58982e-05 5.50698e-06 1.75483e-05 -2.26577e-05 2.74333e-06 -6.08996e-07 -1.67704e-06 1.42757e-05 5.69481e-06 
2.73589e-06 -7.67666e-06 9.24202e-06 -1.05068e-05 -2.96801e-06 -1.6743e-05 -7.82699e-05 1.06033e-05 -1.83034e-06 
-3.08594e-06 0.000155174 -0.000115028 4.81716e-05 2.37861e-05 9.44807e-06 -0.00474987 7.79049e-06 9.75663e-05 
0.000340956 0.00312766 0.00171132 2.08001e-05 0.0046614 1.04527e-05 -2.24584e-06 -5.24301e-05 7.88744e-05 
4.60677e-05 -3.79318e-05 4.13364e-05 -7.15573e-06 0.000660509 0.000102839 -6.86219e-06 4.67777e-06 -0.00489111 
-1.38006e-07 -2.7561e-05 0.000182387 -0.00454272 0.000101356 -7.0566e-06 4.58599e-05 -4.03887e-06 -0.000177859 
-5.13628e-05 0.000112883 3.41187e-05 -1.71931e-05 0.000103491 -5.2298e-06 0.000173035 -0.00510443 3.19891e-06 
-6.88153e-07 1.8537e-05 -6.36289e-06 5.53913e-05 -6.66697e-06 -1.37181e-05 -1.14799e-06 2.33635e-05 -2.928e-05 
4.80229e-05 2.14667e-05 1.48047e-05 5.38658e-05 3.90631e-06 6.64836e-05 -1.43617e-05 -3.77692e-05 -1.41059e-05 
-3.57839e-05 -1.81082e-06 -1.64194e-05 -0.000949805 -0.000523 -3.8368e-05 -4.97081e-06 -0.000866966 -0.000103006 
-8.02504e-08 -0.000651548 -2.01324e-06 5.20587e-05 -1.86948e-06 -0.00467763 -1.94775e-05 0.00129545 -3.49525e-07 
-1.00382e-05 1.14406e-05 0.000107142 -5.72915e-06 -1.95008e-05 -2.8051e-06 0.00020857 9.04845e-06 -1.00331e-07 
-1.35016e-05 0.000678695 -1.11357e-06 0.000142524 7.51563e-06 -1.49373e-05 1.41528e-05 -1.10472e-06 2.04089e-06 
3.00838e-06 -3.61392e-05 -0.000243794 -1.64645e-05 4.34986e-05 9.92051e-06 -3.04931e-05 -2.66981e-06 6.83435e-07 
6.19542e-05 -3.593e-05 1.17794e-05 2.50429e-05 -0.000210599 -6.51812e-05 -1.74018e-05 0.000819033 -1.34555e-05 
2.15072e-07 4.37724e-05 5.64087e-06 -0.000160459 -0.000333897 8.80714e-06 -1.77459e-05 -4.11781e-05 7.49657e-07 
3.75484e-05 -7.6814e-05 -4.81823e-05 -0.0054256 -0.00160813 -0.010411 1.44549e-05 8.57274e-06 0.00133548 
-5.48804e-06 -1.24899e-06 4.71649e-06 -5.00313e-05 4.49979e-05 2.04554e-05 -1.17686e-06 -0.000141771 
Stress%20yy%20component 1 8918 double
0.895869 0.728466 0.714844 0.911462 0.33331 0.333322 0.333355 0.33335 0.291604 
0.224849 0.688649 0.764895 0.257655 0.297927 0.644917 0.757207 0.391293 0.333867 
0.327909 0.315153 0.30851 0.305999 0.308205 0.309233 0.306013 0.307897 0.307612 
0.30617 0.30436 0.303401 0.302805 0.299415 0.304824 0.306387 0.312489 0.326073 
0.346285 0.416896 0.40326 0.35131 0.319956 0.309332 0.317473 0.311858 0.311458 
0.318273 0.302078 0.310674 0.312616 0.311961 0.304054 0.320536 0.311442 0.313145 
0.314285 0.314407 0.31994 0.313165 0.312865 0.312392 0.315189 0.310617 0.335864 
0.353302 0.333325 0.33336 0.333353 0.333337 0.333323 0.333315 0.333322 0.333302 
0.333299 0.333321 0.333304 0.333326 0.333322 0.33333 0.333331 0.333341 0.333332 
0.333346 0.333345 0.333333 0.333344 0.333332 0.333335 0.333331 0.333329 0.333327 
0.333327 0.449627 0.338194 0.315956 0.302494 0.294662 0.29074 0.28927 0.289229 
0.290036 0.291594 0.293498 0.29566 0.298123 0.30105 0.303927 0.307062 0.310122 
0.313096 0.315886 0.318284 0.320281 0.321431 0.321831 0.321417 0.319997 0.317511 
0.313482 0.308505 0.302549 0.296544 0.292265 0.290983 0.293143 0.298124 0.303756 
0.310049 0.315396 0.320207 0.323841 0.327087 0.329467 0.33132 0.332648 0.333363 
0.333417 0.333332 0.33358 0.334037 0.334704 0.335624 0.33685 0.338232 0.339334 
0.338591 0.334005 0.325518 0.314222 0.303218 0.293986 0.28939 0.28753 0.288972 
0.296806 0.310744 0.341401 0.409233 0.720658 0.682913 0.68225 0.640518 0.644133 
0.697023 0.643502 0.635459 0.554633 0.591719 0.600978 0.389904 0.384069 0.454269 
0.574324 0.559957 0.624912 0.568042 0.643777 0.6484 0.650338 0.693796 0.648766 
0.596232 0.738351 0.333318 0.333366 0.333345 0.33333 0.333309 0.333298 0.333288 
0.333296 0.333298 0.333311 0.333326 0.333336 0.333345 0.333345 0.33335 0.333345 
0.333347 0.333341 0.333334 0.333328 0.333324 0.333325 0.40718 0.342492 0.31108 
0.298069 0.292007 0.289588 0.289736 0.290941 0.293139 0.295745 0.298832 0.302483 
0.306365 0.310376 0.314069 0.317372 0.319845 0.321495 0.321879 0.320905 0.318473 
0.313841 0.307252 0.299987 0.293617 0.291353 0.294048 0.299614 0.306614 0.313442 
0.319138 0.323944 0.327735 0.330462 0.332288 0.333237 0.333475 0.33334 0.333489 
0.333863 0.334425 0.335145 0.336098 0.337335 0.338833 0.339398 0.336686 0.329881 
0.320189 0.309432 0.299589 0.292403 0.288287 0.287063 0.288905 0.293293 0.308074 
0.332315 0.449488 0.704851 0.577269 0.573074 0.642558 0.646579 0.579238 0.647446 
0.640495 0.676276 0.6124 0.518242 0.515428 0.400414 0.388253 0.536708 0.565932 
0.688025 0.617786 0.681575 0.639281 0.644624 0.644325 0.580506 0.642872 0.599626 
0.633972 0.333164 0.333199 0.333264 0.333322 0.333386 0.333419 0.333455 0.333472 
0.333469 0.333447 0.333413 0.333382 0.333346 0.333312 0.333289 0.333279 0.333266 
0.333267 0.333271 0.333275 0.333286 0.333298 0.333315 0.333333 0.33335 0.333373 
0.333361 0.426615 0.359111 0.334635 0.319887 0.311292 0.306275 0.303226 0.302056 
0.30099 0.301142 0.302072 0.303207 0.304629 0.306387 0.308142 0.310079 0.311888 
0.313648 0.315101 0.31633 0.31682 0.317043 0.316665 0.315581 0.313866 0.311529 
0.308618 0.305464 0.302233 0.29975 0.299231 0.301003 0.303571 0.307837 0.312147 
0.316476 0.320236 0.323599 0.326319 0.328472 0.330128 0.331521 0.332388 0.332972 
0.333706 0.333989 0.334333 0.334708 0.334682 0.332976 0.330686 0.326816 0.321259 
0.315362 0.311088 0.308912 0.310023 0.313839 0.321983 0.358588 0.400235 0.368401 
0.352264 0.338968 0.319599 0.3124 0.313734 0.31525 0.317755 0.314752 0.309151 
0.30963 0.314215 0.317647 0.31329 0.30997 0.310688 0.308588 0.311257 0.306893 
0.31189 0.314816 0.318098 0.330554 0.345494 0.372892 0.36555 0.337274 0.318258 
0.305288 0.296185 0.289612 0.283773 0.278819 0.272467 0.265236 0.254778 0.240112 
0.264718 0.420469 0.269183 0.230156 0.244416 0.255167 0.263363 0.269886 0.276319 
0.282727 0.289072 0.296866 0.306001 0.324059 0.347706 0.376307 0.366379 0.333488 
0.334005 0.337944 0.39239 0.297818 0.440153 0.294536 0.431657 0.332968 0.333183 
0.333413 0.333626 0.333799 0.333888 0.333895 0.333865 0.333741 0.333602 0.333461 
0.333331 0.333218 0.333131 0.333086 0.33307 0.333062 0.333071 0.333114 0.333168 
0.333232 0.333295 0.333363 0.333555 0.353478 0.339942 0.329451 0.322908 0.31729 
0.313704 0.311411 0.310013 0.309307 0.309057 0.309414 0.309904 0.31047 0.311289 
0.312099 0.312847 0.31351 0.313745 0.313753 0.313405 0.312755 0.311837 0.310439 
0.308893 0.307367 0.305971 0.304523 0.30316 0.303406 0.305577 0.308705 0.312391 
0.316195 0.319707 0.322616 0.325158 0.327165 0.328748 0.329961 0.33109 0.331978 
0.332747 0.366366 0.333534 0.333299 0.333009 0.297339 0.355998 0.326282 0.323826 
0.320961 0.31913 0.319809 0.323052 0.327377 0.331719 0.329387 0.353706 0.412768 
0.341216 0.334011 0.331243 0.326815 0.325317 0.321606 0.321091 0.322789 0.323341 
0.322637 0.320061 0.320343 0.321817 0.322223 0.322056 0.321739 0.321072 0.32292 
0.3252 0.328554 0.334489 0.344094 0.330233 0.339596 0.311532 0.303839 0.297271 
0.29209 0.287648 0.282953 0.278353 0.277182 0.29017 0.307564 0.333469 0.368786 
0.264657 0.266779 0.272563 0.278704 0.284557 0.290544 0.297244 0.304901 0.31434 
0.324859 0.3367 0.347131 0.330999 0.336761 0.328037 0.362589 0.320131 0.281269 
0.329021 0.303719 0.347686 0.318498 0.380537 0.339386 0.37769 0.392767 0.333274 
0.33374 0.334193 0.334526 0.334666 0.334602 0.334409 0.334107 0.333781 0.333472 
0.333194 0.332954 0.332814 0.332761 0.332722 0.332706 0.332777 0.332889 0.333034 
0.333188 0.332802 0.310785 0.332467 0.340158 0.334021 0.329143 0.324659 0.321205 
0.318832 0.316792 0.315642 0.315002 0.314353 0.313867 0.313718 0.313572 0.31343 
0.313203 0.312733 0.311966 0.310894 0.309679 0.308385 0.306816 0.305445 0.304359 
0.30405 0.30408 0.304211 0.304428 0.307013 0.312491 0.31713 0.320973 0.3245 
0.327104 0.328865 0.329889 0.330431 0.330918 0.331514 0.332012 0.287274 0.299291 
0.333121 0.332615 0.331562 0.349098 0.348838 0.322572 0.327004 0.329992 0.335107 
0.33778 0.340069 0.344361 0.323843 0.373479 0.322046 0.338029 0.333733 0.330802 
0.32901 0.327687 0.327042 0.327235 0.327309 0.326817 0.326009 0.325862 0.326502 
0.326764 0.326674 0.326709 0.32768 0.329179 0.331811 0.335611 0.341134 0.301196 
0.31229 0.29929 0.29565 0.292608 0.293924 0.301347 0.316847 0.359963 0.379364 
0.281897 0.284977 0.288981 0.293696 0.299469 0.305517 0.312767 0.320443 0.327871 
0.334556 0.338496 0.318174 0.323228 0.32425 0.306489 0.316803 0.384763 0.280576 
0.333328 0.336367 0.323863 0.324806 0.360551 0.323424 0.342361 0.329715 0.370392 
0.328977 0.303153 0.334531 0.335266 0.335762 0.335958 0.335652 0.335067 0.334439 
0.333844 0.333287 0.332803 0.332476 0.332311 0.33233 0.33218 0.332233 0.332493 
0.332635 0.333 0.342494 0.331303 0.293991 0.338779 0.335764 0.332901 0.329676 
0.32686 0.324454 0.321575 0.321294 0.31979 0.318436 0.317178 0.316117 0.315276 
0.314251 0.312983 0.311401 0.309503 0.307402 0.30538 0.302962 0.300736 0.299613 
0.298949 0.326495 0.331291 0.333549 0.334294 0.334385 0.333692 0.33299 0.332703 
0.324609 0.341303 0.343456 0.318504 0.306956 0.323434 0.327085 0.344218 0.353025 
0.321497 0.332466 0.341607 0.369238 0.335982 0.335112 0.334297 0.333023 0.332321 
0.332753 0.333235 0.332582 0.330895 0.332317 0.332599 0.332466 0.332429 0.332896 
0.333652 0.335061 0.337334 0.304355 0.30309 0.311065 0.320139 0.351703 0.368397 
0.36032 0.359203 0.313754 0.332543 0.294627 0.298099 0.301618 0.30615 0.31113 
0.316744 0.322253 0.333592 0.332665 0.324804 0.357199 0.33482 0.333648 0.320839 
0.2924 0.312722 0.320458 0.309638 0.328022 0.318782 0.34215 0.320766 0.361211 
0.348106 0.31993 0.325767 0.317131 0.324147 0.338134 0.331841 0.292235 0.335994 
0.336857 0.337885 0.337795 0.336789 0.335498 0.334647 0.333628 0.33273 0.332089 
0.331774 0.33165 0.331481 0.331823 0.342187 0.325847 0.336914 0.335501 0.333333 
0.330938 0.327986 0.326329 0.323253 0.322045 0.319445 0.318339 0.316661 0.31465 
0.312238 0.309551 0.305535 0.338861 0.344095 0.341238 0.340724 0.338161 0.335917 
0.32016 0.310913 0.34754 0.354787 0.352248 0.330202 0.338378 0.313447 0.338483 
0.338743 0.33699 0.337075 0.339246 0.339629 0.337274 0.338778 0.337983 0.337178 
0.337241 0.337173 0.337051 0.337568 0.314897 0.338185 0.349664 0.330986 0.346341 
0.310858 0.314413 0.334371 0.35841 0.300075 0.348746 0.332961 0.343395 0.302462 
0.316758 0.323302 0.342247 0.32325 0.327371 0.321842 0.340986 0.3168 0.320303 
0.306858 0.318136 0.350853 0.341018 0.336791 0.334438 0.332946 0.331684 0.330968 
0.330977 0.338025 0.336118 0.335251 0.340639 0.333368 0.329255 0.320688 0.342993 
0.338881 0.345732 0.353623 0.327255 0.345401 0.34443 0.3417 0.340582 0.340102 
0.338078 0.314668 0.335524 0.330731 0.323767 0.317704 0.331007 0.339796 0.332228 
0.329568 0.327669 0.32967 0.323833 0.341 0.344845 0.326385 0.333006 0.333185 
0.333279 0.333373 0.333479 0.333537 0.333541 0.333516 0.333451 0.333385 0.333324 
0.333273 0.333235 0.333219 0.333228 0.333232 0.333262 0.333292 0.333323 0.333362 
0.333388 0.376782 0.356194 0.328889 0.314708 0.3078 0.304625 0.302868 0.302861 
0.303492 0.304286 0.306042 0.308177 0.310344 0.31232 0.314174 0.315512 0.316307 
0.316177 0.315294 0.313695 0.311193 0.308431 0.304882 0.301582 0.300265 0.301659 
0.305339 0.310115 0.315322 0.319655 0.323511 0.326806 0.329091 0.330973 0.332215 
0.333485 0.333661 0.333843 0.334148 0.334655 0.334227 0.333674 0.332101 0.328859 
0.323979 0.31886 0.314013 0.310561 0.308902 0.309662 0.313292 0.323072 0.360944 
0.423578 0.361887 0.33008 0.319578 0.330155 0.322118 0.318504 0.304998 0.318683 
0.320784 0.318854 0.305908 0.31946 0.319365 0.319743 0.317412 0.319181 0.320253 
0.320948 0.32774 0.331579 0.362653 0.341027 0.319209 0.305996 0.297472 0.291401 
0.286003 0.281342 0.276234 0.270412 0.262961 0.252623 0.239431 0.272943 0.392343 
0.249685 0.231161 0.245097 0.254891 0.265256 0.272112 0.278547 0.284176 0.290957 
0.299262 0.309177 0.323866 0.346235 0.36496 0.386002 0.334128 0.338899 0.452413 
0.431312 0.307186 0.28495 0.333036 0.332611 0.333696 0.334048 0.334206 0.334143 
0.33396 0.333701 0.333445 0.3332 0.333018 0.332918 0.332892 0.332927 0.332996 
0.333108 0.333223 0.333352 0.333503 0.32723 0.332987 0.345814 0.356397 0.323758 
0.318462 0.315223 0.313125 0.311488 0.31086 0.310909 0.311384 0.312041 0.312629 
0.313191 0.313408 0.31316 0.312351 0.31087 0.309281 0.307785 0.306725 0.305693 
0.304518 0.304247 0.306435 0.310404 0.314958 0.319491 0.322886 0.325629 0.327829 
0.329422 0.330738 0.331819 0.351909 0.333507 0.331396 0.333485 0.323131 0.328969 
0.341213 0.330203 0.324942 0.322717 0.320568 0.319832 0.321468 0.324264 0.327982 
0.332918 0.378137 0.398606 0.336697 0.329914 0.32622 0.324058 0.323893 0.324225 
0.323904 0.32334 0.323281 0.323494 0.324454 0.323819 0.323903 0.325509 0.328344 
0.332487 0.342088 0.357727 0.309621 0.341658 0.332841 0.322645 0.313798 0.30591 
0.29992 0.294257 0.289395 0.284739 0.280307 0.276323 0.277002 0.292365 0.295346 
0.407033 0.278868 0.272974 0.278546 0.284859 0.290807 0.297348 0.304812 0.31389 
0.32534 0.337778 0.350338 0.333283 0.34224 0.267449 0.267898 0.355433 0.332242 
0.304221 0.395148 0.381452 0.317446 0.329867 0.335243 0.334549 0.334927 0.334407 
0.333837 0.333267 0.332814 0.33251 0.332391 0.332402 0.332521 0.332724 0.332975 
0.333148 0.321799 0.32484 0.332716 0.291747 0.333803 0.345262 0.32249 0.320008 
0.318013 0.316564 0.31559 0.314942 0.314403 0.313877 0.313076 0.311823 0.309988 
0.307681 0.304963 0.302891 0.301974 0.302402 0.303834 0.30453 0.307678 0.314223 
0.320364 0.32556 0.328833 0.330228 0.331104 0.331382 0.331642 0.32592 0.332847 
0.316961 0.322907 0.332605 0.327392 0.323199 0.335844 0.353675 0.33517 0.331165 
0.329878 0.329913 0.329808 0.329544 0.329371 0.328873 0.328783 0.328908 0.329313 
0.330304 0.331862 0.334303 0.336064 0.317727 0.387772 0.320095 0.314336 0.308942 
0.303981 0.299581 0.296053 0.293535 0.291991 0.29376 0.30183 0.31181 0.289699 
0.28555 0.299974 0.305899 0.312938 0.32102 0.329111 0.337025 0.365251 0.322256 
0.34007 0.348417 0.33025 0.329965 0.330145 0.325676 0.295111 0.333536 0.331682 
0.326214 0.281543 0.332214 0.370752 0.371786 0.354489 0.327687 0.337575 0.338114 
0.321556 0.335852 0.372259 0.33813 0.374329 0.30169 0.331242 0.297419 0.283263 
0.35722 0.338413 0.336444 0.333622 0.332749 0.332074 0.331724 0.331708 0.331855 
0.332116 0.332606 0.322093 0.321153 0.322901 0.325471 0.32807 0.320838 0.319062 
0.317606 0.316065 0.314319 0.312227 0.309269 0.30556 0.301663 0.296331 0.328812 
0.33225 0.338912 0.337123 0.33625 0.334945 0.333876 0.348205 0.330492 0.336397 
0.335672 0.314977 0.339095 0.31854 0.32711 0.342957 0.328611 0.322091 0.33619 
0.337636 0.336389 0.336073 0.335455 0.33499 0.334851 0.334936 0.33519 0.335754 
0.337006 0.319837 0.371771 0.335639 0.315282 0.311838 0.308322 0.304831 0.30395 
0.304908 0.303478 0.307309 0.315255 0.311803 0.306549 0.323364 0.329203 0.319922 
0.317467 0.294788 0.334635 0.293924 0.336837 0.339274 0.323982 0.337143 0.329801 
0.323279 0.335496 0.354774 0.333257 0.333718 0.328222 0.351217 0.326608 0.339435 
0.336347 0.32641 0.299306 0.334812 0.359309 0.334757 0.363189 0.345258 0.342457 
0.304331 0.332773 0.330609 0.331014 0.324107 0.329415 0.319861 0.32316 0.351115 
0.326577 0.332352 0.32197 0.319668 0.317129 0.314253 0.31056 0.345589 0.342807 
0.339352 0.336725 0.331369 0.337782 0.342842 0.343774 0.341809 0.35204 0.353114 
0.319768 0.342415 0.342623 0.334461 0.341424 0.340415 0.339769 0.339457 0.338491 
0.337463 0.361809 0.362965 0.33089 0.331747 0.314942 0.31163 0.310601 0.312916 
0.348354 0.324055 0.319645 0.331337 0.322885 0.354956 0.338484 0.325844 0.338955 
0.335464 0.333384 0.329008 0.339268 0.334378 0.327778 0.316712 0.314918 0.316863 
0.350562 0.336121 0.345628 0.324814 0.327671 0.346208 0.346586 0.338876 0.338887 
0.344048 0.343482 0.341211 0.338298 0.330337 0.341248 0.317488 0.353457 0.335573 
0.349071 0.347202 0.321349 0.329313 0.331735 0.355403 0.347365 0.344098 0.33073 
0.334942 0.33536 0.333224 0.348905 0.327216 0.341468 0.336483 0.83928 0.842269 
0.519859 0.367021 0.341564 0.32719 0.392924 0.392696 0.391097 0.317825 0.391494 
0.390748 0.391628 0.317179 0.387897 0.388376 0.384703 0.384935 0.394772 0.390297 
0.397934 0.408341 0.343949 0.397536 0.642884 0.615537 0.39631 0.331633 0.322059 
0.365937 0.397209 0.39186 0.364791 0.30946 0.360632 0.39395 0.392681 0.364098 
0.311586 0.365205 0.392931 0.3954 0.397385 0.366061 0.370278 0.394436 0.39474 
0.396651 0.368464 0.321046 0.348366 0.479974 0.333321 0.333371 0.333381 0.33336 
0.333332 0.333309 0.333302 0.333277 0.333262 0.333269 0.333285 0.333302 0.33331 
0.333321 0.333335 0.333345 0.333346 0.333361 0.33336 0.333354 0.333352 0.333344 
0.333343 0.333337 0.333329 0.333323 0.333319 0.333316 0.58336 0.345299 0.324049 
0.3063 0.297092 0.29197 0.289609 0.28904 0.289373 0.290605 0.292383 0.294448 
0.29683 0.299602 0.302448 0.305437 0.308553 0.311695 0.314619 0.317214 0.319414 
0.320942 0.321806 0.321862 0.320969 0.319073 0.315769 0.31107 0.305541 0.299293 
0.293843 0.291037 0.291602 0.295182 0.300807 0.306974 0.312882 0.317973 0.322127 
0.325615 0.328463 0.330554 0.332082 0.33308 0.333488 0.333395 0.333309 0.333426 
0.333787 0.334348 0.33514 0.33624 0.337581 0.339008 0.339462 0.337056 0.330421 
0.320102 0.30839 0.297777 0.290759 0.287365 0.286487 0.289026 0.299829 0.318216 
0.360712 0.592092 0.881325 0.799268 0.761821 0.647289 0.651229 0.770319 0.654778 
0.648374 0.63804 0.618862 0.677027 0.519753 0.356313 0.514665 0.424951 0.487884 
0.553144 0.597798 0.624123 0.642908 0.651335 0.655656 0.6606 0.767229 0.659146 
0.651545 0.684518 0.91435 0.535729 0.333285 0.333436 0.333385 0.333345 0.333305 
0.333266 0.333246 0.333241 0.333244 0.33326 0.333303 0.333333 0.333363 0.333367 
0.333376 0.333372 0.333373 0.333367 0.333348 0.333333 0.333317 0.333308 0.333322 
0.588387 0.364143 0.318165 0.302379 0.293788 0.290064 0.289273 0.290067 0.291882 
0.294331 0.29717 0.30057 0.3044 0.308405 0.312295 0.315841 0.318794 0.320934 
0.32194 0.321667 0.320005 0.316546 0.310871 0.303618 0.29628 0.291631 0.291796 
0.296424 0.303022 0.310165 0.316527 0.321794 0.326076 0.329276 0.331561 0.332942 
0.333461 0.33343 0.333322 0.333392 0.333657 0.334135 0.334774 0.335611 0.336716 
0.338146 0.339431 0.338717 0.334032 0.32552 0.314812 0.304006 0.295301 0.289614 
0.286669 0.286186 0.289788 0.296422 0.314169 0.344586 0.590697 0.916664 0.681971 
0.652243 0.649593 0.654093 0.658142 0.658041 0.653104 0.645 0.739445 0.609401 
0.582045 0.60007 0.339181 0.567506 0.391193 0.571686 0.553595 0.698001 0.615125 
0.634384 0.759849 0.650066 0.653415 0.657874 0.655679 0.649521 0.676541 0.81528 
0.564029 0.333317 0.333349 0.728386 0.268558 0.739377 0.277418 0.524381 0.530829 
0.420677 0.378724 0.336299 0.320881 0.323226 0.308211 0.31019 0.328783 0.329047 
0.325457 0.318085 0.322621 0.321086 0.301391 0.305674 0.318352 0.325359 0.321403 
0.322106 0.324731 0.321084 0.305106 0.301112 0.317977 0.321434 0.322496 0.319771 
0.323502 0.317749 0.328156 0.318275 0.319727 0.326038 0.316532 0.323343 0.319176 
0.322847 0.32826 0.329132 0.317227 0.325319 0.345458 0.393495 0.312317 0.312158 
0.309889 0.336893 0.333325 0.333256 0.333244 0.333274 0.333262 0.333224 0.333292 
0.333297 0.333268 0.333325 0.333332 0.333301 0.333357 0.333362 0.333334 0.333374 
0.33338 0.333371 0.333399 0.333403 0.333402 0.333403 0.333407 0.333399 0.33341 
0.333408 0.33341 0.333398 0.333384 0.333409 0.333374 0.333374 0.333394 0.333356 
0.333359 0.333368 0.333341 0.333338 0.333347 0.333322 0.333323 0.333327 0.333308 
0.333309 0.333312 0.333304 0.333302 0.333303 0.33329 0.333296 0.333293 0.333295 
0.333298 0.333295 0.333298 0.333297 0.3333 0.333299 0.333304 0.333297 0.333307 
0.333306 0.333298 0.333314 0.333312 0.333309 0.333321 0.333322 0.333319 0.333331 
0.333331 0.333327 0.333341 0.333345 0.333336 0.333349 0.333353 0.333352 0.333344 
0.333342 0.333361 0.333358 0.398951 0.434303 0.377941 0.35558 0.33955 0.373217 
0.327787 0.319596 0.341566 0.312249 0.307793 0.325207 0.303713 0.301424 0.314541 
0.298795 0.297942 0.308054 0.296452 0.296455 0.304226 0.295887 0.296195 0.302297 
0.295653 0.296329 0.301176 0.296453 0.297358 0.300864 0.297872 0.298909 0.301472 
0.299507 0.300689 0.302534 0.301416 0.302851 0.303842 0.303759 0.305165 0.30547 
0.30605 0.307569 0.307229 0.308593 0.310095 0.309133 0.310994 0.312442 0.311018 
0.313349 0.314698 0.312828 0.315446 0.316604 0.314498 0.317236 0.318185 0.31582 
0.318479 0.319055 0.316753 0.319166 0.319318 0.317066 0.319139 0.318921 0.317018 
0.31838 0.317659 0.316287 0.316791 0.315534 0.3149 0.314367 0.312419 0.312885 
0.310947 0.308509 0.310203 0.306816 0.304041 0.307155 0.302373 0.299621 0.303754 
0.298317 0.296464 0.300581 0.296152 0.295439 0.298936 0.296308 0.297391 0.29968 
0.298786 0.301034 0.301795 0.303208 0.305842 0.305507 0.308011 0.311018 0.309969 
0.313213 0.315812 0.314434 0.317706 0.320074 0.318499 0.321773 0.323639 0.322076 
0.325012 0.326618 0.325067 0.327685 0.328886 0.327543 0.329718 0.330654 0.329429 
0.331347 0.332014 0.330935 0.332469 0.3328 0.332051 0.333146 0.333207 0.332757 
0.333659 0.333872 0.33403 0.334343 0.333844 0.334543 0.334968 0.334158 0.335183 
0.335743 0.334524 0.335807 0.336365 0.334775 0.336076 0.335501 0.334403 0.33215 
0.3322 0.330049 0.326181 0.329151 0.32303 0.317986 0.324281 0.314563 0.309693 
0.31821 0.307135 0.30301 0.312762 0.301634 0.299701 0.309326 0.299915 0.299536 
0.308631 0.301061 0.302681 0.310754 0.306374 0.311885 0.316002 0.338735 0.356025 
0.379298 0.417269 0.37307 0.397171 0.389214 0.344142 0.339177 0.325438 0.359041 
0.317429 0.314133 0.343679 0.295002 0.295983 0.331623 0.294974 0.292497 0.322944 
0.290398 0.291545 0.322883 0.294543 0.289025 0.320383 0.306572 0.304822 0.319145 
0.284387 0.291204 0.321893 0.292313 0.290333 0.320109 0.290998 0.290687 0.319256 
0.293031 0.285234 0.319864 0.306202 0.308152 0.321643 0.290532 0.294195 0.318479 
0.292666 0.291109 0.32001 0.289921 0.290838 0.319688 0.291215 0.293555 0.319576 
0.292263 0.289086 0.32099 0.289623 0.295638 0.318981 0.293409 0.293836 0.322749 
0.292805 0.294691 0.322025 0.294864 0.299429 0.32291 0.300861 0.29773 0.327384 
0.321624 0.329733 0.340262 0.334612 0.355382 0.358841 0.367047 0.398663 0.327242 
0.339538 0.347981 0.309814 0.312271 0.32793 0.29773 0.298042 0.313396 0.28967 
0.28954 0.303219 0.286023 0.285404 0.295936 0.280125 0.279463 0.28953 0.275073 
0.275352 0.283928 0.267656 0.270077 0.278604 0.259488 0.262513 0.271682 0.245571 
0.253918 0.263271 0.216848 0.238427 0.250605 0.195637 0.231214 0.243384 0.559164 
0.376258 0.222223 0.237917 0.215351 0.233525 0.23189 0.235632 0.246166 0.238357 
0.248674 0.258757 0.251111 0.263045 0.263953 0.261348 0.269637 0.268802 0.270684 
0.27433 0.27635 0.277264 0.281021 0.281281 0.283582 0.287323 0.286737 0.289602 
0.293633 0.295678 0.296496 0.302745 0.298064 0.305027 0.313771 0.319006 0.314922 
0.331078 0.348095 0.332004 0.375889 0.417654 0.360812 0.485682 0.341224 0.333267 
0.399984 0.333423 0.333542 0.360329 0.336162 0.336468 0.327333 0.319515 0.328222 
0.333737 0.361546 0.46514 0.3323 0.294872 0.294663 0.522556 0.457851 0.326762 
0.260776 0.39694 0.522103 0.402133 0.412016 0.291252 0.333591 0.399536 0.333044 
0.333131 0.333195 0.333276 0.333083 0.333349 0.33343 0.333296 0.333493 0.333554 
0.333501 0.333612 0.333656 0.33368 0.333681 0.333695 0.333802 0.333708 0.333698 
0.333848 0.333691 0.333659 0.333834 0.333619 0.333583 0.333765 0.333536 0.333487 
0.333641 0.333442 0.333394 0.333514 0.333355 0.333309 0.333388 0.333271 0.333241 
0.33328 0.333209 0.333193 0.333188 0.333176 0.33317 0.33312 0.333159 0.333159 
0.333098 0.333159 0.333158 0.333084 0.333159 0.33317 0.33309 0.333184 0.333195 
0.333111 0.333215 0.333233 0.333156 0.333254 0.333277 0.333213 0.333296 0.33332 
0.33327 0.333343 0.333362 0.333327 0.333634 0.333762 0.333023 0.358106 0.344738 
0.338901 0.33062 0.34467 0.325691 0.32105 0.333258 0.317657 0.314992 0.325137 
0.312215 0.310606 0.319197 0.308776 0.308147 0.31503 0.306966 0.306392 0.31217 
0.305708 0.305727 0.310422 0.305324 0.305789 0.309461 0.305627 0.306221 0.309003 
0.306375 0.307081 0.309138 0.307267 0.308161 0.30961 0.308451 0.309351 0.310133 
0.309716 0.310672 0.31084 0.311082 0.311975 0.311706 0.312339 0.313207 0.312543 
0.313502 0.314218 0.313266 0.314364 0.31498 0.313747 0.314974 0.315208 0.313833 
0.315029 0.315169 0.313693 0.314796 0.314661 0.313209 0.314155 0.313616 0.31238 
0.312978 0.312066 0.311193 0.311363 0.310142 0.309714 0.309421 0.308006 0.308148 
0.307254 0.305772 0.306637 0.305038 0.303552 0.305188 0.30277 0.301773 0.303662 
0.30175 0.301609 0.302769 0.302674 0.303447 0.30413 0.305063 0.306138 0.306777 
0.308164 0.31011 0.310427 0.312081 0.314114 0.314352 0.315913 0.31802 0.318066 
0.319476 0.321378 0.321303 0.322621 0.324279 0.323992 0.325304 0.326683 0.326304 
0.327466 0.328577 0.328082 0.329118 0.329988 0.329434 0.330559 0.331276 0.330601 
0.331709 0.33215 0.33158 0.332524 0.332861 0.332412 0.363889 0.380676 0.362865 
0.334474 0.333769 0.333919 0.333833 0.333972 0.333445 0.333847 0.333755 0.333206 
0.295698 0.28726 0.344057 0.372312 0.344787 0.328399 0.326617 0.325119 0.322815 
0.325122 0.320848 0.318564 0.322305 0.31709 0.315419 0.315513 0.314697 0.318984 
0.316205 0.317051 0.320953 0.319018 0.32143 0.324657 0.323215 0.327949 0.32872 
0.33178 0.331004 0.357144 0.36985 0.44867 0.407338 0.374315 0.334993 0.326114 
0.325298 0.318993 0.336902 0.3264 0.322969 0.332853 0.317038 0.318229 0.330544 
0.316329 0.322397 0.32581 0.311905 0.304667 0.323681 0.303677 0.310071 0.322457 
0.319189 0.313972 0.322881 0.315958 0.31618 0.324694 0.313288 0.319952 0.324406 
0.310476 0.304118 0.322191 0.303911 0.30894 0.321155 0.318461 0.312843 0.322119 
0.31537 0.314355 0.323833 0.313993 0.315797 0.322219 0.312459 0.315796 0.32367 
0.309774 0.305938 0.322541 0.313333 0.313717 0.323324 0.318449 0.317251 0.325701 
0.319711 0.320787 0.326443 0.323518 0.331481 0.330911 0.330474 0.32907 0.337617 
0.344356 0.325134 0.335703 0.338726 0.352479 0.344973 0.333692 0.304066 0.309973 
0.296806 0.301749 0.307103 0.29048 0.294897 0.300163 0.285253 0.289654 0.294429 
0.279999 0.285002 0.28964 0.27409 0.27973 0.284969 0.266903 0.274092 0.280162 
0.26091 0.268677 0.276424 0.281225 0.268511 0.279879 0.300237 0.294768 0.33348 
0.333579 0.368893 0.397465 0.251411 0.256108 0.254474 0.261916 0.264306 0.262754 
0.269187 0.269543 0.271432 0.276142 0.276174 0.277912 0.28228 0.282075 0.283906 
0.288293 0.288015 0.290449 0.294942 0.294306 0.298001 0.302913 0.301212 0.306997 
0.312507 0.309194 0.318164 0.325718 0.318722 0.331679 0.343186 0.329421 0.347051 
0.359606 0.341144 0.332844 0.332294 0.332132 0.329749 0.337469 0.33324 0.330523 
0.329289 0.327237 0.328804 0.361939 0.387616 0.313284 0.320867 0.314894 0.27187 
0.252343 0.268906 0.340878 0.318887 0.332978 0.332983 0.332873 0.333416 0.333563 
0.333523 0.333402 0.333426 0.333436 0.359831 0.292426 0.296555 0.300699 0.345092 
0.354366 0.355487 0.319675 0.330301 0.334667 0.309922 0.36722 0.387909 0.352997 
0.338062 0.351395 0.323909 0.338647 0.338981 0.341661 0.299077 0.312404 0.421879 
0.376812 0.351027 0.383304 0.408249 0.412386 0.356929 0.407394 0.313609 0.333184 
0.333389 0.333544 0.333737 0.333502 0.333889 0.334047 0.333944 0.334149 0.334233 
0.334336 0.334287 0.334304 0.334547 0.334277 0.334233 0.334589 0.334171 0.334058 
0.33446 0.333967 0.33384 0.334236 0.333729 0.333606 0.333925 0.333498 0.33338 
0.33362 0.33328 0.33318 0.33334 0.333095 0.333023 0.333084 0.332976 0.332944 
0.332891 0.332921 0.332908 0.332804 0.332885 0.332885 0.332758 0.332875 0.332888 
0.332732 0.33291 0.332945 0.332758 0.332984 0.333033 0.332845 0.333083 0.333139 
0.332972 0.333197 0.333245 0.333114 0.332841 0.333023 0.333057 0.308604 0.300273 
0.332573 0.33274 0.332639 0.332197 0.34094 0.335513 0.332505 0.3289 0.336237 
0.326564 0.323463 0.33091 0.321488 0.319438 0.326318 0.317834 0.316453 0.322529 
0.315396 0.314612 0.319754 0.31356 0.313167 0.31762 0.312546 0.312409 0.316026 
0.312102 0.312282 0.315219 0.311958 0.312173 0.314596 0.311931 0.312187 0.314053 
0.312107 0.312479 0.313757 0.312414 0.312822 0.313632 0.312768 0.31313 0.313535 
0.313006 0.313298 0.31341 0.313079 0.313155 0.313062 0.312791 0.312784 0.312425 
0.312255 0.312115 0.311509 0.311492 0.311223 0.310349 0.310525 0.310118 0.30907 
0.309303 0.308654 0.307568 0.307976 0.307235 0.306023 0.306734 0.305984 0.304735 
0.3058 0.305103 0.30389 0.30504 0.304457 0.303906 0.304376 0.304002 0.30411 
0.30372 0.304323 0.304064 0.305391 0.306508 0.305422 0.309269 0.310433 0.309655 
0.313013 0.314527 0.314961 0.316729 0.318419 0.319307 0.320339 0.321927 0.322969 
0.323377 0.324733 0.325984 0.325656 0.326932 0.328097 0.327429 0.328499 0.32943 
0.328742 0.329613 0.330184 0.329774 0.330441 0.330693 0.330706 0.3313 0.331238 
0.331505 0.331976 0.332235 0.331765 0.284567 0.273944 0.298092 0.291371 0.29453 
0.333345 0.333303 0.33308 0.332924 0.383326 0.332469 0.332263 0.351315 0.347726 
0.355587 0.351562 0.3516 0.363633 0.323014 0.322304 0.329149 0.328031 0.325011 
0.326687 0.329132 0.331591 0.332679 0.332481 0.3352 0.336311 0.345223 0.332787 
0.34548 0.354939 0.322414 0.327347 0.393361 0.371057 0.353893 0.344676 0.321172 
0.32101 0.321964 0.334856 0.333659 0.33208 0.329928 0.336104 0.328469 0.327678 
0.332406 0.32656 0.324293 0.330192 0.323274 0.323365 0.328552 0.32347 0.324407 
0.327469 0.324394 0.324977 0.327125 0.325024 0.324375 0.32745 0.324247 0.322656 
0.327051 0.32174 0.32211 0.326592 0.322289 0.32332 0.325942 0.32357 0.323974 
0.32616 0.324138 0.324148 0.326777 0.323956 0.323722 0.326804 0.32385 0.323001 
0.326781 0.323365 0.325124 0.327347 0.325553 0.326889 0.328549 0.327947 0.329668 
0.330779 0.331363 0.334448 0.334006 0.336905 0.341548 0.345952 0.338801 0.296817 
0.299347 0.308381 0.312111 0.29365 0.295672 0.300007 0.289398 0.291696 0.296985 
0.285801 0.287961 0.293513 0.286797 0.28625 0.292183 0.297896 0.289431 0.296647 
0.317884 0.312362 0.363709 0.376782 0.352282 0.384197 0.394157 0.274387 0.277254 
0.278639 0.281809 0.282778 0.283842 0.286704 0.286493 0.289176 0.292129 0.290988 
0.295128 0.298363 0.296228 0.301589 0.30526 0.302065 0.309098 0.313586 0.308487 
0.317615 0.3229 0.315813 0.326714 0.332866 0.323588 0.335133 0.340321 0.339147 
0.331292 0.334902 0.337696 0.33711 0.33831 0.337819 0.315335 0.319472 0.320364 
0.314689 0.344991 0.324673 0.323804 0.321679 0.322239 0.326857 0.322608 0.30212 
0.305239 0.308937 0.303628 0.319783 0.311293 0.340118 0.393218 0.394297 0.27408 
0.273765 0.280147 0.282589 0.33329 0.333355 0.333407 0.332908 0.314032 0.333405 
0.332168 0.344577 0.342432 0.33765 0.333429 0.32266 0.311706 0.305817 0.326 
0.325169 0.323271 0.325966 0.327229 0.355489 0.367423 0.331197 0.319582 0.320267 
0.378773 0.379928 0.33891 0.328412 0.358681 0.329853 0.335144 0.332989 0.33325 
0.343531 0.305592 0.36706 0.37788 0.371408 0.331166 0.330298 0.329826 0.328016 
0.326333 0.333253 0.303479 0.300123 0.342422 0.37858 0.301634 0.32648 0.334084 
0.334438 0.334671 0.334941 0.334893 0.335127 0.335245 0.33547 0.335336 0.335277 
0.335811 0.335166 0.335002 0.33575 0.33479 0.334556 0.335324 0.33433 0.334079 
0.334724 0.333862 0.333626 0.334131 0.333411 0.333204 0.333563 0.333021 0.332848 
0.333062 0.332722 0.332632 0.332651 0.332564 0.332534 0.332402 0.332538 0.332516 
0.332332 0.332446 0.332441 0.332264 0.332459 0.332515 0.332223 0.332613 0.332697 
0.332358 0.33274 0.332846 0.332577 0.332992 0.333101 0.332829 0.336257 0.338826 
0.331954 0.331381 0.288351 0.289627 0.332417 0.340231 0.336275 0.335561 0.332488 
0.33687 0.331552 0.328867 0.333822 0.327563 0.325584 0.330908 0.32434 0.322982 
0.328017 0.321891 0.320751 0.325484 0.319284 0.318708 0.322902 0.318528 0.318214 
0.321384 0.317485 0.317143 0.320466 0.316468 0.316199 0.319043 0.315548 0.31543 
0.31776 0.314912 0.314803 0.316593 0.314407 0.314321 0.315727 0.313841 0.313684 
0.314835 0.313083 0.312798 0.313736 0.311977 0.311603 0.312292 0.310643 0.310155 
0.310534 0.309058 0.308568 0.308476 0.307503 0.306972 0.306352 0.305686 0.305032 
0.304096 0.303785 0.303253 0.301678 0.302682 0.302275 0.299847 0.301858 0.301949 
0.298778 0.301742 0.302061 0.303486 0.303734 0.303862 0.314015 0.321456 0.323336 
0.32611 0.327645 0.329335 0.328841 0.330166 0.332759 0.330554 0.331507 0.334132 
0.331542 0.332138 0.33436 0.331762 0.332085 0.33396 0.331736 0.332009 0.333244 
0.331835 0.332163 0.332769 0.324259 0.3272 0.298519 0.29347 0.345122 0.340496 
0.33969 0.341342 0.345834 0.352278 0.317392 0.315123 0.301733 0.303201 0.325333 
0.323886 0.327198 0.330614 0.339389 0.34133 0.343633 0.36205 0.349222 0.32186 
0.322411 0.332796 0.332493 0.342922 0.350411 0.371432 0.374631 0.334829 0.333266 
0.332897 0.332045 0.335808 0.331613 0.330986 0.335023 0.330259 0.329994 0.333886 
0.329628 0.329767 0.332829 0.330016 0.329936 0.33266 0.330173 0.330015 0.333092 
0.329644 0.329246 0.333036 0.328386 0.328328 0.331757 0.329122 0.329331 0.331652 
0.329507 0.329637 0.332534 0.329618 0.32958 0.332661 0.329504 0.329545 0.332619 
0.32974 0.330224 0.332902 0.330642 0.331431 0.333515 0.332077 0.333464 0.334711 
0.334518 0.336422 0.336637 0.298846 0.300209 0.305191 0.304818 0.305635 0.307809 
0.299025 0.298012 0.303112 0.307017 0.302987 0.307066 0.321768 0.321879 0.320746 
0.35459 0.361305 0.347196 0.378294 0.371085 0.373027 0.366083 0.361808 0.366324 
0.360381 0.312477 0.307432 0.3118 0.333438 0.33786 0.329822 0.290076 0.291962 
0.293691 0.293782 0.296041 0.295874 0.297968 0.300727 0.299434 0.303097 0.306049 
0.303411 0.308578 0.312132 0.308218 0.31493 0.318795 0.313494 0.321231 0.325482 
0.324727 0.319357 0.305016 0.339336 0.333377 0.333736 0.334056 0.324211 0.332693 
0.333027 0.333178 0.332363 0.322012 0.318069 0.320374 0.332224 0.337038 0.330272 
0.336962 0.333034 0.332768 0.355576 0.361589 0.341883 0.339272 0.335604 0.335402 
0.329778 0.342711 0.326149 0.322559 0.322329 0.319706 0.332104 0.296108 0.290216 
0.286116 0.296396 0.333169 0.316368 0.309845 0.312717 0.322097 0.322701 0.308061 
0.310937 0.424063 0.51928 0.326522 0.328711 0.331686 0.321479 0.321174 0.343194 
0.339906 0.332641 0.322069 0.318606 0.360153 0.351703 0.331948 0.368706 0.366071 
0.364179 0.346782 0.352322 0.338299 0.322586 0.321988 0.318941 0.31989 0.326212 
0.324655 0.327513 0.314879 0.317932 0.318705 0.314721 0.318796 0.353882 0.337609 
0.3229 0.32429 0.338435 0.337081 0.336413 0.34064 0.328228 0.330788 0.337466 
0.327894 0.286879 0.287369 0.29244 0.291591 0.363725 0.319355 0.339724 0.335167 
0.335716 0.336003 0.336366 0.33639 0.336771 0.336942 0.337436 0.336905 0.336676 
0.337805 0.336284 0.335864 0.337217 0.335353 0.334927 0.336169 0.334619 0.334199 
0.335024 0.333786 0.333405 0.334122 0.333048 0.332722 0.333191 0.332463 0.332258 
0.332431 0.332116 0.33204 0.331942 0.331969 0.332003 0.331706 0.331898 0.553303 
0.519682 0.331831 0.331872 0.331563 0.332006 0.332168 0.331664 0.345873 0.3497 
0.320747 0.320437 0.326448 0.328968 0.336624 0.334937 0.334499 0.33253 0.335962 
0.331808 0.3301 0.334284 0.329094 0.327742 0.331989 0.326366 0.324815 0.329395 
0.324634 0.598186 0.543734 0.323892 0.32308 0.327121 0.321592 0.320873 0.324756 
0.320298 0.319577 0.322686 0.31832 0.317746 0.320646 0.31723 0.316739 0.318942 
0.315982 0.31539 0.317571 0.314443 0.313745 0.315761 0.312586 0.31171 0.313593 
0.310395 0.309462 0.310985 0.307462 0.306464 0.307688 0.298667 0.297464 0.296627 
0.296174 0.332525 0.334479 0.337758 0.338475 0.342186 0.337136 0.33769 0.342486 
0.337468 0.337597 0.341081 0.336319 0.336032 0.339246 0.334902 0.33455 0.336824 
0.337889 0.321807 0.320051 0.333219 0.307077 0.30802 0.345555 0.344947 0.323208 
0.322881 0.362112 0.354437 0.347122 0.348534 0.34975 0.322298 0.330749 0.329506 
0.350293 0.340531 0.340328 0.343243 0.309181 0.31038 0.311911 0.336687 0.33638 
0.338586 0.336372 0.336014 0.338987 0.334852 0.334628 0.337902 0.334628 0.33485 
0.337226 0.335924 0.336205 0.338196 0.336341 0.336083 0.339616 0.334899 0.334094 
0.338523 0.334747 0.618514 0.625079 0.335547 0.33558 0.338074 0.335248 0.335122 
0.338547 0.33478 0.334659 0.337756 0.3348 0.334869 0.337426 0.334961 0.335223 
0.337529 0.33531 0.335941 0.337455 0.336275 0.337367 0.338643 0.337729 0.311317 
0.312365 0.313775 0.339542 0.344405 0.340678 0.332153 0.331528 0.355574 0.354126 
0.35125 0.346693 0.331733 0.335932 0.334655 0.328404 0.348418 0.351513 0.302061 
0.303718 0.308706 0.311035 0.31297 0.315656 0.312338 0.336743 0.333899 0.334556 
0.33518 0.333601 0.359102 0.362424 0.33252 0.301641 0.297234 0.297322 0.302744 
0.328642 0.346277 0.351821 0.353921 0.331066 0.318866 0.317569 0.348237 0.333805 
0.338342 0.335996 0.347565 0.339581 0.348688 0.304965 0.304021 0.332167 0.359801 
0.316076 0.315362 0.334977 0.333783 0.331656 0.31865 0.318694 0.324114 0.325361 
0.344994 0.342171 0.324527 0.323124 0.3219 0.328066 0.326473 0.328877 0.321904 
0.324315 0.323965 0.301072 0.315578 0.317992 0.339982 0.340613 0.340135 0.343504 
0.317563 0.348861 0.35337 0.314681 0.317078 0.357839 0.331412 0.343879 0.316867 
0.322334 0.320569 0.321525 0.313435 0.29883 0.300523 0.336992 0.30451 0.306751 
0.316301 0.31738 0.320304 0.308725 0.350344 0.354018 0.339335 0.339407 0.336904 
0.336122 0.335584 0.630023 0.634034 0.334641 0.333959 0.335686 0.333324 0.332782 
0.333688 0.332251 0.331847 0.332277 0.331536 0.33137 0.331358 0.331363 0.331306 
0.330945 0.332262 0.30377 0.336987 0.335699 0.334835 0.333457 0.33712 0.333237 
0.331571 0.335586 0.637919 0.640939 0.33427 0.338137 0.336935 0.330752 0.329847 
0.327855 0.32622 0.331451 0.325601 0.641153 0.571282 0.323012 0.321582 0.32658 
0.3195 0.318564 0.308065 0.305766 0.337784 0.341093 0.344936 0.341862 0.340835 
0.3387 0.337516 0.34066 0.346784 0.344191 0.356638 0.356919 0.318268 0.316775 
0.325301 0.327662 0.330855 0.340305 0.313371 0.336114 0.353046 0.351038 0.310039 
0.337243 0.311519 0.345369 0.345951 0.333445 0.335627 0.638356 0.636784 0.341252 
0.34197 0.634475 0.633497 0.341587 0.341046 0.345092 0.339806 0.339278 0.343154 
0.338916 0.338595 0.341343 0.338833 0.33844 0.340465 0.336944 0.337422 0.337871 
0.310538 0.34242 0.35727 0.320017 0.318602 0.313329 0.312941 0.314409 0.3146 
0.315201 0.342879 0.340597 0.336676 0.33661 0.338291 0.6295 0.566908 0.330123 
0.338022 0.320896 0.317185 0.316074 0.316163 0.345293 0.325555 0.337786 0.345698 
0.349437 0.330868 0.331201 0.352684 0.321848 0.320109 0.629121 0.58495 0.343556 
0.342414 0.319302 0.67145 0.683181 0.336412 0.338574 0.339531 0.339686 0.340806 
0.342397 0.342688 0.342417 0.380142 0.345786 0.337512 0.318905 0.338424 0.324798 
0.327256 0.316294 0.339307 0.322327 0.334529 0.333364 0.331777 0.338565 0.338879 
0.338156 0.332654 0.331856 0.330794 0.33038 0.330747 0.327454 0.330215 0.329636 
0.331084 0.316291 0.338989 0.338179 0.340304 0.330861 0.329909 0.328593 0.330134 
0.323562 0.325315 0.325597 0.340842 0.344694 0.323124 0.348164 0.347406 0.340101 
0.317873 0.319647 0.32125 0.346513 0.348297 0.342727 0.344832 0.330235 0.330448 
0.349359 0.339496 0.338631 0.334879 0.33389 0.33336 0.338103 0.331802 0.323227 
0.32229 0.340684 0.324846 0.325301 0.342364 0.329521 0.328374 0.337659 0.34338 
0.342597 0.326824 0.328264 0.330285 0.330377 0.330087 0.328601 0.326835 0.333335 
0.333192 0.333208 0.333274 0.333252 0.333114 0.333318 0.333298 0.333247 0.333363 
0.333342 0.333326 0.333417 0.333389 0.333396 0.333434 0.333432 0.333451 0.333433 
0.333429 0.333482 0.333416 0.333428 0.333465 0.333387 0.333405 0.33344 0.333355 
0.333361 0.33339 0.333326 0.333333 0.333345 0.333298 0.333305 0.33331 0.333281 
0.333287 0.333276 0.33328 0.333276 0.333254 0.333279 0.333278 0.33325 0.333285 
0.333278 0.333261 0.333297 0.333291 0.333271 0.333312 0.33331 0.333294 0.333328 
0.333325 0.333315 0.33335 0.333343 0.333342 0.333353 0.333356 0.333373 0.333344 
0.395553 0.378834 0.411923 0.335369 0.355315 0.367846 0.314219 0.3219 0.339245 
0.303621 0.307218 0.319966 0.298986 0.300405 0.310194 0.297258 0.297494 0.305582 
0.296962 0.296507 0.303327 0.298025 0.29703 0.30257 0.299643 0.29843 0.302967 
0.301629 0.300093 0.303719 0.304262 0.302539 0.30507 0.307235 0.305376 0.307055 
0.310315 0.308392 0.309243 0.313107 0.311353 0.311397 0.315684 0.314118 0.313369 
0.317545 0.3164 0.315004 0.318752 0.317961 0.316046 0.318872 0.318706 0.316482 
0.317948 0.318458 0.315935 0.315916 0.317135 0.314684 0.312358 0.314622 0.312627 
0.307845 0.310921 0.310027 0.302636 0.305959 0.306652 0.297996 0.300793 0.302924 
0.296328 0.297194 0.300365 0.298152 0.296965 0.300222 0.302521 0.30001 0.303126 
0.30829 0.305003 0.307586 0.314254 0.310998 0.31279 0.319256 0.316478 0.317622 
0.323568 0.321206 0.321766 0.327141 0.325264 0.325376 0.329696 0.328322 0.328089 
0.331533 0.330634 0.3302 0.332638 0.332141 0.331703 0.364397 0.333497 0.333421 
0.333767 0.333589 0.333564 0.334132 0.333869 0.333761 0.334639 0.334302 0.334001 
0.335338 0.334902 0.334377 0.336374 0.335819 0.33629 0.336254 0.334103 0.334143 
0.33562 0.333192 0.329233 0.332455 0.330876 0.322149 0.326517 0.326748 0.314489 
0.319231 0.321509 0.30729 0.311674 0.316173 0.301995 0.305277 0.311732 0.299149 
0.300855 0.309064 0.299173 0.299194 0.30841 0.302624 0.300656 0.31012 0.310665 
0.307124 0.31589 0.35415 0.339716 0.423126 0.372073 0.369337 0.432235 0.334752 
0.337649 0.311146 0.311237 0.34858 0.297458 0.306325 0.323038 0.292643 0.306856 
0.32934 0.291324 0.292211 0.334365 0.299815 0.290279 0.328169 0.284825 0.284982 
0.31416 0.288108 0.30063 0.313569 0.288472 0.28818 0.328849 0.298777 0.289879 
0.327581 0.287066 0.285332 0.315145 0.287665 0.298938 0.314812 0.287103 0.287054 
0.328271 0.287076 0.287801 0.327142 0.294727 0.287211 0.328575 0.288829 0.294397 
0.322677 0.28978 0.287333 0.327781 0.294272 0.289973 0.327666 0.314573 0.2948 
0.331615 0.327783 0.30472 0.32383 0.400064 0.38271 0.354158 0.332588 0.344802 
0.315078 0.309886 0.327004 0.29882 0.299796 0.313071 0.292328 0.293499 0.303549 
0.287993 0.287279 0.29637 0.281569 0.283674 0.29087 0.277721 0.278232 0.286084 
0.272864 0.273511 0.281523 0.269114 0.26648 0.276494 0.260614 0.25641 0.269578 
0.251568 0.244404 0.260005 0.244231 0.223031 0.247427 0.219803 0.219441 0.247807 
0.375742 0.508788 0.216375 0.182788 0.231767 0.209546 0.234526 0.242232 0.2299 
0.239033 0.252374 0.251916 0.251381 0.263382 0.259876 0.261683 0.268843 0.268573 
0.271238 0.276224 0.276357 0.278252 0.279965 0.280226 0.284264 0.285572 0.286191 
0.290086 0.292761 0.293537 0.297617 0.305678 0.300851 0.305953 0.316654 0.314582 
0.313907 0.356849 0.339489 0.330388 0.418519 0.396837 0.352136 0.382866 0.481 
0.333195 0.333371 0.333003 0.33424 0.335654 0.335151 0.318368 0.326817 0.415522 
0.327853 0.437308 0.558709 0.525619 0.382719 0.333434 0.296152 0.298826 0.325824 
0.287506 0.282105 0.39327 0.393302 0.327527 0.343386 0.332689 0.352354 0.333178 
0.33307 0.332938 0.332761 0.332364 0.332814 0.333639 0.333503 0.333835 0.33374 
0.333842 0.333882 0.33387 0.334076 0.333823 0.333871 0.334122 0.333693 0.333778 
0.334007 0.333531 0.333611 0.333801 0.333363 0.333446 0.333558 0.333214 0.333279 
0.333324 0.333112 0.333152 0.333122 0.333057 0.333079 0.332987 0.333058 0.333048 
0.332928 0.333079 0.333063 0.332932 0.333133 0.333097 0.332982 0.333203 0.33317 
0.333066 0.333281 0.333243 0.333172 0.333377 0.333332 0.333294 0.333448 0.333419 
0.333429 0.328011 0.329666 0.324483 0.332154 0.337817 0.351409 0.338645 0.355256 
0.366284 0.346426 0.35204 0.316216 0.320096 0.327386 0.311756 0.313761 0.320471 
0.309242 0.310264 0.316228 0.308094 0.308196 0.313803 0.307552 0.307278 0.312033 
0.30765 0.307272 0.311011 0.308541 0.307713 0.310782 0.30978 0.308785 0.311065 
0.311137 0.310108 0.311697 0.312434 0.311481 0.312332 0.313652 0.312782 0.312976 
0.314362 0.313763 0.313401 0.314605 0.314234 0.313432 0.31418 0.314238 0.312862 
0.31302 0.313454 0.311701 0.311436 0.312234 0.310125 0.309487 0.310706 0.308495 
0.307624 0.308958 0.307152 0.305401 0.306992 0.30612 0.303338 0.304669 0.304936 
0.302661 0.303022 0.303967 0.304214 0.303597 0.304807 0.307882 0.30651 0.308234 
0.312486 0.310328 0.312773 0.317344 0.314858 0.317384 0.321157 0.319017 0.321316 
0.324468 0.322524 0.324395 0.327255 0.325544 0.32683 0.329218 0.328006 0.328709 
0.330781 0.329858 0.330179 0.331944 0.331333 0.331376 0.332271 0.361796 0.348422 
0.333808 0.333674 0.332692 0.332811 0.334051 0.333837 0.333509 0.312525 0.348491 
0.330404 0.331374 0.343549 0.333879 0.331765 0.332271 0.330875 0.329683 0.32457 
0.326781 0.326057 0.32101 0.32317 0.323709 0.317586 0.319579 0.315455 0.317009 
0.319813 0.315579 0.316243 0.320189 0.31761 0.316867 0.322406 0.32162 0.319146 
0.325455 0.32937 0.323421 0.329501 0.335585 0.411661 0.378476 0.407933 0.436887 
0.375234 0.405521 0.325763 0.333119 0.322048 0.323504 0.333287 0.319405 0.319469 
0.328606 0.314368 0.313817 0.324879 0.313388 0.316688 0.324921 0.317848 0.316993 
0.324829 0.317289 0.317664 0.324048 0.314866 0.313154 0.32459 0.312423 0.316724 
0.324339 0.316388 0.316642 0.324473 0.319035 0.31887 0.323413 0.317635 0.316032 
0.323651 0.314847 0.314879 0.325053 0.316948 0.318838 0.325837 0.32125 0.321627 
0.3265 0.327436 0.322544 0.329227 0.342235 0.326057 0.335956 0.35093 0.383465 
0.366962 0.295023 0.308123 0.32804 0.356281 0.340523 0.328141 0.324193 0.31612 
0.325893 0.312469 0.306823 0.316826 0.303784 0.299072 0.308932 0.29732 0.293133 
0.302333 0.291701 0.28754 0.296734 0.287021 0.282557 0.291593 0.282326 0.27719 
0.286851 0.277169 0.2712 0.282121 0.271921 0.264753 0.277394 0.268692 0.26298 
0.274342 0.264634 0.285526 0.281841 0.284006 0.294425 0.414105 0.429795 0.258265 
0.269666 0.28644 0.269304 0.264407 0.276261 0.270835 0.27543 0.282575 0.277955 
0.281684 0.288488 0.284222 0.287827 0.295076 0.290363 0.293963 0.303018 0.297601 
0.300832 0.312417 0.306447 0.308837 0.328428 0.317303 0.31838 0.344429 0.333276 
0.330235 0.364253 0.348933 0.342844 0.333367 0.333246 0.33318 0.333496 0.355855 
0.342352 0.336984 0.348942 0.257994 0.253253 0.270857 0.262238 0.25806 0.265814 
0.270025 0.343697 0.328182 0.32145 0.344701 0.338811 0.343172 0.364738 0.38166 
0.333534 0.333652 0.331863 0.333148 0.333438 0.333575 0.333502 0.295578 0.312586 
0.334465 0.362944 0.409487 0.392655 0.364274 0.401187 0.343022 0.354113 0.395059 
0.369451 0.393367 0.300843 0.313835 0.310338 0.300609 0.327995 0.333746 0.332891 
0.330523 0.331064 0.334681 0.33474 0.334365 0.334071 0.334415 0.33458 0.335032 
0.334025 0.334232 0.33464 0.333604 0.333819 0.334111 0.333195 0.333396 0.333555 
0.332894 0.333028 0.33305 0.332699 0.332777 0.332678 0.332633 0.332654 0.33247 
0.332669 0.332636 0.332412 0.332768 0.332707 0.332478 0.332927 0.33284 0.332632 
0.333104 0.333022 0.332852 0.333264 0.333168 0.33306 0.322712 0.323415 0.326038 
0.32701 0.33288 0.332627 0.332233 0.279915 0.286714 0.329012 0.333966 0.344982 
0.349813 0.344324 0.339127 0.317908 0.319208 0.315842 0.316746 0.320969 0.314527 
0.314912 0.318822 0.313803 0.313823 0.317153 0.313485 0.313328 0.315987 0.313465 
0.313209 0.315208 0.31347 0.313228 0.314656 0.313461 0.313258 0.314184 0.313157 
0.313136 0.313603 0.312401 0.312586 0.3126 0.311113 0.311482 0.311044 0.309268 
0.309956 0.308909 0.307186 0.307916 0.306311 0.305475 0.306172 0.303777 0.30452 
0.304962 0.302 0.304248 0.304726 0.301814 0.30452 0.304858 0.302964 0.304915 
0.304498 0.303703 0.307032 0.306296 0.305622 0.312178 0.310734 0.310943 0.317452 
0.315456 0.317818 0.32226 0.320315 0.323576 0.325702 0.324094 0.327508 0.327845 
0.326451 0.329665 0.32942 0.328266 0.330697 0.330383 0.32952 0.331225 0.331181 
0.330486 0.331484 0.320718 0.322714 0.323815 0.333153 0.333196 0.332585 0.310721 
0.316331 0.32418 0.325147 0.32194 0.328716 0.327155 0.324523 0.323716 0.330033 
0.321684 0.321864 0.324916 0.332359 0.329933 0.334246 0.351121 0.374212 0.334728 
0.334574 0.334812 0.335155 0.327953 0.329655 0.326394 0.326819 0.326351 0.32662 
0.330098 0.326478 0.326518 0.329894 0.326178 0.326101 0.329752 0.32586 0.326082 
0.329613 0.325484 0.325766 0.32925 0.325599 0.325774 0.3289 0.325869 0.325726 
0.328917 0.326366 0.325845 0.329273 0.327244 0.326785 0.330091 0.329335 0.327978 
0.331302 0.33272 0.33015 0.333313 0.33541 0.339724 0.313663 0.31745 0.393015 
0.397487 0.321832 0.317336 0.314276 0.310482 0.316556 0.307575 0.304755 0.311045 
0.301995 0.299315 0.306005 0.297005 0.294629 0.301404 0.292826 0.290584 0.297413 
0.289324 0.287263 0.294271 0.286592 0.284976 0.292012 0.285443 0.286685 0.291889 
0.288426 0.297998 0.296828 0.302238 0.310396 0.306779 0.287444 0.284202 0.282206 
0.279527 0.287041 0.298807 0.295616 0.30563 0.301867 0.302407 0.314028 0.30927 
0.308928 0.323966 0.317847 0.316409 0.334237 0.32749 0.324585 0.343388 0.337083 
0.332887 0.382778 0.367971 0.32183 0.32228 0.322003 0.322455 0.336306 0.343239 
0.342905 0.336974 0.360291 0.349662 0.342685 0.356263 0.32458 0.327673 0.331446 
0.327537 0.326524 0.327043 0.330839 0.3301 0.325421 0.33268 0.339351 0.329631 
0.324501 0.322311 0.293113 0.29009 0.292012 0.297154 0.334023 0.333704 0.333365 
0.334836 0.33089 0.331925 0.332272 0.325519 0.32746 0.275279 0.286429 0.274724 
0.331994 0.331444 0.331955 0.332499 0.367394 0.383045 0.333406 0.333331 0.328324 
0.3237 0.362848 0.380785 0.381335 0.369695 0.356869 0.328775 0.32963 0.328875 
0.332531 0.336475 0.33571 0.339607 0.335184 0.337433 0.318892 0.325476 0.344296 
0.345588 0.332902 0.315057 0.333896 0.391126 0.37733 0.371879 0.337535 0.33914 
0.334063 0.33647 0.341578 0.319499 0.38196 0.380722 0.298065 0.302579 0.336627 
0.331437 0.328292 0.338834 0.333016 0.333012 0.288369 0.295911 0.283798 0.278269 
0.276155 0.371821 0.366533 0.359669 0.305594 0.313454 0.299952 0.293907 0.345544 
0.337971 0.335646 0.3359 0.333386 0.333798 0.33274 0.333049 0.333197 0.332273 
0.332469 0.332417 0.332047 0.332124 0.331914 0.332054 0.332036 0.331732 0.332203 
0.332111 0.331789 0.332441 0.3323 0.331993 0.332798 0.332636 0.332365 0.323479 
0.324274 0.31948 0.321367 0.319776 0.320584 0.321815 0.322916 0.324069 0.324102 
0.325571 0.326599 0.318235 0.318807 0.32181 0.316992 0.317386 0.319925 0.315953 
0.316307 0.318334 0.314894 0.315258 0.316838 0.313595 0.314118 0.315275 0.311917 
0.312633 0.313447 0.309557 0.310457 0.310916 0.306619 0.307712 0.307496 0.303425 
0.304682 0.303578 0.299825 0.300796 0.299017 0.297631 0.297344 0.314899 0.323872 
0.321065 0.324617 0.328331 0.325796 0.331166 0.333512 0.332174 0.336019 0.333633 
0.332786 0.337861 0.333723 0.333182 0.33663 0.333221 0.332998 0.335424 0.332785 
0.332643 0.334254 0.350495 0.362095 0.326571 0.328591 0.32906 0.326997 0.333056 
0.333106 0.334987 0.335375 0.336012 0.31892 0.319397 0.335864 0.333187 0.362424 
0.319605 0.316663 0.324823 0.327944 0.339692 0.337448 0.341475 0.327858 0.325965 
0.324137 0.321228 0.32022 0.332871 0.332941 0.336417 0.333124 0.335195 0.345569 
0.333117 0.333137 0.336627 0.332702 0.332742 0.336306 0.332105 0.332365 0.335896 
0.33181 0.331923 0.335373 0.33178 0.331793 0.335093 0.332029 0.331858 0.335084 
0.332632 0.332168 0.335321 0.333657 0.332958 0.335843 0.335716 0.334372 0.336789 
0.299975 0.316171 0.318496 0.376987 0.375169 0.333515 0.336043 0.332749 0.315111 
0.312473 0.316398 0.31067 0.308233 0.313064 0.3063 0.304219 0.309655 0.302396 
0.300713 0.306129 0.30018 0.299226 0.303946 0.299498 0.299065 0.303731 0.297863 
0.29924 0.303768 0.299659 0.304798 0.305117 0.308841 0.313335 0.317976 0.311618 
0.312718 0.309203 0.306489 0.303569 0.308945 0.326538 0.322238 0.332956 0.328973 
0.326264 0.30429 0.339302 0.321603 0.322502 0.319635 0.315514 0.320178 0.292556 
0.290609 0.334187 0.334591 0.335137 0.334134 0.333698 0.292084 0.298354 0.29869 
0.287941 0.336593 0.336046 0.335991 0.28177 0.339378 0.341981 0.33921 0.323056 
0.324927 0.335606 0.338512 0.338447 0.320151 0.329739 0.330747 0.322351 0.322391 
0.336934 0.341267 0.336343 0.332449 0.325945 0.29463 0.30132 0.303947 0.302902 
0.353382 0.360555 0.332467 0.333491 0.332729 0.331876 0.329916 0.332528 0.31734 
0.320891 0.332783 0.331551 0.318812 0.320318 0.332196 0.332703 0.333745 0.353506 
0.344534 0.362117 0.353457 0.344273 0.331697 0.326976 0.328246 0.328452 0.336739 
0.339133 0.338353 0.335823 0.33536 0.336543 0.327628 0.330423 0.328804 0.297522 
0.294772 0.296901 0.3356 0.33218 0.332349 0.32535 0.32572 0.32325 0.366302 
0.365575 0.357742 0.334032 0.338379 0.322484 0.337294 0.321566 0.335541 0.334744 
0.334048 0.372244 0.314279 0.368051 0.367307 0.35508 0.34655 0.340207 0.326141 
0.340433 0.338782 0.340805 0.342759 0.324091 0.361277 0.30521 0.30233 0.300025 
0.332879 0.35144 0.332714 0.33328 0.331184 0.331162 0.33145 0.331332 0.330773 
0.321557 0.322551 0.326152 0.327592 0.320915 0.322021 0.337127 0.324642 0.322731 
0.357572 0.353319 0.332898 0.323701 0.324839 0.327985 0.325346 0.328902 0.330411 
0.330844 0.319728 0.320553 0.323077 0.31778 0.318663 0.320866 0.315592 0.316599 
0.318443 0.313042 0.314286 0.315849 0.309751 0.311356 0.312715 0.304905 0.306795 
0.295353 0.298078 0.330648 0.330422 0.331196 0.340006 0.337441 0.335223 0.341767 
0.342825 0.339771 0.340142 0.344021 0.33732 0.337872 0.340735 0.335375 0.335976 
0.337708 0.334587 0.330221 0.336638 0.3372 0.339432 0.339361 0.350722 0.344233 
0.34769 0.288884 0.339029 0.338997 0.342572 0.347812 0.345337 0.363285 0.320937 
0.319191 0.321365 0.338877 0.339129 0.342862 0.325476 0.339561 0.339425 0.342247 
0.291169 0.327831 0.331299 0.33269 0.333346 0.338109 0.338387 0.342106 0.337498 
0.337693 0.341132 0.337167 0.337296 0.340249 0.33709 0.337188 0.339828 0.336841 
0.336931 0.339282 0.337036 0.336742 0.338316 0.365562 0.363636 0.366206 0.36865 
0.362632 0.357872 0.341367 0.34239 0.331293 0.331507 0.330768 0.331866 0.332259 
0.331318 0.290315 0.313684 0.311879 0.310232 0.308462 0.313148 0.307817 0.307557 
0.310847 0.308663 0.309358 0.311659 0.311155 0.308541 0.333073 0.345772 0.34525 
0.349889 0.3265 0.323644 0.313573 0.316385 0.321654 0.318622 0.321743 0.325404 
0.335508 0.337557 0.338455 0.321635 0.33222 0.331731 0.331572 0.321415 0.323271 
0.324814 0.330119 0.358065 0.353463 0.337835 0.333472 0.300474 0.302432 0.342341 
0.347329 0.337445 0.337732 0.338037 0.335715 0.328466 0.326838 0.324765 0.334455 
0.335597 0.339176 0.334866 0.3451 0.334018 0.33299 0.334784 0.334808 0.33665 
0.338439 0.339106 0.354929 0.329385 0.329882 0.330008 0.338058 0.337684 0.339027 
0.345389 0.334412 0.301559 0.310031 0.358747 0.333554 0.333929 0.334599 0.346323 
0.338127 0.331325 0.328494 0.325986 0.330673 0.317842 0.314533 0.315586 0.31629 
0.313573 0.312488 0.31465 0.316402 0.309613 0.311517 0.318172 0.352338 0.317056 
0.318523 0.319527 0.337217 0.349277 0.348131 0.353426 0.355099 0.318237 0.314374 
0.335284 0.336 0.335298 0.336923 0.350354 0.347715 0.322126 0.323345 0.331865 
0.324713 0.325904 0.326383 0.307609 0.339581 0.347044 0.336536 0.352619 0.348802 
0.343394 0.343975 0.337302 0.338531 0.335711 0.336821 0.341709 0.342261 0.345625 
0.341176 0.341737 0.343843 0.339576 0.34042 0.342492 0.337506 0.338481 0.339951 
0.337066 0.33057 0.331122 0.331491 0.329653 0.358098 0.346362 0.342151 0.343604 
0.316359 0.315716 0.317305 0.318678 0.35718 0.354713 0.319593 0.318394 0.332419 
0.333973 0.337248 0.314786 0.345679 0.345762 0.344153 0.344684 0.348305 0.347023 
0.322697 0.320585 0.319398 0.32147 0.320527 0.323192 0.331458 0.326673 0.327941 
0.328614 0.330939 0.332382 0.352469 0.353793 0.319117 0.359306 0.354892 0.345245 
0.347765 0.341965 0.343654 0.346891 0.341215 0.342912 0.331023 0.328396 0.33567 
0.337022 0.334635 0.334711 0.336467 0.339675 0.334488 0.329899 0.331386 0.334454 
0.331283 0.351493 0.35145 0.345171 0.344505 0.327756 0.324315 0.317587 0.338413 
0.338457 0.315892 0.358432 0.328121 0.329026 0.329336 0.326706 0.347371 0.328866 
0.326224 0.314315 0.313734 0.348448 0.35105 0.325147 0.330421 0.352166 0.331325 
0.328772 0.331327 0.340535 0.34317 0.32659 0.324067 0.339526 0.339816 0.340162 
0.333342 0.333813 0.340045 0.332294 0.346363 0.347818 0.349739 0.341943 0.34367 
0.342463 0.342906 0.333627 0.334089 0.335508 0.337367 0.3458 0.338044 0.341392 
0.346132 0.344699 0.348709 0.339778 0.35018 0.322987 0.337256 0.334099 0.351397 
0.338469 0.333313 0.657497 0.429293 0.333327 0.333392 0.333524 0.33371 0.333944 
0.334224 0.334557 0.334918 0.335371 0.335867 0.28697 0.288122 0.290066 0.295098 
0.298955 0.307152 0.31868 0.334643 0.368422 0.286883 0.287296 0.336478 0.337092 
0.317264 0.311757 0.306161 0.301188 0.288598 0.337804 0.322994 0.338562 0.339203 
0.339499 0.339221 0.337933 0.335609 0.332241 0.327899 0.296342 0.292996 0.290392 
0.657256 0.333434 0.333465 0.428004 0.378693 0.341494 0.321897 0.311806 0.305205 
0.299405 0.295688 0.292475 0.291368 0.28961 0.28915 0.289335 0.291179 0.292288 
0.293256 0.294486 0.296877 0.29847 0.299918 0.301744 0.306714 0.308717 0.311827 
0.313624 0.315042 0.3167 0.317894 0.319169 0.320151 0.321067 0.321873 0.321963 
0.321795 0.321297 0.320588 0.31942 0.318126 0.316005 0.311383 0.307952 0.304917 
0.301212 0.298088 0.294753 0.292612 0.291202 0.29146 0.293333 0.295781 0.298763 
0.301594 0.305179 0.308389 0.311833 0.314517 0.317406 0.319778 0.322243 0.32572 
0.327487 0.328713 0.330044 0.33097 0.331914 0.332475 0.333065 0.333299 0.333491 
0.289689 0.290357 0.303184 0.305134 0.289378 0.295684 0.310235 0.321486 0.313679 
0.291025 0.323938 0.333298 0.333325 0.333328 0.333313 0.333369 0.333383 0.333364 
0.333343 0.333339 0.333319 0.33331 0.333301 0.333315 0.333259 0.333274 0.333268 
0.333258 0.333316 0.333288 0.33331 0.333327 0.333306 0.333319 0.333327 0.333332 
0.333328 0.33334 0.333345 0.333336 0.333366 0.333359 0.333356 0.333363 0.333333 
0.333348 0.333342 0.333332 0.333345 0.333338 0.333334 0.333331 0.333332 0.333326 
0.333329 0.333322 0.33336 0.333315 0.333306 0.333342 0.333343 0.722533 0.831207 
0.867434 0.881218 0.925769 0.939863 0.959722 0.977978 0.990699 1.00208 1.01119 
1.0159 1.01226 1.02215 1.01498 1.01751 1.0103 1.01285 0.989438 0.969277 
0.972031 0.932961 0.92422 0.844938 0.813229 0.9411 0.669707 0.805219 0.859155 
0.87342 0.932937 0.923485 0.972303 0.968005 0.996595 0.985749 1.01162 1.00176 
1.01602 1.01999 1.0172 1.01718 1.00087 1.01197 0.996056 0.998835 0.955286 
0.969897 0.876301 0.934244 0.762945 0.896416 0.84712 0.447954 0.250264 0.651257 
0.372897 0.496435 0.412006 0.563528 0.54289 0.594242 0.519574 0.60423 0.622256 
0.613282 0.562334 0.628167 0.636861 0.633332 0.639095 0.637909 0.57226 0.639941 
0.637514 0.640463 0.636314 0.63986 0.672239 0.660584 0.577666 0.480045 0.289909 
0.938008 0.786589 0.850633 0.642723 0.748871 0.908681 0.887123 0.987472 0.995959 
0.978547 0.990254 0.993442 0.982997 0.96922 0.675884 0.973647 0.963604 0.997842 
0.901309 0.942049 0.95571 0.918241 0.835609 0.858431 0.996493 0.983939 0.333049 
0.333154 0.333068 0.333174 0.333272 0.333276 0.333307 0.262728 0.332819 0.333057 
0.332659 0.332984 0.27443 0.281009 0.274469 0.254308 0.324472 0.327691 0.324877 
0.322366 0.319197 0.315049 0.360773 0.356883 0.359993 0.310021 0.311386 0.312649 
0.367147 0.351508 0.352718 0.3333 0.333343 0.333303 0.285982 0.333215 0.294492 
0.333384 0.333369 0.33341 0.314819 0.321776 0.333917 0.333734 0.334068 0.32207 
0.322761 0.316512 0.276952 0.302549 0.333326 0.332688 0.33243 0.332376 0.332121 
0.359644 0.342398 0.360879 0.352393 0.330927 0.330112 0.333999 0.333147 0.329046 
0.330135 0.329916 0.33988 0.341848 0.341346 0.342724 0.311934 0.32915 0.318001 
0.337903 0.326101 0.322312 0.3275 0.323356 0.290635 0.287473 0.292271 0.327973 
0.327929 0.330779 0.324322 0.317696 0.322926 0.289241 0.294441 0.284677 0.326297 
0.325033 0.324719 0.323062 0.332619 0.332668 0.3328 0.339034 0.343289 0.337295 
0.342639 0.289415 0.294005 0.291789 0.296726 0.333303 0.333278 0.33331 0.333267 
0.334647 0.334597 0.33534 0.300887 0.299737 0.296624 0.330459 0.332434 0.329396 
0.286967 0.315931 0.314433 0.314432 0.334962 0.33549 0.335604 0.348953 0.365733 
0.344537 0.333394 0.333531 0.333627 0.33386 0.33859 0.338185 0.337353 0.311265 
0.310931 0.312893 0.312608 0.304419 0.302264 0.306989 0.305376 0.306425 0.31138 
0.30896 0.316687 0.333299 0.415898 0.379337 0.55258 0.417304 0.374562 0.367107 
0.366223 0.357789 0.33348 0.333667 0.333551 0.33331 0.321026 0.3262 0.569962 
0.447463 0.452951 0.329374 0.31439 0.314736 0.312634 0.304824 0.308058 0.304216 
0.307324 0.33328 0.333375 0.333326 0.436199 0.433125 0.414088 0.326963 0.324103 
0.328371 0.333214 0.333341 0.333462 0.2972 0.327321 0.327579 0.330569 0.316538 
0.31663 0.318855 0.316188 0.317592 0.312859 0.31351 0.332772 0.336934 0.334334 
0.336433 0.334753 0.320148 0.322454 0.320855 0.322932 0.329371 0.333302 0.331728 
0.337713 0.306178 0.307265 0.308918 0.333735 0.334014 0.333708 0.334014 0.337345 
0.338165 0.348008 0.344856 0.35763 0.325163 0.315248 0.319632 0.31986 0.322027 
0.322528 0.324263 0.309267 0.308729 0.3102 0.309028 0.313698 0.307498 0.295305 
0.302649 0.333236 0.333131 0.333203 0.333441 0.335583 0.343609 0.338861 0.292312 
0.303165 0.303242 0.300761 0.382494 0.360376 0.377074 0.334264 0.334063 0.334448 
0.307157 0.308528 0.307893 0.328439 0.330644 0.332075 0.309981 0.310431 0.313313 
0.313594 0.325091 0.323647 0.319323 0.319622 0.322274 0.297354 0.29471 0.294126 
0.331901 0.331669 0.331851 0.282069 0.275644 0.284309 0.331051 0.334213 0.333535 
0.333522 0.333948 0.336346 0.334917 0.335412 0.333838 0.333521 0.334238 0.333912 
0.333222 0.333361 0.269191 0.265376 0.333226 0.301797 0.301751 0.307263 0.3359 
0.337007 0.334245 0.335515 0.305701 0.309772 0.310719 0.311036 0.311911 0.336564 
0.342665 0.320276 0.319631 0.321321 0.308699 0.301048 0.299578 0.32206 0.334966 
0.3376 0.31866 0.317659 0.334309 0.334643 0.337789 0.306929 0.316424 0.3216 
0.314666 0.313158 0.312774 0.311428 0.334434 0.318207 0.316172 0.316742 0.332457 
0.333041 0.332771 0.333391 0.333674 0.327498 0.3291 0.328848 0.299605 0.313218 
0.332798 0.332916 0.332661 0.33213 0.33274 0.30983 0.310959 0.308638 0.336023 
0.33457 0.331824 0.301176 0.304828 0.292495 0.322056 0.323701 0.321094 0.33319 
0.340954 0.346606 0.34363 0.298974 0.33398 0.301858 0.3235 0.322156 0.321627 
0.301451 0.305753 0.305298 0.314895 0.315514 0.309766 0.328356 0.325048 0.328409 
0.337251 0.343618 0.304965 0.307425 0.305606 0.306393 0.337637 0.342761 0.349073 
0.333155 0.333239 0.332992 0.33319 0.313017 0.305049 0.311028 0.303884 0.322155 
0.322955 0.324397 0.331051 0.328398 0.331075 0.328467 0.324806 0.333318 0.33332 
0.308907 0.333246 0.333259 0.333153 0.334486 0.338537 0.327679 0.32881 0.326468 
0.32275 0.326949 0.320358 0.3333 0.333284 0.3332 0.307245 0.313582 0.314051 
0.313629 0.315869 0.317876 0.316428 0.290191 0.333328 0.333316 0.337049 0.33802 
0.338168 0.334919 0.335471 0.293038 0.291888 0.334173 0.335858 0.319046 0.312819 
0.322597 0.330858 0.331227 0.330678 0.295404 0.289575 0.291772 0.333147 0.33325 
0.333137 0.335455 0.335282 0.336043 0.330786 0.321914 0.32953 0.261044 0.322231 
0.323509 0.325395 0.326779 0.329822 0.332906 0.322844 0.33619 0.336469 0.337737 
0.338166 0.340368 0.338815 0.336089 0.338506 0.337076 0.34092 0.34282 0.337335 
0.336331 0.321583 0.327371 0.329436 0.346999 0.326542 0.341582 0.334362 0.328157 
0.325474 0.329813 0.331725 0.335433 0.33225 0.332606 0.333555 0.305326 0.301788 
0.304403 0.302736 0.301891 0.298648 0.332178 0.332015 0.332405 0.339697 0.340523 
0.338142 0.339232 0.25812 0.267577 0.266535 0.275916 0.311782 0.310285 0.312608 
0.352123 0.355824 0.353633 0.309332 0.302712 0.308151 0.33785 0.339081 0.339104 
0.263365 0.310627 0.345268 0.343303 0.347073 0.323944 0.310816 0.309792 0.291993 
0.297801 0.29213 0.352069 0.353807 0.346432 0.302562 0.300499 0.30336 0.302182 
0.334568 0.334111 0.32773 0.325573 0.32515 0.311033 0.319072 0.309533 0.305146 
0.303735 0.306273 0.318845 0.321024 0.320176 0.358048 0.363073 0.352477 0.354248 
0.364201 0.368899 0.287367 0.286836 0.358126 0.366931 0.343668 0.34863 0.332071 
0.331903 0.331509 0.319858 0.320029 0.321702 0.333354 0.333414 0.333415 0.29589 
0.299348 0.29077 0.294426 0.323704 0.319995 0.321707 0.333559 0.333685 0.333487 
0.333594 0.379292 0.373066 0.366009 0.336608 0.340848 0.343716 0.349599 0.356825 
0.351948 0.33359 0.333645 0.333429 0.333496 0.316334 0.308772 0.306154 0.306417 
0.307838 0.360937 0.359069 0.332666 0.329979 0.331524 0.333567 0.277052 0.312902 
0.315503 0.312036 0.314747 0.303099 0.315463 0.315526 0.320481 0.299235 0.296052 
0.301084 0.361849 0.366898 0.365174 0.287031 0.290158 0.289295 0.333186 0.344932 
0.347568 0.306054 0.355659 0.327551 0.325605 0.326785 0.325051 0.319392 0.320856 
0.319731 0.319041 0.332193 0.332713 0.331713 0.332259 0.336344 0.333862 0.31321 
0.313347 0.306016 0.333591 0.334408 0.333269 0.333958 0.286699 0.292747 0.333351 
0.333329 0.288578 0.322178 0.32954 0.33341 0.332585 0.332762 0.332533 0.332874 
0.333365 0.333383 0.333346 0.333276 0.331213 0.337457 0.336426 0.331519 0.285273 
0.333308 0.304873 0.303915 0.300224 0.31992 0.318394 0.31441 0.333878 0.306553 
0.301961 0.306161 0.354675 0.3573 0.351401 0.354298 0.312065 0.316717 0.315414 
0.333346 0.333344 0.314987 0.313946 0.313812 0.326133 0.326838 0.295217 0.316877 
0.317435 0.318797 0.322413 0.315953 0.319229 0.337802 0.338302 0.338059 0.332989 
0.334425 0.311461 0.310703 0.312661 0.333479 0.333727 0.333491 0.311343 0.309756 
0.313467 0.333342 0.317183 0.3139 0.329838 0.328556 0.330646 0.333109 0.331286 
0.329468 0.327773 0.318468 0.315872 0.31503 0.303861 0.319165 0.319077 0.31681 
0.316578 0.310426 0.308676 0.344541 0.349952 0.351357 0.313474 0.313524 0.312557 
0.337147 0.337682 0.336292 0.30442 0.305114 0.30437 0.304861 0.314422 0.297448 
0.280949 0.288235 0.312069 0.32991 0.291962 0.333642 0.331959 0.335341 0.334458 
0.342502 0.34037 0.284092 0.268596 0.263481 0.240941 0.32536 0.3236 0.3411 
0.342954 0.285731 0.366603 0.372638 0.370321 0.321947 0.322088 0.321231 0.327517 
0.32946 0.32615 0.365822 0.372476 0.332812 0.349742 0.33208 0.332488 0.332311 
0.333048 0.332968 0.332654 0.327233 0.32776 0.325419 0.296379 0.30124 0.295759 
0.299993 0.319295 0.318532 0.318158 0.317396 0.316341 0.323485 0.321996 0.297768 
0.310647 0.327966 0.294242 0.295742 0.290283 0.328756 0.330972 0.329552 0.316066 
0.383124 0.319558 0.322005 0.321762 0.328633 0.320562 0.340458 0.338325 0.439706 
0.407602 0.311769 0.318481 0.330737 0.342193 0.342247 0.336861 0.336988 0.328226 
0.331257 0.364606 0.357488 0.32333 0.332738 0.282683 0.213558 0.258801 0.209005 
0.334292 0.316688 0.328165 0.33095 0.331971 0.333696 0.336887 0.341103 0.327774 
0.33087 0.325176 0.32318 0.32576 0.323026 0.324366 0.325241 0.325842 0.447095 
0.408929 0.407818 0.308319 0.311291 0.329743 0.329453 0.328899 0.323792 0.324403 
0.324365 0.325621 0.328524 0.323101 0.319127 0.33297 0.333145 0.295336 0.242684 
0.280064 0.264041 0.396348 0.569403 0.230353 0.219171 0.322783 0.3242 0.325956 
0.32531 0.327777 0.326645 0.334694 0.334437 0.335389 0.304822 0.308847 0.302753 
0.298658 0.330181 0.326327 0.33079 0.307483 0.302808 0.325707 0.323585 0.332288 
0.315601 0.309458 0.33467 0.335329 0.335024 0.335815 0.323759 0.32394 0.32259 
0.322424 0.320546 0.333339 0.336719 0.339803 0.338757 0.337784 0.339214 0.307667 
0.310141 0.307985 0.310358 0.31729 0.319106 0.3173 0.305861 0.304888 0.32969 
0.326526 0.334429 0.334665 0.33418 0.296851 0.299493 0.313123 0.312983 0.312953 
0.334053 0.334446 0.334396 0.333366 0.333336 0.333365 0.301615 0.290739 0.297505 
0.300908 0.317868 0.315758 0.313156 0.31112 0.300818 0.333501 0.307356 0.313036 
0.302321 0.308843 0.333308 0.333014 0.333276 0.333373 0.327473 0.32566 0.326522 
0.332498 0.332716 0.302027 0.307562 0.30649 0.283772 0.281972 0.286948 0.332931 
0.333049 0.332889 0.343422 0.346952 0.313519 0.316025 0.333258 0.321206 0.30351 
0.305399 0.30396 0.298572 0.30176 0.303374 0.312317 0.333246 0.333146 0.333167 
0.325376 0.323209 0.350306 0.3041 0.304616 0.304109 0.296565 0.313017 0.315945 
0.316812 0.315402 0.313616 0.314179 0.31459 0.316158 0.333358 0.333334 0.25414 
0.324897 0.330543 0.331495 0.33127 0.327825 0.328378 0.326183 0.326678 0.346738 
0.332557 0.332573 0.332801 0.332832 0.323545 0.302295 0.333654 0.33519 0.316442 
0.317034 0.318738 0.302189 0.315919 0.318082 0.32061 0.317069 0.320005 0.309994 
0.331257 0.331592 0.330834 0.331101 0.311313 0.315979 0.440409 0.441406 0.310998 
0.30999 0.312183 0.332754 0.33363 0.333415 0.333765 0.309416 0.333387 0.3334 
0.331451 0.33204 0.333903 0.334491 0.332514 0.334174 0.383325 0.397858 0.430921 
0.276048 0.279866 0.278898 0.322443 0.319043 0.326635 0.313259 0.333291 0.333276 
0.333309 0.276159 0.311497 0.281555 0.339882 0.301101 0.325877 0.344441 0.329564 
0.35361 0.344938 0.353164 0.330555 0.327624 0.33313 0.332977 0.333092 0.320024 
0.316574 0.333862 0.337033 0.33587 0.337097 0.316859 0.321255 0.316083 0.334238 
0.31834 0.281539 0.283378 0.347349 0.341131 0.330167 0.329366 0.330284 0.326989 
0.327202 0.28467 0.287921 0.28516 0.329203 0.268786 0.251792 0.266266 0.308455 
0.302273 0.331924 0.331839 0.332349 0.300561 0.338218 0.292965 0.295774 0.302326 
0.331101 0.331354 0.331743 0.332086 0.336032 0.377482 0.406633 0.374273 0.333498 
0.333706 0.298238 0.2952 0.29966 0.361589 0.365032 0.338827 0.342926 0.336885 
0.340974 0.336463 0.337837 0.335093 0.33637 0.333472 0.333586 0.325069 0.321954 
0.323282 0.320178 0.343332 0.342454 0.343606 0.34328 0.346194 0.312335 0.310872 
0.308987 0.307075 0.310584 0.336827 0.335832 0.323145 0.324747 0.318802 0.336176 
0.297916 0.299416 0.307057 0.332894 0.334792 0.314958 0.316075 0.350445 0.351251 
0.265501 0.270212 0.273123 0.315994 0.331973 0.332305 0.332158 0.331827 0.331577 
0.333758 0.308868 0.304289 0.304039 0.335203 0.330331 0.335503 0.331282 0.329429 
0.330146 0.33226 0.333194 0.28326 0.289919 0.285358 0.335009 0.335375 0.334718 
0.327784 0.32536 0.310563 0.308811 0.32771 0.333293 0.33331 0.333289 0.322231 
0.321339 0.322247 0.334326 0.331323 0.299108 0.305829 0.312319 0.333248 0.334552 
0.28371 0.335371 0.336406 0.293987 0.333304 0.320793 0.318826 0.320932 0.328129 
0.333398 0.283625 0.33473 0.317801 0.310175 0.311691 0.318404 0.324436 0.327459 
0.328094 0.347327 0.347351 0.37364 0.336762 0.339246 0.33936 0.34202 0.344199 
0.346513 0.301906 0.333787 0.336337 0.333585 0.35214 0.522553 0.364403 0.305576 
0.305548 0.307469 0.304564 0.304174 0.333912 0.278989 0.303975 0.292328 0.29885 
0.313993 0.317072 0.333095 0.335299 0.302712 0.303199 0.299258 0.303703 0.328532 
0.326878 0.2782 0.275712 0.270747 0.333318 0.33081 0.330936 0.333458 0.334089 
0.333806 0.333286 0.333309 0.333317 0.30648 0.333122 0.329694 0.33062 0.330356 
0.298599 0.302231 0.328357 0.309973 0.306296 0.306455 0.325866 0.323741 0.328649 
0.314198 0.30959 0.308037 0.338847 0.340044 0.325554 0.328762 0.326046 0.319727 
0.316771 0.314543 0.324838 0.323761 0.323928 0.335269 0.337166 0.336963 0.296067 
0.339344 0.332826 0.335021 0.336762 0.333773 0.333793 0.322557 0.318279 0.316365 
0.318163 0.31718 0.319009 0.33396 0.33446 0.33035 0.329753 0.326469 0.339605 
0.33709 0.339906 0.32764 0.331854 0.33457 0.328855 0.333405 0.359061 0.333255 
0.333178 0.306116 0.301527 0.323602 0.314538 0.307718 0.312773 0.218233 0.236692 
0.324953 0.336988 0.337694 0.340838 0.341643 0.327273 0.320857 0.339484 0.386463 
0.393675 0.379128 0.279125 0.281557 0.274074 0.308938 0.3342 0.249849 0.314797 
0.32069 0.32801 0.331408 0.330139 0.322771 0.321757 0.314038 0.288149 0.288039 
0.291315 0.333277 0.333316 0.333202 0.333266 0.293236 0.30471 0.309298 0.319612 
0.333343 0.33342 0.333419 0.244326 0.330372 0.332891 0.297274 0.298454 0.363261 
0.293742 0.329816 0.32723 0.282007 0.334749 0.334105 0.3341 0.334385 0.333747 
0.333906 0.330664 0.331374 0.330914 0.340609 0.335921 0.329986 0.330805 0.331596 
0.331687 0.331939 0.333498 0.292033 0.333138 0.333067 0.333248 0.332802 0.332552 
0.332557 0.323182 0.327467 0.330996 0.311827 0.312578 0.319139 0.34718 0.317414 
0.359183 0.349071 0.332854 0.331121 0.311993 0.31485 0.313991 0.315262 0.312845 
0.314073 0.336458 0.316148 0.316868 0.33343 0.333347 0.314353 0.316434 0.318176 
0.319297 0.317969 0.345913 0.334819 0.341961 0.336108 0.334509 0.331578 0.332392 
0.333119 0.33292 0.333569 0.333463 0.333453 0.333632 0.313702 0.31427 0.313616 
0.347795 0.38044 0.331469 0.337792 0.318746 0.317836 0.336127 0.341649 0.340002 
0.335625 0.332979 0.323102 0.31264 0.334927 0.345775 0.355144 0.32689 0.34546 
0.33642 0.33376 0.334033 0.333337 0.329353 0.322096 0.320986 0.332044 0.330481 
0.331164 0.330031 0.334658 0.332813 0.332996 0.334057 0.33388 0.335135 0.33658 
0.33335 0.349237 0.332096 0.32677 0.324861 0.327033 0.309392 0.310397 0.327733 
0.330657 0.330603 0.333609 0.333772 0.338361 0.336067 0.338961 0.339593 0.337605 
0.37762 0.311631 0.313435 0.312564 0.312995 0.265104 0.257716 0.344985 0.320178 
0.342577 0.39132 0.374984 0.283501 0.276865 0.336647 0.33725 0.337105 0.335692 
0.335023 0.334769 0.328026 0.333274 0.315667 0.333841 0.318018 0.333077 0.334324 
0.333291 0.336409 0.336203 0.335955 0.31999 0.318166 0.34078 0.342889 0.314858 
0.3214 0.322862 0.323229 0.33322 0.352046 0.347588 0.309299 0.305148 0.307439 
0.416617 0.337073 0.293987 0.333333 0.332439 0.304174 0.380319 0.380225 0.332462 
0.332756 0.317347 0.333362 0.335887 0.333035 0.332994 0.340056 0.342284 0.334436 
0.33123 0.334609 0.31698 0.322183 0.32959 0.328715 0.324969 0.304441 0.303883 
0.326518 0.329482 0.330629 0.330335 0.33417 0.33541 0.322111 0.296767 0.290256 
0.341007 0.344184 0.341224 0.340978 0.34047 0.335617 0.357007 0.353245 0.339122 
0.336025 0.337419 0.337742 0.282321 0.331671 0.331253 0.331402 0.281189 0.330884 
0.334486 0.340643 0.341086 0.324526 0.316848 0.316045 0.303001 0.296085 0.33538 
0.332329 0.33524 0.332274 0.319859 0.326973 0.317934 0.323915 0.29707 0.32461 
0.343325 0.330696 0.330098 0.331217 0.329347 0.307057 0.312724 0.312037 0.315445 
0.314463 0.332997 0.333136 0.332995 0.308806 0.306769 0.308711 0.342396 0.313478 
0.335778 0.335222 0.334885 0.311577 0.312287 0.333438 0.333482 0.333367 0.333547 
0.331719 0.326039 0.320857 0.323431 0.294581 0.300932 0.303745 0.286703 0.299266 
0.301702 0.303552 0.303475 0.271783 0.2687 0.332295 0.333449 0.332173 0.33114 
0.338171 0.334445 0.33132 0.329953 0.318498 0.31661 0.318423 0.32483 0.323074 
0.328565 0.326659 0.37634 0.376214 0.331912 0.336062 0.344133 0.342688 0.341919 
0.340292 0.328537 0.335713 0.33855 0.338995 0.331926 0.33134 0.333055 0.328412 
0.335085 0.334575 0.336293 0.336595 0.336086 0.336829 0.33301 0.332849 0.332011 
0.332025 0.332355 0.323516 0.326449 0.376467 0.383763 0.332606 0.314952 0.317615 
0.315413 0.318212 0.333273 0.320443 0.327691 0.326593 0.327727 0.337496 0.340142 
0.33196 0.314984 0.31468 0.326814 0.328012 0.315938 0.299213 0.319604 0.323615 
0.321579 0.31262 0.293535 0.348603 0.322699 0.325491 0.323883 0.308855 0.309267 
0.305928 0.31447 0.335992 0.335467 0.32582 0.324386 0.318103 0.336336 0.333437 
0.332271 0.343619 0.339237 0.342066 0.33263 0.332868 0.332833 0.321968 0.323211 
0.324821 0.333136 0.332997 0.333086 0.408197 0.373834 0.332982 0.333155 0.320311 
0.319607 0.351481 0.335731 0.31561 0.323336 0.302352 0.305938 0.330871 0.30368 
0.321524 0.329017 0.326917 0.308397 0.311091 0.304479 0.33337 0.33339 0.327953 
0.326655 0.331148 0.32942 0.330685 0.33066 0.441334 0.333694 0.33383 0.317822 
0.3212 0.321038 0.322283 0.324197 0.333288 0.31021 0.319634 0.320692 0.3161 
0.296202 0.337219 0.322893 0.324307 0.325717 0.437164 0.339338 0.343306 0.343793 
0.312102 0.312178 0.283814 0.286187 0.335437 0.362519 0.38045 0.361601 0.335293 
0.332744 0.33427 0.28949 0.330204 0.330399 0.333061 0.337263 0.344635 0.357658 
0.394429 0.420376 0.334284 0.334378 0.325946 0.306653 0.334445 0.333474 0.314791 
0.322763 0.30514 0.310227 0.302468 0.33326 0.324643 0.321288 0.333059 0.321628 
0.319582 0.310046 0.312949 0.3129 0.335531 0.299502 0.303174 0.300273 0.309117 
0.306638 0.309858 0.335023 0.294031 0.336781 0.349044 0.326959 0.325341 0.332773 
0.326263 0.327834 0.321083 0.326578 0.324291 0.302179 0.288456 0.329348 0.256102 
0.279482 0.31063 0.31516 0.304458 0.300939 0.329568 0.335939 0.320606 0.335739 
0.342889 0.306884 0.306693 0.333327 0.333281 0.333256 0.333334 0.309572 0.327336 
0.300166 0.303293 0.301724 0.327654 0.328882 0.316074 0.312799 0.308745 0.333251 
0.333269 0.308947 0.322702 0.318089 0.322452 0.322173 0.323442 0.305564 0.305327 
0.307025 0.328512 0.320711 0.323058 0.314043 0.310293 0.31387 0.311081 0.278688 
0.303805 0.288966 0.282699 0.293893 0.293133 0.287976 0.281139 0.333365 0.347944 
0.337632 0.333446 0.301181 0.392798 0.408391 0.362776 0.355465 0.354948 0.359276 
0.349334 0.339827 0.346579 0.334917 0.348391 0.33218 0.333219 0.332972 0.312541 
0.37791 0.412844 0.357553 0.377326 0.330805 0.294771 0.294637 0.345786 0.358549 
0.333093 0.356097 0.311402 0.339163 0.32481 0.32868 0.331774 0.335085 0.313155 
0.313265 0.346042 0.308852 0.312856 0.33368 0.330006 0.33054 0.314422 0.309779 
0.313542 0.315676 0.336973 0.338826 0.338443 0.325461 0.311132 0.312631 0.342268 
0.339692 0.342953 0.340042 0.34245 0.343548 0.340217 0.330901 0.328899 0.331688 
0.332646 0.327789 0.326041 0.340004 0.33391 0.312126 0.325534 0.32081 0.313125 
0.316814 0.332281 0.284895 0.282062 0.320043 0.332544 0.332106 0.332629 0.33261 
0.33238 0.306028 0.308628 0.311502 0.333322 0.33331 0.333309 0.332818 0.332854 
0.317056 0.321888 0.362823 0.372143 0.362362 0.360262 0.343838 0.334283 0.334151 
0.334571 0.321493 0.263589 0.272351 0.31799 0.343323 0.345389 0.333236 0.333211 
0.333565 0.333761 0.333466 0.33359 0.332243 0.32935 0.335384 0.267885 0.262958 
0.269383 0.33812 0.275519 0.277718 0.27916 0.313035 0.312786 0.326759 0.331438 
0.332998 0.302259 0.332049 0.332812 0.313024 0.314703 0.313769 0.315169 0.313242 
0.303961 0.331897 0.33091 0.367318 0.333485 0.332572 0.330669 0.333573 0.315861 
0.316291 0.318767 0.317031 0.312916 0.312923 0.274631 0.320436 0.28632 0.337673 
0.341017 0.340519 0.322224 0.316799 0.323414 0.26399 0.271764 0.315857 0.311766 
0.288244 0.296216 0.321273 0.318744 0.276035 0.293767 0.285351 0.286942 0.309006 
0.307092 0.33005 0.325529 0.330469 0.332651 0.332491 0.333526 0.333374 0.373048 
0.366569 0.335134 0.297291 0.296056 0.334044 0.303106 0.299549 0.29894 0.334661 
0.33138 0.337947 0.339075 0.34058 0.334744 0.335462 0.340939 0.343783 0.344814 
0.353946 0.34818 0.305004 0.300549 0.309279 0.323539 0.335313 0.316843 0.332906 
0.330885 0.284457 0.292469 0.304864 0.312766 0.320957 0.319118 0.339891 0.331141 
0.322308 0.338517 0.337386 0.317558 0.31955 0.30724 0.336203 0.336534 0.329374 
0.295857 0.312211 0.304059 0.310056 0.341117 0.328809 0.332374 0.310632 0.331459 
0.330944 0.328657 0.32819 0.329708 0.324743 0.325504 0.333684 0.333937 0.271172 
0.331755 0.351266 0.354414 0.353831 0.358138 0.350236 0.337356 0.345166 0.347893 
0.324461 0.42911 0.333231 0.333102 0.333127 0.327012 0.33287 0.338576 0.313051 
0.3334 0.331537 0.33694 0.336349 0.336228 0.300049 0.300391 0.328051 0.324498 
0.330636 0.238145 0.336686 0.303021 0.305582 0.313147 0.333442 0.322823 0.324973 
0.328338 0.349136 0.34627 0.259502 0.346733 0.2738 0.360927 0.333673 0.315034 
0.312135 0.308836 0.301224 0.329803 0.309682 0.324169 0.323207 0.331518 0.331007 
0.357103 0.335493 0.311127 0.311221 0.310596 0.333246 0.333295 0.313245 0.285206 
0.318608 0.336524 0.336802 0.327486 0.32557 0.275439 0.324942 0.307043 0.309355 
0.31383 0.316011 0.350106 0.348497 0.350068 0.309359 0.283148 0.313799 0.384106 
0.322714 0.321818 0.337979 0.331274 0.317307 0.319828 0.320756 0.297855 0.302424 
0.300737 0.305271 0.317607 0.336859 0.289215 0.333119 0.336425 0.339643 0.33406 
0.334367 0.345448 0.343843 0.322467 0.315931 0.322883 0.317847 0.312368 0.346982 
0.34875 0.332796 0.313398 0.33908 0.303166 0.333352 0.333372 0.334941 0.234831 
0.272644 0.347129 0.351913 0.325516 0.295773 0.298356 0.284873 0.293769 0.290807 
0.32302 0.301095 0.297024 0.297358 0.333482 0.333966 0.351107 0.346161 0.333418 
0.297598 0.353296 0.333296 0.370357 0.333978 0.33062 0.338213 0.337942 0.334686 
0.342545 0.341444 0.348679 0.358076 0.333407 0.333631 0.305233 0.313013 0.313911 
0.315564 0.333518 0.312551 0.319153 0.318215 0.331351 0.313418 0.316393 0.233832 
0.258642 0.344079 0.369674 0.37077 0.332166 0.208012 0.226364 0.37929 0.37704 
0.314843 0.281637 0.29084 0.314028 0.333745 0.322955 0.323159 0.332465 0.317452 
0.333379 0.333385 0.303748 0.307814 0.30601 0.333329 0.315566 0.333262 0.333185 
0.333313 0.333758 0.330212 0.318384 0.318411 0.314544 0.302976 0.299631 0.302132 
0.315819 0.316711 0.327967 0.321158 0.321702 0.336776 0.306562 0.295476 0.346723 
0.328303 0.294907 0.336927 0.342767 0.254269 0.246768 0.28724 0.339856 0.26984 
0.333355 0.333436 0.333358 0.321861 0.329174 0.306322 0.34893 0.33272 0.333203 
0.32464 0.323453 0.318986 0.302213 0.292993 0.297034 0.340319 0.364438 0.35632 
0.331674 0.328145 0.319649 0.347781 0.303816 0.324776 0.318915 0.332579 0.278902 
0.333981 0.292807 0.297688 0.307605 0.315776 0.312396 0.277836 0.30064 0.329929 
0.300622 0.338265 0.331728 0.312354 0.323083 0.337156 0.295099 0.33558 0.347385 
0.345132 0.302777 0.350473 0.395501 0.394149 0.332552 0.412447 0.327827 0.334593 
0.348097 0.312752 0.35473 0.339659 0.333027 0.333281 0.333833 0.334195 0.321639 
0.33833 0.298461 0.416016 0.339732 0.326444 0.324789 0.337103 0.33534 0.322055 
0.341214 0.336682 0.323479 0.328522 0.32503 0.332371 0.32167 0.330078 0.334377 
0.33661 0.32137 0.332542 0.334275 0.336766 0.33468 0.324034 0.331434 0.328365 
0.332252 0.334742 0.333107 0.324016 0.331462 0.337322 0.250593 0.331692 0.332429 
0.347771 0.272565 0.286452 0.338441 0.25151 0.323324 0.335884 0.357561 0.385301 
0.30692 0.329326 0.329216 0.329906 0.379808 0.325535 0.331056 0.308183 0.305636 
0.33236 0.345072 0.346341 0.287237 0.32442 0.315787 0.342793 0.312769 0.356434 
0.340572 0.342346 0.335047 0.345511 0.317903 0.311266 0.341157 0.266779 0.322794 
0.331148 0.301036 0.33533 0.337284 0.337471 0.337348 0.342799 0.352821 0.356031 
0.344505 0.344363 0.319715 0.340643 0.303211 0.323209 0.339804 0.337585 0.331917 
0.336173 0.336779 0.339708 0.299049 0.297724 0.340539 0.30694 0.297876 0.300664 
0.33381 0.320432 0.313098 0.329531 0.338834 0.287362 0.341401 0.241279 0.334845 
0.303586 0.317981 0.358127 0.329201 0.314116 0.307761 0.325081 0.30475 0.305557 
0.345176 0.27222 0.332013 0.339785 0.333794 0.304636 0.331476 0.332319 0.332288 
0.331548 0.333333 0.355944 0.296644 0.331077 0.303536 0.317273 0.332878 0.33334 
0.337481 0.325583 0.307417 0.313313 0.379758 0.346433 0.339376 0.321907 0.314712 
0.333434 0.324732 0.299601 0.289482 0.293999 0.337182 0.324814 0.339131 0.304464 
0.324724 0.319808 0.32134 0.37957 0.37127 0.406357 0.336614 0.29914 0.304126 
0.309249 0.322446 0.334612 0.351946 0.34967 0.299266 0.315463 0.335749 
Stress%20yz%20component 1 8918 double
-0.0720552 0.100783 -0.105502 0.0698118 -7.57277e-07 2.23609e-07 3.3966e-06 7.13479e-07 -0.0129334 
-0.00320046 0.0263495 -0.0390789 0.0084725 -0.0152554 -0.0199019 0.0738719 0.0451552 0.0446524 
0.046263 0.0424645 0.048695 0.0503105 0.0418452 0.0424578 0.0498445 0.04965 0.0422798 
0.0420084 0.0497986 0.0483055 0.0485165 0.0418596 0.0501212 0.0523053 0.0544761 0.0466516 
0.0435785 0.033479 -0.038904 -0.0890247 -0.0814804 -0.0807474 -0.0485045 -0.0490265 -0.0492889 
-0.0723624 -0.0726553 -0.0493165 -0.0493756 -0.0496805 -0.0744753 -0.0736277 -0.0483249 -0.0490457 
-0.047497 -0.0481504 -0.0743518 -0.0481313 -0.0506308 -0.0534413 -0.0545782 -0.0774967 -0.0852779 
-0.0702468 8.16914e-06 -9.77625e-06 -5.06749e-06 -1.54512e-06 1.46129e-06 4.00969e-06 -1.54248e-06 9.75959e-06 
1.08972e-05 -2.32487e-06 6.58914e-06 -4.27854e-06 2.63268e-06 -2.18434e-07 1.54765e-06 -2.4514e-06 7.40324e-07 
-5.26156e-06 -4.82233e-06 2.44655e-06 -3.72927e-06 2.05126e-06 -1.74896e-06 -2.36551e-07 -9.81053e-07 -4.63233e-07 
1.75827e-06 0.0299562 -0.000313232 -0.000523134 -0.000128685 -0.000136825 -0.000142745 -0.000104632 -7.48457e-05 
-6.89921e-05 -6.09491e-05 -4.77597e-05 -4.70302e-05 -5.52753e-05 -3.91603e-05 -4.2953e-05 -3.90947e-05 -4.31788e-05 
-3.31941e-05 -3.9446e-05 -2.7796e-05 -3.13312e-05 -2.29681e-05 -2.20305e-05 -2.04287e-05 -6.46463e-06 -1.46987e-06 
2.48393e-05 3.80583e-05 4.69541e-05 4.22974e-05 2.69405e-05 2.55897e-05 -6.41294e-06 -6.40373e-06 -2.46741e-05 
-1.98984e-05 -1.34919e-05 -8.92651e-06 -1.37274e-05 -2.57774e-06 -7.10554e-06 -9.7426e-07 3.2936e-07 9.44241e-06 
1.14276e-05 -6.93962e-07 9.98207e-07 -4.25286e-07 -1.60745e-06 -2.4608e-06 -1.47835e-05 -1.85603e-05 -1.34865e-05 
-6.48187e-06 1.82092e-05 5.55751e-05 7.7956e-05 6.47139e-05 3.31642e-05 3.92291e-05 4.44407e-05 3.67229e-05 
0.000183445 -0.00025545 9.50881e-06 0.0250512 0.00250656 -0.00167494 -0.00346037 -0.00517792 -0.00480841 
-0.0055415 -0.00609535 -0.0075067 -0.00644712 -0.00553119 -0.00672881 -0.0159129 0.0285932 0.00808769 
0.00873197 0.00412993 0.00536142 0.006645 0.00566459 0.00602773 0.00664277 0.00540907 0.00957044 
0.00926331 -0.00722068 -7.95094e-06 6.08738e-07 1.79583e-06 -3.30164e-07 1.7216e-06 -2.16856e-07 -1.50686e-06 
1.66497e-06 -2.20753e-06 3.74407e-06 -2.81183e-07 -2.07901e-06 -9.53286e-08 -6.09033e-07 4.33693e-07 -8.03177e-07 
5.95103e-07 -2.13432e-06 5.02832e-08 1.17004e-06 -7.23414e-07 -1.75517e-07 -0.0251436 -0.000913968 0.00016818 
-4.11947e-05 -4.97395e-05 -2.35752e-05 2.85778e-06 -1.66484e-05 -5.89827e-06 -4.86234e-06 -3.05358e-06 -4.2461e-07 
8.90847e-06 7.41711e-06 4.89546e-06 2.55006e-06 8.82152e-06 -2.39841e-06 -1.12326e-05 -1.08988e-05 -1.87615e-05 
-4.42351e-05 -6.21494e-05 -4.99926e-05 -4.94633e-05 -2.34721e-05 3.1531e-05 4.15054e-05 3.13768e-05 3.25348e-05 
3.83364e-05 2.15914e-05 1.44902e-05 7.33902e-06 5.07938e-06 7.10867e-06 2.46708e-06 1.87416e-06 4.66819e-07 
4.69667e-08 2.79385e-07 2.65363e-06 9.23456e-07 5.86173e-06 2.12932e-05 1.74909e-05 -1.65924e-05 -3.02624e-05 
-2.90664e-05 -3.5739e-05 -4.91112e-05 -5.55665e-05 -5.37319e-05 -6.04762e-05 8.73552e-06 0.000252686 -2.32735e-05 
-0.00184223 -0.0228768 -0.00468625 0.00451025 0.00606391 0.00448422 0.00340922 0.00643321 0.00384296 
0.00415143 0.00367568 0.00452163 0.00751644 0.0115173 0.0184704 -0.00891988 -0.00701874 -0.00662295 
-0.00654117 -0.00422924 -0.00420195 -0.00370858 -0.0037087 -0.00305616 -0.00658212 -0.00473537 -0.00561497 
-0.00325989 -1.04164e-06 -7.04699e-07 5.38688e-07 -9.80846e-07 -3.37879e-06 -2.75964e-07 -3.27883e-06 -5.32231e-06 
-4.39628e-06 -1.11376e-06 1.4783e-06 -2.90898e-06 -1.23243e-06 1.36959e-06 9.33018e-07 -1.11631e-07 2.19883e-06 
2.45954e-06 2.11536e-06 6.64418e-07 -5.01881e-07 1.8155e-06 1.09044e-06 -2.72053e-07 7.75591e-07 5.49394e-07 
-6.7049e-08 0.00147205 0.00106052 5.91193e-06 3.31185e-05 3.97453e-05 1.38328e-05 3.77514e-06 2.52249e-06 
9.80408e-06 6.8703e-06 1.26902e-05 2.54537e-06 4.16479e-06 2.52863e-06 4.18043e-06 2.08843e-06 8.30818e-06 
3.81419e-06 1.77682e-06 -4.66078e-06 -7.93088e-06 1.04136e-05 4.55895e-06 2.32087e-06 -7.17799e-06 -9.91206e-06 
2.76658e-06 -3.20879e-06 -1.59424e-05 -1.23633e-06 2.45409e-05 -6.79567e-06 -1.19208e-05 1.60135e-06 3.94971e-06 
-1.10943e-06 -2.45277e-06 -1.91549e-06 5.68148e-06 5.47787e-06 2.33566e-06 -4.94479e-06 -3.82011e-06 -2.62679e-06 
7.78276e-07 -7.76982e-08 -2.99677e-07 7.83602e-06 9.15617e-06 1.41539e-06 -3.99133e-06 -4.05098e-06 -5.40295e-06 
-3.80651e-06 -2.11336e-05 -2.0604e-05 -2.0856e-05 -1.18447e-05 -2.76067e-05 0.000326584 0.00499174 0.00653746 
0.0067642 0.00782026 0.00765935 0.0065311 0.00600201 0.00670749 0.00911494 0.00699023 0.00630551 
0.00663003 0.00727891 0.00931561 0.0060014 0.00618234 0.00563105 0.00505031 0.00652541 0.00945443 
0.00526301 0.00547384 0.00611248 0.00749186 0.0108953 0.0127506 0.000214848 0.000544794 0.000650668 
0.00110866 0.0010901 0.00083776 0.000992905 0.0010186 0.00099395 0.000943299 0.000879757 0.000558662 
-0.00112038 -0.00693513 -0.00273685 -0.000594215 -0.000701785 -0.000775 -0.000695832 -0.000741343 -0.000862103 
-0.0010417 -0.00105537 -0.000544311 -0.00206534 -0.000872285 -0.000611133 0.00041497 0.00404892 -4.62263e-07 
3.1206e-06 4.67119e-05 0.00433363 0.000578161 -0.00489358 0.000266766 0.00391469 -3.5837e-08 1.42939e-06 
-8.68359e-07 3.47754e-08 5.20251e-07 -3.91235e-06 -6.76578e-06 -9.08163e-07 1.19512e-06 -1.1306e-07 -1.03378e-06 
1.00708e-06 4.05948e-07 -8.80985e-07 2.89893e-07 2.17508e-06 1.82807e-06 -6.60227e-08 -8.16699e-07 5.71251e-08 
9.40343e-07 9.97734e-08 -1.27449e-07 -7.33655e-07 -0.00029647 4.34854e-05 3.26513e-05 4.35846e-05 -5.61613e-07 
6.4341e-07 7.87941e-06 1.57531e-06 7.57428e-06 5.32879e-07 -7.70512e-07 2.50303e-06 2.03741e-06 8.45449e-07 
-8.78364e-07 5.47381e-06 5.66908e-07 8.13918e-07 -3.40318e-06 -1.08038e-06 2.62246e-06 -2.06914e-06 -1.27945e-06 
-3.0827e-06 3.75393e-06 -1.09334e-05 -1.01221e-06 1.16114e-05 1.02897e-05 -4.21187e-06 1.58705e-05 8.34916e-06 
2.23456e-06 8.23059e-06 1.97976e-06 -4.01011e-07 -6.58825e-06 -7.19568e-07 1.49852e-06 -3.32068e-06 -4.43221e-07 
8.03892e-07 0.00100234 1.13207e-06 -2.27431e-06 1.00301e-05 0.000348533 6.75069e-05 -5.01273e-06 -5.55726e-05 
1.90997e-05 -1.33831e-05 -1.95815e-05 -1.61107e-05 -8.38426e-07 -1.52066e-08 -1.61677e-06 0.000202062 -0.00136355 
0.00206417 0.00142376 -0.00152826 0.000283306 -0.000611701 0.00180311 0.00133665 -0.000336465 -0.00150065 
-0.000291893 0.00191985 0.00143865 -0.000238388 -0.000890887 -0.000867669 -0.000297574 0.00117873 -0.000180431 
-0.000754565 -5.94248e-05 -0.000152049 0.00109914 -8.77053e-05 -5.45157e-05 -1.76274e-05 -4.18196e-05 -1.22872e-05 
2.34258e-05 3.32125e-05 -1.17057e-05 -2.47519e-05 0.000153792 -5.17891e-05 0.000412884 4.28414e-07 -0.000295996 
0.000265833 -0.000356485 -0.000239343 -8.22145e-05 -8.90318e-05 -8.35658e-05 -0.000118434 -0.000119434 -0.000143244 
-2.58689e-05 -0.000186043 0.000328731 -5.08074e-06 -1.05841e-05 -6.38942e-06 0.00199081 -5.34481e-05 -0.000294483 
0.000399696 -0.000145903 -0.000379865 -0.000240915 -0.000314825 0.000145794 -0.000670689 0.000238366 -9.71029e-09 
-1.04879e-06 2.20798e-06 -7.64614e-07 -4.38709e-06 -6.05272e-07 9.55268e-07 2.63657e-06 4.49231e-09 -5.07727e-07 
2.00683e-07 -1.10442e-06 -3.24248e-07 -4.46455e-08 9.03901e-07 2.51009e-08 -9.27115e-07 -6.40043e-08 6.5891e-08 
-1.25987e-06 -7.45667e-07 6.19918e-05 3.52102e-07 3.12591e-05 2.24004e-05 -2.10787e-07 2.64314e-07 3.50277e-06 
3.66221e-06 1.2605e-06 6.27313e-06 1.10184e-06 2.4272e-06 -3.27619e-06 1.49267e-06 2.59375e-06 4.06319e-06 
1.30701e-06 -4.48893e-06 2.22627e-06 -3.25692e-06 -1.85257e-06 7.80095e-07 1.03349e-07 -8.14624e-06 -3.02758e-06 
7.85001e-06 7.08399e-06 2.46643e-06 -5.11341e-05 -2.80744e-05 2.55672e-05 2.31811e-05 4.29044e-06 -1.08377e-05 
3.67133e-06 -4.78942e-07 -3.78389e-06 -4.24461e-06 4.15771e-07 -2.41888e-06 8.18077e-07 -8.49328e-05 1.50238e-05 
3.70927e-07 9.93905e-08 -1.10458e-05 -4.10591e-05 7.14931e-05 1.91333e-06 -3.71274e-06 -3.54445e-05 4.28604e-06 
1.00374e-05 0.000132464 -6.31196e-05 -2.03006e-05 0.000109634 -2.00563e-05 -9.61795e-06 -0.000125536 -5.46635e-05 
-1.52766e-05 -1.63568e-05 -9.68096e-05 -0.000118791 -5.77892e-05 -0.000102545 -1.69785e-05 -8.01408e-05 -4.603e-05 
-0.000139696 -4.19715e-05 -6.35679e-05 -0.000111274 -5.10051e-05 -6.21159e-05 -0.000115895 -2.42168e-05 -7.59431e-06 
-9.25063e-06 1.18492e-05 1.61782e-05 1.73624e-05 -2.76114e-06 -6.72005e-05 -9.14573e-06 2.17259e-05 0.000245708 
-1.03671e-05 -1.29584e-05 9.36934e-06 1.56149e-05 8.34533e-06 1.19962e-05 3.16797e-05 5.18635e-05 -2.13938e-07 
3.30773e-05 -3.53286e-07 -1.03054e-05 8.03652e-06 -1.29696e-05 -2.51191e-05 2.14036e-05 2.86641e-05 4.68985e-05 
9.70552e-07 0.00017053 -1.31427e-05 1.06441e-06 -0.000121085 -7.34062e-05 0.000144254 5.68495e-05 -2.62572e-06 
3.27129e-06 -7.33111e-06 2.88918e-06 6.84027e-07 -3.2884e-07 -3.24801e-06 -1.25799e-06 1.56802e-06 -1.89496e-06 
4.51914e-07 2.67735e-07 1.06197e-06 4.46953e-07 -6.48456e-07 -8.49984e-07 3.32421e-07 2.61848e-07 -2.74127e-06 
-2.0942e-07 7.39473e-07 -1.32409e-05 3.7089e-07 2.18209e-06 -3.6031e-05 -1.74507e-06 2.94825e-05 5.24513e-06 
3.33292e-06 2.70051e-06 -1.16846e-06 6.09233e-06 -6.29775e-07 -1.20474e-06 5.87261e-07 1.2989e-06 6.78116e-06 
4.81208e-06 -1.2175e-06 9.63977e-07 -2.52207e-06 -6.79951e-06 -5.71908e-06 -3.61281e-06 -7.27526e-06 -2.11642e-05 
2.07743e-05 -1.52474e-05 1.49524e-05 -6.49517e-06 -1.20502e-05 -4.94695e-06 -9.81744e-08 -3.47819e-06 2.5547e-06 
3.3771e-05 -3.53824e-05 1.37569e-05 1.19489e-05 3.93063e-06 -4.26884e-06 1.53044e-06 1.76418e-05 -6.42885e-05 
-6.18203e-05 2.55269e-06 1.9218e-06 9.90258e-06 -4.05436e-05 2.70508e-05 -3.91442e-06 -9.7389e-07 1.77644e-05 
-3.8743e-06 -7.66742e-06 -6.04868e-06 1.68555e-06 -4.58241e-06 -1.0289e-05 -7.18337e-06 1.52883e-06 2.18253e-05 
-4.82849e-06 -3.38555e-06 6.68937e-06 -1.33484e-05 -7.01911e-05 1.95096e-05 -7.88336e-05 -4.09889e-05 9.13788e-06 
0.00011656 4.13017e-05 2.19263e-05 -8.67505e-06 -3.44512e-06 2.08517e-05 8.44894e-06 4.03994e-06 8.531e-06 
1.99186e-05 -5.07642e-06 2.39874e-06 3.4743e-07 -1.29509e-05 2.29591e-05 7.21821e-06 6.41634e-05 3.62899e-06 
9.83664e-06 -1.15563e-05 1.09235e-05 3.46383e-06 -6.93522e-06 -1.32079e-05 5.25342e-06 -2.51803e-05 -2.09804e-05 
-2.59447e-05 7.95345e-06 1.38968e-05 1.31814e-05 -1.10459e-07 -9.24243e-06 -4.07796e-06 3.07871e-05 -6.61807e-06 
4.13106e-06 2.54601e-06 -9.52608e-06 -1.63573e-06 8.69927e-06 -1.75684e-07 2.30333e-06 -6.13307e-07 2.44934e-07 
2.04788e-06 1.03182e-06 4.15578e-07 -1.11023e-06 3.60069e-06 -5.87713e-06 1.72214e-05 -1.05706e-05 1.8533e-05 
8.72681e-06 4.68031e-06 -1.48668e-06 3.72015e-06 1.56278e-05 3.56945e-06 9.89292e-06 6.48437e-06 8.85852e-07 
-5.4305e-06 -9.26812e-07 5.57059e-07 3.89579e-05 -8.30668e-06 2.9415e-05 -1.68424e-05 1.04044e-05 7.48533e-06 
1.43709e-05 2.31674e-05 -1.08401e-06 1.61221e-05 -7.71283e-06 1.1218e-06 1.27576e-05 -1.21758e-05 -1.82354e-05 
1.1722e-06 -2.34069e-05 3.01036e-05 -7.08214e-06 -3.75225e-06 3.1167e-06 -4.40462e-06 7.06636e-07 7.53661e-06 
1.33539e-05 6.17497e-06 2.21904e-05 7.61551e-06 6.35415e-06 -3.33787e-05 -5.18698e-05 9.6353e-06 -3.74952e-05 
3.49936e-06 1.07507e-05 2.805e-06 1.12241e-05 3.34123e-05 8.35085e-06 -2.75638e-06 -2.90705e-05 5.67736e-06 
2.22697e-05 1.3049e-05 2.59526e-05 1.04682e-05 -6.35631e-06 1.57576e-06 -6.12151e-06 -1.02274e-05 -1.57446e-05 
2.05159e-05 -7.11164e-06 -2.25435e-05 2.01233e-05 -6.58168e-06 4.87321e-06 2.58894e-06 -2.25895e-06 -5.04722e-06 
3.75683e-07 1.59396e-05 -7.08416e-06 -8.12187e-06 -3.24655e-05 2.86643e-05 -4.81305e-06 -2.58452e-06 1.43664e-05 
8.76397e-06 -1.62351e-05 1.47873e-05 -4.11499e-06 8.66493e-06 -2.42777e-05 3.60807e-05 -1.00927e-06 2.16284e-05 
2.50831e-05 3.83256e-06 3.89751e-06 -4.76254e-06 7.68827e-07 7.36273e-08 1.56348e-05 -7.59312e-06 6.61108e-06 
1.00515e-05 -1.0379e-05 3.46197e-06 -2.69687e-07 1.50549e-05 -6.40509e-06 2.34525e-05 -2.3775e-06 2.72359e-06 
-6.00527e-07 6.81299e-07 3.75545e-07 5.01471e-07 2.70966e-06 7.79353e-07 -1.6946e-09 7.51227e-07 -1.96028e-07 
-2.90212e-07 -2.8364e-07 -8.15513e-07 -1.71984e-07 1.6235e-07 1.05168e-07 -3.55903e-07 -4.11208e-08 1.07637e-07 
-1.83635e-07 -0.0125941 -0.000167809 -1.99725e-05 -1.48486e-05 -8.5018e-06 3.6884e-06 1.39522e-05 6.06461e-06 
-3.27078e-06 -5.474e-06 4.07891e-06 5.23328e-06 -4.17745e-06 -3.21363e-06 4.6102e-06 4.66495e-06 1.81662e-06 
5.02709e-07 1.04903e-08 -4.11557e-06 2.15518e-06 9.1992e-06 3.26216e-06 -4.13004e-06 2.32562e-05 7.75315e-06 
-1.16514e-05 -1.18225e-06 4.04327e-06 1.14474e-06 -1.05069e-06 -3.91534e-06 1.774e-06 1.84143e-06 1.86352e-07 
-3.24952e-07 -5.85921e-07 5.81107e-07 2.68059e-08 3.67478e-06 -1.7278e-07 -7.02587e-07 -8.4202e-07 4.91489e-06 
6.6658e-06 3.7487e-06 8.05763e-06 1.47118e-05 8.51729e-06 -1.13796e-06 4.26475e-07 -2.42132e-05 -0.000399913 
0.000144604 -0.0191521 -0.0160027 -0.0139758 -0.00418696 -0.00712343 -0.00520776 -0.0154697 -0.00553275 
-0.00433882 -0.00566569 -0.0151554 -0.00625808 -0.00571364 -0.00568824 -0.00520251 -0.00656356 -0.00585736 
-0.00730987 -0.00595824 -0.0160023 0.00135473 -0.000189471 -0.000559143 -0.000559399 -0.000695062 -0.000963817 
-0.000846796 -0.000999807 -0.000898516 -0.000750925 -0.000871458 -0.000657274 -0.000289578 -0.00013117 0.00977104 
0.000904846 0.00070705 0.00158221 0.00200798 0.000698438 0.000932855 0.000653804 0.000710501 0.000788945 
0.000755804 0.000734652 0.00205523 7.34185e-05 -0.00126697 -0.00828341 -3.9208e-06 -0.00018599 0.00681496 
-0.00671705 -0.00106183 0.00169118 6.26043e-07 2.08134e-07 -8.75408e-08 1.55233e-06 1.56583e-06 -1.60804e-07 
-5.02312e-07 1.70042e-09 -5.56267e-07 -1.07968e-07 6.67257e-07 2.99542e-07 9.36846e-08 -6.2517e-07 3.22674e-07 
6.21552e-07 -1.07757e-07 1.59532e-06 -2.08995e-07 2.66249e-06 -5.87125e-06 2.66138e-05 -1.98144e-05 -5.05605e-06 
7.08102e-06 -3.70119e-07 -4.91542e-07 -6.35866e-06 -2.18695e-06 -2.32218e-06 2.74198e-06 -1.40392e-06 -5.29252e-06 
-4.30213e-06 5.81718e-06 9.63537e-07 1.02703e-07 1.09123e-06 2.77293e-06 -4.39948e-06 1.90712e-06 3.18895e-06 
-1.38087e-05 1.30181e-05 -1.01044e-05 -4.6983e-06 2.0264e-06 6.09937e-06 -1.84309e-06 2.75092e-06 1.50913e-06 
7.58834e-07 1.38708e-06 3.0809e-06 -0.000201988 5.99784e-07 -9.52081e-07 -1.86009e-06 0.000258842 8.02088e-06 
-5.86558e-05 3.46053e-06 3.85695e-06 5.43076e-05 -2.10357e-05 8.90247e-06 1.46055e-05 -2.8703e-06 -9.72344e-06 
-8.35507e-06 -0.000445451 -0.000708655 0.000281422 0.000783606 -9.33375e-05 6.33581e-05 0.000338897 0.00073412 
0.000586731 0.000132631 0.000298457 0.000608839 6.32005e-05 0.000742576 0.000750591 0.000735254 0.000100843 
0.000107325 -0.000402908 0.00068091 0.000100078 0.000339156 -6.13785e-05 4.28922e-05 3.34158e-05 -8.73834e-06 
-2.2192e-06 -1.88027e-06 1.87071e-05 1.15694e-05 -6.17036e-05 -0.000144298 3.37677e-05 2.278e-05 0.000154149 
-0.000314796 0.000109376 -2.21033e-05 1.35678e-05 -0.000102361 -0.000123588 -0.000100014 -0.000103969 -0.000118598 
1.73751e-05 0.000251469 0.000675832 -2.77254e-06 -0.000413202 -0.00017214 1.0156e-05 0.000426329 1.08452e-06 
-0.000107906 0.000973723 -0.00093021 3.83205e-05 -1.33735e-06 1.0374e-06 -3.11101e-06 1.23275e-06 -1.07964e-06 
-2.14864e-07 -5.54135e-07 1.46387e-07 4.93033e-07 6.24172e-07 1.01145e-06 9.18971e-07 3.4434e-07 6.83875e-07 
-1.4837e-07 -3.0328e-05 5.71738e-06 2.01781e-06 2.6197e-05 3.12626e-05 1.18602e-06 3.51522e-06 -1.67601e-06 
1.91372e-06 -4.77471e-06 5.34811e-06 -2.67811e-06 -5.50666e-06 -5.69009e-07 -2.98706e-06 1.1089e-05 -8.13544e-07 
5.83316e-06 1.15674e-05 7.27694e-06 -2.47579e-05 -1.32979e-05 -2.34685e-05 1.66415e-05 1.02422e-05 7.50043e-06 
1.78126e-05 -5.77073e-06 3.38167e-05 6.32893e-07 3.00538e-06 6.08694e-07 6.33072e-07 -4.56835e-06 -1.13555e-06 
6.62141e-05 7.37062e-06 1.11965e-05 2.93202e-05 -2.51787e-06 -8.03887e-06 -0.000275456 -1.17985e-06 3.31095e-05 
7.13287e-05 1.75864e-05 3.30586e-05 1.9729e-06 4.72324e-05 1.61037e-05 3.77813e-05 5.14405e-05 3.90174e-05 
4.383e-05 5.64181e-05 7.42359e-05 -0.000104981 1.84001e-05 -0.00014169 6.19015e-06 2.7601e-05 1.84291e-05 
9.88084e-06 6.06178e-07 -3.09704e-06 -1.24609e-05 -2.42782e-05 2.13863e-05 -5.34634e-05 1.00059e-05 -3.04855e-06 
8.42021e-06 1.75495e-05 -6.1835e-06 -3.89478e-06 2.02219e-06 8.24662e-05 4.27363e-05 -5.61626e-05 7.10843e-07 
1.55319e-05 -0.000115778 -1.23823e-05 3.97617e-05 -7.03514e-06 -5.30159e-05 -4.89609e-06 -1.12063e-06 -4.21794e-06 
6.99958e-07 -9.56914e-05 -8.2488e-07 -0.00011839 3.38901e-05 -2.50331e-05 -7.99464e-06 -4.87038e-06 4.81003e-05 
1.76703e-05 3.10102e-05 -0.000109355 -2.3864e-05 1.15861e-05 -0.000109609 -8.98614e-05 3.19293e-05 -3.63948e-05 
2.92599e-05 1.49937e-05 -1.43093e-06 2.68209e-06 -9.11054e-07 3.16185e-07 -1.17625e-06 -3.93838e-07 -3.62438e-07 
-1.57049e-07 -3.52722e-08 -1.22917e-05 6.19575e-06 -2.10676e-06 2.99499e-07 6.57442e-07 -6.15583e-07 1.73799e-06 
1.72314e-06 -6.21567e-06 7.14177e-07 4.26565e-06 6.16496e-06 4.09852e-06 2.86504e-06 6.89745e-06 0.000153949 
2.45028e-05 -3.94618e-05 4.74926e-06 4.52191e-06 1.36673e-06 -1.15131e-05 -0.000103194 4.56155e-06 -2.93478e-06 
-2.37108e-06 1.34628e-05 3.26616e-05 -3.58881e-05 -6.85588e-05 -2.84454e-06 -2.97941e-05 -3.19768e-06 1.31539e-07 
-4.46631e-05 2.76995e-05 -5.24152e-06 1.86395e-06 2.92225e-06 4.85326e-06 8.77327e-06 8.24985e-06 1.4252e-05 
3.49823e-06 0.000131535 3.10581e-05 3.36799e-05 -4.0664e-06 7.85772e-06 7.84815e-06 -1.66271e-05 -2.49912e-05 
-1.93613e-05 3.0941e-05 -1.46167e-05 3.14221e-05 -1.0544e-06 -2.87309e-05 4.21944e-05 1.22672e-05 1.82647e-05 
4.42576e-06 -2.38406e-05 -6.17324e-07 -5.25392e-06 -3.6694e-07 -1.38671e-05 -4.35195e-06 -1.87427e-05 9.25629e-07 
4.84218e-05 -1.94873e-05 7.57352e-05 -4.14869e-06 6.15873e-06 1.00045e-05 -5.73077e-06 1.0032e-05 -2.80347e-06 
1.31672e-06 -2.95022e-06 -3.21649e-05 -2.72898e-05 -1.81959e-05 -8.52635e-07 -3.02361e-05 -2.30335e-05 8.08295e-06 
1.0389e-05 -2.66408e-06 3.4156e-06 1.39289e-06 4.19029e-06 -6.58192e-06 -6.28743e-06 7.80148e-06 -1.43104e-07 
-5.48548e-06 6.42528e-06 -7.11248e-06 -2.35113e-06 5.23307e-06 -1.36085e-06 3.76486e-06 1.12165e-06 4.42752e-06 
-7.73801e-06 -8.36832e-06 4.57091e-05 1.20998e-05 1.08874e-06 4.98641e-05 -1.19938e-05 5.82526e-06 2.39076e-05 
-8.09452e-06 8.20396e-06 -1.27283e-05 3.69004e-06 1.60126e-05 -9.48779e-06 -3.14474e-06 -1.63067e-05 -8.9206e-06 
1.1606e-05 2.23191e-05 7.17052e-06 2.35714e-06 -2.66878e-07 7.94117e-06 3.39005e-06 1.6743e-05 -5.65242e-05 
-2.85821e-05 2.05563e-06 2.53295e-05 4.56556e-06 -6.37376e-06 2.00685e-05 -2.00357e-05 -1.27802e-06 -4.0175e-05 
-6.06767e-06 -1.11983e-05 1.36479e-06 -3.51059e-06 -3.20756e-06 -3.66027e-07 -1.26278e-05 6.95319e-06 -5.11361e-06 
2.27774e-05 -2.64611e-06 7.70384e-06 -4.37423e-06 1.75997e-06 1.04054e-05 -1.0248e-05 1.78017e-05 2.20595e-06 
-7.36644e-07 -2.24589e-05 7.10949e-06 3.97333e-06 1.5301e-06 6.13121e-06 7.3919e-06 -3.16092e-05 -5.69191e-06 
-2.92631e-05 4.008e-05 4.56126e-06 -7.40268e-06 -6.94876e-06 -1.71666e-05 1.36282e-06 -1.40943e-05 4.61322e-06 
-4.99674e-06 4.79652e-06 3.83852e-05 4.37664e-05 -1.63291e-05 -6.45208e-07 -2.75507e-06 0.0225057 -0.0264563 
0.0918588 0.0430686 0.0493856 0.0411353 0.0662068 0.0670114 0.0697928 0.0385554 0.06787 
0.0673718 0.068225 0.0378915 0.0691714 0.0662708 0.0652238 0.0649217 0.0651762 0.0688481 
0.0726799 0.0753432 0.0453803 0.0391618 0.0522631 -0.0562693 -0.0889164 -0.0834352 -0.0820804 
-0.075966 -0.0677029 -0.0684573 -0.0695903 -0.071872 -0.0719235 -0.0678943 -0.0695023 -0.0730632 
-0.0737129 -0.0690712 -0.0686379 -0.0682514 -0.0659769 -0.0708594 -0.0694346 -0.0686872 -0.0718868 
-0.0729737 -0.0775827 -0.0782784 -0.0886417 -0.0944729 1.42086e-05 5.06346e-06 -9.32552e-06 -6.51488e-06 
-3.65445e-06 -3.65407e-06 3.28976e-07 2.09791e-05 2.79169e-05 1.94151e-05 3.03531e-07 -4.31106e-06 -2.03078e-06 
1.35222e-06 4.59395e-06 3.18692e-06 -4.62301e-07 -1.18327e-05 -1.29565e-05 -7.88088e-06 4.76227e-07 2.12905e-06 
-5.05516e-07 -2.44529e-06 -2.76211e-06 -1.10389e-06 -3.6728e-08 1.60415e-06 -0.0275729 0.0147575 -0.00108275 
-0.000511396 -0.0002941 -0.000225244 -0.000136324 -0.000108315 -0.000100341 -9.02361e-05 -8.61594e-05 -7.21918e-05 
-6.04244e-05 -5.83184e-05 -6.16047e-05 -6.4509e-05 -6.22366e-05 -6.04232e-05 -6.38547e-05 -5.44361e-05 -4.26418e-05 
-3.56987e-05 -4.14627e-05 -3.66625e-05 -1.83399e-05 7.24861e-06 3.87964e-05 6.1543e-05 0.000100133 0.000124963 
8.25867e-05 1.87854e-05 3.04937e-05 -2.1958e-05 -6.28089e-05 -5.80062e-05 -3.82543e-05 -1.90008e-05 -1.46513e-05 
-2.25486e-05 -1.35429e-05 -6.11552e-06 5.68344e-06 5.63671e-06 1.88889e-05 1.03913e-05 -1.74352e-06 2.62117e-06 
2.63531e-06 2.74937e-06 1.95569e-06 4.30602e-06 7.84087e-06 1.74139e-05 1.72577e-05 -5.25198e-06 -1.43576e-05 
-2.55751e-05 -2.63213e-05 -1.9535e-05 -3.87584e-05 -3.95121e-05 -9.22502e-05 -0.000277606 0.000168536 -0.00124464 
0.0017603 -0.00421093 -0.028127 -0.00124612 -0.00363954 -0.00588116 -0.00595889 -0.00729505 -0.00611115 
-0.00696174 -0.00677424 -0.0072774 -0.00891044 -0.0073568 -0.0194565 0.0188544 0.00933886 0.0217707 
0.00988547 0.00646652 0.0047535 0.00744483 0.00545406 0.00614692 0.00705685 0.00418594 0.0101217 
0.00922047 0.00295828 0.0148008 -0.0331931 -2.30106e-06 6.08707e-06 1.19432e-05 4.51933e-06 -7.4055e-06 
-2.76731e-06 -1.2983e-05 -1.41187e-05 -2.71162e-06 -3.93543e-06 -5.55288e-06 3.79209e-07 9.9641e-07 2.46356e-06 
6.51625e-06 6.78764e-06 1.91348e-06 1.62801e-06 3.3704e-06 3.36754e-07 -7.28245e-07 -1.17906e-06 3.16025e-06 
0.00681064 -0.00538009 0.000242789 0.000115788 3.13895e-05 5.63899e-05 3.88839e-05 1.46438e-05 -4.48961e-06 
7.24546e-06 1.64122e-05 9.87355e-06 1.31731e-05 2.21867e-05 1.92445e-05 1.05819e-05 1.77574e-05 1.37396e-05 
-9.92882e-06 -1.3495e-05 -1.35798e-05 -2.90893e-05 -9.05968e-05 -0.000109387 -0.000102438 -0.000103816 4.17519e-05 
8.61231e-05 6.66502e-05 5.26867e-05 5.4961e-05 4.87465e-05 2.03166e-05 9.07474e-06 6.74541e-06 -6.48514e-06 
-2.17257e-06 -4.55869e-06 5.07301e-07 1.8364e-06 -2.16916e-06 -1.75901e-06 -7.83703e-07 -1.45172e-06 1.32682e-06 
1.50371e-06 5.21413e-06 -1.94983e-05 -1.73693e-05 -1.42699e-05 -9.33702e-06 -3.62755e-05 -7.38834e-05 -5.35618e-05 
-2.47364e-05 -1.05215e-05 -4.92982e-05 8.50177e-05 -0.000477998 -0.0158225 0.0301553 0.0471055 0.00167874 
0.00626233 0.00623491 0.00481175 0.00520466 0.00753772 0.00529686 0.00637611 0.00225327 0.00645555 
0.0151645 0.0243686 0.0118945 -0.0371676 -0.0424169 -0.0125353 -0.0078179 -0.00744212 -0.00715766 
-0.00562324 -0.00619556 -0.00498828 -0.00594701 -0.00759827 -0.00516907 -0.00756042 -0.00523397 -0.0164856 
0.0637122 -1.68294e-06 -2.48309e-07 0.0386887 0.00358538 -0.0101843 0.00566771 0.0305169 -0.034643 
0.00320191 -0.0246576 -0.0257555 -0.0212165 -0.0224318 -0.0228725 -0.0258495 0.000310289 0.000227571 
-2.65396e-05 0.000629639 0.000656679 0.000583853 -0.0189467 -0.0214037 0.000414734 -0.000296435 0.00091532 
-6.99538e-05 -0.000174212 0.000427987 -0.0225947 -0.0203266 0.00149953 2.00618e-05 0.00040345 -1.73448e-05 
-6.95997e-05 0.00139486 -0.000280164 0.000321712 -0.000364794 6.14152e-05 0.000216409 0.000162536 -0.000334838 
0.000189684 -0.000242137 -0.000247992 -0.0226448 -0.0187131 -0.027204 -0.0172313 -0.020701 -0.0211572 
-0.0227137 -0.0248034 2.30624e-06 7.64132e-06 -9.59041e-07 -1.96115e-06 -1.09075e-06 -2.40029e-06 -3.67507e-07 
1.85619e-06 3.18196e-06 -1.56208e-06 -1.92844e-06 1.87941e-06 -4.10281e-06 -5.06001e-06 -6.18397e-06 4.35292e-06 
-4.22019e-06 -6.2415e-06 -2.0102e-06 2.18454e-06 4.87577e-08 1.18086e-06 1.62514e-06 -5.09343e-06 1.25636e-07 
-4.61654e-06 -1.42262e-06 -7.42398e-06 3.5496e-06 -2.3568e-06 2.38763e-06 -4.05566e-06 4.26587e-06 -5.30393e-06 
-2.80303e-06 -6.02875e-06 2.81715e-07 -2.02217e-06 -4.25888e-06 2.99432e-06 1.83365e-06 1.56106e-06 3.46023e-06 
2.31661e-06 3.89942e-06 -3.45138e-06 2.229e-06 2.18081e-06 1.57381e-06 -1.04954e-06 7.46522e-07 -3.69324e-07 
-1.04278e-06 1.93279e-07 1.78553e-07 2.30175e-06 3.12896e-06 3.85133e-06 -2.3166e-06 1.01771e-06 -1.46848e-06 
2.35447e-06 -1.78735e-06 2.61571e-06 1.69092e-06 3.25167e-06 -4.43294e-07 9.36777e-07 2.31854e-06 -1.52554e-06 
-6.55089e-07 -1.06528e-06 -9.26967e-07 4.90078e-07 -1.55586e-06 -1.0625e-06 1.26325e-06 1.67523e-06 4.08101e-07 
6.46508e-08 -2.27868e-06 6.00694e-07 -0.00409709 0.0146754 0.00582375 -0.00169348 0.000292819 0.00437377 
-0.000209232 2.81422e-05 0.000749203 -3.34953e-05 2.37621e-05 -3.63379e-05 -3.11041e-06 9.22083e-05 -9.00007e-06 
-3.41907e-05 2.80012e-05 6.15635e-05 -4.87248e-05 -5.15574e-05 2.31578e-05 -3.68826e-05 -4.65667e-05 1.5559e-05 
-3.14898e-05 -2.49848e-05 -3.04854e-06 -2.453e-05 -6.40297e-06 -1.15345e-05 -1.28633e-05 1.65775e-05 -1.58623e-06 
-1.30185e-05 -4.36154e-06 8.12668e-06 -1.11092e-05 -1.76861e-05 1.26469e-05 -1.65477e-05 -2.10518e-05 -4.75144e-06 
-2.17609e-05 -1.10666e-05 -6.42472e-06 -2.10713e-05 -1.03891e-05 6.12026e-06 6.61879e-06 -1.21355e-05 8.04163e-06 
-5.01758e-06 -1.56833e-05 -1.79528e-06 -1.97034e-05 -1.04888e-05 -9.33138e-06 -2.02432e-05 -1.99482e-05 -5.84824e-06 
-3.02696e-05 -2.66697e-05 4.79682e-06 2.38243e-05 6.63525e-07 5.11215e-06 3.52754e-06 -3.55636e-06 -4.66648e-06 
-5.41111e-06 -6.67427e-06 -4.29107e-07 -6.93216e-06 -1.77299e-05 -1.62341e-06 -8.96863e-06 -3.58099e-05 5.52783e-06 
2.37702e-05 3.39428e-05 -1.26122e-05 1.2006e-05 2.90828e-05 -1.79777e-05 1.46609e-05 1.84442e-05 1.06362e-05 
4.08382e-05 2.43719e-05 3.09836e-05 4.70522e-05 8.45902e-05 -1.82761e-05 -6.23194e-05 -4.17706e-05 3.02024e-05 
-4.22491e-05 -2.33113e-05 3.18521e-05 -7.02822e-06 -2.24876e-05 -2.75585e-06 -1.07319e-05 -9.97857e-06 -1.45516e-05 
-1.7897e-05 -1.07842e-05 -1.02429e-05 -2.08685e-05 -1.67452e-05 1.07249e-06 -2.04634e-05 -1.34406e-05 6.65904e-06 
1.57614e-05 7.77084e-06 -3.01188e-06 9.00864e-06 -9.57296e-07 -7.68548e-08 -2.10969e-06 5.6806e-07 -2.25598e-06 
-4.57585e-06 -1.32652e-05 1.01257e-06 3.00362e-06 -7.14091e-06 -4.60021e-06 2.02858e-06 4.49634e-06 -6.58e-06 
1.05621e-06 6.98949e-07 1.50038e-06 7.47497e-07 1.23799e-06 1.56174e-06 -5.4105e-07 -4.26334e-07 3.79527e-07 
-9.50094e-06 -9.0299e-08 1.08733e-06 -1.44503e-05 1.92025e-05 -1.5541e-05 -9.99252e-06 -2.04323e-05 6.60736e-07 
8.78476e-06 4.66107e-07 4.84347e-06 -3.24122e-06 2.84893e-05 3.29728e-05 -3.2235e-05 1.78463e-05 3.62944e-05 
-4.90695e-05 8.08831e-06 2.40455e-05 -3.78336e-05 -1.69263e-05 3.06948e-05 -4.11261e-05 1.59392e-05 3.53165e-05 
-5.22252e-05 7.46237e-05 7.61704e-05 -7.40913e-05 0.000194596 5.90433e-05 -0.000114124 0.000672173 0.000547084 
0.00218673 0.0102465 -0.000395121 0.00858247 -0.0236716 -0.0321858 -0.0328488 -0.033003 0.0114939 
-0.0289447 -0.0312208 0.00757832 -0.0300814 -0.0216024 0.00851059 -0.0217989 -0.0221393 0.00603778 
-0.0207668 -0.0231092 0.00775426 -0.0215183 -0.0297909 0.00692277 -0.0270803 -0.0293012 0.00891102 
-0.0286589 -0.0213445 0.00806666 -0.0223361 -0.0221079 0.00779669 -0.0219344 -0.0222752 0.00639198 
-0.0214196 -0.0290201 0.00773396 -0.0298272 -0.0275589 0.00814425 -0.0310094 -0.0222606 0.00889724 
-0.0219459 -0.0218448 0.00731576 -0.0217042 -0.0222915 0.00648283 -0.0212812 -0.0238126 0.0057389 
-0.0217037 -0.0318541 0.00692141 -0.0318022 -0.0204621 0.00704694 -0.0237527 -0.0219038 0.00890122 
-0.0237839 -0.023384 0.00675356 -0.023697 -0.0249273 0.00796971 -0.0225236 -0.0291495 0.00856761 
-0.0306046 -0.0305084 0.00911492 -0.0273292 -0.0251212 0.0145457 -0.0072627 -0.00953453 -0.00476488 
-0.00446138 0.00145148 -0.00414498 -0.00343869 0.00129727 -0.00361293 -0.00243894 0.00152141 -0.00319814 
-0.00240347 0.00154483 -0.00321985 -0.00289575 0.00128767 -0.00302553 -0.00236191 0.00132217 -0.00274461 
-0.0023705 0.00143774 -0.00232611 -0.00254582 0.00133483 -0.00232455 -0.00242381 0.00118224 -0.0026161 
-0.00263771 0.000986045 -0.00251586 -0.00301028 0.000649554 -0.00265429 -0.00615297 -0.00081366 0.0124082 
0.0160402 0.00300265 0.00495244 0.00658291 0.00468847 -0.00398177 0.00437461 0.00490764 -0.0017944 
0.00374684 0.00217196 -0.000815005 0.00249074 0.00230211 -0.00126689 0.00224067 0.00249773 -0.000738495 
0.00193391 0.00249041 -0.000859888 0.00234237 0.00225962 -0.00112729 0.00229003 0.0020994 -0.000928806 
0.00207409 0.00300002 -0.000660992 0.00275219 0.00380515 -0.0010019 0.0037883 0.00290504 -0.000424485 
0.00412756 0.00382281 -0.000798296 0.00821778 0.0125727 -0.000786283 -0.00817068 -0.0112948 -6.61826e-06 
-0.0264047 -1.13853e-06 -1.07692e-06 -0.00330617 -6.69681e-06 -1.13485e-05 -0.000145102 -0.000152907 0.000377227 
1.14729e-05 0.00523801 -0.00641495 -0.00223308 0.00865319 -0.000224025 0.0137498 -0.012583 0.00367033 
-0.00878728 -0.00607761 -0.00972915 0.00695683 0.00371818 -0.000310871 5.60854e-07 0.00153352 1.39559e-06 
5.32829e-07 1.91569e-06 6.53484e-08 2.98691e-06 -6.68934e-07 -1.76274e-06 1.18928e-06 -2.08556e-06 -5.39485e-06 
-1.03731e-06 -3.68165e-06 -8.45179e-07 -5.29989e-06 -7.1986e-09 -4.62877e-06 -8.62015e-07 -4.53449e-06 -3.64912e-06 
-4.9157e-06 -2.2248e-06 -2.97925e-06 -4.76347e-06 -3.64597e-06 -4.65449e-07 1.53371e-06 -2.73697e-06 -2.11161e-06 
-3.05979e-06 -9.64267e-07 -1.82854e-06 -1.21816e-06 2.82136e-06 -1.60262e-06 1.3125e-06 1.68366e-06 6.88515e-07 
7.76333e-07 2.50077e-07 3.26811e-06 1.83564e-06 7.62067e-07 -1.73613e-07 -1.46273e-06 1.34916e-06 5.02025e-08 
1.68063e-06 1.91192e-06 1.40164e-06 1.48374e-06 6.38781e-07 1.17118e-06 1.16043e-06 1.85038e-06 6.44064e-08 
-7.26077e-07 1.27189e-06 9.81625e-07 1.05848e-06 2.93722e-07 1.59498e-06 7.39639e-07 -1.3721e-06 7.91189e-07 
-5.58397e-07 -1.90798e-07 -2.82116e-07 4.09588e-07 -2.38355e-07 -1.23815e-06 -7.14409e-06 0.000369499 -0.000399771 
0.000139738 7.30806e-05 1.12463e-05 0.000129239 0.000185395 1.8539e-05 4.29946e-05 9.59683e-05 7.80014e-05 
-3.19414e-05 4.49311e-05 1.98622e-05 -2.69071e-05 -2.02994e-05 1.60384e-05 9.36241e-06 5.4319e-06 9.41203e-06 
2.31108e-05 4.34681e-05 -1.55242e-05 2.24412e-05 3.94579e-05 1.66017e-05 1.6924e-05 1.96397e-05 1.82575e-05 
1.57107e-05 2.23432e-05 7.50838e-06 1.30577e-05 3.61624e-06 3.54617e-06 7.00002e-06 2.32125e-05 -1.5003e-05 
2.31405e-05 2.8904e-05 4.84466e-06 1.78845e-05 1.79753e-05 8.49052e-06 3.32324e-05 2.21402e-05 1.66037e-05 
2.08376e-05 8.58588e-06 9.74833e-06 -4.20754e-06 1.57352e-06 -1.52677e-05 1.72002e-05 1.75302e-05 -6.46321e-08 
1.63009e-05 1.06775e-05 5.53298e-07 2.69547e-05 7.69191e-06 9.80721e-06 8.45443e-06 6.09643e-06 1.41719e-06 
4.13328e-06 -5.50105e-06 -8.71385e-06 -1.74424e-05 -2.59635e-05 -9.21072e-06 -1.95426e-05 -2.36379e-05 -1.51948e-05 
-6.00313e-05 -5.49563e-05 -1.12467e-05 -6.00613e-05 -3.05211e-05 -3.16995e-05 -1.54317e-05 -1.86046e-05 3.52043e-05 
2.11945e-05 1.2338e-05 1.19739e-05 -3.28271e-05 1.82308e-06 -1.31172e-05 7.90187e-06 2.11599e-05 1.51892e-05 
-7.83162e-06 6.49237e-06 2.67854e-05 9.90976e-06 1.19328e-05 5.60893e-06 5.04401e-06 1.43052e-05 -7.17548e-06 
-1.76795e-06 1.25644e-05 -6.24096e-07 2.80764e-05 1.78113e-05 3.8968e-06 1.11015e-05 -1.96985e-06 9.99916e-07 
2.57166e-05 1.19881e-05 3.44772e-06 2.15478e-05 9.22114e-06 -1.32722e-06 -2.80652e-06 -4.90575e-06 -8.25683e-06 
3.89903e-06 -9.91142e-07 -2.55347e-06 6.20061e-06 1.07666e-05 2.43013e-07 0.00510555 0.00485718 0.000937385 
1.11313e-05 2.15511e-06 -6.84756e-07 2.17889e-06 3.1929e-06 -1.88039e-06 -7.57436e-06 -1.09675e-05 3.5544e-06 
0.000573469 -0.000701064 -0.000321172 -0.00612798 0.000446252 8.89327e-06 7.50138e-06 3.71631e-05 1.24393e-05 
-4.00759e-05 3.52985e-05 9.30169e-05 -8.12869e-05 -1.68857e-05 5.6526e-05 -1.25912e-05 4.15189e-05 -2.66283e-05 
1.64241e-05 5.53962e-06 -1.0558e-05 7.64119e-05 -2.52558e-05 -2.31568e-05 0.000129611 -0.000117808 -1.64281e-05 
-2.38881e-06 8.27139e-07 0.00154678 0.00185793 -0.000701757 -0.00704362 -0.000207888 0.00777657 0.00579485 
0.00433105 0.00466363 0.00177193 0.00250282 0.00389919 0.000209978 0.00516426 0.00455795 -0.000467737 
0.00198708 0.00481017 -0.000506203 0.00713156 0.00942688 0.000723939 0.00924053 0.00614448 0.0011007 
0.0036673 0.00537443 0.000387289 0.00354425 0.00323322 -0.000591511 0.00502642 0.00374773 -0.000486236 
0.00621115 0.00897961 0.000430817 0.008411 0.00690011 0.00126145 0.00459156 0.00499774 0.000461241 
0.00357747 0.002978 -0.000191482 0.0020039 0.00507815 -0.00058861 0.00489666 0.00493299 -0.000349872 
0.00772881 0.00878919 0.000373587 0.00811023 0.00477159 -0.000213423 0.00534876 0.00213776 -0.00013415 
0.00361106 0.00386529 -0.000463856 0.00327297 0.00347029 -0.000480725 0.00410495 0.0100832 0.00016391 
0.0102311 0.00060513 -0.000120602 0.000518711 -0.000187285 0.000184493 1.80501e-05 0.000814099 0.000328499 
0.00062033 0.00032456 -7.56699e-05 0.000649454 0.000291067 -6.92464e-05 0.000629037 0.000421733 -6.4195e-05 
0.000597307 0.00035121 -6.7788e-05 0.000440594 0.000387065 -7.99968e-05 0.000374816 0.00041204 -0.00011185 
0.000452445 0.000639144 -0.000113701 -0.000413373 0.000876757 -0.000139981 0.000646149 0.000564341 2.02213e-07 
9.45684e-07 -0.000281976 -0.00250508 -0.000639084 -0.000983185 -0.00145104 -0.0013513 -0.000315495 -0.00139305 
-0.000811144 -0.00017213 -0.00081808 -0.000692191 -0.0002201 -0.000779646 -0.000722007 -9.22023e-05 -0.000813374 
-0.000669338 -5.59704e-05 -0.000731573 -0.000758683 -8.91147e-05 -0.000760657 -0.000750778 -8.32477e-05 -0.000644656 
-0.000917342 -6.03676e-05 -0.000762273 -0.000279592 -4.66616e-05 -0.000765759 -0.000533501 -8.57503e-05 -0.000279575 
0.00114387 7.4053e-05 3.21523e-06 -8.40048e-06 -6.57438e-06 0.000214145 -2.10777e-05 2.60721e-05 -9.70524e-06 
1.77368e-06 -1.22721e-06 1.70751e-06 0.00126942 0.000229858 0.000832224 0.000137293 -8.05958e-05 -0.00145989 
-0.000812775 -0.000477567 0.00206818 0.000296167 -2.35364e-06 -2.42575e-06 -1.28758e-06 2.90246e-07 4.89378e-06 
8.70754e-07 9.41589e-07 -9.07852e-07 4.02601e-07 0.000111497 0.000808305 -0.00064314 -0.000143299 0.000473998 
-0.000157301 0.000570024 -4.22557e-05 8.1795e-07 0.000181469 0.000998113 0.000472043 0.000883717 0.00427377 
0.00734057 0.00183386 -7.05468e-05 -0.000126139 0.000107779 -0.000336101 1.4896e-05 -0.000306262 0.000487041 
0.00290336 5.81908e-05 -0.000365322 -0.000204096 -0.000288651 -0.000103725 -0.000802846 -0.000296707 -3.96426e-06 
8.55325e-07 6.48302e-07 -6.65741e-07 6.13087e-06 -7.53877e-07 7.32343e-07 -6.20265e-06 7.29162e-07 -4.49879e-06 
5.16407e-06 -2.28319e-06 1.10789e-06 -3.09673e-06 -1.31703e-06 -4.86572e-07 -2.43965e-06 -2.14492e-06 7.17035e-07 
1.56921e-06 1.07591e-06 4.70971e-07 5.7422e-06 -1.67693e-07 1.74439e-07 -1.87859e-06 8.93857e-07 2.26335e-07 
5.35519e-07 1.11286e-06 -1.42257e-06 -8.83095e-07 -3.69181e-07 2.66437e-07 4.45533e-07 -2.70584e-06 1.89208e-07 
-3.88928e-06 3.17982e-08 -1.06197e-06 3.84899e-07 7.71961e-08 3.0486e-07 1.52106e-06 5.65968e-07 4.23494e-07 
4.6012e-07 5.59469e-07 7.48344e-07 -1.28381e-06 -3.64525e-08 -4.02465e-07 1.64613e-06 4.1318e-08 -2.88208e-07 
1.34046e-07 -5.9209e-07 5.43493e-07 -3.08552e-07 -5.04945e-06 4.25649e-06 1.37841e-06 0.00019187 3.39719e-06 
1.95569e-06 5.3155e-07 -9.88501e-06 -8.8805e-07 -0.000108243 7.92855e-05 -4.93e-05 7.70853e-05 1.45949e-05 
-4.07851e-05 2.70444e-05 -5.70834e-06 -4.81441e-05 4.02466e-05 9.88815e-06 7.48315e-06 3.78499e-05 -2.37783e-06 
2.17358e-05 1.02302e-05 7.21173e-07 -1.17127e-06 2.08397e-05 6.14492e-06 1.2857e-05 1.96189e-05 1.76601e-05 
2.12153e-06 8.14635e-06 1.06168e-05 1.02804e-05 2.31271e-05 1.19217e-05 1.38758e-05 1.15553e-05 -4.63308e-06 
1.4053e-05 7.99795e-06 -1.65524e-06 6.90147e-06 7.46758e-06 1.15488e-05 1.52833e-05 1.32525e-05 1.14595e-05 
1.33876e-05 9.03057e-06 1.20571e-05 8.4595e-06 1.40578e-05 2.20145e-06 2.28877e-05 1.09339e-05 -8.29662e-06 
4.55635e-07 -1.87268e-07 9.05544e-06 1.52315e-05 7.44117e-06 1.10065e-07 4.91977e-06 3.98279e-06 -5.02803e-06 
-4.66428e-06 8.03833e-06 -3.43854e-06 -8.27624e-06 1.41847e-05 -1.13886e-05 -1.43638e-05 -1.6772e-07 -1.71614e-05 
-3.30949e-05 -1.73563e-05 3.73321e-06 -6.5664e-05 -3.52327e-05 -3.42668e-06 -2.63552e-05 1.76452e-06 -8.33575e-06 
-4.59435e-05 -2.56393e-05 -1.75802e-05 2.58153e-06 8.19391e-06 -7.48167e-05 -1.6962e-05 9.87529e-06 4.55483e-05 
8.00728e-07 1.20488e-05 5.40367e-05 2.88619e-05 1.5615e-05 3.04195e-05 2.10726e-05 1.47737e-05 7.4056e-06 
3.95317e-05 3.3888e-05 -1.65433e-05 2.92641e-05 2.28643e-05 -2.69134e-06 1.18972e-05 1.69479e-05 -3.41436e-06 
2.23598e-06 7.55302e-06 -3.4753e-06 8.37773e-06 4.53802e-06 6.16901e-06 2.22438e-06 -4.27566e-09 1.92102e-06 
-8.26684e-07 -1.27827e-06 -3.31298e-06 -2.13388e-06 -0.000194634 -5.39835e-05 0.000396183 0.000186135 0.000214006 
-6.70882e-07 -3.52676e-06 1.7412e-06 2.99804e-06 0.0044315 -1.06465e-06 8.99981e-06 0.000426374 0.000356275 
0.000301681 6.07171e-05 -0.000118988 0.000306592 1.22544e-05 7.62708e-05 -3.39364e-06 1.54166e-06 -1.9074e-05 
-1.33123e-05 4.56425e-05 -1.29704e-05 1.27186e-05 5.44608e-05 -2.24588e-05 -1.6032e-05 -1.12736e-05 3.66034e-05 
7.55287e-05 -0.000313053 -0.000119176 -0.000132711 -0.000234717 0.00033322 0.000154793 0.000489707 -2.92132e-05 
6.65489e-05 -9.9685e-05 0.00067409 -0.000266444 -0.000460368 0.000234454 -3.38456e-05 0.000102632 2.10781e-05 
-3.02432e-05 -6.16739e-05 0.000628591 1.41121e-05 0.000638947 0.000503884 -7.59746e-06 0.000403384 -0.000215597 
-6.54692e-05 3.37567e-07 -0.000214172 -6.24344e-05 -0.00015804 3.41206e-05 -0.000132155 -0.000180524 0.000528218 
-5.39704e-05 0.000658232 0.000587952 -7.46707e-05 0.000530181 -0.0001313 -4.47787e-05 5.37983e-05 -5.66537e-05 
-4.61543e-05 -4.00684e-05 -7.53037e-05 -9.31767e-05 -0.000120069 8.4054e-05 -0.000110735 -0.000100501 0.000244015 
-2.90771e-05 0.000284645 -0.000175877 -8.7852e-05 0.000136292 -0.000124979 -4.05828e-05 -2.26415e-05 0.000134601 
-6.5932e-05 5.8502e-05 6.07052e-05 -6.65381e-05 1.43642e-05 0.000333473 1.40743e-05 -3.4378e-05 3.97307e-05 
-2.85314e-05 -3.96515e-05 -4.65611e-05 5.43042e-05 -2.20465e-05 1.92797e-05 3.05684e-05 -8.48422e-06 -2.88931e-05 
6.9805e-05 1.81415e-05 -3.74579e-05 0.000141114 8.34058e-05 1.16161e-05 -0.000263929 0.000126078 -4.11405e-05 
-4.35215e-05 0.000108813 0.000127899 -0.000258007 -0.000134561 0.000447296 0.000999986 -0.000182643 -6.52649e-05 
-7.86285e-05 -2.71648e-05 -2.67857e-05 2.12192e-05 5.61697e-07 -1.06523e-05 3.08563e-05 2.51888e-06 9.71874e-06 
1.58331e-05 -1.99756e-05 7.07045e-06 2.14389e-05 -4.48309e-05 1.5566e-05 3.68736e-05 -3.06598e-05 1.5077e-05 
4.87619e-05 2.90073e-05 6.81259e-05 7.29351e-06 1.70007e-05 7.00987e-05 5.72751e-06 0.000362424 -7.50666e-06 
-7.3699e-06 5.10928e-05 7.93259e-06 1.11498e-05 -3.92968e-05 -1.51806e-05 -8.18111e-05 -0.000102893 5.08289e-05 
2.20564e-05 2.73597e-05 2.42205e-05 -6.78065e-06 -4.97497e-05 2.97689e-05 2.5933e-05 -1.33112e-05 1.80934e-05 
-4.38289e-05 1.16308e-05 -2.97853e-05 -0.000251814 0.000106974 0.000426586 -0.000162236 -3.16577e-06 0.000177677 
-0.000201621 2.89287e-05 -0.000119705 -7.15059e-07 -1.93735e-06 -1.68621e-06 1.51519e-06 -5.20478e-05 -1.04012e-06 
-5.26944e-06 0.000244255 0.000182993 0.000261261 -7.39784e-07 1.85497e-05 6.68913e-05 -0.000183099 8.93065e-06 
2.61271e-05 -1.92409e-05 -8.74719e-06 4.00795e-06 -8.47552e-06 -0.000375245 -0.000189563 0.000116161 -8.05884e-05 
-6.76387e-05 -0.000116842 0.000111705 0.00031304 0.000163036 -1.99111e-05 -2.15163e-05 5.14495e-05 3.71199e-06 
2.00587e-05 -7.11716e-05 -0.000120797 1.90244e-05 2.4902e-06 1.3801e-05 -5.4074e-06 1.06399e-05 -5.71737e-06 
2.54857e-06 -1.21026e-06 -3.94318e-06 4.3909e-05 -0.000496953 -0.00022351 6.10404e-05 6.15258e-05 -9.94471e-07 
5.84652e-06 3.31765e-06 -2.22598e-06 1.56013e-05 5.38692e-06 -2.08751e-06 4.93185e-07 -2.05536e-06 -3.95057e-08 
-5.79733e-06 -2.28125e-06 4.81305e-07 -1.73195e-06 -1.01148e-06 -2.59906e-06 6.12596e-06 4.17127e-07 1.9119e-06 
-6.08228e-06 -6.45365e-07 1.19143e-06 -2.03878e-06 -2.54212e-06 4.86696e-07 4.09802e-06 8.00891e-07 -8.80164e-07 
3.86489e-07 5.25972e-07 1.34658e-06 8.66239e-07 -8.28371e-07 -1.05827e-06 -4.26164e-06 1.00516e-06 -1.35954e-06 
3.23261e-06 2.30529e-07 -4.07672e-07 2.29697e-06 -2.13485e-07 -1.33143e-06 -1.78882e-06 -1.88079e-06 -1.80074e-06 
-7.90121e-07 1.75458e-06 -7.95525e-07 3.19765e-08 3.2613e-06 -2.73807e-06 -8.65092e-07 7.52509e-05 8.72788e-06 
-3.16971e-06 6.60864e-06 -3.85903e-05 -1.71133e-05 -5.0905e-06 -7.12348e-05 -5.05468e-05 -3.14784e-05 -2.09911e-05 
2.06344e-05 -9.57571e-06 1.21962e-05 5.37795e-05 -2.70314e-05 1.3903e-05 1.8913e-06 8.89634e-06 2.44687e-05 
-2.69175e-06 1.07471e-05 6.44498e-06 -2.77239e-06 -7.2735e-06 1.16484e-05 5.90734e-06 1.65377e-05 1.82915e-05 
7.79949e-06 9.83477e-06 1.36805e-05 6.88048e-06 2.83707e-06 9.65484e-06 -2.42438e-06 7.40422e-06 8.33618e-06 
-3.70869e-06 8.53617e-06 1.03654e-05 7.29537e-06 1.30962e-05 9.72999e-06 1.1595e-05 1.00444e-05 9.91749e-06 
1.48419e-05 6.04298e-06 3.0503e-06 1.39013e-05 2.33777e-06 -1.5278e-06 2.57461e-06 6.94156e-06 1.98833e-05 
-1.19972e-05 -1.38977e-06 1.53068e-06 4.05144e-07 4.54114e-06 2.01895e-06 3.90193e-06 8.64928e-10 5.18129e-06 
-1.94397e-05 -6.87245e-06 6.8472e-06 -2.10572e-05 -1.10269e-06 2.83835e-05 -9.85889e-06 1.96718e-05 6.83474e-05 
1.07292e-05 -5.29801e-05 -5.50178e-05 -3.74257e-05 3.34376e-05 -2.72515e-05 -5.52091e-05 5.98878e-05 -2.18705e-05 
1.39591e-05 -2.93306e-06 3.54453e-05 9.6936e-06 1.22334e-05 3.34524e-07 1.9697e-05 2.81144e-05 -4.00144e-05 
1.17071e-05 2.27735e-05 -9.36408e-06 3.97046e-06 1.61154e-05 -7.2964e-06 -4.82454e-06 2.77469e-06 -3.45353e-06 
-1.72193e-06 3.95391e-06 8.36446e-06 2.66977e-05 0.00014742 3.90052e-06 0.000100038 3.24417e-05 2.1207e-05 
-3.16371e-05 -3.4914e-05 8.82828e-05 -2.3981e-06 -1.33106e-05 -2.40681e-05 3.51369e-05 -3.33873e-05 1.03098e-05 
3.11781e-05 1.0065e-05 8.59287e-05 4.12956e-05 1.04915e-05 -4.28924e-05 -2.44149e-05 9.69415e-05 -2.99662e-05 
1.82271e-06 2.2416e-07 -1.62166e-06 0.000109394 -0.000139555 1.5158e-05 -8.50428e-05 -8.72831e-05 -4.32191e-05 
-7.24529e-05 1.48876e-05 7.07048e-05 -3.54063e-05 4.28435e-05 3.26715e-05 -7.56313e-06 -9.95779e-06 5.10996e-06 
-1.27119e-05 -7.66383e-05 1.88921e-05 -4.33177e-05 -7.13354e-06 1.3786e-05 -3.57204e-05 -1.2243e-05 -1.15187e-07 
-1.4743e-05 3.44789e-05 1.16099e-06 1.82354e-05 -9.85531e-07 -1.37994e-05 -1.92841e-06 -1.93431e-05 5.20997e-06 
-5.71349e-06 -4.68998e-05 -8.64834e-06 -6.87921e-05 -1.85036e-05 -7.88254e-06 -3.25592e-05 -1.37509e-06 6.45975e-08 
-4.77157e-06 -3.36387e-05 2.51017e-06 9.76741e-06 -5.56507e-05 2.59167e-05 -1.09924e-05 -8.63481e-05 1.47683e-05 
-3.36566e-05 -5.04088e-05 -1.9176e-06 1.92676e-05 5.25963e-05 -7.37267e-05 -5.45511e-06 1.7895e-05 -2.80406e-05 
-9.6074e-05 -9.09391e-06 -3.48127e-05 0.000105489 -0.000116846 -2.502e-05 -1.86439e-05 3.3124e-05 -0.000132906 
8.49795e-05 -4.91454e-05 -8.54339e-05 -9.6096e-05 0.000101869 -0.000319983 -0.000142101 0.000133317 0.000147259 
-0.000182684 5.41313e-05 3.80078e-05 -5.54594e-05 1.07819e-05 -2.14644e-05 8.14279e-06 -6.68004e-06 -1.8295e-05 
-2.63151e-05 -2.43636e-06 -1.28664e-05 1.20661e-05 -8.37125e-06 -2.99718e-05 6.45814e-06 -4.41773e-06 -3.55079e-05 
-1.472e-06 -1.53327e-05 -2.57323e-05 4.30571e-06 1.32953e-05 -1.27008e-05 1.6572e-05 -6.09816e-06 3.664e-05 
5.26424e-06 2.04526e-05 -8.01319e-05 0.000258107 7.38235e-06 -5.46501e-07 1.0405e-07 -1.36221e-05 -5.42952e-06 
-2.8396e-06 -8.74206e-06 -2.81313e-06 -2.85034e-05 0.000128009 3.05356e-05 0.000304728 0.000165891 -1.46956e-05 
-4.33603e-05 -1.61167e-06 1.29928e-06 -8.40352e-05 2.48744e-05 8.98661e-05 0.000109311 6.92632e-05 1.20428e-05 
-2.01584e-05 -0.000140035 -7.43379e-05 -3.65581e-05 6.109e-05 -3.04036e-05 -4.69231e-06 8.10712e-05 -9.92418e-05 
-0.000141823 -4.10907e-05 -1.2313e-06 3.83942e-06 -2.6634e-05 -1.84836e-05 -2.33621e-05 -2.17959e-05 -4.1657e-05 
1.47e-05 -0.00165439 0.00303607 4.62796e-05 0.000143746 6.16854e-05 2.01524e-05 -4.07362e-05 1.37917e-05 
8.68062e-06 2.65272e-06 3.69001e-05 5.05777e-05 -2.75678e-05 0.000277057 -4.79945e-06 -7.26599e-05 -8.05645e-05 
3.46962e-05 -0.000198812 0.000170341 -3.4408e-05 4.97095e-05 -2.18567e-06 -2.50783e-05 -7.68335e-06 -4.40851e-06 
6.63361e-06 -2.44836e-06 -1.03857e-05 -1.12956e-05 1.40379e-06 -5.32249e-06 -6.99847e-05 -0.000176332 -4.15467e-05 
-7.28275e-05 1.59455e-05 5.58416e-05 -1.48343e-05 2.47579e-06 1.09873e-05 -1.49877e-05 2.74498e-06 0.00013314 
4.42336e-05 5.66966e-06 -6.24445e-05 -1.78983e-05 5.52583e-05 -8.10573e-06 -7.27632e-06 5.16362e-05 -8.23979e-06 
-7.18445e-06 6.55657e-06 -9.49874e-07 2.8371e-05 6.73206e-06 5.12368e-06 -3.8852e-05 -9.60687e-06 1.24665e-06 
3.07504e-07 -5.07507e-06 1.74172e-07 -8.9852e-07 9.59487e-06 4.89579e-06 3.84699e-06 -6.0025e-06 -2.7533e-06 
4.82439e-06 -2.51332e-06 6.00115e-06 4.0905e-06 1.15401e-06 1.76373e-06 4.27704e-06 -5.92149e-07 -4.62171e-07 
-2.24135e-06 3.35192e-06 7.23454e-07 4.51167e-07 1.52401e-06 -2.05657e-06 -2.95549e-06 4.3244e-06 0.0014842 
0.00350843 -1.21314e-06 -1.80316e-06 -8.29222e-07 3.13365e-06 -8.81419e-07 -2.52764e-06 6.12332e-05 -1.269e-05 
-3.87697e-05 -1.78591e-05 -1.55166e-06 -7.92124e-06 -7.31956e-07 5.17502e-05 -4.80593e-05 -1.79304e-05 -2.31371e-05 
3.23287e-07 6.51837e-06 7.93502e-06 3.18913e-06 9.20526e-06 4.02036e-06 9.06612e-06 6.68079e-06 -2.03479e-06 
1.62301e-05 -0.000826927 0.000272234 6.31769e-06 4.93494e-06 4.09883e-07 7.72244e-06 1.07374e-05 1.91067e-06 
1.91647e-05 7.24943e-06 5.90073e-06 -1.18289e-07 -5.03189e-06 -5.35693e-06 6.15004e-06 8.77807e-06 1.51698e-05 
1.53073e-05 1.28638e-05 1.32763e-05 7.9538e-06 3.82812e-06 1.15917e-05 -6.73874e-06 2.91547e-07 8.34808e-06 
1.28313e-05 2.30401e-06 -9.67729e-06 4.85963e-06 2.58338e-05 -1.05184e-05 2.5798e-05 -1.06192e-05 -1.47706e-05 
-6.67111e-05 3.62225e-05 5.46641e-05 -0.00011465 5.1495e-05 -0.000150498 2.51961e-05 3.19254e-05 1.14632e-06 
4.15712e-08 3.32183e-05 2.83726e-06 1.0811e-05 2.33891e-05 -1.1779e-05 8.2983e-06 1.11298e-05 2.74887e-06 
-7.68417e-05 1.54418e-06 1.5214e-05 -1.68893e-05 -3.40495e-05 3.42542e-05 -1.91954e-05 3.14833e-05 1.15881e-05 
-3.76409e-05 2.16938e-05 6.1465e-06 -2.67315e-05 6.08644e-05 -1.399e-05 3.37206e-06 1.019e-05 -2.45647e-06 
-0.00013302 -0.00018276 4.26714e-05 -4.30919e-05 3.28068e-05 2.29492e-05 -1.61079e-05 -6.9148e-05 -5.65615e-06 
-3.35242e-05 -4.93452e-06 4.37872e-05 -4.73326e-06 -1.27809e-05 3.04338e-06 -3.97985e-05 1.68473e-05 -3.74602e-06 
3.30985e-06 -4.79836e-06 5.51264e-06 1.74581e-05 -6.69522e-06 1.37769e-06 -2.01201e-06 6.06879e-06 5.94823e-06 
2.54066e-06 -4.21976e-06 -0.00438727 -0.00223753 -1.30211e-05 -6.19928e-07 -3.28946e-06 -5.62505e-06 9.36681e-07 
9.80226e-06 -2.12195e-06 8.17486e-06 1.0408e-06 6.22825e-06 1.50025e-05 -3.95833e-06 5.01014e-06 -3.09633e-05 
-5.10988e-06 1.27095e-05 -3.33163e-05 4.5923e-05 2.3011e-05 -2.98357e-05 -6.19061e-06 3.79962e-06 5.26455e-05 
-2.58162e-05 -4.78683e-05 6.68826e-05 6.82062e-05 -9.18004e-06 -1.44256e-06 4.91605e-07 -2.17227e-05 3.85685e-05 
0.000201074 9.28153e-05 4.77737e-05 -2.50751e-05 -1.90932e-05 -3.9254e-06 -9.58315e-05 -9.58965e-05 -2.85781e-05 
2.13456e-06 -3.25252e-05 -1.53582e-05 1.99661e-05 1.09006e-05 -2.50328e-05 -3.58853e-05 1.17044e-05 -8.06106e-06 
-1.60217e-05 -2.21834e-06 5.38454e-05 -0.000104137 1.9598e-06 -7.40931e-06 -9.04311e-06 -5.59157e-05 -1.40856e-05 
-1.18354e-05 0.000112942 -4.57251e-05 2.01463e-05 1.23515e-07 -5.30838e-05 4.70984e-05 -3.16844e-05 4.41168e-06 
1.94429e-06 -2.92271e-05 -4.96514e-05 8.81327e-05 0.000101606 -1.58456e-05 -1.84992e-05 6.13781e-06 -6.19919e-05 
-6.31289e-06 -2.21187e-05 1.76231e-05 -1.45943e-05 5.62066e-05 1.39485e-05 -1.91859e-05 6.40876e-06 3.378e-05 
-5.32409e-05 3.12441e-05 -4.12262e-05 -1.77468e-06 5.56025e-05 1.69703e-05 2.5294e-06 8.17959e-06 -2.16944e-06 
2.83555e-05 1.64034e-05 4.35762e-05 1.1705e-05 -3.67108e-05 3.69169e-05 -4.40958e-05 5.89959e-05 8.35068e-06 
3.45436e-05 1.36129e-06 4.86398e-05 2.28011e-05 -1.17387e-06 5.44121e-05 1.5935e-05 -7.31551e-05 4.7718e-05 
-1.15047e-05 -8.36728e-05 -1.43173e-05 -5.13654e-05 -4.27597e-05 -1.67673e-05 -4.38698e-06 3.08948e-05 -3.32954e-05 
-9.03949e-06 -7.49759e-06 1.83121e-05 1.37616e-05 9.02132e-05 -0.000110501 1.35028e-05 1.81365e-05 -5.8935e-06 
-7.17593e-06 7.25813e-06 -0.00186335 -0.000803219 1.20906e-05 2.29046e-06 -7.08687e-07 -1.32777e-06 1.13741e-05 
2.19194e-06 -7.62611e-06 1.03281e-05 -1.36657e-05 -2.47074e-06 -2.17533e-06 2.05997e-06 6.18422e-07 4.81958e-07 
1.76135e-06 -4.97471e-06 1.51185e-05 -3.4816e-05 2.63371e-05 5.93557e-06 1.0671e-05 6.97393e-06 -5.14143e-06 
-8.60118e-06 -9.92297e-06 -0.00176125 -0.00100612 2.95037e-05 -2.83552e-05 -1.13077e-05 2.74757e-06 7.49334e-06 
-8.58092e-06 -2.26049e-05 3.62588e-05 2.94776e-06 0.000430641 0.00350279 1.8712e-05 -1.07692e-05 -2.1832e-05 
1.8662e-05 1.39388e-05 -4.27736e-05 -5.01558e-05 1.39521e-05 -2.99659e-05 4.41646e-05 6.8253e-05 4.81469e-05 
9.10146e-06 -9.81907e-06 -5.45356e-06 2.19533e-05 2.98323e-05 0.000116021 6.39612e-06 2.37654e-05 -4.5543e-07 
1.12734e-05 -5.24187e-05 1.74894e-05 -4.12052e-05 -1.96808e-05 -1.95048e-05 -2.35923e-05 8.51363e-05 -2.857e-07 
2.28635e-05 -1.87804e-05 -0.000132446 3.43267e-05 2.45206e-05 -1.57863e-05 -0.00147932 -0.000720409 6.81012e-07 
1.20595e-05 -0.000852226 0.000314952 -1.8433e-05 -1.60454e-05 8.25937e-06 1.50665e-05 7.41871e-06 1.34294e-05 
1.51036e-05 -1.57024e-05 3.3465e-05 4.57166e-05 4.07054e-05 -2.59606e-05 2.44108e-05 3.23473e-05 2.99831e-05 
6.42543e-05 -4.10966e-05 -1.10057e-05 -1.6145e-05 3.13188e-05 -8.86774e-06 -2.87067e-06 6.64921e-06 -1.21186e-05 
-7.31921e-05 2.91083e-05 -3.00925e-05 -8.32592e-06 -6.00113e-05 2.55452e-05 0.0012339 0.00435251 2.23492e-05 
2.19862e-05 9.56089e-07 9.34019e-06 4.19118e-06 -1.2968e-05 -4.25771e-05 9.62913e-06 2.32147e-05 -0.000122718 
-2.47595e-05 1.48031e-06 1.11611e-06 -2.26704e-05 -4.82929e-05 1.50843e-05 0.00203802 0.00623031 2.20619e-05 
-2.17732e-05 4.72229e-06 0.00259529 -0.0069324 2.55579e-05 5.48969e-06 -7.18814e-06 2.47272e-05 3.74502e-06 
-2.4376e-05 -7.76402e-06 1.32938e-05 -0.00588022 8.11386e-06 -2.65211e-06 5.41768e-05 -5.80636e-05 1.1969e-05 
-2.2468e-06 -4.97131e-06 -1.03913e-05 -4.66893e-06 1.45576e-05 2.51077e-05 -6.78769e-07 -2.1e-05 -1.54402e-05 
3.21977e-06 7.53288e-06 -1.4209e-05 -1.60383e-05 -7.54225e-06 2.51765e-07 -2.19265e-05 -2.61507e-05 1.32328e-05 
-3.00277e-06 8.92774e-06 1.07099e-05 -8.29561e-07 1.90877e-05 4.15602e-06 -1.26081e-05 -4.53563e-06 2.75414e-05 
3.43084e-05 3.53394e-06 -1.54059e-06 -1.16377e-05 -6.20011e-05 4.5938e-06 -2.24838e-05 -7.01346e-05 2.1114e-05 
1.33269e-05 1.96207e-05 1.82764e-05 -1.01392e-05 8.33749e-05 1.39173e-05 3.47939e-05 -4.26981e-06 -5.76344e-06 
-3.70443e-05 4.74302e-06 6.40279e-05 -1.53704e-05 -2.55369e-06 1.50615e-05 -1.02699e-05 -7.77826e-07 3.44974e-05 
-7.66176e-06 -1.53403e-05 6.55296e-05 7.67462e-07 2.36377e-05 1.66567e-05 -8.94292e-06 -2.98792e-05 -7.35417e-07 
-2.65415e-05 -1.90778e-05 -5.94556e-06 -8.67583e-06 8.5471e-07 -2.40483e-05 3.44652e-06 6.44634e-05 -4.09277e-06 
8.49376e-06 2.5116e-06 3.63628e-06 -5.38105e-07 -4.79687e-06 -1.01832e-06 1.09309e-06 -1.5998e-06 8.10924e-07 
-1.27192e-06 -7.71233e-07 -5.55589e-06 -4.76884e-06 -7.91086e-07 -7.16497e-07 3.0703e-06 2.87445e-06 2.46027e-06 
-3.36616e-06 3.96255e-06 -2.53539e-06 -6.09316e-06 6.43502e-07 -2.70571e-06 -6.94867e-06 3.22108e-06 2.19188e-07 
2.46391e-06 -4.17662e-07 -7.19657e-07 5.31888e-07 2.55594e-06 8.39417e-07 -6.6088e-07 -1.19753e-06 2.88759e-06 
3.27013e-06 1.07838e-06 1.51648e-06 -9.24788e-07 -2.86899e-07 -1.96964e-06 9.49189e-08 -2.61411e-06 1.00684e-06 
3.20095e-06 -3.24987e-07 1.49072e-06 2.94269e-06 -1.63038e-06 -3.31236e-07 -1.21909e-06 8.24133e-08 6.16109e-07 
-1.55796e-07 -1.55656e-06 -6.69617e-07 -3.78874e-08 4.69533e-07 -2.58759e-06 -7.23496e-07 1.43877e-06 1.00496e-06 
-0.00351506 -0.00140261 -0.017381 -5.80311e-05 -9.12651e-05 -0.00146961 -6.96683e-06 0.000124392 -8.95467e-05 
4.11716e-05 5.13409e-05 -3.90869e-05 3.09891e-05 -1.94333e-05 1.73298e-05 -2.20581e-05 -4.28614e-06 -8.48833e-06 
-6.25106e-06 1.43298e-05 9.17281e-06 5.92471e-06 1.11541e-05 5.63598e-06 8.00496e-06 -1.40057e-06 9.04051e-06 
8.11673e-06 2.67649e-06 1.50366e-06 2.15692e-06 1.82819e-06 -2.0651e-07 6.70648e-06 7.54708e-06 -7.95297e-07 
3.06625e-06 -2.99873e-06 1.72845e-06 -1.08394e-06 5.60035e-06 2.6378e-06 1.09978e-05 3.58304e-06 7.68155e-06 
-2.65475e-06 -4.90138e-06 -3.82143e-07 -1.27582e-06 -1.12411e-05 3.0289e-06 6.87732e-06 8.46892e-06 2.27126e-06 
1.89126e-06 -1.96275e-06 2.48857e-06 -1.20635e-05 -1.26297e-05 -8.34785e-06 -2.40581e-05 -1.84174e-05 1.04811e-06 
-1.7599e-06 -1.86083e-05 1.35277e-06 -3.39029e-05 -2.92839e-05 -5.08642e-06 -3.12277e-05 -1.60111e-05 9.85729e-06 
2.10462e-05 3.31756e-05 -1.36865e-06 -3.76363e-05 -1.55257e-05 1.50115e-05 -1.66726e-05 -9.62885e-06 7.45646e-06 
1.39541e-05 2.30549e-05 -6.56516e-06 2.0381e-05 1.65688e-05 -3.12375e-06 7.04898e-06 6.71212e-06 -1.58267e-06 
3.49175e-07 -5.20088e-06 9.97278e-07 1.24901e-05 8.40909e-06 5.38691e-06 1.39625e-05 1.08246e-05 -6.69307e-07 
4.62376e-06 -4.80453e-07 -1.13733e-06 3.81344e-06 9.12785e-06 -1.14179e-07 0.0083524 -1.34536e-06 -1.76656e-06 
-5.41177e-07 -9.51715e-07 -3.08953e-07 -4.70041e-08 -1.1331e-06 -1.11477e-06 -6.79467e-07 -1.80834e-06 1.30663e-07 
-1.33372e-06 9.13225e-07 -3.93095e-07 2.82416e-06 6.56606e-06 6.06374e-06 1.50558e-05 -6.7567e-06 -9.4555e-06 
2.4924e-05 -6.68286e-06 -1.47613e-05 1.39247e-05 2.0014e-06 -1.72144e-05 6.97623e-06 -1.95565e-06 -8.93386e-07 
-1.435e-05 -2.51584e-06 2.07276e-05 -1.14476e-05 -9.13872e-07 6.0287e-05 7.92342e-06 -2.81086e-05 2.68839e-05 
1.04252e-05 -3.80816e-05 -6.33257e-06 9.01389e-06 -2.67029e-05 7.06081e-06 2.4213e-05 -2.97948e-05 0.000296579 
3.42324e-05 -0.000119105 -0.000505317 0.000492497 -0.012892 -0.00398765 -0.00130691 0.00884072 0.00583552 
-0.00075228 0.0150718 0.012747 -0.0161745 0.00940148 0.00865818 -0.0159126 0.0174602 0.0183971 
-0.00993187 0.0174537 0.0182408 -0.00719592 0.0205125 0.021696 -0.00893843 0.00947585 0.00934328 
-0.0116548 0.019411 0.0193684 -0.0107674 0.0184288 0.0184505 -0.00694173 0.0192215 0.0191272 
-0.00675648 0.00967162 0.00908844 -0.0112425 0.018935 0.0195739 -0.0113389 0.0175715 0.018095 
-0.00726417 0.0164635 0.0183503 -0.00896713 0.0184504 0.0201734 -0.00719194 0.0212444 0.0172647 
-0.00924796 0.020834 0.0181429 -0.00723894 0.0211254 0.0204546 -0.00945327 0.0225847 0.0234478 
-0.00981724 0.011559 0.0104673 -0.0150001 0.00857697 0.00188184 0.00130562 0.00160716 0.000736038 
0.00244504 0.00199424 -0.000475774 0.00264807 0.00210248 -0.000671693 0.00223953 0.00226539 -0.000691871 
0.00200457 0.00228418 -0.000913604 0.00253568 0.0031335 -0.00107435 0.00240336 0.00323687 -0.00132337 
0.0023494 0.00369653 -0.00130866 0.00301873 0.00316302 -0.00127176 0.00250019 0.00342741 -0.00141818 
0.0034022 0.00495152 -0.00137969 0.0048502 0.00676248 -0.00137169 0.00892769 9.18491e-05 2.58906e-05 
-0.0142099 -0.00662736 -0.00416614 0.000918893 -0.00389896 -0.00431694 0.000281507 -0.000888112 -0.0025421 
0.00170399 -0.00467892 -0.00222645 0.00139452 -0.00223788 -0.00388196 0.00125466 -0.00265393 -0.00364218 
0.00122011 -0.00333889 -0.00399345 0.0012774 -0.0028216 -0.00382485 0.00115547 -0.00273905 -0.00372722 
0.00121234 -0.00304591 -0.00393636 0.00119378 -0.00331714 -0.00385405 0.00110741 -0.00090275 -0.00173723 
0.00224877 -0.00202964 -0.001362 0.000888635 -0.00687467 -0.00156179 -0.00102341 0.0138886 0.0154473 
-1.21313e-05 -6.9475e-07 3.69121e-06 6.1911e-06 -4.69295e-06 2.20555e-06 1.47591e-05 -0.000276671 0.0165763 
0.000239975 0.0142063 -0.00925391 0.00638884 -0.00349237 0.00939251 -0.00286404 -0.0114931 0.00896432 
0.000716608 0.010676 -0.00727182 -0.000157963 0.000428134 -0.000700579 -5.14115e-06 -0.0151747 -3.37298e-06 
7.83794e-07 4.67053e-06 -2.9639e-06 -2.25123e-06 -2.70173e-06 -1.25965e-07 -2.06421e-06 -1.85619e-06 -8.61562e-07 
-6.49101e-07 -1.25823e-06 -3.1437e-06 2.16594e-06 -7.47955e-07 -1.92058e-07 -2.91396e-06 -1.18875e-06 -2.13198e-06 
1.77634e-06 -1.61085e-06 8.29563e-08 1.13355e-07 -8.38638e-07 1.09328e-06 8.43354e-07 1.77628e-07 -7.49215e-07 
-1.88118e-06 5.88034e-07 1.65759e-06 1.4024e-07 5.3355e-07 2.55611e-07 -9.20981e-07 1.43198e-06 -2.65481e-07 
1.55426e-06 -2.24105e-07 6.92856e-07 -4.31571e-07 1.02568e-06 1.27249e-06 -1.84553e-06 9.4309e-07 3.77588e-08 
5.25054e-07 -4.70305e-07 -1.22348e-07 1.10714e-07 5.85213e-07 7.83848e-07 3.77458e-07 -5.2784e-07 -8.39382e-07 
1.10267e-07 -1.02659e-05 5.64891e-06 2.22257e-05 3.70454e-05 -3.98149e-05 0.000131015 -1.84954e-05 5.00293e-06 
-0.00213933 -0.00188264 -9.7975e-05 7.00737e-05 -1.14437e-05 6.64358e-06 2.28783e-05 -1.7481e-05 6.40781e-06 
-3.21011e-05 -6.16789e-07 -1.45995e-05 -1.40026e-05 -1.76543e-06 -1.45039e-05 1.63242e-05 -6.07742e-06 1.10437e-05 
1.63595e-05 4.74318e-06 2.89e-07 1.2993e-05 5.68226e-06 6.9612e-07 -2.71075e-06 1.57913e-06 3.47309e-07 
8.17908e-06 3.50987e-06 6.51159e-06 8.0086e-06 1.20795e-05 8.66363e-07 5.26332e-07 8.78224e-06 -1.90084e-06 
6.55281e-06 -7.29671e-06 1.5388e-05 2.85095e-06 1.38152e-05 2.34896e-06 -2.58261e-06 1.12333e-05 3.57908e-06 
1.61579e-06 3.53547e-06 -3.15124e-07 -4.99456e-06 -2.06038e-07 5.75945e-06 -1.2447e-05 -4.9194e-06 7.17566e-06 
-2.21457e-05 -6.98623e-06 2.34048e-06 -7.01171e-06 -1.82341e-05 -1.0972e-05 9.06645e-06 2.06073e-05 -8.05134e-06 
1.75145e-06 5.94629e-05 1.17634e-05 2.77404e-05 -4.77749e-06 -1.14621e-05 1.42163e-05 -9.15797e-07 -1.15947e-05 
-2.44532e-05 5.86327e-06 1.39288e-05 -1.11513e-05 -1.36866e-06 2.63757e-05 -4.00334e-06 -1.3464e-05 -4.10752e-06 
7.39554e-07 1.36556e-05 -1.44096e-06 4.859e-06 1.54607e-05 1.69712e-06 -4.62168e-07 1.00178e-05 3.68083e-06 
1.08674e-05 -9.79239e-06 2.62039e-06 2.05025e-07 3.97467e-06 5.42301e-06 3.00469e-06 -0.000276028 0.000276877 
4.10977e-08 -1.66743e-06 -7.50884e-06 -5.86777e-07 -3.02131e-06 -1.01377e-06 8.30016e-07 0.00247105 -0.00168728 
-3.19114e-06 1.09153e-05 -0.000128492 0.000306304 1.71633e-06 1.3411e-05 -6.68149e-06 -7.19503e-06 -2.82304e-05 
5.53112e-06 -1.48856e-06 7.16245e-06 -5.70115e-06 5.2683e-05 -2.94706e-06 -4.04449e-05 2.27927e-05 -1.32475e-05 
-2.00466e-05 3.69049e-05 -1.56392e-05 -3.88771e-05 -1.04609e-05 -9.04099e-06 -2.27175e-05 -5.50911e-05 2.47432e-05 
-4.12025e-07 -2.68616e-05 9.63405e-05 2.2394e-05 -5.91651e-05 0.000905525 -0.00143965 -0.000869251 0.00293851 
-0.00183139 -0.00762202 -0.0014952 -0.000763197 -0.00143734 -0.000600975 0.000604511 -0.00151549 -0.00373471 
0.000613258 -0.00209212 -0.00242407 0.000346305 -0.00198488 -0.00143796 0.000148014 -0.000463978 -0.0013414 
0.000613065 -0.00126085 -0.000537083 0.000637434 -0.00201994 -0.00204696 0.000529093 -0.0021421 -0.0013356 
0.000130945 -0.000904309 -0.00138624 0.000569193 -0.00183871 -0.00279414 0.000520832 -0.00105843 -0.00123046 
0.000570247 -0.00199223 -0.00197114 0.000757475 -0.00155563 -0.00110256 0.000853992 -0.00372665 -0.00206887 
0.000614241 -0.00256908 -0.0035947 0.000361192 -0.00220289 -0.00482427 0.000237407 -0.000118691 -0.00344362 
0.00214559 -0.000306283 -0.000585114 0.000602957 0.00255743 -0.00051148 -0.000384631 -0.000549484 -0.000273872 
4.59297e-05 -0.000472479 -0.000294281 8.82013e-05 -0.00042986 -0.000439951 6.10657e-05 -0.000435614 -0.000491528 
5.72213e-05 -0.000415202 -0.000644512 4.56157e-05 -0.000465842 -0.000584642 0.000102447 -0.000393606 -0.000661279 
9.64873e-05 -0.000417794 -0.000894739 8.16971e-05 -0.00046546 -0.0010296 1.02788e-05 -0.000404855 -0.00052743 
-0.000112096 3.42212e-05 -0.000157619 0.000197347 0.00150732 0.000174448 -0.003312 0.000159403 0.00076 
7.83515e-05 0.000337514 0.000439586 0.000586953 0.000328175 0.000443236 -5.38094e-06 0.000205633 0.000429758 
-6.78714e-05 0.000216936 0.000391114 -0.00012936 0.000209463 0.000426409 -0.00013345 0.000180887 0.000437506 
-0.000121424 0.000222558 0.000419771 -0.000142669 0.000936062 0.000756694 -3.08437e-05 0.00102841 0.000710956 
5.80782e-05 0.00035723 0.000837447 0.000589415 -9.87776e-08 1.19428e-07 8.33616e-07 1.19795e-06 6.68714e-05 
-0.000448815 -0.000141714 0.000365841 -2.78031e-05 0.000115116 -0.00026095 0.000495875 -0.00011869 6.26149e-06 
7.15667e-06 -0.000157122 -1.1497e-06 -8.83457e-06 -0.000237273 -0.00204458 -0.000419344 0.000822591 -0.000285667 
2.30808e-06 1.86049e-06 -1.80668e-07 -2.86712e-06 3.46748e-07 -2.22088e-06 9.6933e-08 -0.000894835 -0.000702462 
1.68204e-05 0.00077769 0.00359759 -0.000885972 0.000860704 -0.000332229 -0.00269802 -0.00119515 -0.00368321 
0.00057442 -0.000169449 -0.000150514 2.49384e-05 -0.000808863 -0.000155832 0.000249304 -4.51213e-06 2.85051e-06 
2.25073e-05 -3.3485e-07 -4.27397e-07 1.49862e-06 -1.73429e-06 -2.13663e-06 4.21244e-07 4.53408e-07 5.39888e-07 
-5.54681e-07 -3.42642e-06 4.59631e-06 -4.66953e-07 -5.73625e-07 -3.05035e-07 2.94017e-07 7.02432e-07 2.39447e-06 
1.34159e-06 4.92096e-07 -1.4785e-06 -4.61453e-07 5.47752e-08 -2.6958e-06 -8.24873e-07 5.67843e-07 7.63706e-07 
2.13356e-07 -1.07752e-06 9.82301e-07 -9.73429e-07 7.75057e-07 -3.34778e-07 1.33705e-07 7.52781e-07 9.99406e-07 
-4.73156e-08 6.29797e-07 -1.32311e-06 -1.45892e-06 -4.04056e-07 1.19461e-06 -2.61013e-05 -5.61714e-05 -5.14279e-06 
6.91339e-07 2.72243e-06 -2.0394e-06 -5.03249e-06 -0.000247984 0.000164097 -1.15316e-05 -1.67823e-05 -3.49192e-05 
-0.000135152 -0.000227639 8.10816e-05 1.78914e-05 2.85964e-05 8.93722e-06 1.95083e-05 -1.25338e-05 2.10781e-05 
3.98274e-06 3.11969e-06 1.52855e-05 1.11945e-05 -1.84287e-06 1.81014e-05 1.02409e-05 1.11134e-06 8.23851e-06 
1.51591e-05 5.57078e-06 7.18042e-06 7.19493e-06 -2.03211e-06 5.39324e-06 1.00754e-05 2.4835e-07 1.4345e-05 
5.10258e-06 3.86843e-06 3.42976e-06 1.26056e-05 1.81773e-05 -4.71722e-06 3.615e-06 4.64655e-06 -3.63175e-06 
5.57033e-06 4.82897e-08 -1.4334e-05 -3.46563e-06 1.25235e-05 -1.81098e-05 7.00289e-07 2.28756e-05 -6.99891e-06 
-6.93787e-06 1.02104e-05 -1.36752e-05 5.35563e-08 -7.24997e-06 -5.99962e-05 -2.33325e-05 -3.37968e-05 5.04141e-05 
-1.05837e-05 -3.4881e-05 3.39192e-06 -6.82337e-05 3.37225e-05 -6.02304e-07 9.6742e-06 5.00783e-05 1.84242e-05 
9.54864e-06 3.67876e-05 2.22494e-06 8.50278e-06 3.92301e-05 9.48912e-06 2.39064e-05 4.41348e-05 -1.68513e-06 
1.56655e-05 1.56775e-05 1.04084e-06 1.43383e-05 7.65233e-06 -3.96237e-06 1.26289e-05 -1.03831e-07 2.56066e-06 
7.53223e-06 -3.21294e-06 2.69126e-05 -6.28527e-06 -1.53318e-05 1.05085e-06 1.69596e-06 -2.9724e-06 -0.00011488 
0.000219115 3.02414e-05 -1.17264e-05 1.63403e-05 3.21756e-05 -2.70489e-05 4.28041e-05 9.28598e-06 -5.25762e-05 
9.37599e-06 -1.24072e-05 -2.63715e-05 -8.86883e-06 -2.16468e-05 1.99099e-05 -0.000368961 0.000241237 1.79334e-06 
-5.00266e-07 2.73208e-07 -1.75148e-06 3.31853e-05 6.9986e-05 -2.69216e-05 -6.3788e-05 5.63148e-06 -8.53586e-06 
4.32014e-05 3.89777e-05 8.8578e-05 3.45581e-05 -2.94091e-05 -1.21458e-05 -3.18979e-06 -3.67943e-05 -5.30813e-05 
4.42057e-05 -1.21492e-05 6.08022e-06 5.49561e-05 4.13588e-05 1.74214e-05 4.70185e-06 5.60176e-05 3.11962e-05 
4.60905e-05 6.2628e-05 1.47534e-05 4.50794e-05 1.34569e-05 7.38469e-05 4.41417e-05 -1.31977e-05 5.68568e-05 
5.2482e-05 -7.40676e-05 4.51115e-05 4.42294e-05 4.08789e-05 2.90146e-05 -0.000150115 3.20367e-05 -0.00116921 
0.000153506 5.44879e-06 -5.75944e-05 4.66068e-05 -5.36458e-05 2.78028e-05 2.63694e-05 -3.81877e-05 1.6375e-05 
2.40712e-05 -1.83459e-05 5.28337e-06 6.53129e-07 -3.49926e-05 -9.54036e-06 1.86502e-06 -3.34463e-05 -1.58484e-06 
4.96798e-06 -6.58772e-05 1.94173e-05 -2.73131e-05 -4.35832e-05 -4.78769e-05 -2.56079e-06 0.000110637 -9.79255e-05 
6.28443e-05 -3.40023e-05 8.29958e-06 9.09367e-05 -0.000183813 -5.75011e-05 -2.31972e-05 9.49933e-06 -1.07008e-05 
1.88917e-05 -2.61844e-06 -1.28213e-05 6.86591e-06 -3.69418e-05 -8.50554e-06 9.94199e-06 -7.13641e-05 1.28387e-05 
-1.45862e-05 -6.89189e-05 5.62374e-05 2.91511e-05 0.00022988 0.000170798 -3.09092e-05 0.000205554 9.72793e-05 
0.000134286 -0.000586682 -0.000245804 -3.65848e-06 -8.59691e-06 -8.99819e-05 -1.68716e-05 -5.0513e-05 -9.60928e-05 
7.50073e-06 -2.64116e-05 0.000150835 0.000298864 2.2148e-05 -0.000120184 3.15442e-05 -9.63582e-05 1.20421e-05 
-7.82974e-06 -4.65987e-05 -6.22279e-05 4.41588e-05 9.38165e-05 6.40833e-05 7.09052e-05 0.000296134 -5.13191e-05 
-0.000112864 -3.22034e-05 -3.00101e-05 2.84805e-06 -1.02597e-05 -1.50533e-05 6.67487e-07 3.86226e-06 -3.70385e-06 
0.00039547 -1.03309e-05 8.17816e-06 5.38822e-06 -1.89122e-05 9.71599e-07 -9.45967e-05 -5.50939e-05 -0.000110106 
-7.36939e-07 -1.93476e-06 -2.34967e-06 -8.99655e-08 0.000571014 -0.00023415 -1.15861e-06 2.85672e-06 2.92527e-06 
-4.00102e-06 -0.000373363 -0.000127055 8.82383e-05 -9.2651e-05 4.25974e-05 -6.20404e-06 -7.61173e-07 -2.01386e-05 
1.5041e-05 2.41063e-05 -2.93531e-05 -0.000141538 2.74848e-05 3.87386e-05 -2.82433e-05 -7.28302e-05 -6.09892e-05 
0.000197463 7.92182e-05 -7.56747e-05 4.39502e-05 -0.000394597 -0.000187409 -0.000212507 3.4273e-05 -5.52627e-05 
1.83382e-05 1.12055e-05 1.43482e-05 5.23548e-05 -2.4012e-06 0.000429204 -0.000329748 -0.0001215 -0.000170694 
-8.01435e-05 -2.69977e-05 -4.63694e-05 -1.74253e-06 6.67709e-07 0.000160922 0.000192346 -2.85159e-05 -4.83861e-05 
-1.34974e-05 -0.000226673 -0.000165798 2.07499e-05 -2.24283e-05 -0.000275933 1.9766e-05 4.64623e-05 -0.000108299 
5.27946e-05 -2.32237e-06 2.22502e-06 -1.20607e-06 -6.6314e-08 3.05425e-06 -2.60441e-06 -3.82971e-06 1.42134e-06 
-2.53057e-06 -3.10912e-07 -1.61898e-06 -3.90509e-08 -1.70814e-06 -1.69854e-07 9.91635e-07 -1.13794e-06 -3.8968e-07 
3.80877e-07 -6.93819e-07 -6.83141e-07 2.12351e-06 -4.98687e-07 1.05741e-06 4.43018e-07 5.03795e-06 -7.27553e-06 
-8.44404e-06 -6.30924e-05 -6.7342e-05 1.46403e-05 9.74476e-06 1.01796e-05 1.22618e-05 -3.62008e-06 1.21008e-05 
1.34039e-05 -4.63791e-06 1.78123e-05 7.07764e-06 -3.25692e-06 8.7567e-06 1.3691e-05 -6.82191e-07 7.15335e-06 
3.14974e-06 4.80125e-06 4.2363e-06 4.21506e-06 -4.36073e-07 3.72141e-06 9.17284e-06 -7.65687e-07 6.32212e-06 
1.72553e-06 1.373e-05 -1.03359e-05 2.26464e-06 4.10321e-06 -2.36513e-05 -7.46185e-06 2.94209e-06 -9.21799e-06 
1.31064e-07 -2.53829e-06 -4.55429e-05 -2.3837e-05 1.86021e-05 9.94667e-06 -7.60509e-05 -0.000107245 -4.94139e-05 
4.45344e-06 4.55085e-05 1.39548e-05 -2.06597e-05 0.000115958 -5.65659e-05 -2.83635e-06 -5.15712e-05 -1.78125e-05 
8.89745e-06 1.55949e-06 4.4527e-07 7.30288e-06 6.70131e-06 1.56119e-05 9.75283e-06 2.69413e-06 8.75924e-07 
1.01292e-05 -1.92282e-05 0.000205126 -8.58094e-05 2.00465e-05 -7.59234e-06 -9.29033e-06 -7.90753e-06 2.61613e-06 
1.0111e-05 5.41441e-06 -2.58196e-06 -3.5724e-06 3.69595e-05 2.98622e-05 6.14935e-05 2.35113e-05 0.000367449 
-1.92975e-05 -1.55809e-05 -3.4599e-05 9.58488e-06 6.94812e-06 -6.54933e-05 1.09543e-05 2.65668e-05 4.25387e-05 
-4.98488e-05 -4.35172e-05 -6.51102e-06 -4.11909e-06 3.04606e-06 -3.14109e-06 -1.99567e-06 -6.42263e-05 4.68245e-05 
1.09653e-05 4.53692e-05 -4.17121e-07 1.48444e-05 1.50657e-06 -4.45081e-06 -8.52943e-06 1.94386e-05 -9.39927e-07 
6.74346e-06 4.46954e-06 1.2179e-05 1.20078e-05 1.2286e-05 -3.85246e-06 8.12779e-06 9.17379e-06 3.03216e-06 
1.37544e-05 5.52562e-06 3.98709e-06 1.60122e-05 7.43948e-06 4.14033e-05 2.69784e-06 -3.11556e-06 -2.18064e-05 
8.80407e-06 2.28122e-05 4.84576e-05 -6.7952e-05 0.000178135 3.03199e-06 -4.22849e-05 2.32351e-05 2.46838e-05 
1.15305e-05 -2.26553e-05 8.283e-06 1.40485e-05 -1.65401e-05 2.26027e-06 1.16916e-05 2.99535e-05 1.93886e-05 
1.31891e-05 -3.4887e-05 -3.94807e-05 5.10904e-06 -5.81392e-05 1.93321e-05 1.39983e-05 -4.30438e-05 4.00497e-05 
6.58989e-05 1.60374e-05 -3.38287e-05 -7.09746e-06 3.47905e-05 3.03217e-05 -2.39858e-05 8.19432e-06 4.74714e-05 
-4.39797e-05 1.36758e-05 -3.67242e-05 -4.72959e-05 -2.01186e-05 0.000102716 4.23839e-05 4.38299e-05 5.87213e-05 
6.05751e-05 -0.000221242 -0.00044925 2.50116e-05 6.98964e-06 -2.41116e-05 5.38403e-06 -1.03013e-05 -1.29064e-05 
-3.72129e-05 9.79841e-07 -3.16326e-06 -3.1489e-06 5.80162e-06 6.57666e-05 4.70674e-08 -2.90727e-05 -3.55147e-06 
-1.39797e-06 2.05496e-06 1.42239e-06 -8.94706e-07 -0.000125671 5.36043e-05 -0.000133525 -9.85165e-05 -1.30004e-05 
-2.55706e-06 -7.32741e-05 -4.90798e-05 -1.56316e-06 7.48641e-05 -1.37974e-05 9.60274e-06 4.77842e-05 -5.98244e-06 
-2.4943e-05 7.14228e-05 9.70364e-05 3.36992e-05 7.57419e-06 -5.12475e-06 -5.11404e-05 -0.000162026 -9.14293e-05 
-1.42036e-05 -0.000131643 1.27881e-05 -1.06486e-05 1.22582e-06 8.4851e-06 3.18236e-05 -1.41876e-05 -6.70888e-05 
3.13166e-06 -7.2039e-05 0.000110588 -6.10332e-05 4.06518e-05 -1.44393e-06 -9.33452e-07 -2.46248e-05 -4.7379e-05 
-0.000110269 -2.29669e-05 -6.98772e-05 0.000181565 1.79415e-05 3.6404e-06 8.00069e-06 4.11749e-05 3.72108e-06 
-1.37152e-05 3.73869e-05 -1.05566e-06 1.77018e-06 -5.69436e-06 -3.6057e-05 0.00010529 5.76259e-05 -2.87134e-06 
1.2984e-05 -3.50784e-05 3.24641e-05 -2.50888e-06 -4.10411e-05 -5.54136e-05 4.78859e-05 5.15483e-05 1.57337e-05 
-0.000211411 0.000197638 7.18912e-05 -5.35731e-05 4.50338e-05 -2.12732e-05 0.000136133 1.30388e-05 -1.01099e-05 
2.2224e-06 -1.52344e-05 1.73599e-05 -0.00011068 -0.00017758 -6.00483e-05 -2.31336e-05 -1.15358e-05 2.72241e-05 
1.92959e-05 -2.27624e-05 7.03379e-05 1.5217e-05 6.21604e-07 2.47819e-05 2.8581e-05 -3.43903e-05 1.99327e-05 
1.02813e-06 -7.22157e-05 5.74405e-06 -4.11714e-06 3.1957e-06 1.75455e-06 -2.96239e-07 6.53818e-07 1.38841e-06 
2.0111e-05 7.51876e-06 1.34208e-05 9.71048e-06 1.17782e-05 -1.11426e-06 -7.48835e-06 3.73558e-05 -1.16967e-05 
2.84854e-05 5.36012e-06 -3.25137e-07 1.30631e-05 1.06194e-05 -5.27375e-06 -4.39649e-06 5.55652e-06 3.19061e-07 
-3.98252e-06 -7.73149e-07 5.81873e-06 -1.44039e-05 -6.82502e-07 -3.05672e-06 -1.68e-06 1.25134e-05 1.52249e-05 
8.89332e-06 1.76579e-05 9.87453e-06 4.62155e-07 -1.33543e-05 2.26614e-06 -2.95639e-06 -2.29313e-05 -1.80533e-05 
3.19911e-05 1.19792e-05 1.56976e-05 3.32413e-06 -3.06636e-06 -1.53665e-05 7.81098e-05 2.02782e-05 2.42468e-05 
0.000106658 3.12236e-05 -2.08738e-05 -9.1102e-06 3.73234e-05 1.48082e-05 4.70663e-06 1.52974e-05 1.4235e-05 
-2.1461e-05 -4.29006e-05 7.02708e-05 3.54935e-06 9.34998e-06 1.02007e-05 1.93825e-05 -2.13233e-05 4.16401e-05 
-1.35112e-05 -2.69795e-05 -4.04917e-06 1.30413e-06 -9.67208e-06 -1.4468e-06 -1.22527e-05 -4.78763e-05 -3.97702e-05 
-1.83248e-05 -3.66629e-05 1.05089e-05 -3.35991e-06 2.31432e-05 2.02849e-05 -2.01262e-05 -1.93073e-05 5.618e-05 
-7.2854e-05 -2.85248e-05 1.73436e-05 -9.50365e-06 1.09517e-05 -6.05056e-06 8.28219e-06 -8.35039e-06 5.1347e-06 
2.55152e-06 9.20333e-06 7.20476e-06 -2.3357e-06 -4.51937e-06 -1.70376e-05 4.63869e-06 -6.1552e-06 3.16611e-06 
1.74422e-05 -1.23399e-05 4.45689e-05 1.42617e-06 1.84878e-05 9.27749e-06 4.44303e-05 5.20893e-05 -9.94408e-05 
8.04613e-05 1.05363e-06 -1.41795e-05 5.36949e-05 2.83039e-06 -4.20329e-06 -4.13473e-06 6.80666e-06 -2.65864e-06 
1.51417e-06 5.94987e-06 -3.93116e-06 -4.70369e-05 -4.15735e-05 -1.90005e-05 2.48006e-06 -2.79425e-05 6.1626e-05 
-6.80852e-06 -1.0498e-05 3.32478e-05 -4.529e-05 -3.7224e-05 2.76398e-05 -9.6176e-06 1.59725e-05 6.28079e-05 
3.50424e-05 -5.2219e-06 2.9827e-05 -0.000101504 -1.73475e-05 6.02592e-05 1.12021e-05 2.15455e-05 -2.26821e-05 
4.45373e-05 9.03009e-06 3.07906e-05 -5.63157e-05 4.15923e-06 2.06766e-06 2.64695e-07 2.24503e-06 4.92662e-06 
-9.8362e-06 -6.10832e-06 -7.65919e-05 1.42836e-05 -5.92295e-06 -6.70379e-06 -3.36662e-05 1.87624e-06 1.37338e-05 
-3.35405e-05 -1.17787e-05 -2.11629e-06 -2.07807e-05 7.52451e-06 -4.74327e-05 3.15531e-06 -4.65409e-07 -3.71559e-06 
5.82355e-06 1.07217e-05 -2.63761e-05 -3.39335e-05 6.82203e-06 -3.02648e-06 -4.6362e-05 1.32103e-05 -9.22716e-06 
1.76021e-05 6.4124e-06 -0.000133706 -2.89676e-05 1.23229e-05 1.21061e-05 -8.44369e-06 -6.95978e-06 4.23455e-05 
-2.22598e-05 1.95239e-05 -1.55408e-05 4.37223e-05 -1.51347e-05 -5.90328e-06 3.71279e-07 -7.60383e-06 1.19198e-05 
2.4032e-05 2.98778e-05 3.25512e-05 2.50768e-05 6.72004e-06 3.11463e-06 -1.53415e-05 -1.53038e-05 2.3281e-05 
-7.39043e-06 5.48089e-06 -1.68024e-06 -1.19744e-05 -6.01021e-05 -4.07544e-05 2.16845e-07 -1.50066e-05 8.52592e-06 
2.80241e-05 -6.8629e-06 -4.79609e-05 -4.28813e-05 -2.09109e-05 -5.8437e-05 -0.000117376 -1.97489e-05 3.15679e-06 
5.46086e-06 -1.39436e-05 -6.26059e-06 -6.60936e-06 3.71758e-05 -6.1519e-05 6.08519e-06 -1.54767e-05 -4.73039e-06 
5.52474e-06 5.39009e-06 -1.29087e-05 7.62616e-06 1.77973e-05 -3.38604e-05 -4.73227e-05 -8.50885e-05 1.45365e-05 
-6.98516e-06 1.28495e-05 1.44883e-05 2.7815e-05 2.71897e-05 -1.30042e-05 2.04782e-05 -9.42232e-06 -1.14609e-06 
-1.93149e-05 1.35101e-05 6.68666e-06 8.61069e-06 4.89639e-05 -3.45765e-05 -2.46682e-05 5.7653e-05 5.06271e-06 
-1.01507e-05 8.70166e-06 -6.58923e-08 2.09183e-05 7.57541e-06 -2.10475e-05 -2.00224e-05 4.45096e-05 7.51076e-05 
1.229e-05 2.83722e-05 1.28726e-05 3.24985e-05 -4.54033e-05 3.88013e-06 8.20876e-06 1.48097e-05 -6.96815e-06 
-1.10178e-05 -9.37364e-07 -7.30193e-06 1.33492e-05 -1.59405e-05 8.58694e-06 2.34623e-06 7.21912e-06 -1.58051e-06 
-1.76187e-05 6.07214e-05 6.88639e-06 -2.28265e-05 8.15353e-06 8.93133e-06 -7.03396e-06 8.1096e-06 -8.01136e-06 
-1.48575e-05 1.46424e-05 -2.40448e-06 5.63969e-06 7.75871e-05 7.53995e-06 3.21123e-05 -3.2683e-07 -1.72219e-05 
-3.72258e-05 5.54183e-05 -1.734e-05 1.84458e-05 -3.72506e-05 -4.38821e-05 -6.07953e-06 1.12009e-05 -1.25046e-05 
-7.55689e-06 7.89527e-06 -9.47534e-06 -2.55137e-05 -1.87915e-05 -5.35208e-06 1.13244e-05 2.90934e-05 3.61431e-05 
3.05291e-07 -2.25005e-05 5.06426e-05 -3.31999e-05 3.55635e-05 6.06857e-06 -3.80867e-06 1.36508e-06 2.47778e-05 
2.16039e-05 -6.02492e-06 1.1346e-06 -3.25708e-06 -7.7914e-06 3.34225e-06 1.82638e-05 -3.67166e-05 -2.15131e-05 
1.8652e-06 3.79e-05 -8.58848e-06 -1.78317e-05 3.14774e-05 -6.82865e-06 4.47358e-05 2.10174e-05 4.42143e-05 
2.23805e-06 9.50474e-06 3.54581e-05 4.80935e-05 -2.33459e-06 -7.11413e-06 -2.04675e-05 -2.0747e-05 -7.19046e-05 
-1.03909e-05 1.81739e-06 -6.71491e-05 -1.67832e-06 2.31259e-05 -2.30307e-05 3.24152e-06 -2.45175e-05 -3.90445e-06 
9.36032e-05 2.77256e-05 -1.16998e-05 -5.62723e-06 7.15944e-06 1.81664e-05 4.37136e-05 1.19109e-05 -1.51079e-05 
5.48437e-05 2.70163e-05 -7.35538e-05 -1.82398e-05 5.54635e-05 2.63547e-05 -2.95497e-05 1.82243e-05 -6.17212e-05 
-4.99556e-06 1.80002e-06 -0.0384162 0.0144537 1.47948e-06 1.66123e-06 2.05298e-06 1.15574e-07 6.86041e-07 
-1.0417e-06 8.46927e-07 -1.01581e-06 1.37756e-06 9.56118e-07 6.09846e-05 -0.000206409 0.00024183 0.000496994 
-0.000612539 -0.000774906 -0.000661395 -0.00120469 0.00391559 -0.000126632 6.0321e-05 -4.21513e-06 -2.13143e-06 
1.40916e-05 3.94787e-06 2.62073e-05 -4.26529e-05 -0.000102579 -5.26885e-06 3.25264e-05 8.96707e-06 -1.78359e-05 
4.17975e-05 -4.49569e-05 5.50091e-05 -5.53017e-05 4.72921e-05 -2.93704e-05 4.61169e-05 -0.000102893 4.26715e-05 
0.0420969 -3.4201e-06 1.80538e-05 -0.0112946 -0.00391859 -0.00216825 -0.000356128 -2.27384e-05 -5.78179e-05 
-0.000124498 -0.000144639 -0.000123856 -0.000116458 -0.000130577 -1.61109e-05 -3.24209e-05 -4.17203e-05 -3.99314e-05 
-3.56859e-05 -3.18237e-05 -4.1664e-05 -4.70459e-05 -1.97204e-05 -2.19193e-05 -1.83181e-05 -1.19872e-05 -1.40455e-05 
-2.09343e-05 -1.97405e-05 -1.9048e-05 -1.48526e-05 -2.46962e-06 -6.02147e-06 -5.66633e-06 -2.60322e-05 -2.83466e-05 
-2.14996e-05 -1.83204e-05 -7.78603e-06 -7.88368e-06 1.7049e-06 -5.89161e-06 -2.25914e-05 -1.16398e-05 -1.35333e-05 
2.47698e-06 3.07584e-06 -1.65219e-05 -2.65281e-05 -5.38126e-05 3.75265e-05 4.21756e-05 4.05857e-05 1.97194e-05 
1.18763e-05 3.71089e-06 2.87036e-06 1.08119e-05 9.61307e-06 2.39772e-05 2.3042e-05 2.39638e-05 1.66461e-06 
-3.43559e-07 -1.80148e-06 -1.21593e-06 3.56324e-06 4.4746e-06 -1.63911e-06 3.33652e-06 1.20075e-05 1.0462e-05 
-2.13123e-05 -4.43687e-05 -2.29206e-05 -1.64047e-05 -0.000113024 -3.76292e-05 -2.40109e-05 -1.45188e-05 -7.67389e-06 
1.25628e-05 -2.91542e-06 -7.93336e-06 3.04985e-07 1.265e-06 -6.13709e-06 6.05689e-06 -4.03764e-06 -5.12714e-06 
1.08885e-06 -3.16178e-06 5.38299e-06 1.47455e-06 -4.09751e-06 4.52782e-06 5.84879e-06 4.76701e-06 6.90455e-06 
6.41318e-06 6.66764e-06 -1.73182e-07 -1.89235e-06 5.71224e-06 2.02336e-06 5.07901e-06 -3.3992e-06 1.54225e-06 
-3.85138e-06 -1.31805e-06 2.35959e-06 -2.90867e-06 -4.6966e-06 -1.95547e-06 -4.2257e-06 -2.88778e-06 -2.78771e-06 
5.19497e-07 1.38725e-06 -3.46995e-06 -1.11972e-06 -2.76279e-06 1.50097e-06 -5.81938e-07 1.79615e-06 -4.23199e-07 
1.34024e-06 -9.35428e-07 -1.20732e-05 6.33387e-06 5.56021e-06 -2.89232e-06 -2.92809e-06 -0.000988353 0.0313196 
0.00555429 0.00199995 0.00221237 0.00130245 0.00323551 -0.00192226 0.00270654 -0.000408613 0.000877179 
0.000103568 0.00105141 -0.000976093 0.00110468 -0.00119197 -0.000410884 0.000170461 0.00215333 0.000639578 
-0.00131249 -0.000593251 -0.011063 -0.014773 -0.000194126 -0.00261104 -0.065229 -0.00848941 -0.00645245 
-0.00766088 -0.00333773 -0.00225773 -0.0011684 0.00062374 -0.000685451 0.00285711 0.000508206 0.00146083 
0.000485355 -0.00115552 0.000552363 0.000577667 0.00165041 0.000632201 -0.00132979 0.00254369 -0.00126259 
-0.00148556 0.00531806 -0.00464823 0.015978 0.00679674 -0.0182935 -0.0147079 0.00845291 0.00711778 
0.0180725 0.00289717 -0.00541846 0.00267582 0.0017904 -0.000920378 -0.00175617 -0.000180606 0.000538496 
0.000330107 0.00317004 0.0013277 0.0010315 0.00136397 0.00123633 0.00139289 2.18745e-05 0.00295802 
0.000988282 -0.00316062 0.00168924 0.00435841 -0.00926851 -0.005093 0.00355258 0.00793659 0.00223232 
-0.00400057 0.000797579 -0.00657789 -0.0145981 0.00317681 -0.0017358 -0.00650194 -0.00327222 0.00399455 
0.00377234 -0.00226866 -0.00200632 -0.00181894 -0.00142457 0.0197102 0.00382875 0.00377032 0.00329772 
-0.000814038 -0.001333 0.00387784 -0.00403661 0.00605471 -0.00338492 -0.00256804 0.00417182 -3.53859e-07 
-1.25156e-06 9.87895e-08 -1.08149e-06 -7.62275e-07 -2.52975e-06 -1.69834e-07 0.00265642 7.26702e-07 2.05886e-06 
-2.75558e-07 -3.70434e-07 8.29252e-05 -3.97406e-05 0.000184383 0.00226183 -0.000113312 5.74706e-05 -0.000189748 
-0.00301361 -0.00865212 -0.00798432 5.50752e-05 -1.34093e-05 5.21287e-05 -3.05869e-06 1.99436e-05 6.16201e-06 
0.00100488 0.00114026 0.000549522 -4.25823e-08 -2.83314e-06 4.00679e-06 0.0217945 0.00096987 -0.0200968 
3.65313e-06 1.61574e-06 -4.86911e-07 0.0220479 0.0201081 1.05593e-06 -5.57234e-06 -7.24784e-07 0.000471527 
0.000757326 -0.00308959 0.00307431 0.0206247 9.89065e-07 3.80775e-06 9.4412e-06 -8.54913e-07 -1.64293e-06 
-0.0073013 -0.00844367 0.0299557 0.0265313 -1.90458e-07 1.13765e-05 -9.24328e-06 -1.64503e-06 -1.3974e-05 
8.48645e-06 2.26877e-07 -5.00883e-05 -4.07611e-05 1.96693e-05 7.92317e-05 3.77965e-06 6.46662e-05 -0.000129672 
-0.000265852 -1.22999e-05 6.10935e-06 1.89233e-06 5.0567e-06 -0.000133058 -0.000116269 -3.68908e-06 2.20262e-05 
1.75718e-05 1.52519e-05 -0.00315349 -0.00160064 0.000864434 3.50399e-05 3.46391e-06 -0.000114553 1.10628e-05 
-5.02106e-05 3.10077e-05 3.90252e-05 -4.9431e-07 2.24746e-06 3.38776e-07 2.48653e-05 -1.12928e-05 -1.92684e-05 
2.36963e-06 4.40138e-06 3.83906e-05 -5.47124e-06 1.38435e-05 -1.10938e-07 -4.61535e-08 -1.45721e-07 -7.52775e-07 
-8.47259e-06 -2.31748e-06 -2.28426e-06 2.66699e-06 2.9801e-05 1.33831e-05 8.11657e-06 3.48703e-05 2.7643e-05 
1.67702e-06 -1.28309e-06 9.00299e-06 -2.29928e-05 -9.90428e-07 -2.95576e-06 2.1936e-06 -0.000174057 0.000221833 
-5.46715e-06 5.21882e-07 2.94401e-06 -3.86797e-07 -1.73907e-06 -1.05236e-05 1.67599e-05 1.49374e-05 -1.01033e-05 
-1.1633e-05 1.02185e-05 1.13157e-05 -9.45026e-06 2.31238e-05 2.43125e-05 7.69e-06 -2.24234e-06 6.62079e-06 
3.33038e-06 -7.43826e-06 -8.65051e-07 -0.00454987 0.00511781 -0.0129912 -0.000426201 -0.000372633 -1.46347e-05 
-0.000313735 5.728e-05 -2.08384e-07 1.93717e-06 3.50952e-07 1.45551e-06 0.000191775 0.000799684 0.0114821 
0.000896246 -0.00106345 0.000292012 -1.39666e-05 -1.63523e-05 6.74758e-06 5.2051e-06 -1.05529e-06 1.63455e-06 
-1.97456e-06 1.22365e-06 -8.08027e-07 -1.40726e-07 0.00881958 -0.00708225 0.00428407 2.65315e-05 -9.56207e-06 
-6.55394e-05 -5.14426e-07 -9.62505e-07 -4.61878e-07 3.09575e-06 2.47264e-06 -1.02397e-05 -3.04861e-06 -4.59145e-06 
-1.08006e-05 9.88654e-07 4.56278e-05 3.7941e-05 2.29638e-05 -5.36128e-05 -0.00016246 5.81201e-05 -1.96566e-05 
3.31216e-05 -0.000187381 -1.65947e-06 -5.2478e-05 2.91182e-05 3.31256e-05 3.21137e-05 5.5429e-06 -1.32814e-05 
9.3505e-05 3.12387e-06 3.46152e-06 3.05618e-06 1.83288e-07 -1.73644e-06 6.53602e-07 6.06117e-07 -6.1584e-06 
-2.25417e-05 -0.00381138 -0.0094966 -0.00286404 -0.0035179 -0.00819467 -0.00911995 -4.49542e-05 -2.24689e-05 
2.41614e-05 3.23736e-05 -7.21502e-06 -8.31121e-06 -1.14892e-05 1.74954e-06 5.33383e-06 -0.000323466 -0.0012058 
0.00092121 8.54376e-08 -6.10445e-07 -2.72469e-07 -2.5357e-06 0.000139659 -0.000125925 5.03351e-05 0.00249628 
1.23798e-06 1.84026e-05 -3.24359e-05 0.00067399 -0.00131512 -0.000900577 -1.64212e-06 -2.29114e-07 -2.31027e-06 
-3.32714e-06 1.18575e-05 9.35707e-06 -8.46299e-06 1.21419e-05 1.71055e-06 -1.21192e-05 -2.24497e-05 6.80528e-06 
-9.28753e-06 1.18567e-05 4.03745e-06 -1.3306e-05 -4.85694e-07 -5.51233e-05 5.07636e-06 -3.81914e-06 -2.29231e-05 
4.12734e-06 2.49338e-06 -1.11905e-05 -0.00119459 -0.00309195 0.00140999 -8.21979e-07 2.85229e-06 2.33235e-07 
1.46496e-06 -1.95982e-06 -7.15482e-06 1.15329e-05 -2.49785e-06 7.04058e-06 4.63224e-07 2.511e-07 -7.69171e-06 
-3.69609e-06 3.28333e-07 -0.000924267 -0.000873856 -1.21408e-07 1.14522e-05 8.67889e-06 8.45023e-06 -1.14264e-05 
-2.27902e-05 2.4145e-06 2.95326e-05 -7.43442e-05 2.4626e-05 1.23244e-05 -1.18252e-05 -2.0542e-05 0.000950148 
-0.000211833 -4.64356e-06 2.30503e-05 4.0549e-05 -9.60165e-05 -6.47966e-05 9.10948e-05 0.00404676 0.000287617 
0.000262189 2.60581e-05 -2.74465e-06 6.18673e-06 5.02273e-06 -2.01254e-05 5.8534e-05 6.5184e-05 -0.000359163 
2.15712e-05 9.6305e-06 1.29741e-05 -5.49194e-06 -4.33797e-06 -4.98964e-06 6.76091e-06 -3.51806e-05 4.91182e-07 
9.63008e-06 -2.83007e-08 -5.21565e-06 -1.09714e-05 -1.48278e-05 5.64802e-06 8.54643e-06 -5.11821e-05 -0.00347072 
-1.64151e-07 -6.80217e-07 2.36082e-06 1.61126e-07 -5.64241e-07 -1.66188e-05 1.13075e-05 -1.20948e-05 3.36426e-05 
5.63061e-05 -0.000133264 -0.00077147 0.00133189 -0.00327925 1.30356e-05 -6.87015e-06 1.04602e-05 -5.27913e-07 
-0.000150473 -0.000215665 0.000497188 0.00235038 8.45312e-06 -1.74237e-05 -2.4908e-05 2.64827e-05 8.20027e-06 
4.82246e-05 7.61877e-06 -1.30193e-05 0.0011509 -0.000398882 -0.000485447 2.41512e-05 -0.000123187 -5.85732e-06 
-0.00168129 0.000402739 -2.43234e-05 2.31906e-05 4.8371e-05 -0.000399339 0.0264362 -0.00886527 0.0241083 
-1.56724e-06 3.36202e-06 -1.79992e-06 -1.83574e-07 -1.92439e-05 6.2958e-06 3.62045e-05 -3.21549e-06 0.000293313 
0.000693767 2.78326e-05 1.79547e-05 -2.55591e-05 2.40433e-06 -4.66201e-05 -2.73564e-05 -1.04683e-06 -7.25754e-07 
9.54368e-05 1.05799e-06 -1.31301e-06 3.05282e-07 -2.06954e-05 4.44495e-05 -3.00249e-05 4.69955e-05 -0.000130902 
6.22156e-07 -0.000149632 5.76165e-05 1.33995e-06 -1.92301e-07 -1.37423e-06 3.20803e-06 -8.63892e-06 1.25078e-05 
-1.97426e-05 5.96706e-06 -7.83354e-06 1.34526e-06 -0.0197758 -8.61902e-07 -2.67658e-06 -9.00942e-06 2.74002e-06 
4.23902e-05 1.86003e-07 1.87764e-06 -0.019582 0.0190936 0.00160517 -1.54349e-05 -4.58358e-05 -3.87256e-05 
1.97443e-06 -1.91752e-06 -3.33559e-06 6.32295e-07 4.76404e-06 2.62856e-05 4.37256e-05 1.25687e-07 1.90987e-07 
8.73348e-07 -3.77139e-06 5.55818e-08 -3.67331e-06 3.10367e-05 -0.00424655 0.000123434 0.00137315 -1.21456e-05 
-1.02639e-05 1.05663e-05 4.2401e-06 -7.82193e-05 -3.21117e-05 -0.00327371 -7.76894e-07 8.43985e-06 -1.05502e-05 
-8.97859e-06 1.92655e-05 3.6448e-05 -0.000170743 0.000219715 -5.23094e-05 1.41871e-05 -9.28865e-05 3.72979e-05 
2.02847e-05 -1.06651e-05 -0.000115131 8.17938e-05 7.26367e-05 0.00463541 0.00113547 8.73023e-05 -0.00409796 
7.29708e-05 1.65932e-05 -3.8532e-05 -8.63676e-05 1.26792e-05 2.44773e-05 -7.27545e-06 -9.33861e-06 -3.31819e-06 
-9.63123e-06 1.44615e-05 1.39325e-05 -1.53011e-05 -1.56012e-06 1.17395e-06 -8.99635e-07 -2.43959e-05 4.59035e-05 
1.33044e-06 2.38806e-05 0.00116559 0.000456881 -0.000590421 5.29479e-05 -8.82177e-06 9.60107e-07 -8.72994e-06 
1.45139e-05 -4.67526e-05 -2.75412e-05 3.33965e-05 0.000115894 -6.02857e-06 -3.96463e-06 -2.24818e-05 -2.30774e-06 
-0.00134116 -1.19401e-05 -5.52842e-05 4.07888e-05 -9.63392e-05 -5.16766e-05 2.17579e-06 5.10126e-06 -5.21657e-06 
-9.28476e-06 -2.45715e-05 -0.000135264 2.4976e-05 4.58157e-05 -1.07543e-05 -1.12836e-05 2.18467e-05 8.29281e-06 
-1.79573e-06 2.09311e-07 -6.11984e-05 -4.47174e-05 9.055e-06 5.80728e-05 1.54947e-05 -0.000123108 2.30135e-05 
5.69949e-06 -1.90893e-05 9.92175e-06 -3.18333e-05 1.8953e-05 0.000117855 0.000146896 -4.56521e-05 -0.000120822 
3.60896e-05 9.8212e-05 -2.7051e-06 1.27994e-06 -0.000184286 8.1095e-05 -2.04157e-05 -0.000100709 7.43152e-07 
4.34863e-06 -3.3265e-06 -1.32953e-05 3.51163e-05 -5.46322e-05 8.35139e-07 -4.77745e-08 -1.05992e-06 3.17182e-06 
3.14445e-05 -9.50092e-05 -8.73967e-06 -1.11417e-05 -2.00762e-05 -1.12952e-05 1.05164e-06 4.17599e-07 9.24738e-08 
-1.58594e-06 -5.29452e-06 -0.00190175 0.00118436 -0.000101802 0.00017866 7.50457e-05 8.72455e-05 0.000183143 
-8.08715e-05 8.75372e-07 1.53947e-06 7.97719e-07 1.95402e-06 9.86048e-06 3.43891e-05 1.03621e-05 -1.36522e-05 
0.00216113 -0.000142555 0.000117468 2.66069e-05 -1.79751e-05 -2.79601e-05 3.40522e-07 -0.000162202 -8.07986e-07 
1.41991e-06 -4.01408e-06 -3.34297e-06 4.83219e-05 -6.48944e-05 8.74199e-05 -5.35872e-05 2.77809e-05 0.00010528 
0.000153808 0.000107832 6.87676e-05 -6.75762e-05 0.00112708 0.000611771 -0.00112532 7.57651e-07 2.63873e-05 
-7.00529e-05 -1.01383e-05 0.000132026 1.38861e-05 1.82305e-05 -4.45914e-05 -1.24882e-05 -9.21383e-06 -6.95518e-06 
-8.54287e-05 0.000210636 9.89803e-07 1.23099e-06 5.04108e-06 -8.51165e-06 -1.88341e-06 1.94425e-06 0.000478365 
-0.00141271 0.00151383 -5.94593e-06 5.16345e-06 -6.64908e-06 4.39265e-07 -1.35995e-05 -2.97073e-05 2.85623e-06 
4.20715e-07 0.00014185 -0.000580634 0.00106565 -4.79187e-07 -8.80514e-07 1.3228e-06 2.96941e-06 -2.06916e-06 
8.08796e-07 4.37129e-07 -6.23205e-07 3.90626e-07 -0.00929121 -0.00130129 0.00108219 -0.000340453 0.0208876 
-1.22648e-06 5.02989e-06 1.54562e-05 -2.0597e-05 3.53893e-05 6.98953e-06 9.37557e-06 2.33273e-05 6.82831e-06 
-6.84307e-06 -1.1924e-06 -1.19222e-06 4.41337e-05 6.68628e-06 -8.41764e-06 4.76372e-05 -0.000137426 -1.45991e-05 
-5.36085e-07 2.61488e-07 -8.17481e-06 -7.42692e-06 5.15987e-06 2.18766e-05 -3.70884e-05 -0.0204573 -1.66065e-05 
8.08091e-06 2.64311e-05 -5.19083e-05 2.10066e-05 -2.54931e-05 1.90812e-06 -1.06388e-05 2.15539e-05 -8.92837e-06 
-1.55294e-07 -1.58536e-05 3.56381e-05 1.51492e-05 -3.14861e-07 -9.61311e-08 -1.50282e-06 8.77731e-06 -1.73374e-05 
1.07817e-05 3.92483e-07 0.000148673 -2.03392e-05 -1.25289e-05 6.07916e-06 1.28308e-05 5.5967e-05 -7.59086e-07 
8.69207e-07 3.28587e-05 -1.70649e-06 -1.67532e-05 -2.21612e-05 1.13825e-05 7.49768e-07 -1.42406e-05 -1.26151e-05 
-1.9516e-06 -1.57822e-05 1.73172e-05 -0.000331401 -0.0006215 -0.000282122 -1.94505e-05 -6.80058e-06 1.42661e-05 
-8.26376e-07 2.43898e-05 2.15316e-05 2.27903e-05 1.93897e-05 -2.15632e-05 -1.75919e-05 1.09103e-06 -4.34016e-07 
-0.00196251 -9.59381e-05 1.14279e-05 4.84365e-06 2.13165e-05 7.20263e-06 2.74064e-05 3.58401e-05 -1.75326e-05 
2.36507e-05 6.25242e-05 0.000288558 -8.62456e-05 -0.000686001 -0.00306073 -5.55801e-06 -2.40973e-06 2.66789e-05 
-1.08183e-05 3.97272e-05 -1.06842e-05 0.00013634 0.000136222 6.35728e-05 7.91054e-06 -8.97527e-05 2.44647e-05 
6.13888e-05 -0.000146636 1.75001e-06 3.74997e-05 -1.70477e-06 5.04103e-05 1.37078e-06 6.96367e-07 -3.65743e-06 
2.57844e-06 -1.77232e-06 -2.44591e-06 1.22101e-05 7.46037e-06 -1.99885e-05 -2.94845e-05 3.50432e-05 5.08851e-06 
-2.72578e-06 1.42824e-05 2.1185e-05 -1.92505e-05 -6.03248e-06 -3.53851e-05 -9.63903e-05 4.4488e-05 -1.0729e-05 
-6.7165e-05 2.55316e-05 -6.62845e-06 5.32214e-06 -1.70153e-05 0.000947885 9.48204e-05 -8.86793e-05 0.021724 
-0.000928269 4.15422e-06 -1.15417e-06 -7.98822e-06 -0.000688564 -0.00313303 0.00261299 0.000770209 0.00957385 
-0.00824949 -0.000405806 -0.000108055 -0.000158949 1.63556e-05 1.37452e-05 -0.000103274 -0.000281777 -4.44929e-05 
0.000176225 -0.000174936 2.37121e-05 4.14213e-05 0.000780558 0.0215339 0.00198109 -0.000793157 0.0052732 
0.000828375 -0.0034193 -3.7957e-05 -1.69231e-05 1.6395e-06 1.2851e-06 0.000323183 4.2723e-06 -0.000452817 
0.000159384 -1.27409e-05 -3.14041e-05 2.93699e-05 0.000524541 0.000778615 1.71567e-05 -6.4473e-05 0.00406128 
0.00018207 -0.00130154 1.16011e-05 1.20354e-06 -5.99405e-06 2.44398e-06 -6.4017e-06 -0.000266351 9.57838e-06 
-1.84465e-05 1.77937e-05 -9.48529e-06 0.00101544 -0.00203538 1.87985e-07 -6.7177e-07 -0.000264556 0.00105941 
-0.000183421 0.000654353 -0.0169048 -0.0173923 0.00550214 0.00273222 -1.71043e-05 -5.01671e-06 5.36957e-06 
-2.05509e-05 4.13894e-06 7.79042e-06 2.78819e-06 1.01058e-05 4.68845e-06 -0.000115069 4.44905e-05 0.000463995 
0.000601716 -9.62792e-05 3.11232e-05 -5.94132e-05 0.000642231 -0.000933893 1.7142e-05 -4.81396e-05 -2.71853e-07 
5.27809e-07 -7.31333e-06 -6.59947e-06 4.32589e-06 3.23593e-06 3.36026e-06 -1.33102e-05 -6.11052e-05 -6.51001e-06 
1.82489e-05 1.71622e-05 2.80057e-06 -2.59919e-06 1.02711e-05 1.21975e-05 1.02648e-05 -3.46902e-05 4.83333e-06 
-2.25781e-05 3.94856e-06 -9.70415e-06 0.000158951 0.000104919 3.3676e-05 3.32201e-05 -3.23126e-06 -5.49271e-05 
6.79629e-05 -5.83856e-07 -4.57238e-07 3.31229e-07 -1.07059e-05 3.21263e-06 -2.60204e-05 1.11633e-05 -1.48117e-05 
5.60431e-07 1.57316e-06 -6.78312e-07 -5.56594e-08 5.41516e-07 1.86514e-06 6.6832e-05 -0.000145796 -1.50808e-05 
-2.04727e-05 1.07063e-06 1.11575e-05 4.40256e-07 1.19632e-06 5.06772e-05 -4.13572e-08 5.60971e-06 -7.67238e-06 
1.79095e-05 -9.30732e-06 1.00312e-06 1.77878e-06 -5.3049e-06 -1.41513e-06 -1.23649e-05 -0.00021392 -5.03354e-05 
1.56036e-07 4.7463e-07 2.5117e-05 1.39612e-05 2.59809e-05 7.70487e-05 3.34281e-05 -2.11431e-05 3.58194e-07 
8.87309e-08 -6.27556e-10 2.31001e-05 0.000109134 -1.71615e-06 -4.38385e-06 1.16248e-06 -0.00876861 -2.17488e-05 
-1.49553e-05 3.99423e-05 0.000118799 -0.000150266 -4.73889e-06 1.08273e-05 -2.12912e-07 -4.5458e-07 -2.39355e-07 
-6.05116e-06 -2.136e-05 0.00449228 4.91069e-05 4.52856e-05 -2.9896e-05 -1.54574e-05 -0.000159515 -8.9217e-06 
-1.09367e-05 2.44594e-06 -1.04731e-05 1.07463e-06 8.03235e-06 -4.76255e-07 6.59112e-07 9.44408e-07 -0.00265478 
-4.21247e-07 -2.09206e-06 -6.11985e-06 4.16597e-06 9.4164e-06 3.80677e-06 -3.18758e-06 1.94422e-05 2.54804e-05 
-4.88174e-07 1.15125e-06 2.42278e-08 3.56792e-07 1.41782e-05 -2.07121e-05 -1.80002e-05 1.01431e-06 1.00188e-05 
8.66527e-06 -1.81643e-05 0.0217917 -8.05108e-06 3.4664e-05 -2.15008e-05 -1.39837e-08 1.56519e-05 4.93204e-05 
-1.41013e-05 -5.6711e-06 3.26511e-06 5.70364e-06 7.70666e-06 -6.12874e-06 0.0116539 0.0291119 2.49468e-05 
-2.42998e-05 1.9779e-05 3.25564e-06 2.68559e-06 5.90746e-07 1.75429e-06 4.00591e-05 2.41038e-06 -8.11936e-07 
1.52368e-06 -4.23306e-06 2.08873e-05 1.65201e-05 6.66554e-06 -1.49033e-05 -0.00348186 -0.00519727 0.00122835 
0.00122574 0.000593349 -0.00119188 -0.00292315 -0.00330305 0.000953329 -4.60525e-06 -1.98654e-06 -4.4499e-06 
3.29981e-07 -3.85832e-05 -1.91676e-05 -0.000100661 -3.85815e-05 -0.0220117 -0.00302241 0.00236402 -0.000451654 
-4.03955e-05 1.1487e-05 4.28249e-05 7.63757e-06 5.76754e-06 4.14241e-07 7.64049e-07 -9.38198e-08 -2.1669e-05 
8.16682e-05 9.04515e-07 -2.49172e-05 -6.82575e-06 5.14942e-05 -0.00367586 -0.00146619 -0.00337849 0.000976387 
0.0039764 0.00300369 -0.00317275 -1.97986e-05 5.47618e-06 2.425e-06 2.12111e-05 2.96024e-06 2.76501e-05 
-2.78757e-05 -0.00121844 -0.000641817 0.000572743 5.53015e-06 0.00013577 0.000572744 0.000135213 -0.000127951 
0.000641631 1.30721e-06 -6.49583e-08 1.42338e-06 -0.00334205 -0.00031845 -0.000544035 -0.00014018 -0.0111366 
-7.977e-06 -1.4646e-05 1.34725e-06 9.42083e-05 -1.99485e-05 -0.000674958 -0.00165402 -0.000180079 1.32169e-06 
-2.58553e-07 4.6247e-05 2.50208e-05 2.14458e-06 -8.62808e-05 -4.94736e-05 -2.17899e-05 -1.45782e-05 -6.81719e-05 
1.39674e-05 -7.20624e-06 4.76977e-05 1.54573e-05 -1.37131e-05 5.12325e-07 1.7264e-06 -2.94198e-05 5.08061e-06 
-2.34577e-05 2.21166e-05 -8.83793e-05 0.000115438 7.56568e-05 -9.64381e-05 -4.77475e-05 0.000152259 0.00067987 
3.74748e-05 8.09667e-06 -1.75083e-05 -0.00188139 0.000757796 -3.36552e-05 -0.000109495 -4.47232e-05 -2.25228e-05 
-1.9606e-05 -3.33519e-05 -3.23714e-05 2.25366e-05 -1.67475e-05 9.52604e-06 7.01389e-06 -4.09824e-05 -6.5095e-05 
0.000770755 0.000572782 -0.000109623 -4.89553e-06 -2.38625e-06 -1.25543e-06 1.16632e-06 1.95752e-06 3.81717e-06 
-3.6988e-07 -3.34729e-06 -5.61373e-05 -2.39452e-05 8.09811e-05 -6.78898e-05 -6.33039e-05 1.23041e-05 -2.84415e-05 
2.13828e-05 -2.73779e-05 3.75213e-05 1.3424e-05 9.5722e-06 3.3662e-05 6.27615e-07 1.32555e-06 -1.07928e-06 
1.32748e-05 3.44788e-05 -4.97561e-06 1.31725e-06 -6.39478e-05 -1.02671e-06 -1.13841e-06 5.84235e-07 -5.34673e-05 
5.42418e-06 -7.35043e-05 1.25585e-05 -6.65734e-05 -7.32257e-06 0.000133564 -3.73963e-05 -8.89933e-07 -6.201e-06 
0.0222089 6.60586e-06 -4.06335e-06 -0.0210951 0.00123297 -2.04194e-05 -1.49441e-05 1.18489e-05 -1.80669e-05 
0.001699 0.0219721 0.00161865 6.13844e-06 -2.22025e-06 -2.03393e-05 -1.58113e-05 -1.4407e-05 6.27063e-05 
-9.09552e-05 1.48446e-05 1.24281e-05 -0.000400354 1.28221e-05 2.02373e-05 -4.29168e-07 5.3169e-06 -4.06585e-05 
1.03655e-05 -1.9373e-06 -3.73673e-06 -1.88951e-07 5.01934e-06 0.0256168 -0.0124554 0.0144427 -2.79315e-05 
9.57365e-06 8.55428e-06 -2.68286e-05 -4.10213e-05 1.57959e-06 -0.00298842 1.40627e-05 2.0704e-05 1.101e-05 
2.39658e-05 3.29293e-05 -1.19257e-05 5.08656e-05 1.27056e-05 -7.41922e-05 5.02154e-06 -7.33256e-05 5.65502e-06 
-1.66578e-06 0.00146635 -0.000978352 -0.00320418 -6.54532e-07 1.07098e-07 5.84041e-07 9.69316e-07 4.32343e-06 
7.63739e-06 1.05033e-09 -1.41241e-07 -1.10948e-06 -1.97319e-05 2.86734e-06 3.3187e-06 -8.13114e-07 1.74695e-06 
-1.11378e-05 -4.63802e-06 -9.33451e-05 -1.68314e-05 -9.64321e-06 2.72757e-06 -5.53538e-05 6.99997e-05 -1.12457e-05 
6.26565e-06 7.49441e-06 -4.18367e-06 -5.65801e-05 5.07625e-05 -9.627e-05 6.24779e-05 -0.000202625 -2.15237e-05 
-4.542e-05 -2.95892e-05 1.8016e-05 0.000826018 0.000452933 6.57537e-06 2.38841e-05 -3.47679e-05 -0.0228237 
0.000106431 -1.28419e-05 3.67216e-05 -0.000107829 4.94878e-07 1.48072e-06 -0.00256056 -0.00348043 1.17966e-05 
-1.77804e-05 1.19333e-05 -2.10222e-05 1.47253e-05 7.27679e-06 5.5629e-06 2.28323e-05 4.9363e-05 -3.62733e-05 
4.62987e-06 1.72279e-05 -1.82107e-05 2.16501e-05 -9.00686e-07 -3.94045e-06 -1.26683e-07 -8.77149e-05 1.01065e-06 
8.12443e-07 0.000101096 -8.29809e-05 5.80344e-05 9.24098e-05 -3.9666e-05 -1.96164e-05 -0.00199386 0.00373563 
-5.24624e-07 -1.29916e-05 -8.15672e-06 -2.367e-05 -1.7327e-05 -5.84e-05 0.00432718 0.000531778 0.000106057 
0.000935792 -4.70521e-06 6.75026e-05 -0.000126197 0.00050607 -4.48045e-05 -1.44641e-07 -0.00146408 -2.51664e-06 
3.96362e-05 -7.9668e-06 1.51124e-05 1.32286e-05 -2.6998e-05 1.01191e-05 -0.000127983 0.000545674 -0.00129092 
0.000556272 2.3336e-06 1.40486e-06 5.68807e-07 4.18713e-07 0.000144083 0.000109686 -9.9223e-06 -1.38253e-05 
-5.82568e-07 -2.22197e-07 9.4477e-08 -0.00246404 -1.02643e-05 -4.20385e-07 -0.00012287 -5.25031e-06 0.000302518 
-0.000108743 -3.64628e-05 -3.45007e-05 0.00114249 5.6169e-06 2.17227e-06 -4.18097e-06 -7.1015e-07 -1.70274e-06 
-4.12899e-07 -2.69938e-06 -8.94862e-07 1.1402e-06 -3.66664e-05 -1.53632e-05 3.52119e-06 1.9652e-06 7.38102e-07 
1.80284e-06 1.26932e-07 1.02791e-06 0.00118946 2.099e-06 -1.45719e-07 1.66602e-06 8.668e-07 5.9644e-07 
4.79377e-07 0.000553515 9.77812e-05 -4.12209e-05 -2.30719e-05 -2.57039e-05 -0.00379454 -0.00010413 -4.79388e-06 
-0.00424482 -0.0028596 7.43411e-06 -7.58618e-05 -1.30935e-05 7.09213e-06 -1.85519e-05 1.11365e-05 6.46797e-06 
-1.26285e-05 -1.02983e-06 -1.30909e-05 -1.84079e-05 -5.08609e-07 -3.88036e-06 -2.14071e-05 -8.6943e-07 -8.21679e-06 
-3.26371e-05 -6.25575e-05 0.000105279 -1.73054e-05 -0.000214611 -6.52687e-05 -2.01189e-05 6.21937e-05 -2.50893e-07 
-4.66712e-06 -3.33078e-06 2.56177e-06 9.02717e-07 4.91111e-07 1.65198e-06 -8.74332e-06 -2.23442e-05 4.63111e-06 
2.22848e-05 0.00122669 0.000662822 0.00644102 0.00065001 0.000680235 -6.53552e-05 -4.85759e-05 4.519e-05 
0.000853936 8.33798e-07 0.000894849 6.89726e-06 2.33925e-07 -0.00017296 4.87516e-05 6.62952e-07 -0.000321135 
2.97133e-05 -5.98384e-05 7.87996e-05 4.00773e-05 3.40262e-06 -3.24578e-05 2.83224e-05 8.64701e-06 1.43674e-05 
-9.452e-07 -1.60049e-05 -2.68808e-06 1.25482e-07 -5.96126e-07 2.66825e-07 -8.94119e-09 1.19649e-05 -2.45418e-05 
-4.23406e-09 -0.000620761 -3.2814e-06 3.95942e-05 -3.7642e-05 -0.000534119 -2.38633e-05 -1.25241e-05 2.17164e-05 
1.49946e-05 1.73313e-05 1.16391e-05 3.22342e-07 2.62928e-06 7.51724e-06 -6.66599e-06 -1.08862e-05 -4.29928e-05 
0.00023966 5.75958e-06 5.60696e-06 3.64837e-06 -2.35502e-05 8.53868e-05 0.000527523 0.02262 0.0238534 
-0.00728392 -6.67992e-05 -9.44088e-05 -9.7962e-05 -0.000164097 -7.55495e-06 5.4515e-06 4.51003e-07 6.56806e-07 
9.70649e-07 2.79336e-06 8.75846e-06 -2.58021e-06 -1.92409e-05 7.03601e-05 1.53977e-05 1.44867e-06 1.88667e-05 
4.02187e-05 1.58265e-06 2.6624e-06 7.13592e-06 -9.64072e-06 5.07379e-06 -0.000113561 -0.0002834 5.75802e-06 
-2.49352e-05 1.3535e-05 3.89133e-05 -1.53765e-07 7.21255e-05 8.34115e-05 -1.75658e-05 5.47726e-06 1.35885e-05 
0.00684668 0.0016606 -0.0200653 2.25671e-06 4.87823e-07 0.0215711 -5.83243e-05 0.000214405 -1.54238e-06 
1.33551e-06 -0.00181683 1.89931e-06 4.59325e-05 -1.22382e-07 -6.93944e-07 -7.00879e-05 5.03417e-05 -6.22158e-06 
1.5156e-05 -1.68908e-05 -0.00314262 0.000146091 8.06521e-07 -5.11648e-06 1.70683e-05 -3.80058e-05 2.31276e-05 
-4.67716e-06 -3.54524e-05 -8.19249e-07 -2.54573e-06 1.6675e-06 3.41188e-06 -1.45015e-05 -2.35798e-05 6.09216e-05 
-3.56898e-05 5.82981e-07 1.74037e-05 8.84704e-06 5.30323e-05 1.6018e-06 0.000105015 -7.96815e-05 9.24871e-06 
-1.76142e-05 3.11364e-05 2.39691e-06 0.0202927 -6.75689e-07 5.55185e-06 -2.40245e-06 0.00227447 -3.39868e-05 
-7.97539e-07 8.83947e-06 1.38732e-05 4.66645e-05 -1.44922e-05 -1.5162e-05 1.0645e-05 -1.01182e-05 -3.22904e-05 
7.5445e-06 -2.89473e-05 2.24079e-05 1.99502e-05 -2.52069e-05 -1.04984e-05 6.19112e-05 -3.40611e-05 7.45317e-05 
-8.6033e-05 7.52825e-05 1.66833e-05 -1.5621e-05 -8.91728e-06 -1.55997e-05 2.24986e-05 -2.11187e-05 5.16744e-06 
1.41039e-05 9.76975e-07 -3.2251e-07 1.87376e-07 4.0354e-06 7.16372e-06 2.80448e-05 3.62892e-05 -1.26228e-05 
-5.15512e-06 -6.31509e-06 1.17199e-06 1.90196e-05 -1.52565e-05 2.45902e-07 2.20799e-07 -2.9624e-07 9.06267e-07 
-5.32862e-06 -1.38258e-05 2.26797e-05 1.42494e-05 -0.0213752 3.6142e-07 -2.0109e-05 0.0226339 -3.29843e-07 
-5.15499e-06 -2.44107e-05 -9.61204e-06 -0.000742498 0.0010398 6.97825e-06 -1.66755e-05 6.56071e-06 -1.10106e-05 
-2.69583e-05 1.65291e-05 -3.53335e-06 -4.07833e-06 4.52952e-06 2.30934e-05 -1.79317e-05 7.28764e-06 4.64511e-06 
-2.88784e-05 5.07108e-06 0.00105624 -0.000134529 -5.93196e-05 2.56052e-06 -7.26015e-05 1.51755e-05 1.5389e-05 
5.37922e-06 3.08097e-05 -5.9484e-05 1.83119e-05 -1.40004e-06 2.5516e-06 3.10578e-06 -3.09281e-06 2.4621e-05 
5.60774e-07 -1.17748e-06 -2.1137e-06 9.09921e-06 2.61722e-06 -1.53237e-05 1.81744e-07 -2.55217e-07 -9.68839e-07 
-2.72606e-06 -6.32877e-07 2.55547e-07 -9.44889e-06 0.000330474 0.000273147 -5.42666e-07 -1.95661e-05 8.10938e-06 
-1.06263e-05 5.27358e-06 1.8322e-06 -1.86399e-05 -7.75356e-07 -1.25037e-05 -8.89044e-06 -7.7641e-05 2.88027e-05 
2.32233e-06 6.1867e-06 9.57218e-06 2.02172e-06 1.02054e-05 1.0109e-07 7.29833e-05 9.75973e-07 3.48942e-06 
4.03115e-05 3.07146e-06 0.0018917 -0.000198236 -9.67499e-06 2.58055e-06 -2.61688e-05 3.3252e-05 6.37523e-06 
-9.87755e-06 1.17364e-05 1.09357e-05 -1.34957e-05 4.02004e-05 -2.78595e-05 -4.53749e-06 -2.35383e-05 -1.97436e-05 
2.48678e-06 -3.20133e-05 8.39018e-05 -2.85651e-05 -9.89351e-07 1.09005e-06 -6.34167e-07 4.05285e-05 -5.38469e-05 
1.86543e-05 4.71388e-08 2.26515e-07 -2.68043e-09 0.0237234 -0.00933837 3.4844e-06 -1.64428e-06 -1.87822e-05 
-1.30155e-05 -2.66056e-05 -5.26989e-05 2.20612e-05 5.60552e-06 -4.1152e-06 4.63648e-06 -0.00758631 0.0205717 
0.000237482 -6.23834e-05 6.38338e-05 3.45718e-06 -6.5265e-06 4.23523e-05 -2.12054e-06 -6.89946e-07 -1.9742e-05 
2.88854e-06 2.63757e-05 -1.23613e-05 6.56875e-06 5.84976e-06 0.00308977 1.78924e-06 7.0384e-07 -0.00195656 
-1.33884e-05 1.54116e-05 4.22381e-05 -0.000131189 0.0216464 0.0235088 -1.20179e-05 -1.72536e-05 4.57517e-06 
-0.0201038 0.00126021 2.46961e-05 -3.27222e-05 -8.52061e-06 -0.00718633 2.49607e-06 2.09979e-06 -1.56337e-05 
-1.46439e-05 -3.09722e-06 0.000122646 -8.88054e-05 1.56442e-05 0.000137331 -0.00254142 0.000623492 -2.19303e-05 
7.2239e-06 0.00270384 0.0177408 -0.00463398 0.000765486 8.97323e-07 0.000415652 -1.30774e-05 -0.000752925 
-0.000221534 0.00272765 -1.77581e-06 -3.51482e-07 -3.12632e-05 -4.25126e-06 3.65866e-05 1.45426e-06 -6.67569e-06 
-1.66511e-05 1.66774e-05 -6.93269e-05 -2.38038e-05 -1.35297e-07 4.01548e-07 -1.248e-05 -1.23857e-07 2.67384e-05 
-3.26881e-06 -1.32279e-05 -1.02287e-06 7.18284e-06 5.60316e-05 0.000245652 9.37884e-06 -3.41645e-05 -3.31146e-06 
-8.81406e-06 6.73713e-06 0.00140176 -0.0204438 0.00166957 0.00137347 -7.12408e-06 8.14931e-06 1.63582e-05 
-4.21696e-06 -4.77407e-06 5.00626e-06 -1.41759e-05 3.541e-06 1.11347e-05 7.63813e-07 5.99725e-06 -0.000561382 
-0.000435531 -0.000250467 0.000161526 7.96188e-05 0.000396153 -3.2015e-05 7.95079e-06 -4.84747e-05 5.31176e-05 
2.65401e-05 1.12921e-07 -2.59077e-07 -4.72782e-06 1.22819e-06 -2.02544e-07 7.68854e-07 -2.48516e-06 -1.39227e-05 
2.84055e-06 -1.84054e-05 -1.12157e-05 -1.47683e-05 2.87953e-05 1.14081e-05 0.000390514 0.000741156 3.85239e-06 
-3.07845e-06 5.1067e-05 -0.00361324 -0.00325587 7.01755e-05 -0.00109779 0.000625901 -1.88735e-05 -1.32829e-05 
2.03935e-05 2.63911e-05 3.79017e-06 -1.99204e-05 -9.42836e-06 5.65796e-06 -2.21754e-05 6.3369e-06 -2.35289e-05 
1.96025e-05 1.09509e-05 -4.08751e-06 2.4243e-05 3.11998e-05 1.37209e-05 8.22965e-06 2.45492e-06 -0.000865131 
0.00214433 2.23776e-06 -2.13181e-05 0.000652469 -0.000308148 -0.00015141 -0.000411831 -0.000104662 7.24653e-05 
0.000297405 -1.12866e-05 -0.000164651 0.00059726 -7.65568e-05 1.1972e-05 -6.88839e-06 -9.71721e-06 -5.47715e-05 
0.00246398 -0.00612057 -0.000152369 -0.00117864 2.27322e-05 0.000529487 -0.00127692 0.000181657 0.000182901 
1.18489e-07 0.00112454 2.73548e-09 -2.45238e-05 1.3909e-06 -1.92809e-05 3.25015e-05 -4.90568e-05 8.19734e-06 
8.15973e-07 -1.30579e-05 -9.62237e-05 -9.94688e-06 2.35511e-06 -1.78101e-05 -2.12539e-05 0.000114029 -5.40675e-05 
-0.000145741 7.88195e-05 -1.3991e-06 4.09939e-05 3.94487e-05 -0.000175497 2.68491e-06 -7.68726e-06 -3.05413e-05 
7.80656e-06 1.96753e-07 1.05351e-05 -5.94561e-05 -3.13078e-05 -1.1294e-05 3.98074e-05 -2.21781e-05 -1.53265e-06 
2.50369e-07 -2.78998e-05 2.09326e-05 -3.64896e-06 1.29385e-05 -2.90853e-05 -9.15922e-05 0.000181317 -4.4653e-05 
5.34205e-05 4.42858e-06 0.000531308 0.000501816 4.50876e-05 6.19677e-07 2.11429e-06 2.48108e-06 -3.89936e-07 
5.0419e-07 -1.92704e-05 1.91338e-05 1.58686e-05 2.00739e-07 -5.57284e-07 1.74528e-06 6.01476e-07 -1.7269e-06 
1.00493e-05 -2.57272e-06 -5.13179e-05 0.000180291 -0.000220611 8.33581e-05 -0.000108053 1.84283e-06 1.4751e-06 
8.85326e-07 1.56745e-05 0.00297739 -0.00119475 -1.98399e-06 5.00761e-05 6.20948e-05 7.07286e-07 -2.45927e-07 
-9.27853e-07 -1.37168e-06 1.10485e-06 3.08217e-07 3.10586e-06 -1.13052e-05 7.17139e-06 -0.000111505 0.000771242 
-0.000132745 2.44068e-05 -7.38226e-05 5.36572e-05 6.40464e-05 8.86418e-06 8.84734e-06 2.06421e-05 -2.48959e-05 
4.49689e-09 7.8064e-05 1.04174e-06 -1.10443e-06 -6.13946e-06 4.52829e-06 4.78945e-06 -1.42157e-05 1.60694e-05 
6.19375e-05 -1.03412e-06 -1.43379e-05 0.000194679 1.52627e-06 1.51137e-05 -2.10429e-05 1.41094e-05 2.68946e-05 
7.34398e-06 3.80429e-05 4.09467e-06 7.91118e-05 1.06844e-05 0.0018305 -8.59962e-05 0.0220907 -6.72227e-06 
1.3954e-05 -2.41983e-05 -0.0010769 -0.00325365 0.000659731 -0.00309348 0.00170194 -4.96338e-05 3.24639e-06 
-2.34399e-05 -0.000116297 -1.39397e-05 2.53981e-05 0.000629798 3.17149e-05 4.40099e-05 0.000143896 5.33879e-07 
3.02812e-05 5.5777e-05 -1.34937e-05 7.85458e-06 6.39781e-07 1.07064e-06 -1.83581e-06 6.24071e-07 -3.88604e-05 
-0.000142532 -6.14922e-06 -1.06941e-05 -7.81843e-06 -7.07292e-05 -1.70706e-05 -8.94296e-06 3.69437e-06 1.35051e-05 
1.59392e-06 4.51099e-05 -4.62632e-05 -4.53837e-05 4.3625e-05 5.10773e-05 -0.000129752 -4.4682e-05 6.11189e-05 
4.261e-05 -3.3847e-05 3.01283e-05 -4.1437e-05 3.93371e-06 -8.90033e-05 8.34155e-06 -1.99251e-05 2.84178e-06 
8.09472e-06 -0.000138847 -4.10192e-05 -7.60828e-05 -1.21016e-05 5.45484e-06 5.86627e-05 -2.89445e-05 1.98806e-05 
0.000231171 -7.25973e-05 -1.17786e-05 -1.966e-05 -1.05661e-05 -1.33506e-05 -1.73671e-06 -5.79508e-06 -3.49004e-05 
0.000509622 -8.59082e-06 -7.28156e-07 2.43536e-05 -1.45718e-05 -2.12187e-06 5.12552e-06 -1.44272e-05 -2.1373e-06 
-7.91971e-07 -5.92329e-07 -3.2442e-05 -1.91096e-05 2.25329e-05 -7.6514e-06 2.73756e-07 1.97713e-06 0.00319451 
1.13196e-06 7.41153e-05 3.57395e-05 -9.32221e-05 -0.000101051 -7.74551e-05 -4.89186e-06 5.239e-05 -1.10704e-05 
-1.47366e-05 -0.0248051 -3.86338e-07 4.2478e-06 -1.83145e-06 0.00179952 -1.65493e-06 -0.000313101 2.13443e-05 
5.7607e-07 2.03611e-05 7.10342e-06 -1.89996e-05 -3.70152e-06 8.16894e-06 -5.28622e-07 -4.88315e-05 7.35021e-05 
1.65649e-05 -0.0029173 7.54419e-05 2.78946e-05 5.7754e-05 -1.25182e-05 -1.85849e-06 6.94553e-05 5.42611e-05 
2.79752e-05 4.76785e-06 3.05436e-05 -0.00231176 2.41654e-05 -0.0030052 0.000141183 1.98663e-06 6.78154e-06 
-1.23181e-05 2.0277e-05 -1.77185e-05 -1.42067e-05 1.06423e-05 4.36383e-05 5.77454e-05 2.66101e-06 1.41834e-06 
-0.000611825 1.91371e-05 -1.3418e-05 -2.40846e-06 5.03533e-05 -7.36547e-07 5.3512e-08 -5.01061e-05 0.00262661 
-4.59343e-05 4.70403e-06 -1.09706e-05 -3.25513e-05 -4.53486e-05 9.65786e-05 3.25475e-05 7.87188e-06 5.71023e-06 
5.53863e-06 -1.48747e-05 1.10528e-05 -4.1339e-05 3.39449e-06 9.33018e-06 -0.000568965 5.73972e-06 -0.000179889 
0.000116253 2.64363e-05 -1.51079e-05 -1.29543e-06 -1.97405e-06 9.43048e-06 1.9837e-06 -1.13739e-05 6.58864e-06 
-1.30567e-07 -4.99991e-06 3.32957e-05 0.00151634 0.00108971 1.16724e-05 -4.15312e-05 -3.54934e-05 -6.58736e-08 
-3.27649e-06 3.13267e-06 5.81415e-05 0.000308124 2.24607e-05 0.0199275 0.00637999 2.00268e-05 8.37807e-05 
7.81915e-06 9.283e-07 -1.17431e-05 3.35713e-05 3.41464e-05 1.28929e-06 1.73033e-07 0.000138638 -0.00150182 
0.000306901 2.34475e-05 -0.000327087 -6.23361e-06 -0.000203661 -3.11726e-05 0.0224258 -0.0209988 0.0233818 
-0.000106645 1.19103e-05 -2.39539e-05 -2.92115e-06 1.95102e-06 2.29499e-06 0.0280765 1.02044e-05 0.00200871 
-6.99248e-06 0.000493771 -1.41289e-07 5.44327e-06 2.82283e-06 1.4611e-05 4.0844e-06 -6.9918e-06 4.45713e-06 
4.48635e-05 5.85493e-05 8.40316e-05 0.000820643 -3.60159e-07 -4.27739e-07 -1.1911e-05 8.06079e-06 -1.39847e-05 
4.24958e-06 2.61427e-05 -1.68408e-05 1.03418e-06 -5.00442e-06 -3.61604e-06 1.96927e-05 -0.000109934 0.000998382 
-5.03257e-05 -0.00423956 0.000187654 -0.00015898 3.40499e-06 -0.00352385 0.00386712 0.000197933 4.23585e-05 
3.35915e-06 -0.00331384 0.00150198 -1.09449e-06 -2.17428e-05 -2.60188e-05 -1.03352e-06 4.89879e-06 6.49416e-06 
-2.56319e-06 -2.45773e-07 9.25349e-06 3.17121e-05 9.24506e-08 1.44766e-06 -2.90628e-06 8.66789e-07 -5.79711e-06 
3.29745e-06 1.16631e-06 2.37588e-06 -0.00222697 -0.00364717 7.29959e-06 -1.07389e-06 1.98779e-05 9.69302e-07 
5.25987e-05 -2.32694e-05 -1.90226e-05 -0.00199626 -3.11087e-05 1.10727e-05 -3.67655e-05 -0.0211496 7.75835e-06 
-2.65726e-05 -0.00124024 0.00274148 -8.5812e-05 0.00105303 0.00148867 0.00227238 -0.000201497 0.00202056 
-2.69287e-06 -1.70869e-06 1.77929e-06 -3.41488e-06 4.70686e-06 2.49216e-05 0.000832819 -4.66072e-07 1.53277e-06 
0.000173198 3.78085e-07 7.61322e-06 0.00233719 -0.00307903 -9.06679e-06 7.66417e-05 -0.0109359 0.000102721 
1.1109e-05 9.10761e-06 -1.19165e-06 -1.88984e-05 -2.95637e-05 -0.000171481 4.62323e-06 1.68474e-05 0.000610915 
0.000250428 2.90248e-05 -2.96875e-05 -2.36e-05 -4.45646e-05 -1.70943e-05 -0.000640197 1.14271e-05 2.26686e-05 
-4.71861e-05 -6.32979e-06 1.02754e-05 -1.89456e-05 3.77731e-05 -1.00599e-06 2.2933e-05 8.85152e-05 -8.33494e-06 
-8.07405e-05 -1.57565e-05 -1.49846e-05 -0.000438459 0.000159924 4.86501e-05 0.000409117 -1.38851e-05 1.92107e-06 
5.64629e-05 -4.59896e-05 0.000144833 5.55913e-05 -3.39022e-07 5.3994e-05 -8.22104e-07 2.64018e-06 2.31787e-05 
4.65414e-06 1.55616e-06 -0.00102789 5.44746e-06 9.83342e-06 -3.06156e-05 -1.05632e-05 -1.66212e-05 -1.11362e-05 
3.85004e-05 5.29215e-06 8.63402e-06 -8.63959e-06 5.34452e-05 6.30424e-07 1.56501e-05 -6.65148e-06 -1.78532e-05 
1.87019e-05 1.67086e-06 -6.38605e-06 3.49895e-07 -1.09597e-05 -1.40277e-05 8.90964e-05 2.17656e-06 -1.14846e-05 
9.41034e-07 -5.98085e-05 4.82694e-05 0.000749464 -3.03407e-06 -1.35953e-05 -0.00188284 1.76182e-05 1.28513e-05 
-0.000305492 -0.0069637 -0.0041539 -9.93137e-07 0.00324164 -6.86511e-05 -0.000112327 0.00013133 0.00022113 
3.24562e-05 -1.00555e-05 2.66041e-05 2.64918e-06 0.00167452 -9.48793e-05 6.35998e-06 2.05921e-05 -0.00315825 
1.86923e-06 0.000185265 0.00025378 -0.00332314 1.69876e-07 -1.84604e-05 0.00011511 7.58064e-06 0.000159699 
1.84749e-06 -3.28954e-05 8.0649e-06 1.26925e-05 -3.58054e-05 0.000186026 -6.0594e-05 -0.0025936 -1.51087e-05 
5.38509e-06 1.85399e-05 -4.58747e-05 -1.23143e-05 3.41449e-05 1.35624e-05 3.86511e-05 1.7194e-05 -1.93168e-05 
-1.31679e-05 -1.70623e-05 1.42125e-06 -1.15059e-05 -4.05205e-05 -2.51169e-05 3.32182e-05 -8.26609e-06 -1.41233e-05 
4.19439e-06 -2.80512e-05 -2.99971e-05 -0.000510026 0.00118985 1.10026e-05 -1.4799e-06 0.0013644 -0.000107632 
-7.4082e-07 -0.008874 2.68167e-06 4.14639e-05 -1.58422e-05 -0.00315667 -8.24168e-05 -0.00180815 -3.03665e-06 
-1.02315e-05 7.07848e-06 0.000415859 3.47636e-06 -1.26246e-05 4.16197e-06 0.00039082 -5.67433e-06 -7.79431e-06 
6.54367e-05 0.000520255 -1.60794e-06 -0.00035065 2.71911e-05 -4.00052e-06 -7.04736e-06 1.43583e-06 5.96493e-07 
-2.22216e-06 -2.42232e-05 -6.00588e-06 3.48251e-05 4.12421e-05 -1.80312e-06 9.36212e-06 1.15635e-06 -8.30943e-08 
3.28861e-05 -7.33368e-06 1.97379e-06 1.77499e-05 -9.68106e-05 7.34494e-08 1.42076e-05 0.000513129 2.547e-05 
3.19097e-07 -4.98987e-05 -1.05883e-05 -1.87242e-06 -0.000464632 1.04021e-05 1.97684e-05 3.65974e-05 -3.31071e-06 
1.63387e-05 9.33285e-05 3.42145e-05 0.0183706 -0.0120199 0.000735885 2.11353e-06 9.22771e-06 -0.0196476 
9.59623e-07 5.59403e-06 -2.48237e-05 4.04087e-05 -1.24398e-05 2.19542e-05 -5.79499e-05 4.50541e-05 
Stress%20zz%20component 1 8918 double
0.406431 0.485646 0.476565 0.411296 5.17917e-06 3.05725e-06 -1.9188e-05 -4.41159e-06 -0.00973483 
-0.027016 -0.00400906 0.0228547 -0.0110404 0.00523061 -0.00105905 0.0287999 0.200614 0.151911 
0.142873 0.14514 0.165496 0.160988 0.141766 0.135957 0.163343 0.163867 0.136464 
0.142481 0.16156 0.161454 0.16254 0.146756 0.161754 0.162228 0.165592 0.143452 
0.15929 0.154268 0.165556 0.234484 0.21284 0.205227 0.15438 0.155581 0.158044 
0.211166 0.200122 0.155943 0.156014 0.155361 0.201288 0.212381 0.155821 0.155841 
0.157305 0.161602 0.211472 0.16102 0.158145 0.158992 0.161336 0.206229 0.223431 
0.230153 -8.86898e-07 9.3309e-06 -6.17143e-06 -1.07621e-06 5.97816e-06 -2.5957e-06 3.80092e-06 -1.19582e-06 
5.68267e-07 1.26335e-06 -3.87545e-06 4.19628e-06 3.43665e-06 -3.33508e-07 8.35566e-07 1.5903e-06 -2.86494e-06 
1.27246e-06 4.89669e-07 -1.1846e-06 3.29677e-06 -2.42906e-06 -1.17805e-06 1.12645e-06 6.17807e-07 1.07857e-06 
-3.40986e-06 -0.191019 0.001763 0.000913886 1.67255e-05 -2.58223e-05 2.81746e-05 -1.9936e-05 2.87547e-05 
8.29303e-06 -6.62141e-06 -7.33683e-06 -7.75698e-06 6.63002e-06 4.3704e-06 -5.05307e-06 -2.3864e-05 9.56601e-07 
8.83302e-06 3.43294e-06 -4.53998e-06 -2.136e-05 1.03181e-05 -1.79558e-06 1.03783e-06 2.79228e-07 6.66729e-06 
1.39706e-05 -5.40229e-05 -2.53078e-05 9.51307e-06 3.89627e-05 -4.03869e-05 4.48814e-05 3.5578e-05 1.96053e-05 
1.83585e-06 -8.88807e-06 -1.39889e-05 8.4057e-06 7.34204e-06 -3.00005e-07 1.00102e-06 -6.3729e-06 -4.15034e-06 
2.34536e-05 -1.44593e-06 -5.09762e-07 1.0817e-07 4.34902e-07 -1.73405e-06 1.27947e-05 -5.56938e-07 1.50155e-07 
-1.69667e-05 -1.41028e-05 3.38541e-07 -2.43295e-05 -3.61305e-05 -3.9195e-05 -1.09055e-05 1.55749e-05 0.000140138 
-0.000275356 0.000271944 -0.000333135 -0.0170607 0.0120253 0.012087 0.0131244 0.00872368 0.00876786 
0.0143541 0.00913537 0.0106106 -0.000600385 0.00749564 0.0160929 0.00522064 0.0683714 -0.000866952 
-0.00389693 0.00749917 0.00911778 0.000584128 0.00666631 0.00830961 0.00787888 0.0151245 -0.00155469 
-0.00261232 0.0175199 1.76927e-05 1.0167e-05 -7.67744e-07 7.87987e-07 7.2552e-07 -8.20011e-06 5.32976e-06 
-4.92436e-06 -1.6524e-06 -5.39338e-07 4.10727e-07 -1.06281e-06 -1.611e-06 3.50898e-06 -3.12662e-06 1.85441e-06 
9.98917e-07 8.57378e-07 -4.9801e-07 2.09594e-07 -1.81256e-06 -6.58816e-07 -0.0133607 -0.00235232 0.000256343 
3.59175e-05 -4.89938e-05 3.19674e-06 -1.88015e-05 -6.73326e-08 1.90173e-05 -6.75553e-06 9.72192e-06 -1.23273e-06 
1.13288e-05 9.13899e-06 -1.2084e-05 -1.06019e-06 1.74661e-06 1.67608e-05 -1.20437e-05 -1.24137e-05 -1.01029e-05 
2.56663e-05 2.55914e-05 8.01997e-06 -1.11153e-05 -3.04661e-05 -2.54665e-06 -5.98254e-06 1.52117e-06 6.35346e-06 
7.74219e-06 1.22677e-05 -7.56872e-06 -2.73445e-06 6.67665e-06 1.62166e-06 -5.21457e-06 -1.82018e-06 2.54792e-07 
1.8026e-07 9.98071e-07 6.18964e-08 -8.7535e-06 -8.2031e-06 -1.82848e-05 -2.60642e-05 -3.14535e-05 -3.66778e-05 
-1.29967e-05 2.14191e-05 5.13036e-05 6.16436e-05 6.39079e-05 6.89126e-05 0.000251164 -0.000198122 3.32432e-05 
0.000366004 -0.193721 0.0595441 0.00114028 0.000319035 0.00879982 0.00912704 -0.000157458 0.0114285 
0.00892551 0.0142637 0.00868379 -0.00174087 0.0124416 0.108491 0.0437489 0.0206879 0.0143661 
0.0137301 0.00830296 0.013476 0.00779251 0.00858475 0.00690395 0.000467335 0.0159239 0.00822479 
0.0171684 -6.5998e-06 -5.14055e-06 -1.1684e-06 4.97692e-08 1.16935e-07 -3.31075e-06 7.92621e-06 -2.16066e-06 
4.04392e-06 2.90379e-06 -1.89133e-06 -1.83845e-06 -1.82224e-06 3.04865e-06 -2.26469e-06 1.85136e-06 -4.63944e-06 
2.18008e-06 -1.41531e-06 -1.62179e-06 4.00138e-07 3.80128e-07 7.11914e-07 -1.6264e-06 1.60699e-07 1.69838e-08 
1.27381e-06 -0.0320928 -0.000871922 -5.9373e-05 -2.65826e-05 0.000103201 -3.19738e-05 -9.16247e-08 1.37708e-05 
5.39195e-07 1.64288e-05 2.33927e-05 -7.55811e-07 -2.08018e-05 -1.02789e-06 1.49332e-05 3.57332e-05 -2.45509e-05 
-1.58187e-05 -6.38632e-07 9.19837e-06 2.30219e-05 -1.81975e-05 -8.08869e-06 -2.33451e-09 -1.3966e-05 -2.87804e-05 
5.20602e-05 2.73172e-05 -5.06829e-06 2.71976e-05 -2.762e-06 -5.93688e-06 1.59309e-06 1.30415e-05 -2.15854e-06 
-3.64125e-06 1.47061e-05 4.40183e-06 -1.78564e-05 -1.1911e-05 -2.59992e-06 -3.35019e-06 3.43954e-06 -9.92604e-06 
1.81055e-06 1.47832e-06 -2.91935e-07 -2.16529e-06 -1.78916e-06 -3.23254e-06 -2.30237e-06 3.54853e-06 -2.82426e-06 
5.25627e-06 -4.09075e-06 1.79232e-05 4.31368e-05 6.34962e-05 7.54241e-06 -5.03652e-06 0.000833308 -0.0746748 
-0.0607545 -0.0569781 -0.0407382 -0.0369632 -0.0331724 -0.0384021 -0.0659874 -0.0386166 -0.0380075 
-0.0376486 -0.0381822 -0.0645345 -0.0398785 -0.038164 -0.0323807 -0.0381726 -0.0370993 -0.0487509 
-0.0380414 -0.0332432 -0.0340133 -0.0352276 -0.0722312 -0.0686206 -0.00843569 -0.00852011 -0.00908263 
-0.00922791 -0.00877109 -0.00902284 -0.00894209 -0.00938709 -0.00929656 -0.00913191 -0.0095621 -0.00966867 
-0.00680768 -0.0664135 -0.00460104 -0.00887082 -0.0127264 -0.0098859 -0.0104508 -0.0104882 -0.0100211 
-0.0100393 -0.00995132 -0.0104501 -0.0132742 -0.0119284 -0.00766577 -0.0089098 -0.0360313 1.79147e-06 
-3.65797e-06 -0.00013838 -0.00406069 -0.00992665 -0.00386304 -0.000738824 -0.00655824 1.08608e-06 2.19126e-06 
5.74854e-07 2.10111e-06 -3.10006e-06 -4.51385e-07 2.4982e-06 -1.95362e-07 -1.73517e-07 1.49467e-06 1.61146e-06 
-2.938e-07 -1.12017e-06 -6.82974e-07 4.65428e-07 -2.22195e-06 -3.44314e-07 5.65593e-07 2.56434e-07 -1.3319e-06 
-8.22738e-07 1.09177e-06 2.27735e-06 2.58396e-06 0.000452029 -3.68706e-05 6.31271e-05 -8.27818e-05 8.98918e-06 
-1.84713e-06 -1.36353e-05 9.63411e-06 -1.62225e-05 -6.61606e-06 1.12023e-05 -1.25454e-05 7.56525e-06 -1.49856e-05 
5.36218e-06 1.21707e-05 -9.97638e-06 9.41208e-06 -7.10569e-06 1.21982e-05 8.19471e-06 -1.06757e-05 2.86945e-06 
1.51435e-05 7.28487e-06 -1.92001e-05 1.78096e-05 -1.12721e-05 -2.02875e-05 -2.83383e-05 -6.18066e-06 -2.61214e-06 
-9.32843e-06 1.31963e-05 1.71627e-05 1.58613e-06 1.03159e-05 1.20082e-05 -7.19003e-06 2.73491e-07 -3.11145e-06 
4.04007e-06 0.000422 -1.28464e-06 6.16895e-07 -5.41403e-06 0.000349557 0.00219208 -5.11899e-06 -1.02217e-05 
1.0825e-05 -8.34686e-07 1.00862e-05 3.42923e-05 2.01973e-05 -1.50956e-05 -3.47233e-06 -0.000290808 -0.000403631 
-0.0008628 -3.41771e-05 0.000556452 0.00243293 0.00228093 -5.00223e-05 -5.30922e-05 0.00280597 0.00141449 
0.00261971 -0.000258465 -0.000215332 0.00289021 0.00151595 0.00171663 0.00297227 0.0012858 0.00314573 
0.00200606 0.00185401 0.001381 -0.000139169 0.000539735 0.000456105 0.000532964 0.000507268 0.000455722 
0.000455234 0.000482599 0.000518071 0.000545641 0.000628983 0.000327482 -0.000403563 -1.58285e-06 0.000216101 
0.000496755 -2.38496e-05 0.000202969 0.000855804 0.000886742 0.000813049 0.000793701 0.000841604 0.000830386 
0.000539393 2.09944e-05 0.00023497 6.28234e-06 -4.74711e-05 1.14677e-05 0.00118854 0.000577951 -0.000391677 
0.00056693 -7.8496e-05 0.00057927 -0.000172273 -0.000425435 -3.72217e-06 0.001823 7.18466e-05 1.23566e-07 
-3.74998e-07 4.72799e-06 3.25562e-06 1.94535e-07 -5.73946e-07 3.00876e-06 2.04821e-06 1.11927e-08 8.40046e-07 
6.32468e-07 -1.47353e-06 -2.94625e-07 3.31675e-07 -7.36022e-07 -1.234e-06 -1.9244e-06 -2.95412e-07 7.64131e-08 
1.06385e-07 5.42708e-07 2.5577e-05 -5.1346e-06 -6.62926e-05 -5.30674e-05 1.54271e-06 -5.32152e-06 3.28425e-06 
1.12439e-05 -3.77922e-07 -4.8279e-06 3.43058e-06 3.42066e-06 2.4445e-06 -5.1863e-06 -1.89061e-06 6.56599e-06 
5.39572e-06 -6.33365e-06 -5.24164e-06 -5.77737e-06 5.35935e-06 5.93945e-06 -1.29767e-06 -1.51891e-06 1.59676e-05 
-7.46452e-06 3.03602e-07 2.80057e-05 1.08686e-05 -3.05071e-05 -1.1018e-05 -3.61202e-05 -5.12859e-06 -9.1206e-06 
2.06587e-06 9.14399e-07 -8.4067e-06 -1.23955e-06 4.17188e-06 6.86661e-08 -3.85193e-06 -0.000104414 5.9855e-05 
-1.3308e-06 -2.42204e-06 -9.00471e-06 0.000406451 3.12282e-05 -9.06318e-06 -9.41623e-06 -2.29635e-05 -5.10602e-06 
-1.14784e-05 0.000204082 3.51455e-05 -2.69263e-05 -3.37842e-05 5.48088e-05 0.000122281 -2.74076e-05 7.62703e-05 
0.000272577 0.00034349 0.000188529 0.000186608 1.1726e-06 0.000174848 0.000295639 0.000210593 6.08577e-05 
0.000121932 0.000146118 0.000191383 0.000245194 0.000199707 0.000142612 5.87903e-05 3.83089e-05 2.02621e-05 
4.44123e-05 4.1685e-05 2.51713e-05 5.28984e-05 -1.50274e-06 -2.16699e-05 3.23572e-05 -2.82708e-05 0.000700239 
8.53617e-05 6.24688e-05 3.598e-05 5.14813e-05 4.85063e-05 4.77235e-05 4.27879e-05 1.81308e-05 -5.95826e-05 
6.45231e-06 -0.000118284 2.32087e-05 -2.03006e-05 3.93935e-05 1.88335e-05 7.92978e-05 0.000421258 0.00010373 
-6.05892e-06 5.33858e-05 -8.06189e-06 4.78361e-06 -0.000120032 3.53164e-05 -0.000171561 -7.78882e-05 -2.34379e-05 
1.91985e-05 -6.84246e-05 4.62113e-06 3.46669e-06 -3.46533e-06 -3.01861e-06 6.31091e-08 3.15094e-06 -8.46641e-07 
-1.3033e-06 -3.30782e-07 5.22e-07 -1.62695e-06 1.79857e-06 3.38269e-06 1.96827e-06 -9.28571e-08 1.16063e-06 
9.08501e-07 9.6618e-07 -8.95609e-05 -8.36153e-06 -4.43079e-06 -2.35973e-05 1.37714e-05 -3.04517e-05 9.61729e-06 
1.03002e-05 4.8908e-06 6.42842e-06 1.11374e-06 7.53254e-06 -3.53952e-06 -6.09939e-06 -6.86439e-06 1.36426e-06 
4.83436e-06 4.15456e-06 -8.10196e-06 -1.08836e-05 -5.87532e-06 1.53395e-05 -1.62024e-06 -1.67603e-05 1.9594e-05 
0.000116191 3.8352e-06 2.98852e-05 1.21115e-05 -6.64613e-07 -7.36957e-06 -6.38468e-06 7.5064e-08 2.78861e-06 
3.77594e-05 5.68163e-06 2.83892e-05 2.80381e-05 3.35087e-06 1.77622e-05 3.43761e-06 6.55536e-07 -2.46454e-05 
3.04695e-06 -3.50019e-06 -3.68841e-05 7.27922e-05 -2.97276e-06 -2.53613e-06 4.15607e-05 1.56595e-05 -7.55483e-06 
-2.46328e-05 1.42814e-05 1.15253e-05 -8.69045e-06 6.82603e-06 -1.80595e-05 -1.63903e-05 -6.6148e-06 -1.72984e-05 
-5.36306e-06 9.10533e-06 -2.6057e-05 4.95681e-06 3.78493e-05 -7.58093e-05 -2.86919e-05 -1.76101e-05 5.30313e-05 
-0.000117903 0.000137212 -2.93627e-05 7.00383e-07 1.66815e-05 -1.50953e-05 1.57517e-05 -1.44058e-06 -1.67895e-05 
2.4095e-05 -8.19993e-06 -1.44226e-06 9.95578e-06 3.13738e-05 -4.53054e-05 -5.13808e-05 7.51191e-05 -6.79952e-05 
1.44864e-06 3.43911e-06 1.51269e-05 -1.03784e-05 1.25071e-05 7.63535e-05 -2.01285e-05 -7.23178e-05 -7.44205e-07 
-9.22055e-05 1.17233e-05 1.58134e-05 -4.29194e-05 8.78637e-05 -7.23175e-05 6.07332e-05 -9.35289e-06 8.83515e-06 
9.56827e-06 8.29101e-06 -7.43698e-06 -9.24516e-07 -3.05297e-06 -3.42469e-06 -1.71483e-06 6.51913e-06 -1.96205e-06 
-1.53632e-06 -1.807e-07 2.5271e-07 8.45379e-07 1.87175e-05 1.42095e-05 6.01796e-06 -4.72058e-05 1.87762e-05 
-1.78829e-06 7.5641e-06 -3.01475e-06 1.66529e-05 3.41796e-06 -9.58737e-06 7.51618e-06 7.26306e-06 4.43612e-09 
-1.4535e-05 -4.15015e-06 -1.9716e-05 -6.45809e-05 -3.8746e-05 -8.3431e-06 -1.15325e-05 -1.04841e-05 6.56118e-06 
-4.25464e-05 4.27655e-06 -2.0113e-05 -1.83098e-05 2.96888e-05 7.51677e-07 8.38095e-06 -5.41359e-06 -1.03737e-05 
-1.01851e-05 -5.34788e-06 2.66539e-06 8.28139e-06 5.3947e-06 -1.0515e-05 3.73141e-06 -6.11143e-06 -1.60953e-05 
-3.0427e-06 -1.93365e-05 2.33763e-05 2.0907e-05 -2.70644e-05 1.95081e-05 2.49946e-05 -2.64651e-05 6.7865e-05 
-2.50192e-05 2.45505e-06 1.1271e-05 -3.54281e-05 3.1875e-05 -4.47452e-06 -3.11838e-05 -8.13947e-05 -8.90506e-07 
-9.18341e-06 5.31466e-05 -9.47383e-06 -2.26812e-06 2.22013e-06 1.13507e-05 -6.07945e-06 3.02333e-05 1.33145e-05 
1.87568e-05 -6.56685e-06 -4.20618e-05 -3.35991e-05 6.18582e-06 8.18235e-07 -1.35987e-07 -4.10653e-06 3.44901e-06 
-1.97082e-06 2.05414e-05 -1.45306e-05 -2.61819e-05 4.16083e-05 1.06356e-05 -2.26385e-05 1.22243e-06 3.44192e-05 
5.64031e-06 2.46523e-05 -1.7094e-05 -6.69038e-06 6.91046e-05 -1.0211e-05 1.7293e-05 9.00529e-06 3.11447e-05 
-9.55801e-06 -8.32891e-06 1.10838e-05 -2.08558e-06 -1.82429e-06 -5.94214e-06 -2.65547e-05 1.40773e-06 -7.4596e-06 
-1.89218e-05 -1.86548e-05 5.58062e-06 -1.99997e-05 1.05244e-05 -4.29353e-05 2.98206e-05 -4.68703e-06 -4.81929e-07 
1.29297e-06 1.39421e-06 -2.78402e-06 3.72937e-06 -2.53905e-06 8.87843e-07 -2.60915e-06 1.73238e-06 -9.06989e-08 
6.16947e-07 1.99421e-06 1.02154e-07 -1.74012e-06 3.97086e-07 1.88339e-06 -1.12589e-06 1.91543e-07 4.78981e-07 
-6.31056e-07 -0.00834294 -0.000137926 8.97766e-05 -3.18702e-06 -9.95573e-06 1.73734e-05 1.03653e-05 -2.39394e-06 
-9.03625e-06 -2.06917e-06 1.12837e-05 -5.27488e-06 -1.06813e-05 9.12606e-06 4.84316e-06 -8.81465e-06 -7.41968e-06 
1.3123e-06 1.44873e-06 -4.96509e-06 5.58212e-06 -1.99556e-05 -4.79095e-06 2.76523e-06 9.59697e-06 1.23466e-06 
-3.17528e-06 -1.4895e-06 8.33614e-07 -8.12808e-06 -1.53356e-05 3.98934e-06 6.10791e-07 -5.26912e-06 4.745e-06 
-1.9506e-06 4.68747e-07 -1.34973e-06 -3.54537e-07 -9.97944e-07 3.04367e-06 5.04954e-06 -2.31278e-06 -6.6551e-06 
4.867e-06 -8.93357e-06 -1.41387e-05 -1.74076e-05 -1.6751e-06 -1.88818e-05 -6.46442e-05 -9.31466e-05 0.000643262 
-0.0312404 -0.0146147 -0.00999523 -0.0107283 -0.0299644 -0.0367653 -0.0306612 -0.0106438 -0.0329723 
-0.0286307 -0.032169 -0.0108189 -0.0317567 -0.0320378 -0.0325289 -0.0340039 -0.0298024 -0.0315301 
-0.0342863 -0.0353254 -0.0128406 -0.0124915 -0.00821905 -0.00812384 -0.00903908 -0.00922183 -0.00896076 
-0.00895366 -0.00897051 -0.00895058 -0.00923884 -0.00921935 -0.00960521 -0.00871134 -0.00181932 -0.00898721 
-0.00693162 -0.0103787 -0.00231116 -0.00867761 -0.00799636 -0.00850984 -0.00861845 -0.00823152 -0.00817554 
-0.00801567 -0.00723286 -0.00157242 -0.00979716 -0.0175203 -0.0434977 1.51517e-06 -6.21647e-05 -0.0283617 
-0.0237635 -0.00116249 -0.00399227 1.87084e-06 8.27346e-08 -3.7126e-06 -4.83415e-06 -6.7894e-06 -6.04689e-07 
-4.7621e-06 -2.46197e-06 -1.21962e-07 1.38662e-06 2.46988e-06 9.03302e-07 3.28316e-06 4.74997e-07 1.81053e-06 
1.90123e-07 9.16834e-07 4.80556e-06 -4.38806e-06 9.955e-06 4.01164e-05 3.74218e-05 0.000407431 4.96208e-06 
-2.06108e-05 2.00002e-05 4.69875e-06 4.68576e-06 -7.9799e-06 1.28631e-06 2.49001e-06 -1.41524e-06 3.45649e-06 
-3.53901e-06 3.03289e-06 -7.70119e-07 9.03656e-06 3.18472e-06 1.39761e-06 -3.41867e-06 -1.34785e-06 4.92977e-06 
-3.67776e-05 7.59403e-06 6.54977e-06 2.1243e-05 -4.87184e-06 1.9536e-06 -7.97683e-06 -9.03409e-08 4.81303e-06 
7.12277e-06 6.88787e-07 3.55339e-06 1.07781e-05 1.23634e-07 1.34803e-06 1.62274e-06 0.00208623 6.39096e-06 
0.000170835 9.5209e-06 3.33413e-05 7.00088e-06 -2.19771e-05 -4.44988e-06 1.43455e-05 4.37756e-06 -9.15827e-06 
8.32089e-06 -5.989e-05 -4.89771e-05 0.000368913 0.00083486 0.00136812 0.000601687 0.000618454 0.000680275 
0.000607277 0.000727972 0.000627727 0.000676786 0.00127602 0.000747535 0.00118994 0.000765448 0.00146686 
0.00138274 0.000377719 0.000529165 0.000109046 -0.000461928 0.000469546 0.00056359 0.000563624 0.000487993 
0.000477876 0.000442141 0.000442136 0.000450307 0.000467369 0.000578122 0.000763231 -8.60187e-05 0.000526804 
-0.000226365 0.00061966 0.000176627 0.000165432 0.000242531 0.000238157 0.000241575 0.000208606 0.000303463 
-1.13751e-05 0.000290092 0.000240624 -5.44198e-07 0.000134332 3.67375e-05 0.000130872 -0.000146396 -3.55204e-06 
-0.000160584 0.00095566 -0.000272305 -6.49582e-05 -1.9437e-06 -4.91907e-06 -6.33124e-06 2.96063e-06 -1.5532e-06 
-1.22857e-06 1.79201e-07 1.90775e-06 -6.54925e-07 8.51496e-07 9.80868e-07 1.53227e-06 9.41403e-08 -1.30102e-06 
-1.01458e-06 -2.85108e-05 -4.34609e-06 2.29728e-06 -3.8309e-05 -3.84549e-05 1.6102e-05 -5.90369e-06 -8.37056e-06 
-2.09861e-06 -2.98982e-06 -2.79865e-06 -1.2762e-07 -2.18705e-06 6.29611e-07 -2.03795e-06 1.5732e-05 6.69443e-06 
4.73969e-06 -4.8889e-06 -8.96439e-06 1.83374e-05 -1.81624e-05 -1.44558e-06 0.000122952 -1.448e-05 2.70279e-05 
1.85049e-05 -2.91874e-05 3.07719e-05 -5.03818e-06 -1.41184e-06 -2.68477e-06 1.11025e-06 -2.70119e-05 -5.55099e-07 
-1.13997e-05 5.87405e-06 -2.58464e-05 -2.52391e-05 -7.1559e-06 -4.40818e-05 2.49923e-05 -8.75912e-07 3.75058e-05 
5.54351e-05 1.07291e-05 3.15201e-05 2.53901e-06 7.62059e-05 1.4183e-05 1.76248e-05 1.05469e-05 2.35239e-05 
5.09754e-05 1.26418e-05 3.7108e-05 2.06175e-05 3.6691e-05 0.000514999 1.93691e-05 8.58907e-06 2.94576e-05 
2.73981e-05 2.66182e-05 3.00753e-05 3.17781e-05 4.23193e-05 -2.92655e-05 -0.000160315 4.24565e-05 1.3373e-05 
1.34332e-05 1.37076e-05 -1.2373e-05 -7.13041e-06 2.25635e-05 8.44896e-06 -2.57505e-05 -0.000156524 -2.07888e-05 
7.21959e-06 0.000162781 -3.51602e-05 1.16041e-05 -0.000136083 -3.86699e-05 -7.85932e-06 -3.92173e-06 -6.18519e-06 
1.73253e-05 8.63206e-05 2.80067e-06 -0.000476991 -8.40482e-05 0.000231887 -7.65611e-06 -3.29141e-05 1.49749e-05 
-2.2413e-05 0.000155489 0.000490355 0.000199741 -2.77278e-05 -8.70619e-05 -6.55625e-05 -5.71676e-05 -3.22438e-05 
-2.29722e-05 2.18447e-05 1.57778e-06 -2.71628e-07 2.76483e-06 6.945e-07 -1.84318e-06 -4.60106e-06 -9.59305e-07 
1.87124e-06 -1.98164e-06 -2.34158e-06 -2.42791e-05 -5.45378e-06 -1.33566e-06 -1.56566e-05 2.9274e-06 2.98913e-06 
1.17064e-06 8.97182e-07 -1.22402e-06 1.5336e-05 6.41094e-06 -4.65428e-07 8.58308e-07 -1.05504e-05 -8.1353e-05 
-7.87752e-06 2.91648e-05 -4.1436e-06 -1.13663e-05 -8.79105e-06 -1.30864e-05 6.99389e-05 -6.0669e-06 -3.65212e-05 
-3.53619e-06 -2.77211e-05 -2.65727e-05 -4.91039e-06 2.60521e-05 -3.74549e-05 -1.84246e-05 -6.64228e-05 4.52565e-08 
-9.59994e-06 -3.45263e-05 -1.97105e-05 1.17531e-05 1.79916e-06 2.31381e-06 -5.76917e-06 2.62224e-05 2.0303e-05 
3.2702e-05 3.41878e-05 -4.20746e-05 -2.60583e-06 -2.50034e-05 -2.0411e-05 -2.54737e-05 -5.65232e-06 3.7233e-06 
7.93225e-06 -0.000114943 -6.20821e-05 5.68415e-05 -9.93873e-06 -1.15031e-05 1.08733e-05 -3.43267e-05 1.63387e-05 
1.23244e-05 1.46174e-05 1.17555e-06 -1.01613e-06 -6.67646e-06 2.66141e-05 1.09985e-05 1.01035e-05 7.52031e-06 
0.000101058 5.60693e-05 4.24271e-05 1.0628e-06 -4.61523e-07 7.44706e-06 3.57815e-05 1.42932e-05 3.23483e-05 
9.04275e-06 1.29766e-05 -1.68399e-05 4.38091e-05 9.29628e-05 4.15257e-06 -1.47506e-05 -1.9096e-05 -3.28717e-05 
-1.2703e-05 -3.2839e-06 1.4619e-06 -4.74767e-06 -1.27109e-05 5.68667e-07 1.68842e-05 2.95376e-07 1.51272e-05 
1.50509e-05 4.09659e-07 -2.18988e-06 2.24212e-06 2.05145e-06 -5.23212e-06 7.26653e-06 -1.21021e-05 1.62064e-05 
-3.47152e-05 -1.00975e-05 1.46948e-05 3.27396e-06 1.90604e-05 -5.0243e-05 -5.44515e-06 1.93375e-05 -6.79437e-05 
-1.64758e-05 1.94809e-06 5.46239e-05 -8.59037e-06 4.43714e-06 -4.96854e-06 -5.76443e-06 3.47047e-06 2.26614e-05 
-3.04182e-05 4.76747e-05 -3.76625e-06 1.5927e-07 -4.74268e-06 4.48624e-05 -5.48589e-06 8.86856e-07 -3.48967e-05 
-3.49727e-05 -1.92701e-05 -1.55015e-05 3.13399e-06 -2.44123e-05 -3.15687e-06 -1.68694e-05 -3.00592e-06 2.51012e-05 
8.66669e-06 2.16658e-06 -6.87031e-07 1.15283e-05 1.43376e-06 1.47231e-05 -1.39364e-05 1.92979e-05 -1.0331e-05 
-5.93788e-05 6.9233e-06 -1.94846e-05 1.55147e-05 2.81794e-05 1.20668e-05 -1.705e-05 2.72697e-05 4.19624e-05 
1.18135e-05 1.32421e-05 -3.20996e-05 -1.74856e-05 -4.06833e-06 5.23453e-05 3.21768e-05 4.77907e-06 -3.84111e-05 
-1.11046e-05 -2.15189e-05 1.42526e-06 4.50932e-06 -4.73525e-06 7.21225e-05 -3.65242e-06 2.29652e-05 -1.17107e-05 
3.88449e-06 -2.02322e-05 -8.2899e-05 2.19305e-05 -2.16023e-05 -2.11743e-05 1.99598e-05 0.559522 0.561514 
0.346574 0.172559 0.148081 0.146598 0.26195 0.261798 0.260732 0.137317 0.260997 
0.2605 0.261086 0.139197 0.258599 0.258918 0.25647 0.256624 0.263183 0.260199 
0.26529 0.272229 0.14986 0.186439 0.269384 0.256768 0.264208 0.22109 0.214707 
0.243959 0.264807 0.261241 0.243195 0.206308 0.240422 0.262634 0.261788 0.242733 
0.207725 0.243471 0.261955 0.263601 0.264924 0.244042 0.246853 0.262958 0.263161 
0.264435 0.245644 0.214032 0.232245 0.319984 -1.58419e-05 1.65319e-05 3.72054e-05 1.32831e-05 
2.86169e-06 -8.39615e-06 -2.22531e-05 -3.78267e-05 -3.27834e-05 -3.821e-05 -3.40756e-05 -1.18992e-05 -7.00763e-06 
-3.24812e-06 1.69134e-06 6.82201e-06 1.28029e-05 2.10019e-05 1.53623e-05 1.8092e-05 1.69309e-05 5.4836e-06 
7.02182e-06 3.7246e-06 4.43457e-07 -1.85491e-06 -6.68959e-06 -7.0599e-06 0.0393451 -0.0251509 -0.00326941 
-0.000856494 -0.000480741 -0.000388302 -0.000194142 -9.69563e-05 -5.93859e-05 -5.91528e-05 -6.06716e-05 -7.08701e-05 
-2.22553e-06 6.87007e-07 -1.27012e-05 -3.06752e-05 -3.74446e-05 5.01793e-05 4.62089e-05 4.06895e-05 3.15567e-05 
1.33104e-05 7.66112e-05 7.30423e-05 7.83063e-05 0.000104926 0.000112427 -1.70543e-05 -2.78876e-05 -9.39341e-05 
-0.000149274 -0.000221761 -0.000146204 -0.000123411 -1.64924e-05 2.62428e-05 4.0188e-05 3.57832e-05 2.91092e-05 
5.79707e-05 6.19231e-05 5.06937e-05 4.7664e-05 2.43218e-05 4.67739e-05 -4.96703e-06 -2.98118e-06 -8.78891e-06 
-4.64704e-06 -2.70732e-06 -1.70852e-06 1.33432e-05 1.3397e-05 1.52452e-05 2.97034e-05 2.60084e-05 3.04026e-05 
7.94072e-06 -4.39646e-05 -0.000101044 -0.000184644 -0.000186534 -0.000281345 -0.000612298 -0.00281622 -0.00256827 
-0.00788596 0.0502868 0.0756996 0.0400239 0.0262788 0.00451639 0.00307972 0.0162526 0.00535295 
0.00388946 0.00533613 -0.00175649 0.0120197 0.0204038 0.0142776 -0.0740576 0.04306 0.0191729 
0.00400117 0.00270923 0.00674038 0.00323402 0.00570829 0.00509101 0.00452226 0.0166994 0.00303838 
-0.0120502 0.00109226 0.0823765 -0.0621897 1.66924e-06 8.34977e-05 2.83769e-05 7.32175e-06 -1.49549e-05 
-4.61558e-05 -2.89224e-05 -3.0385e-05 -6.96835e-05 -4.56362e-05 -1.24582e-05 1.7027e-06 2.1302e-05 2.68017e-05 
1.50957e-05 1.54689e-05 3.44585e-05 2.30662e-05 7.24922e-06 -1.23121e-07 -8.49568e-06 -1.73518e-05 -4.42908e-06 
0.0446426 -0.0109276 -0.00187479 -0.000478839 -0.000229129 -0.000345249 -0.000156052 -6.827e-05 -3.41546e-05 
-9.16435e-06 -5.87145e-05 -3.45373e-05 -1.17786e-06 3.71758e-05 -1.13462e-06 2.3711e-05 5.31323e-05 8.95634e-05 
5.54923e-05 5.99558e-05 7.08715e-05 7.5135e-05 0.000141727 1.72238e-05 -0.000130004 -0.000261469 -0.000253079 
-0.000134736 -2.44318e-05 3.31226e-05 7.05959e-05 8.47317e-05 5.0881e-05 4.12367e-05 4.32355e-05 7.52919e-05 
6.33299e-05 -4.27786e-06 -1.56717e-06 -4.90117e-06 -3.49499e-06 -3.38653e-07 -7.03515e-07 -2.06546e-06 5.28471e-07 
8.99337e-06 1.9412e-06 4.27843e-07 2.49193e-05 2.35983e-05 3.75867e-06 -4.25217e-05 -4.60617e-05 -4.33634e-05 
-8.4621e-05 -0.000196083 -0.000780483 -0.00130332 -0.00332394 -0.0211693 0.0453102 0.0411018 0.00652459 
0.00402352 0.000565567 0.00624759 0.00432575 0.00435725 0.00521787 0.00576443 0.0185837 3.2618e-05 
0.019105 0.0758026 0.0675139 -0.0101642 0.0445716 0.0729144 0.0288916 0.0138792 0.00420883 
0.00614401 0.0147533 0.00464706 0.00437269 0.0027458 0.00631374 0.0141441 0.00727776 -0.0159502 
-0.0901307 2.96175e-06 -1.55721e-05 0.0463786 -0.0148203 -0.0171346 -0.00532722 0.34959 0.353888 
0.268904 0.252484 0.22433 0.213921 0.214975 0.205475 0.204858 0.187034 0.19781 
0.196623 0.181888 0.199645 0.177454 0.200928 0.20148 0.176499 0.20141 0.188621 
0.19037 0.19786 0.180487 0.2009 0.200742 0.175214 0.195969 0.190599 0.187601 
0.19773 0.180419 0.209564 0.174244 0.176716 0.207172 0.178896 0.197834 0.187871 
0.190222 0.202571 0.184286 0.209556 0.21688 0.230306 0.254527 0.206366 0.206181 
0.203714 0.224347 -2.04823e-06 -2.55577e-05 -7.76901e-06 -1.71977e-05 -2.53706e-05 4.36132e-05 -2.33883e-05 
-1.41052e-06 1.89849e-05 -8.29946e-06 1.49909e-05 3.77488e-06 5.84084e-06 5.78303e-06 -1.08907e-05 8.04521e-06 
1.87964e-05 -2.89205e-05 2.94832e-05 2.78583e-05 -3.82576e-05 1.69519e-05 1.83711e-05 -4.0838e-05 2.9168e-05 
2.95991e-05 -4.70849e-05 2.90343e-05 1.53471e-05 -4.41227e-05 4.73741e-06 1.6958e-05 -4.55964e-05 2.52789e-06 
5.47879e-06 -2.16217e-05 1.06394e-05 -3.80909e-06 -1.33354e-05 5.07358e-06 4.62645e-06 -1.15301e-06 -8.77753e-06 
-2.88796e-06 3.03934e-06 -5.77499e-06 -9.93019e-06 1.99648e-05 -1.87452e-05 -1.45761e-05 2.12787e-05 -6.3141e-06 
-8.40142e-06 2.38185e-05 -1.05064e-05 -1.16802e-05 2.12012e-05 -1.38318e-05 -7.13774e-06 2.13806e-05 -2.64761e-06 
-1.01417e-05 2.1782e-05 -2.561e-06 -3.75595e-06 1.11114e-05 -5.8088e-06 1.62168e-06 9.11163e-06 -2.08592e-06 
-2.88843e-06 3.80601e-06 4.7679e-06 2.21225e-06 -1.19254e-06 6.65552e-06 1.42754e-06 -1.00438e-05 2.29782e-06 
7.24221e-06 3.57325e-06 -8.6797e-06 -0.0315442 -0.0786436 -0.0028423 0.00250683 0.000885303 -0.0109024 
0.00182002 0.000250112 -0.00281606 0.000457622 0.000177095 -0.000726873 0.00032113 0.000269782 -0.000422965 
0.000156359 0.000100464 -0.000402028 3.96735e-05 0.000105976 -0.000305209 0.000125526 6.6398e-05 -0.000159677 
7.23861e-05 2.14723e-05 -0.000101369 2.94474e-05 2.37208e-05 -8.12999e-05 3.87746e-05 5.55479e-05 -6.5443e-05 
-2.12643e-05 3.66418e-05 -6.347e-05 -2.67506e-05 -4.49534e-06 -3.24189e-05 1.62742e-05 2.7372e-06 -2.61577e-05 
1.15957e-05 -1.6946e-05 -1.18727e-05 5.36247e-06 4.09187e-05 1.17245e-05 -4.34778e-05 -2.46062e-05 3.16517e-05 
-7.08594e-06 -2.91789e-05 2.36079e-05 -1.64092e-05 -3.68344e-05 4.51614e-05 -1.5484e-05 -5.57266e-05 4.91491e-05 
-3.54557e-05 6.93687e-06 6.9169e-05 -4.99299e-05 -5.76069e-05 8.43625e-05 -4.40339e-05 -3.85603e-05 6.76939e-05 
-2.97635e-05 -4.08296e-05 7.30471e-05 -4.55549e-05 -5.66068e-05 5.85856e-05 -7.42955e-05 -7.34558e-05 7.0124e-05 
3.37892e-05 -3.79357e-05 0.000108379 -8.69285e-05 2.90288e-05 4.36061e-05 -4.42755e-05 0.000121954 -3.15782e-05 
6.10369e-05 0.000231193 -0.000125022 0.000179369 7.22088e-05 -0.000235725 0.000103821 0.000161432 -0.000297122 
0.000216278 6.36063e-05 -0.000199947 0.000125804 1.2263e-05 -6.77429e-05 4.34681e-05 -3.96901e-05 -3.68104e-06 
-1.11016e-05 -4.64842e-05 3.68244e-05 -2.60215e-05 -4.643e-05 6.54671e-05 -6.54621e-05 -2.25221e-06 6.49666e-05 
-4.59589e-05 -3.52773e-05 5.77647e-05 -4.19872e-05 -2.83234e-05 5.57313e-05 -3.61957e-05 -2.8509e-05 4.93653e-05 
-2.87042e-05 -2.80987e-05 4.82067e-05 -3.11715e-05 -1.63613e-05 4.6825e-05 -1.66351e-05 1.71745e-05 4.39713e-05 
4.84336e-06 -3.06077e-06 6.3441e-06 -4.11066e-06 1.27784e-06 5.1836e-06 -9.68032e-06 1.82614e-07 3.44843e-06 
-6.09223e-06 8.75992e-07 1.54596e-05 -4.54372e-05 2.36656e-05 7.34693e-05 -3.74023e-05 3.71855e-05 3.48283e-05 
2.01719e-05 -3.45661e-05 0.000108193 2.35313e-05 -0.000112374 0.000134143 2.14959e-05 -0.000144469 0.000104575 
2.59865e-06 -0.000115895 4.59308e-05 -1.51152e-05 -9.88796e-06 0.000103209 -3.63475e-05 -2.63103e-05 0.000130332 
-5.58995e-05 -0.000111118 0.000263942 -8.49043e-05 -0.000215192 0.000661058 -0.000192839 0.00142246 0.00182277 
0.00152922 0.00366725 -0.00229271 -0.00897838 0.0435906 0.0194513 0.0314066 0.0255012 -0.072441 
0.0247079 0.0278356 -0.0612707 0.0149571 0.012778 -0.0563812 0.013891 0.0151719 -0.00254806 
0.0108519 0.0140772 -0.00645893 0.0186358 0.0147022 -0.00782166 0.020163 0.0205818 -0.054164 
0.00947409 0.0145597 -0.0522613 0.0167904 0.0145419 -0.00566332 0.0144448 0.0141124 -0.00348983 
0.0167567 0.0118216 -0.00512471 0.0231672 0.0229535 -0.0516545 0.0141591 0.0170608 -0.0542597 
0.0165108 0.0139645 -0.00723643 0.0120076 0.0132379 -0.00481926 0.0152615 0.0187749 -0.00454025 
0.016027 0.0122871 -0.00437781 0.012696 0.0185 -0.049341 0.0185435 0.0174871 -0.00511466 
0.0148627 0.0165459 -0.00606216 0.0156259 0.0192038 -0.00974011 0.0162644 0.0120232 -0.0110313 
0.0193913 0.0185374 -0.0568191 0.0254144 0.0436554 -0.0647905 0.00877251 0.00464016 0.00621889 
0.00516749 -0.00529121 0.00622877 0.00444305 -0.0038358 0.00350905 0.00241068 -0.00318908 0.00213451 
0.00197438 -0.00252155 0.00436995 0.00336225 -0.00211046 0.00279523 0.00261931 -0.00240881 0.00235089 
0.00243423 -0.00264374 0.00154231 0.00309527 -0.00270248 0.00227201 0.00161013 -0.00258474 0.00392361 
0.00397489 -0.00234905 0.00265571 0.00683266 -0.00261782 -0.00511381 0.0145597 -0.00416361 0.0605784 
-0.00757353 -0.0140272 0.0280364 0.0134603 0.00825016 -0.00829686 0.0052981 0.00480768 -0.00345197 
0.000743448 0.00670179 -0.0130372 0.00464996 0.00474108 -0.00140253 0.00501774 0.00301497 -0.0018627 
0.00361755 0.005343 -0.00171458 0.00413821 0.00438176 -0.00171976 0.00479947 0.00440595 -0.00184465 
0.00598883 0.00701126 -0.00217612 0.00568582 -0.000910452 -0.00275572 0.00466409 0.00159308 -0.0139591 
0.00135473 0.00577103 -0.016117 0.00836366 0.00548517 -0.00386983 0.0433951 -0.00527156 1.35708e-05 
0.0342858 6.29012e-06 6.64826e-08 -0.0172939 5.33646e-05 -6.24281e-05 -0.000684583 0.00028839 0.00060583 
7.52584e-06 -0.0107455 0.0140294 -0.0495992 0.0305722 -0.00553169 0.0186467 -0.0101129 -0.00624081 
-0.00653054 -0.00854264 0.0127983 -0.0183837 -0.00673252 0.00326326 -2.51991e-06 -0.0600376 -1.8267e-05 
5.82084e-06 -1.83507e-05 1.56258e-05 4.23061e-06 -1.09322e-05 1.06862e-05 1.47155e-07 1.00187e-05 1.64543e-05 
-8.52401e-06 1.93922e-06 2.84768e-05 -3.13772e-05 1.37138e-05 2.68162e-05 -4.96671e-05 3.39895e-05 2.9159e-05 
-4.16734e-05 3.05536e-05 1.04576e-05 -3.8341e-05 2.57301e-05 6.12997e-06 -4.09781e-05 1.57824e-05 1.01475e-05 
-2.70109e-05 9.72729e-06 2.0136e-06 -1.0657e-05 8.02121e-06 -3.76754e-06 -3.48441e-07 -1.90053e-06 -4.2862e-06 
-3.47832e-06 -9.0355e-06 -2.14157e-06 5.04949e-06 -7.12503e-06 -1.14184e-05 1.89274e-05 -1.42262e-05 -1.23375e-05 
1.92021e-05 -1.19999e-05 -8.48443e-06 1.66618e-05 -1.53468e-05 -6.3513e-06 2.31485e-05 -1.37148e-05 -5.18531e-06 
2.00233e-05 -8.66741e-06 -7.8159e-06 1.46826e-05 -6.20422e-06 -2.68907e-06 7.57927e-06 -5.64853e-06 3.33965e-07 
2.20954e-06 -3.17946e-07 2.76887e-06 6.93554e-06 6.52521e-06 -6.99682e-06 -2.9406e-05 0.00069426 -0.000134086 
0.00054706 -2.31706e-05 -0.000982554 0.000465028 0.000238452 -0.000457888 0.000373148 8.85938e-05 -0.000664644 
0.000123702 0.000200565 -0.00055834 8.85295e-05 9.19128e-05 -0.00027021 0.000117449 2.23179e-05 -0.000179373 
8.48196e-05 7.97481e-05 -0.000172463 4.47015e-05 4.62999e-05 -0.000146019 2.78923e-05 6.5255e-05 -0.000112709 
6.77659e-06 5.31425e-05 -6.15147e-05 -2.47189e-05 6.91696e-07 -8.7162e-06 1.77808e-05 4.05497e-05 -3.56889e-05 
-1.54686e-05 1.96398e-05 -4.81405e-05 -1.88808e-05 -2.889e-06 -3.63601e-06 -2.81937e-05 -1.45617e-05 5.73814e-05 
-5.28612e-05 -4.88076e-05 7.77128e-05 -1.78387e-05 -4.66646e-06 6.59981e-05 -6.23276e-05 -1.04517e-05 3.78975e-05 
-3.98036e-05 -2.64602e-05 7.53315e-05 -4.13024e-05 -3.59217e-05 8.85454e-05 -4.9763e-05 -5.93626e-05 5.35527e-05 
-2.555e-05 -4.72554e-05 1.70234e-05 -1.33121e-05 -5.02091e-05 4.27521e-05 -2.57504e-07 -1.5907e-05 4.06163e-05 
1.4923e-05 1.06587e-05 -2.00621e-05 3.39644e-05 0.000129751 -0.000109716 -6.31338e-05 0.000235578 -0.000109676 
3.99794e-05 0.000110582 -0.000228349 0.000200365 1.24761e-05 -0.000239507 0.000119325 5.11371e-06 -0.000262807 
9.20141e-05 -4.55102e-05 -4.14869e-05 9.05935e-05 -6.27291e-05 3.2568e-05 3.40833e-05 -5.35459e-05 7.97857e-05 
-1.96587e-05 -1.68937e-06 8.04056e-05 -7.18119e-05 1.58833e-06 5.47871e-05 -6.1714e-05 1.21247e-05 9.0725e-05 
-4.44675e-05 -1.41226e-05 9.02166e-05 -5.77307e-05 -1.71067e-05 6.14566e-05 -2.45115e-05 -7.17159e-06 3.17232e-05 
-3.5836e-05 -1.72231e-05 2.70519e-05 -2.41114e-05 4.16333e-06 3.49422e-05 -0.0110457 -0.00724846 -0.00121239 
-4.08365e-06 5.24723e-06 -9.20676e-06 8.3981e-06 -1.26394e-05 -8.25926e-07 3.06129e-06 -3.51196e-05 4.81909e-05 
-0.00137264 0.00463478 -0.00144352 -0.0113137 0.0112308 1.21485e-06 8.1036e-05 -0.000139443 0.000182485 
4.20677e-05 -0.000251294 0.000337034 -9.59921e-05 -0.000239631 0.000139625 -7.83811e-05 4.70899e-05 -2.6126e-05 
-4.98523e-05 0.000146579 1.3708e-06 -0.000175359 0.000348177 -1.12729e-05 -0.00035541 0.000688428 -7.08348e-05 
0.000152527 -0.000125802 0.00121382 -0.00467682 0.0108717 -0.0222118 -0.00416459 -0.00799914 -0.0128864 
-0.0050926 -0.00494332 -0.00138614 0.00171143 -0.000262788 0.000477301 -0.000182508 -0.00125506 0.0022615 
-0.00260332 0.00304691 0.000923358 -0.00546889 -0.00803344 0.0014747 -0.00863133 -0.00549333 0.000977869 
0.00226323 -0.00125444 0.00220151 -0.00115732 -0.00141208 0.00341763 -0.00167435 0.00301027 0.00315142 
-0.00467142 -0.00735907 0.00154722 -0.00745897 -0.00602171 0.000698661 0.0021636 -0.00184032 0.00224346 
-0.00064535 -0.00173166 0.00353475 -0.00196384 0.00148318 0.00110334 -0.00140195 0.00226047 0.00373805 
-0.00240379 -0.00414495 0.00262682 -0.0011057 -0.00228918 0.00348792 6.57454e-05 -0.00221676 0.00405309 
-0.00199158 -0.00247225 0.000875926 -0.00323488 -0.00117273 0.000469337 -0.00611564 -0.0102027 0.000232846 
-0.00493833 -0.000805622 0.000312864 -0.00139799 0.00149897 0.00033703 -0.00041629 -0.000539278 -0.000571175 
-0.000504302 -0.00047335 -7.4759e-06 -0.00058172 -0.000809405 1.79062e-05 -0.000820262 -0.000649887 5.1521e-05 
-0.000792171 -0.000693061 6.88818e-05 -0.000714469 -0.000426655 4.77184e-05 -0.00089592 -0.000222494 3.71781e-05 
-0.000645001 -0.000296952 -0.000234731 0.00311503 -0.00127269 -0.00065701 -0.00578387 0.0039208 2.2745e-06 
-5.71943e-06 -0.000891493 -0.000140164 0.00138468 -0.00110076 -0.00322565 -0.000439022 -0.000910191 -0.00148217 
-0.00167842 0.000409996 -0.00127593 -0.000810783 0.00101984 -0.00115956 -0.000719534 0.00134237 -0.00117418 
-0.00109597 0.00126644 -0.00124803 -0.00091195 0.00116139 -0.000836361 -0.000940892 0.00101893 -0.000900229 
-0.00176701 0.00066071 -0.00108799 -0.000834518 -3.19471e-06 -0.00179818 -0.000889436 -0.000531759 -0.00108851 
0.000338797 -0.000421766 6.68297e-05 -0.000132009 4.79903e-05 -0.000464097 0.000147197 -0.000192185 0.000118415 
-4.1785e-05 7.06724e-06 9.10593e-06 -0.00129285 0.00956671 -0.000571413 -0.000305029 -0.000177953 -0.00138133 
-0.00395837 -0.00144571 -0.00345068 0.00436114 7.04948e-06 -6.50613e-06 1.02502e-05 -2.14281e-06 5.31464e-06 
1.65512e-06 6.43622e-07 1.99149e-06 3.94513e-06 -0.00178671 0.00169412 -0.00297601 -0.00035543 0.00062229 
0.00119857 0.000594302 -3.5213e-05 -3.80323e-06 0.000829673 -0.00532124 -0.000254414 -0.0020819 -0.00961315 
-0.0150315 -3.85879e-05 -0.000338254 0.000338165 0.000110807 -0.000560442 -0.000705094 -0.00105955 0.0110551 
-0.0025846 -0.00076691 0.00139035 -0.00284193 0.00119255 0.000356562 -0.00089898 0.000628432 -1.83858e-05 
2.25807e-05 -5.47054e-06 2.0698e-05 -1.17292e-06 2.10973e-06 3.09119e-05 -7.29004e-06 6.09713e-06 3.806e-05 
-3.63669e-05 2.27568e-05 2.27088e-05 -4.36426e-05 3.03123e-05 8.31379e-06 -4.25153e-05 3.91996e-05 5.03334e-06 
-4.38775e-05 2.74612e-05 4.11998e-06 -2.91925e-05 1.42937e-05 -2.0718e-06 -7.02112e-06 1.22837e-05 -7.15861e-06 
-4.98554e-08 7.51454e-06 -6.80657e-06 -8.65443e-07 -4.97052e-07 -1.02341e-05 -2.92905e-07 -4.45738e-06 -1.00095e-05 
1.23682e-05 -4.745e-06 -1.01071e-05 1.77333e-05 -8.93459e-06 -8.90317e-06 1.63272e-05 -1.58488e-05 -5.00636e-06 
1.61776e-05 -1.56739e-05 -3.04533e-06 1.43623e-05 -1.25476e-05 -4.95511e-06 1.1142e-05 -7.31178e-06 -1.33447e-06 
7.7044e-06 -4.76344e-06 9.41909e-07 1.37319e-06 -1.65208e-05 1.53546e-05 -4.17866e-06 -0.000614596 0.000179985 
-1.08421e-05 4.43762e-06 6.05639e-06 -2.32673e-05 0.000856764 -8.09379e-05 0.000610049 -1.13626e-06 -0.000612762 
0.000206961 0.000120085 -0.000509237 0.000164223 0.000138119 -0.00033743 0.00010643 8.89116e-05 -0.000233376 
0.000128812 7.76747e-05 -0.000108545 8.74337e-05 3.06588e-05 -0.000135332 4.57119e-05 3.15006e-05 -0.000132617 
-3.39839e-06 7.44071e-05 -7.72578e-05 1.17442e-05 4.46396e-05 -3.28693e-05 1.00776e-05 1.26857e-05 -1.30033e-05 
-5.51804e-06 2.94728e-06 -4.08404e-05 -2.95926e-05 1.7419e-05 -2.15261e-05 -7.39219e-06 5.15002e-07 3.00616e-05 
-5.97434e-06 -2.31192e-05 7.86571e-05 -2.73123e-05 -3.88655e-05 6.91753e-05 -5.63972e-05 -1.18129e-05 2.9906e-05 
-6.91211e-05 1.49972e-05 3.01337e-05 -3.68758e-05 4.77656e-06 5.06056e-05 -1.36222e-05 7.81393e-06 3.33124e-05 
-1.19588e-06 7.40264e-06 -2.28908e-05 3.16393e-05 1.23189e-05 -7.33688e-05 8.1492e-05 2.82407e-05 -0.000114469 
6.56245e-05 6.66953e-05 -0.000163112 -2.94208e-06 0.000113773 -0.000170413 -2.77442e-05 0.000214375 -8.01326e-05 
-6.62675e-05 0.000123987 -4.5573e-06 0.000108738 -8.90226e-05 -0.000177252 0.000200411 -0.000155004 -3.48048e-05 
0.000110005 -0.000195665 9.50913e-05 6.17569e-05 -0.000142563 0.000163042 1.2575e-05 -0.000122049 0.000167678 
-3.48722e-05 -3.42281e-05 8.16448e-05 -7.0288e-05 -1.749e-06 5.46415e-05 -8.83433e-05 1.60831e-05 3.32936e-05 
-5.93274e-05 3.07041e-05 2.18163e-05 -3.24142e-05 1.11529e-05 1.89192e-05 -1.92404e-05 8.80668e-06 1.48119e-05 
-2.38921e-05 -7.16419e-06 -9.04234e-06 -1.08692e-06 -5.94097e-05 -0.000977837 -6.21246e-05 0.000442279 0.000308048 
1.03998e-05 -1.59762e-05 1.15039e-05 -2.42895e-05 -0.00330283 1.49826e-05 -3.91805e-05 -0.000878217 -6.75869e-05 
-0.000852387 0.00154114 -0.000456503 0.000243678 -0.000137431 0.000413588 0.000167979 -0.000173091 4.51244e-05 
-5.89351e-06 -0.000108515 0.000296283 4.18793e-05 -0.000345622 0.000479618 -1.60809e-05 -0.00281888 0.00386597 
7.86005e-05 -0.000124564 -8.41076e-05 0.000550224 0.00157025 0.0029921 -0.000519956 -0.000116251 -0.000318017 
0.000309945 -5.50522e-05 -0.000865703 0.000267926 0.000413116 -7.72217e-06 0.000372961 0.000168366 0.000434104 
0.000257005 0.000231464 -0.00122431 0.00036568 -0.00134499 -0.00102126 0.000628896 -0.000680587 0.000452723 
0.000385976 1.60816e-05 0.000621995 0.000122958 0.000407567 -9.94025e-05 0.000213537 0.000444847 -0.00110429 
5.68105e-06 -0.0013872 -0.00102758 0.000486286 -0.00082093 0.000414982 0.000346005 -3.95872e-05 0.000214246 
2.758e-05 0.00045654 0.000490838 0.00021503 0.000324516 5.81033e-05 0.000198082 0.000391568 -0.000924331 
0.000189571 -0.00107619 0.00036809 0.000482547 -6.47698e-05 0.000392493 0.000308964 0.000272218 0.000153546 
0.000450501 3.8315e-05 -3.44966e-06 0.000495128 -0.000193152 -0.000584671 0.000496998 0.000178513 8.95773e-05 
7.97927e-05 5.04019e-05 0.00021072 5.88409e-05 4.66019e-05 -5.44655e-05 1.66115e-05 0.000108255 -0.000256906 
9.53716e-05 0.000190044 -0.000147797 0.000506215 9.74747e-05 -0.000237366 0.00160105 -0.00040503 -0.000362026 
5.79835e-05 -0.00018779 -0.000526716 0.000566072 0.000133639 0.00217054 -0.00515607 -0.000123065 -9.5903e-05 
-0.000236809 9.58185e-05 -0.000315325 9.31195e-05 1.4359e-05 -0.000239891 0.000135119 9.25073e-06 -0.000182929 
0.00016453 -1.95479e-05 -0.000181487 0.000200913 1.38963e-06 -0.000227331 0.000223306 -5.91766e-05 -0.000364323 
-6.79447e-05 0.000520996 -0.000603367 -1.75259e-05 0.000903469 -0.00068597 -0.000216037 -3.47058e-05 2.29221e-05 
2.85441e-06 -0.000493225 0.000271278 -0.000162245 0.000113039 -9.50818e-05 1.84012e-05 0.000355862 -0.000242904 
-0.000189004 -0.000366157 -0.000106729 0.000108821 -0.000137919 -2.6302e-06 -2.16157e-06 -7.33783e-05 4.29523e-05 
0.00010606 -0.000132638 -8.2863e-05 -0.00129985 0.000693327 -0.00102374 0.00210403 -0.000694757 0.000789359 
-0.000144192 -0.000619327 -0.000669575 -1.002e-05 5.45011e-06 -2.97076e-06 3.54972e-06 -0.000190171 1.61302e-06 
1.82695e-05 -0.00106702 7.66829e-05 0.000458396 -6.77038e-06 -0.000271636 0.000377957 2.98137e-05 4.06201e-05 
2.97034e-06 -4.48765e-05 3.03398e-07 0.00014663 4.16856e-05 -0.0013028 0.000419133 -0.00160808 0.000351325 
-0.00145712 0.00106845 0.00171499 -0.000553799 -0.000123684 -0.000313253 0.000693377 0.00014513 5.13406e-06 
-0.000530707 -0.000260578 0.00106931 -0.00178942 0.000485905 -1.71039e-05 4.84284e-05 -0.000111973 6.18547e-06 
-8.59265e-05 -7.14989e-06 -0.000276885 0.000400777 0.000596171 0.000255868 0.000132382 -6.14473e-05 -1.76123e-05 
4.82709e-05 -1.25773e-05 5.17419e-05 -2.83468e-05 3.28133e-06 3.44105e-05 -5.42279e-05 2.9037e-05 2.33427e-05 
-5.35372e-05 4.61663e-05 2.28593e-06 -4.39421e-05 3.96407e-05 -1.00912e-05 -3.70736e-05 2.99826e-05 -1.11876e-05 
-1.65554e-05 1.47012e-05 -1.45022e-05 -2.90989e-06 1.28044e-05 -1.26625e-05 6.53235e-06 9.92301e-06 -1.44482e-05 
4.60027e-06 1.72199e-06 -9.25615e-06 4.26004e-06 -2.04963e-06 -5.8673e-06 1.22538e-05 -6.36409e-06 -8.1357e-06 
1.38598e-05 -6.51186e-06 -6.07201e-06 1.3391e-05 -1.49186e-05 -2.63683e-06 1.11664e-05 -1.58253e-05 -1.38691e-06 
7.00737e-06 -7.98887e-06 7.79417e-07 9.50879e-06 -5.67776e-06 8.52036e-06 7.40736e-06 0.000115722 0.000210555 
1.62057e-05 -3.30634e-05 0.000238387 8.69352e-05 -4.30856e-06 0.00028751 -0.00016534 0.000244816 -3.43628e-05 
-0.000337094 0.000230966 4.79777e-05 -0.000308261 0.000134411 7.58929e-05 -0.000178573 9.60042e-05 8.33525e-05 
-0.00012125 9.80959e-05 4.69197e-05 -5.65001e-05 8.19789e-05 1.99407e-05 -6.46096e-05 3.75545e-05 4.59593e-05 
-5.85943e-05 3.11707e-05 6.04378e-05 -4.27778e-05 2.97379e-05 3.11422e-05 -1.74865e-05 6.26074e-06 -1.046e-06 
-4.76365e-05 -8.47098e-06 -1.42248e-05 -4.61132e-05 -2.03196e-05 -1.16678e-05 -6.69811e-07 9.44718e-07 -2.99444e-05 
6.31551e-05 -3.43039e-06 -2.93959e-05 9.80553e-05 -6.14852e-05 -4.63148e-05 7.71668e-05 -7.661e-05 -9.14893e-06 
2.35537e-05 -7.78157e-05 4.27908e-05 -5.01669e-06 -2.44391e-05 8.36374e-05 -1.45984e-05 -1.62115e-07 7.82104e-05 
-2.84283e-05 7.27702e-06 5.88017e-05 -0.00012033 9.77123e-05 8.72325e-05 -0.000207192 0.000193682 0.0001793 
-0.00023263 7.1768e-05 0.000225828 -0.00011495 -3.06017e-05 4.10725e-07 -0.000588714 -7.33487e-05 -0.00023169 
3.56218e-05 -0.000144486 0.000213884 -9.74851e-05 -9.9056e-05 0.000305818 -0.000104684 -1.33384e-06 5.44079e-05 
-7.80432e-05 2.37386e-05 8.28439e-06 -4.10024e-05 3.80483e-05 -4.71901e-05 -1.99968e-05 5.5368e-05 -4.9837e-05 
-1.04723e-05 3.93468e-05 -3.21917e-05 -8.15532e-05 0.000197784 -0.000157237 8.37878e-05 -1.00499e-05 -0.000118136 
-0.000274234 1.25551e-06 -0.000169355 0.000349377 -0.000161243 0.000297476 0.00019903 4.11576e-05 0.000165713 
-0.000165477 -0.000108736 -1.69207e-05 -0.00034603 0.000423343 -8.48299e-06 -0.000131343 0.00158074 -0.000271588 
0.000515812 9.87762e-06 -2.81215e-05 -0.000100533 9.64273e-05 0.00109608 -0.00136949 -0.000299142 -0.000102904 
-8.41265e-05 -7.34963e-05 0.000268826 -7.10523e-05 -0.000140723 0.000275865 -0.000110371 -4.44669e-05 0.000312251 
7.84771e-06 3.5472e-06 0.000143536 -1.49951e-05 -9.01671e-05 5.57095e-05 -5.38084e-05 1.44548e-05 9.92318e-05 
-2.5049e-05 -0.00010323 0.000127718 -8.94218e-05 -1.95175e-05 4.22032e-05 2.20077e-05 -5.35015e-05 5.01283e-05 
-6.80715e-05 -2.54262e-05 7.12931e-05 -9.01806e-06 -1.09466e-05 8.60693e-05 -0.000105979 -1.1601e-05 0.000164405 
-0.000113974 -4.72027e-05 0.000161396 -8.59956e-05 -8.89046e-05 0.000241919 -7.36283e-05 -3.6332e-05 0.000381444 
-0.000103137 -0.000139171 0.000461371 7.47151e-05 9.72225e-05 -0.000206079 0.000125722 9.49102e-05 -0.000221844 
0.000328622 5.97414e-05 -0.000198581 0.00018231 6.66012e-05 -1.55522e-06 3.41038e-06 0.000295545 -0.000112162 
-0.00072106 0.000143189 0.000363833 0.00131312 -0.000269293 0.00106969 -0.000671534 0.000525462 -0.00088735 
0.000107464 -3.09132e-06 4.51026e-05 -0.000212527 -2.72473e-05 -8.10881e-05 4.95454e-05 0.000210637 0.000108731 
-0.000327122 0.000170775 0.000100314 -0.000343447 0.000193994 0.000102888 -0.000299793 0.00020166 0.000130839 
-0.00026774 0.000135235 0.000146047 -0.000290173 1.89355e-05 0.000327105 -0.000361173 -0.000168109 0.000399581 
2.11332e-05 -0.000199965 3.66637e-06 0.000140593 -1.84367e-05 2.56776e-05 1.34205e-05 6.07786e-06 -1.08132e-05 
3.41968e-05 2.03927e-05 2.23042e-05 0.000658835 8.38608e-05 -0.000418948 -0.000169062 4.54345e-05 6.81013e-05 
-1.10418e-06 -1.63161e-05 9.07448e-06 0.000800612 -0.0011934 -6.211e-05 1.47333e-05 -9.9592e-05 -0.00125042 
0.00113219 6.33985e-05 0.000139768 0.000215219 -0.000157822 -5.28592e-05 -2.81548e-06 0.000218617 0.000325607 
-9.73447e-05 0.000125609 5.10131e-07 -0.000204007 1.66144e-05 0.000182967 0.00011708 2.23907e-05 7.59006e-05 
-5.1678e-05 0.000363523 0.000408817 0.000257414 1.21531e-05 -0.000537438 -2.31551e-05 0.000201342 -5.53067e-05 
-0.000399882 -1.62661e-05 0.000165158 -0.000229725 -0.000729035 -0.000199593 1.60707e-05 -0.000615532 0.000509982 
-0.000176892 0.000311604 -0.00129811 -0.000187682 8.00041e-05 -3.81289e-05 -4.84436e-05 -0.000209364 -0.000160075 
2.26727e-06 0.000152368 -6.22581e-05 0.000248176 -0.000246049 -8.621e-05 -0.000303639 0.000215682 9.76751e-05 
-0.000274705 -0.000101252 4.95813e-05 -4.54102e-05 -0.000243092 0.000306078 0.000268453 -0.000225876 -7.71344e-05 
-3.14847e-07 0.000305063 0.000116572 -0.000430355 -0.000444169 2.60365e-05 -0.000327058 0.000376217 -4.33065e-05 
5.81034e-05 -1.00995e-05 5.04593e-05 -2.90784e-05 1.9958e-05 3.04469e-05 2.26342e-05 3.49677e-05 9.04908e-07 
-1.91636e-05 5.32488e-05 -6.16043e-06 -5.8439e-05 4.53582e-05 -1.61189e-05 -1.28208e-05 2.27218e-05 -2.45227e-05 
-2.36281e-05 1.44842e-05 -2.10583e-05 3.2075e-06 2.03502e-05 -1.33927e-05 1.09748e-05 3.9972e-06 -1.42493e-05 
1.00748e-05 -7.42782e-06 -1.81638e-07 4.22012e-06 -6.61571e-06 3.35277e-06 4.73654e-06 -2.92651e-06 -0.0072939 
0.00389408 -1.01918e-06 1.75526e-06 4.82251e-06 -1.15218e-05 -5.29885e-06 1.157e-05 -0.000579369 7.59471e-05 
-0.000457649 0.000346347 -2.17362e-05 -5.37355e-05 0.000346434 -9.17236e-05 0.000158531 -5.63021e-05 -0.000186658 
0.000120332 -1.56857e-06 -0.00010861 7.02206e-05 2.5427e-05 -5.18325e-05 3.26245e-05 3.4058e-05 -1.23495e-05 
7.11875e-06 -0.00505359 0.00271788 2.97239e-05 2.50332e-05 -4.8843e-06 2.43021e-05 2.42569e-05 -5.623e-06 
1.86679e-05 -1.46347e-05 3.92866e-05 2.20348e-06 -1.14764e-05 -6.59082e-05 -1.00578e-05 -2.00118e-05 -3.67243e-06 
5.42761e-06 -4.64002e-05 7.3801e-05 2.04842e-06 -5.56009e-05 9.78151e-05 -3.7816e-05 -5.62702e-05 8.84093e-05 
-5.7424e-05 -1.18597e-05 6.32653e-05 -6.05864e-05 5.19492e-05 2.74198e-05 2.31338e-05 5.0255e-05 9.29963e-05 
0.00016845 -2.75908e-05 -0.000289098 5.42335e-06 -0.000103516 0.000416092 -0.000128849 2.52159e-05 -0.000161204 
-9.22972e-05 4.0121e-05 -5.32999e-06 1.38305e-05 4.65084e-05 -0.000105222 4.89263e-05 4.341e-05 -9.89999e-05 
-0.000248413 -8.5557e-05 -5.92614e-05 1.82325e-05 5.75117e-05 0.000177018 -0.000409222 9.01772e-05 -0.000556579 
0.000392675 0.000657306 -5.90346e-05 -0.000496437 0.000344108 -0.000235904 -6.20115e-05 -2.10704e-05 7.13126e-06 
0.000255917 -0.000120721 -8.43006e-05 -0.000160331 0.000116372 6.25963e-05 -0.000132129 -0.000146405 -5.91869e-05 
0.000169543 -0.00016661 -1.55001e-05 0.000260477 -0.000143305 -6.89954e-05 0.000144427 -9.78153e-05 -7.37493e-05 
0.000140168 -8.79932e-05 -6.54114e-05 5.88992e-05 -9.76308e-05 -2.65402e-05 0.00013162 -6.04002e-05 -5.36134e-05 
0.000112572 -1.86211e-05 -0.00567176 0.00555117 -5.27692e-05 -4.24296e-05 6.35754e-05 -0.000105311 -5.477e-05 
0.000145122 -0.000130592 -7.33382e-05 0.000181433 -0.000158886 -0.00017423 0.000224283 -9.71631e-05 -0.000225842 
0.000215547 -8.53629e-05 -0.000212687 0.000321536 -0.000125523 -0.000179908 0.000505852 0.00049561 0.000188547 
0.000142378 -0.000197921 -0.000226412 -4.00491e-05 0.000253265 1.13678e-05 -5.85908e-06 0.000623404 -0.000110229 
-0.000403333 -0.000251188 -5.60158e-05 -2.63172e-05 -1.76874e-05 4.70656e-05 0.00062595 -0.000490573 0.000148325 
6.47049e-05 0.000128403 8.93278e-05 4.43902e-05 0.0001706 -0.000222034 -0.000139385 -4.46372e-05 4.97563e-05 
2.19834e-05 5.24146e-05 0.000785043 -0.000892703 -1.64788e-05 0.00011306 0.000124798 3.35936e-05 -4.49059e-05 
0.00030871 0.000268202 -0.000621456 1.44753e-05 3.46369e-06 -0.000325604 0.00019593 -2.49436e-05 -1.99442e-05 
0.000162482 0.000103513 -0.000547336 0.000446058 -0.000374833 -4.69212e-05 0.000120777 -0.000274661 -9.99861e-05 
0.000214087 2.10233e-05 -6.67237e-05 3.64694e-05 -0.000183901 -8.86867e-07 0.00013716 0.000354247 -0.000265129 
-0.000111254 -2.87892e-05 9.41358e-06 -4.22145e-05 0.000107113 -0.000105769 -2.16849e-06 2.6359e-05 -1.54459e-05 
-1.90286e-05 0.000112889 -7.16301e-05 -0.000157568 6.25489e-05 -3.38015e-05 -2.45272e-05 0.000168222 -0.000327005 
0.00010127 0.000422042 -8.73513e-05 -6.0086e-05 0.000139177 -0.0006214 0.000197421 2.67492e-05 5.32476e-05 
0.000132576 7.56486e-05 -0.000119079 -8.16564e-06 0.000113638 0.000126918 -0.000211534 0.000223944 0.000114679 
2.69286e-05 -5.10317e-05 0.000105058 -0.00014459 0.000363923 -0.000425925 -7.55474e-05 7.15953e-06 3.76882e-05 
1.11957e-05 -3.6497e-05 -0.0020642 0.00116476 3.38459e-05 -3.60917e-05 -3.57303e-07 4.68078e-06 -1.69879e-05 
6.31921e-06 2.55249e-05 -1.24505e-05 -1.05317e-05 -8.42748e-07 -5.9332e-06 1.31728e-05 -1.21026e-05 -8.5733e-06 
-9.0292e-06 1.1562e-05 -0.000150938 9.60188e-05 6.28503e-06 0.000112654 -4.36276e-05 -5.16308e-06 4.61877e-05 
-2.40742e-05 -0.000148509 -0.00127146 0.00640637 5.95215e-06 0.000172571 -2.67349e-05 2.18524e-05 -1.53012e-05 
-1.7045e-05 -2.63736e-05 6.91635e-05 -5.94167e-05 -0.00359766 0.000161009 7.61487e-05 -2.15231e-05 1.62331e-05 
-7.10835e-06 -7.69387e-05 -6.97077e-05 -0.000244188 0.000319849 -0.000132511 1.67246e-05 6.22317e-05 5.77978e-05 
0.000108524 1.71231e-05 -0.000137377 -2.5221e-05 0.000159445 0.000336923 -0.000448127 -0.000114526 5.99891e-05 
0.000209189 5.91288e-05 -0.000134696 -2.25341e-06 -9.30547e-05 0.000103583 -6.74927e-05 0.000393859 -7.69263e-05 
-0.000118787 -2.2748e-05 0.000485797 -0.000261273 -6.25332e-05 -3.3352e-05 -0.0020925 0.000889971 -0.000115983 
-3.30509e-05 -0.00095524 0.00325112 -0.000112441 -4.9042e-05 0.000127079 -0.000130033 -8.0778e-05 0.000108238 
-9.93797e-05 -0.000141137 0.000201282 -0.000115683 -0.000212284 0.000121826 -4.00748e-05 -0.000195499 0.000195438 
-0.00022589 -0.000411369 0.000406909 -0.000151266 -7.02877e-06 -8.18696e-05 9.42455e-05 -1.1315e-05 -4.66321e-06 
0.000244005 1.72394e-05 6.26223e-05 -0.000207474 -4.47319e-05 -4.90517e-05 -0.00313542 0.00130362 -7.53949e-06 
-5.93776e-05 -4.66814e-05 6.4847e-06 -8.49627e-05 0.000104082 0.000139929 6.96621e-05 -2.28183e-05 0.000112827 
-0.000154245 3.63873e-06 2.21352e-06 0.00013242 5.1855e-05 9.70564e-05 -0.00453756 0.00300744 -5.93254e-05 
0.000193289 0.000110654 -0.00649648 -0.0310719 6.32055e-05 -3.61067e-05 -6.13493e-05 -1.92082e-05 2.1549e-05 
-6.62405e-05 -8.1359e-05 -3.02441e-05 0.00253741 0.000150943 -0.000182785 9.24247e-05 -0.000347196 6.99786e-06 
-8.1794e-05 -9.07274e-05 0.000279013 9.87848e-05 -6.03903e-05 -3.21898e-06 -2.36265e-05 9.33981e-05 5.04084e-05 
-1.13863e-05 1.20237e-05 -3.74329e-05 4.23026e-05 1.40976e-05 -3.65073e-06 8.84996e-05 -2.15216e-05 3.83508e-06 
-1.26889e-05 8.38626e-05 -9.3746e-05 -6.99499e-05 -8.57376e-05 -1.46829e-05 -4.18643e-06 1.87155e-05 3.57311e-06 
8.78506e-05 -0.00020857 -1.91449e-05 4.21527e-05 -2.35266e-05 -0.000104688 -0.000101026 -0.000135047 2.78634e-05 
7.61059e-06 -9.10795e-05 3.34128e-05 -7.77382e-05 7.78651e-05 -0.000188525 1.49872e-05 -2.12882e-07 6.67261e-06 
-0.000139697 2.99919e-05 0.000103103 -1.40525e-05 3.40649e-05 -7.38161e-06 5.23317e-06 1.29168e-05 -0.000130708 
0.000179072 -3.54489e-05 2.50924e-05 0.000100376 4.8188e-05 -3.56768e-06 9.86739e-06 1.9475e-05 -5.28768e-05 
-5.85557e-05 4.93252e-05 5.48664e-05 9.9394e-06 1.79442e-05 -7.34365e-05 0.000130755 -0.000102765 -2.97736e-05 
-3.13087e-05 -2.09e-06 5.88794e-06 -1.02916e-05 7.56378e-06 1.00326e-05 -1.28583e-05 9.19486e-06 9.23303e-06 
-1.06828e-05 -1.91439e-06 2.89405e-05 1.64197e-05 -2.12066e-05 1.29619e-05 7.4916e-06 -4.35847e-05 6.89624e-06 
1.04057e-05 -4.53437e-05 1.44181e-05 3.38789e-05 -5.3441e-05 1.9176e-05 3.81751e-05 -3.69913e-05 -1.83132e-07 
6.91699e-06 -2.14987e-05 -3.51753e-06 4.55821e-06 -3.33849e-06 -4.99563e-06 -8.99654e-06 4.8253e-06 -1.23024e-05 
-1.19027e-05 1.30642e-05 -5.52771e-06 -2.55712e-06 2.35034e-05 -4.79114e-06 -6.58989e-06 2.03393e-05 -7.15981e-06 
-1.89181e-05 2.56725e-05 -1.11431e-05 -1.9961e-05 2.11262e-05 -1.0096e-06 -3.18869e-06 1.33299e-05 1.2905e-06 
-2.20948e-06 4.02178e-06 7.03065e-06 3.07474e-06 1.44616e-06 2.09649e-06 1.80521e-06 -1.56036e-07 1.41117e-06 
-0.0167911 0.00513805 0.0107538 -0.000301037 0.000401583 -0.0027027 -3.49117e-05 0.000734307 -0.000753782 
5.11201e-05 0.000386719 -0.000435957 0.000189924 0.000207441 -0.00052973 2.1502e-05 6.51504e-05 -0.000364936 
7.01904e-06 4.71812e-05 -9.99263e-05 9.04757e-06 2.60854e-05 -6.64387e-05 1.20156e-05 8.08241e-06 -0.000104755 
6.40272e-05 1.34278e-05 -8.76351e-05 1.86772e-06 1.2554e-05 -5.04373e-05 -5.44574e-06 5.28072e-06 -1.29915e-05 
-1.8595e-05 -7.99386e-06 -8.93362e-06 -5.76626e-06 -2.32749e-06 4.10981e-05 -1.50326e-05 -1.97926e-06 5.94761e-05 
-2.95699e-05 -7.34506e-06 3.89875e-05 -6.31951e-05 -3.75025e-05 7.23625e-05 -2.66881e-05 -3.00428e-05 0.000102747 
-2.98359e-05 -2.50095e-05 8.4867e-05 -4.06737e-05 -2.60798e-05 6.49077e-05 -4.24066e-05 -1.83359e-05 5.32832e-05 
1.5593e-06 -9.18747e-05 0.000111809 9.87513e-05 -3.53725e-05 -2.54013e-05 0.000106712 -5.80749e-05 -6.2216e-05 
9.75106e-05 7.46695e-06 -0.00016323 3.71333e-05 0.000225121 -0.000376994 -3.3626e-05 0.000106968 -0.000171432 
-4.01299e-05 5.26872e-05 -3.59053e-05 -2.62133e-05 2.66013e-05 1.92373e-05 -3.26818e-05 -1.31817e-05 4.22787e-05 
-3.72325e-05 -4.91546e-05 8.80215e-05 -1.25141e-05 -5.07691e-05 8.02198e-05 -8.69718e-06 -2.40983e-05 6.98337e-05 
-1.25287e-05 -1.42056e-05 4.05847e-05 -4.00566e-05 -4.83416e-05 5.19741e-05 -0.00625502 2.43948e-06 3.69323e-06 
5.24449e-07 5.54801e-06 -3.31231e-06 -2.39898e-06 3.0981e-06 1.20683e-07 -2.66805e-06 3.71387e-06 3.59021e-07 
-1.69986e-05 7.1962e-06 -2.90343e-06 -5.35936e-05 2.63033e-05 -4.70187e-05 5.70565e-05 8.3721e-06 -2.08272e-05 
7.08615e-05 1.68596e-05 3.00723e-05 4.91952e-05 2.58179e-05 7.76788e-05 -1.86536e-05 3.2284e-05 6.25206e-05 
-8.23265e-05 2.01386e-05 1.52999e-05 -7.30799e-05 -3.73127e-05 2.26517e-05 4.1579e-06 -7.70155e-05 8.6207e-05 
-5.30153e-06 -7.46672e-05 0.000234792 -4.27842e-05 -8.56753e-05 0.000695878 -4.8698e-05 -0.000155125 0.000582182 
0.000464552 -0.000374102 0.00263808 0.00210925 -0.0824891 -0.00647817 -0.0143566 -0.0117983 0.00737034 
0.00434348 0.0147365 0.00316451 -0.00736848 0.0095234 0.00488199 -0.0113908 0.000168768 0.00625772 
-0.00826281 0.0074023 0.00795491 -0.00832358 0.0108365 0.00988134 -0.0115048 0.0051471 0.00408002 
-0.00785607 0.00494226 0.0100587 -0.00884583 0.00544298 0.00547292 -0.00719263 0.00864307 0.00725655 
-0.0071656 0.00725962 0.00558609 -0.00838622 0.00472855 0.00809321 -0.00883629 0.00645448 0.00459026 
-0.00668766 0.00564386 0.00691364 -0.0110601 0.0116512 0.00840758 -0.00772735 0.0104446 0.0171239 
-0.00998932 0.00877811 0.00657389 -0.00700802 0.0109304 0.00892097 -0.00959624 0.0158264 0.00751391 
-0.00973482 0.0138638 0.00413833 -0.0116804 -0.0102003 0.0159863 0.0107712 0.00650973 -0.00946428 
0.00492174 0.00459951 -0.00474721 0.0026062 0.00440242 -0.00318706 0.00419034 0.00422589 -0.00292947 
0.00443087 0.00290821 -0.0029479 0.00233454 0.00447075 -0.00276407 0.00269661 0.00290979 -0.00258034 
0.0023912 0.00357389 -0.00209441 0.00432657 0.00437379 -0.00225608 0.00263901 0.00270565 -0.00253048 
0.00423669 0.00581548 -0.0031821 0.0113972 0.0153163 -0.0037216 0.00791651 -0.00574511 -0.00548459 
0.0156227 0.022431 0.0170367 -0.0104468 0.00788571 0.00697515 -0.00492265 0.000215158 -0.00149034 
-0.00295671 0.00160262 0.0052449 -0.00173216 0.00406295 0.0030432 -0.0106359 0.00263852 0.00456522 
-0.00185804 0.00449645 0.00657826 -0.00212494 0.0032204 0.00453938 -0.00213363 0.00247317 0.00440876 
-0.00206136 0.00226494 0.00525934 -0.00209107 0.00465071 0.00365903 -0.00265123 0.00330196 0.00247116 
-0.00257678 0.00987161 0.00900294 -0.00494641 0.00247894 0.022116 -0.0104405 0.0148341 -0.00709018 
-2.98716e-06 -2.29152e-06 -1.61178e-05 3.24531e-06 -2.39463e-05 1.33863e-05 0.0010059 -0.00193502 0.0465122 
0.00145027 -0.0107611 0.029652 0.0329975 -0.0252646 -0.00109394 -0.00325969 0.0110852 -0.00501434 
-0.000571502 0.0230955 -0.0770239 -0.0395152 -0.00335763 -0.00156953 3.55169e-05 -0.00917211 1.15833e-05 
-2.17861e-05 1.48066e-05 -9.33169e-06 -3.35887e-05 -1.04603e-05 1.50469e-05 2.42708e-06 4.36606e-05 8.46926e-06 
-1.80995e-05 2.87231e-05 9.64985e-06 -5.69804e-05 9.32754e-06 3.70645e-05 -4.32032e-05 1.37146e-05 3.91874e-05 
-4.82777e-05 8.10937e-06 1.05451e-05 -1.85068e-05 -3.52066e-07 9.29714e-06 -5.48845e-06 -4.02954e-06 2.66701e-06 
-5.04762e-06 -1.41703e-05 -3.87636e-06 5.59083e-06 -1.67934e-05 -4.99379e-06 2.23787e-05 -4.67401e-06 -1.69045e-05 
2.00315e-05 -5.45207e-06 -2.24649e-05 2.45206e-05 -8.97301e-06 -1.86835e-05 1.94606e-05 -7.27796e-06 -5.11505e-06 
1.05419e-05 -1.77885e-06 -4.16283e-06 6.37576e-06 3.04318e-06 -4.37639e-06 1.33338e-06 -2.10527e-06 -6.02227e-06 
1.94664e-06 -2.50186e-05 8.94562e-05 -8.32386e-05 0.000688613 -0.000349455 0.000598901 -0.000298896 -0.000244389 
-0.00105157 -0.00223813 0.000309697 0.000200011 0.000449385 -0.000531371 0.000149512 0.000133841 -0.000405015 
2.73864e-05 0.000100833 -0.00028972 -3.00652e-06 6.16835e-05 -0.000151482 3.29228e-05 4.57149e-05 -0.000144594 
5.00658e-05 5.50558e-05 -0.000106605 6.55128e-05 7.43648e-06 -4.59884e-05 -4.58674e-06 1.78834e-05 -2.4891e-05 
2.1016e-06 -2.44496e-05 -2.10977e-05 -1.94468e-05 -7.80824e-06 -1.2626e-05 -2.82607e-06 -1.09384e-05 4.59163e-05 
-2.93922e-05 8.45872e-06 7.03051e-05 -1.36588e-05 -8.01967e-05 5.806e-05 -4.77306e-05 -6.28349e-05 5.21073e-05 
-2.79104e-05 -2.57133e-05 5.46986e-05 -1.92554e-05 -2.29831e-05 2.4395e-05 -2.8559e-05 -1.71531e-05 -3.09908e-05 
2.66351e-05 1.67764e-06 -7.6336e-05 3.28159e-05 -1.12992e-05 -6.08366e-05 0.000158087 -0.000111138 -0.000136335 
0.000166732 -2.33095e-05 -9.20233e-05 -1.22017e-05 0.000164719 -0.000311532 -4.19491e-05 0.000325525 -8.53061e-05 
-8.00016e-05 0.000125766 0.000112657 -4.92583e-05 7.65809e-05 0.000151388 -3.10468e-05 -1.31386e-05 3.44253e-05 
-3.95192e-06 -9.30439e-05 5.68444e-05 -2.93036e-05 -9.38193e-05 6.67066e-05 -7.31223e-06 -3.62708e-05 4.62016e-05 
-1.1397e-05 -1.67405e-05 3.80263e-05 -5.25636e-06 -4.85479e-05 4.43257e-05 3.52313e-05 0.00240059 -0.000441678 
-6.94717e-06 8.26679e-06 -6.76686e-05 1.85132e-05 -2.15302e-05 8.82725e-06 1.47177e-06 0.0117265 -0.00851483 
-9.95861e-05 0.000132038 0.00180164 -0.000153884 -0.000116457 0.000100578 1.97198e-05 1.68418e-05 6.49318e-05 
-1.87954e-05 1.4564e-05 0.000196781 -0.000104961 -0.000132525 0.000118967 -0.000232717 9.26501e-06 -5.34029e-05 
-6.3583e-05 3.93671e-05 5.02284e-05 -5.8077e-05 0.000187151 -3.8324e-05 -4.32639e-05 0.000340651 -0.000251649 
-2.85047e-05 0.000350219 -0.00055043 -4.42338e-05 -5.31816e-05 -0.00390242 -0.0020379 0.000610296 0.00185124 
0.00360241 -0.00127063 -0.00219558 -0.000163292 -0.00145023 -0.00181755 0.00124657 -0.00189721 -0.00484898 
0.00170554 -0.00280627 -0.00296893 0.000670012 -0.00355514 -0.000887691 0.00115451 -0.00131324 -0.0011481 
0.00158934 -0.00106785 -0.00128667 0.00070148 -0.00245387 -0.00341165 0.001553 -0.00388716 -0.000943243 
0.00115393 -0.00199853 -0.00116692 0.0017534 -0.00176022 -0.00227838 0.000564222 -0.00107121 -0.00250191 
0.000817643 -0.00298008 -0.00316103 0.00176382 -0.00271138 -0.00110696 0.00179454 -0.00244763 -0.00165555 
0.000879097 -0.00231831 -0.00316052 0.000414544 0.00167366 -0.0077026 0.000746601 0.000922332 -0.00805506 
0.0030463 0.000509082 -0.00102253 0.00449369 -0.0093667 0.000492223 -0.000253908 0.000127305 -2.22686e-05 
-0.00061273 -0.000585172 -0.0001323 -0.000334975 -0.000812293 -0.000438308 -0.000152561 -0.000824462 -0.000400985 
-0.000110061 -0.000734955 -0.000723403 6.7253e-06 -0.00054031 -0.000573685 3.83003e-05 -0.000320402 -0.000849803 
2.93161e-05 -0.000334117 -0.000886589 -6.92366e-05 -1.63857e-05 -0.000461537 -0.000193436 0.000900971 0.00264593 
-0.000504959 -0.000571225 0.00139773 -0.00142143 0.00319055 -0.00467193 0.000605116 -0.00268178 -0.00125253 
0.00202555 0.000343879 -7.00195e-05 -0.000986821 -0.000176638 -0.00099267 -4.35115e-05 -0.000241 -0.000869545 
0.000237756 -0.000273739 -0.000798994 0.000228892 -0.000343181 -0.000802281 0.000167237 -0.000335956 -0.000733012 
7.62765e-05 -0.000525446 -0.000590949 -8.49814e-05 0.00115171 -0.000803386 -0.000768343 -0.000815488 0.000781353 
-0.000225235 -0.00136404 -0.00191165 -0.00135359 1.96569e-05 -1.78309e-05 4.94854e-06 3.19374e-06 -0.00264574 
-0.00179203 -0.000182268 0.00077527 0.000393925 0.000475152 -0.000624808 -0.00034983 0.000218685 -0.000858479 
-0.000244998 -0.000684358 8.60353e-06 -1.65372e-05 0.00107228 -0.000751698 0.0015264 -0.00317002 -0.000159177 
4.50333e-06 -1.32015e-05 1.17706e-05 -1.16511e-05 -7.68701e-07 1.91125e-06 2.27411e-06 -0.00212127 0.00228581 
2.93755e-05 0.000163906 -0.00960593 0.00482622 -0.00315949 0.00111312 -0.00314732 -0.00407583 -0.00958597 
0.000196216 -0.000723511 -0.000200704 -0.000447989 -0.00104358 -0.000306546 0.000977247 9.42177e-07 1.17762e-05 
-3.82555e-05 8.77331e-06 6.63213e-06 3.12603e-05 3.85624e-05 -8.43681e-06 2.61465e-06 4.60188e-05 -5.48353e-05 
-1.59316e-07 2.95933e-05 -3.24932e-05 -8.06366e-06 1.199e-05 -5.30783e-07 -7.15782e-06 8.50845e-06 1.06051e-05 
-1.02392e-05 3.34183e-06 -1.42519e-06 -1.74009e-05 -2.23631e-06 2.00248e-05 -1.3665e-05 -5.31927e-06 2.02627e-05 
-2.6976e-06 -1.51022e-05 1.31426e-05 -4.62166e-06 -1.55704e-05 1.96718e-05 -3.25435e-06 -6.59798e-06 5.87078e-06 
-1.90309e-06 -6.0778e-06 2.72534e-06 6.70298e-06 -3.48442e-06 5.24284e-07 0.00022498 6.23401e-06 -4.27551e-05 
9.69048e-05 1.07395e-05 -2.05284e-06 -1.82388e-05 -0.000353324 0.000375567 3.68585e-05 0.000277291 -0.000222194 
-0.000268992 0.000111378 -0.000753697 6.99552e-05 9.89785e-05 1.49039e-05 0.000107243 -0.000130555 2.55432e-05 
0.000107386 -0.000126764 4.61884e-05 5.71338e-05 -8.01678e-05 2.74761e-05 1.0397e-05 -4.2053e-05 1.37576e-06 
8.49207e-06 -4.36667e-05 -2.62433e-05 -2.42179e-06 -2.16882e-05 -4.22398e-05 -3.51568e-06 4.01497e-05 -3.48949e-05 
-4.15551e-06 8.1156e-05 -5.2912e-06 -4.21167e-05 0.000103052 -1.15839e-05 -6.58739e-05 7.94496e-05 5.38431e-06 
-2.3917e-05 3.68123e-05 4.04604e-05 -1.74321e-05 -2.69973e-05 2.48771e-05 5.34733e-05 -8.99228e-05 2.12388e-05 
0.000117938 -0.000162152 0.000125386 0.000102327 -0.00026455 0.000129946 -6.69931e-06 -0.0001408 0.000415535 
2.12047e-05 -0.000118026 -4.15224e-05 0.000127657 -0.000278171 -0.000200136 0.000232725 0.000240685 -0.000225274 
6.56697e-05 0.000447151 -0.000173701 3.76565e-05 0.000282753 -1.95789e-05 -5.12335e-05 0.00023956 6.97223e-06 
-9.25376e-05 6.76375e-05 2.01049e-05 -7.59792e-05 1.92754e-05 6.74603e-06 -6.19986e-05 -8.20385e-06 -2.61928e-06 
-2.16438e-05 -1.01089e-05 0.00012124 0.000134037 -0.000186225 -1.19237e-05 6.72783e-06 3.33899e-06 0.000268679 
-0.00150731 8.7809e-05 -4.78561e-06 -0.000222976 0.000141921 5.95608e-05 -7.97977e-05 8.39595e-05 5.21144e-06 
3.5632e-05 -0.000138422 -5.71083e-05 0.000349134 -0.000332418 1.52366e-05 0.00159001 0.000390517 4.26902e-05 
1.62028e-06 -6.48675e-05 -4.7212e-05 4.30935e-05 -0.000316599 -0.000168799 -4.76399e-05 -0.000139076 3.37493e-05 
0.000203226 6.5942e-05 2.79945e-06 8.04306e-05 3.30449e-05 -5.6215e-05 8.33937e-05 -0.000157921 -9.12322e-05 
0.000153004 -7.48787e-05 2.56198e-05 0.000126209 9.25508e-07 8.81768e-05 8.69105e-05 9.58946e-06 -2.25265e-05 
0.000102054 6.28375e-05 -0.000176546 0.000194594 -0.000122005 -3.58327e-05 0.000215327 -2.196e-05 -8.06195e-05 
0.000284528 0.000153174 -0.000137119 0.000264361 -0.00043765 0.000752322 9.18175e-05 -5.81827e-05 -0.000579945 
0.00435993 0.000455309 9.10017e-05 0.000231686 0.000125338 -0.000222479 0.00015128 0.000135044 -0.000203953 
6.26509e-05 7.00887e-05 -0.000194363 8.58314e-05 4.65403e-05 -0.000138695 0.000127289 3.47686e-05 -0.000183066 
0.000201383 9.72905e-05 -0.000203787 0.000304279 0.000392451 -0.000231135 0.000216308 0.000998787 -0.000311004 
-0.000269345 0.000412506 -0.000469148 -0.000150675 2.66007e-05 -2.04699e-05 0.0001211 0.000117159 0.000121636 
0.000187524 -0.000313649 8.32991e-05 0.000180138 0.00012446 0.000206171 -0.000313064 0.000575719 0.000235782 
-0.000308598 0.00073593 -1.51905e-05 -0.000480778 0.00078707 -0.000229866 -0.000149798 -0.000162298 -0.00023702 
-0.000446394 0.000986337 -0.00288555 0.000267667 -0.000293804 7.17448e-05 -6.54774e-05 -0.000159053 0.000343462 
0.000101587 2.51926e-05 -0.00100832 0.000464859 0.000196841 8.06474e-05 0.000117965 0.000212195 -0.000478264 
-0.000251636 -8.35949e-05 -0.00013879 0.000256245 0.000189046 0.00192806 -0.00339678 -0.000572522 0.000436488 
-5.57693e-05 -0.000237163 9.30716e-05 0.000123049 -0.000250774 -0.000262795 -3.06716e-06 1.66787e-05 -1.27112e-05 
-0.000462067 1.38855e-05 -1.21437e-05 9.49372e-06 4.64941e-06 -0.000123245 0.000554384 9.65923e-05 0.000109468 
-3.26781e-06 -1.75578e-05 4.63921e-06 1.31656e-05 0.00227156 -0.00343678 -2.67369e-06 -6.22948e-06 0.00016353 
-2.40138e-05 -0.000729864 -5.568e-05 0.00118838 0.000604789 9.92575e-05 -0.000144958 0.000100666 4.72986e-05 
-0.000623773 -3.45892e-07 0.000458046 0.000473177 -0.000725715 -0.000104594 -0.000735543 0.000169392 -0.000361292 
-0.000109318 0.000116564 -0.000164486 0.000319714 0.00162551 -0.000436414 0.000108602 0.000311699 3.21121e-05 
-0.00032349 0.000333614 1.03928e-06 -4.95611e-05 0.000466959 -0.00158976 0.000440668 -0.000498104 -0.000667246 
-0.000580427 -0.000182306 0.000191106 1.23396e-06 1.88027e-06 -8.89582e-05 -1.87357e-05 -0.000422267 0.000161537 
0.00037891 0.0015011 0.00026454 -0.00102305 -0.000297522 0.000763626 2.04312e-05 -0.00032761 -0.000363635 
0.000458842 -6.97174e-07 4.33366e-05 -2.04703e-05 1.24208e-05 -9.15617e-06 7.83663e-06 1.24255e-06 -1.04691e-05 
1.65919e-06 5.02445e-06 -1.41037e-05 -2.27494e-06 1.7571e-05 -7.03859e-06 -6.33587e-06 1.12358e-05 8.08116e-07 
-1.24785e-05 1.38659e-05 3.01005e-06 -1.00649e-05 1.333e-05 1.91016e-06 -7.01049e-06 4.91867e-06 -2.70982e-05 
0.000112938 0.000105919 4.85221e-05 2.37436e-05 7.25792e-05 5.96681e-06 9.18958e-05 -8.32386e-05 3.24245e-05 
8.29823e-05 -6.2947e-05 2.44378e-05 1.78927e-05 -2.62059e-05 -3.29903e-07 1.31945e-05 7.95964e-06 -6.38307e-06 
1.91657e-05 -1.78286e-05 -4.96911e-05 9.39521e-06 -1.27202e-05 -7.10951e-05 1.34667e-06 7.30345e-05 -4.76384e-05 
-2.96457e-06 0.00012246 4.76068e-06 -6.51151e-05 6.80565e-05 3.49461e-05 -5.81429e-05 4.09016e-05 8.07077e-05 
-2.97127e-05 -4.19755e-05 8.53768e-05 6.05978e-05 -2.724e-05 8.88681e-05 0.000159442 -0.000515603 -0.000300083 
-0.000169336 0.000881367 -0.000329255 -0.000141231 1.11607e-05 -0.000175738 1.37995e-05 0.000209372 1.77077e-05 
-0.000102525 -4.55918e-05 4.07075e-05 -5.72986e-05 -1.36265e-05 4.29666e-05 -2.25414e-05 -0.000101926 3.59784e-05 
-5.06745e-06 -8.62375e-05 -0.000861508 0.000513322 5.39937e-05 0.000112654 -0.000113392 1.7509e-05 -6.92497e-05 
-7.19671e-05 -7.74622e-06 4.2299e-05 -5.52238e-05 0.000332029 2.48429e-05 7.07487e-05 0.000227257 -0.000405146 
0.000152877 -3.25556e-05 0.000428541 -0.000871935 0.000371449 -0.000345196 -1.60751e-05 -0.00020468 0.000159567 
0.000203844 -9.07459e-05 -0.000117621 -3.90108e-05 -8.16308e-05 7.35108e-05 -1.61042e-06 0.00072986 0.000328468 
-7.18645e-05 -0.000116034 9.91061e-05 -2.01289e-05 -0.000131149 0.000144561 -8.37939e-05 -5.05214e-05 0.000121533 
-7.13932e-05 -1.94925e-05 0.000152642 -4.4426e-05 -8.44469e-05 0.000142791 -5.21639e-05 -0.000157092 0.000172552 
-0.000173583 -0.00016581 0.000241215 -0.000253847 -9.30536e-05 0.000339056 -0.000143286 -0.000104742 0.000387947 
0.000169914 0.00013948 -9.55955e-05 -0.0005913 0.00126465 5.25741e-05 2.57421e-05 -9.19456e-05 0.000177427 
4.22062e-05 -0.000182198 0.000175971 0.000106481 -0.000397119 0.000135227 0.000104319 -0.000285795 0.000104574 
0.00016695 -0.000284773 0.000149683 0.000177052 -0.000299742 8.24554e-05 0.000158887 -0.000237715 1.4658e-05 
0.000350466 -0.000294049 -0.0004616 8.52606e-05 -0.000220741 -0.000100909 -3.57716e-05 0.000180869 0.00025421 
0.000340286 0.000159191 0.000121082 0.000245884 -0.00021896 0.000264023 -0.000155789 -7.66836e-05 -0.000119573 
-0.000156843 0.000226988 -0.000302012 0.000134963 1.36373e-05 0.000386909 7.69633e-09 -5.37023e-05 0.000128774 
0.000299205 -1.76733e-05 1.6704e-05 -1.78765e-06 1.8021e-05 0.00038948 -8.95207e-05 7.2286e-05 0.000108768 
5.96088e-05 -5.1556e-05 3.38591e-05 8.92788e-06 -0.000453998 -0.000160069 1.91998e-05 0.000281346 -4.13025e-06 
-0.000148188 0.000138803 3.80492e-05 -2.72467e-05 -0.00025171 -7.24857e-05 2.67476e-05 0.000122857 -0.00014624 
-3.53498e-05 -0.000250356 0.000162777 9.73026e-05 0.000133081 -0.000231398 0.000194329 0.000274593 -0.000121085 
0.00106073 -0.00125264 -6.1647e-06 -4.78346e-05 3.9053e-06 -0.000109859 6.45405e-07 0.000343014 -0.000200466 
-3.14389e-05 4.32436e-05 -0.000295248 -8.60333e-06 -0.000427097 4.30604e-06 -8.93891e-06 3.96596e-05 9.36405e-05 
-0.000634158 0.000160745 0.000366027 -9.74454e-05 6.93535e-05 -0.000129285 3.58047e-05 0.000121059 -0.000133623 
0.000456318 -0.000506759 6.41515e-05 -4.52442e-06 -5.22983e-05 0.000177387 -7.25642e-05 5.70422e-05 0.000106034 
0.000171439 -6.57376e-05 7.66477e-05 -6.28981e-05 -7.41236e-05 0.000139789 0.000144549 0.000142799 0.000850877 
-4.93193e-05 0.000172987 -8.14685e-05 0.000250343 -0.000162509 -3.05586e-05 0.000352239 -4.46299e-05 4.20067e-05 
-9.78125e-06 -0.000556574 -0.000233985 -0.000186134 -0.000973858 0.000157496 -0.000288683 1.90253e-05 -5.09519e-05 
0.00040958 -0.000577151 -9.64828e-05 4.76843e-05 -0.000174601 0.000745454 -0.000142553 9.04356e-05 0.000187903 
3.26926e-06 0.00027989 -1.13413e-05 8.56242e-06 8.27959e-06 -5.93125e-06 3.30564e-07 -1.61737e-05 -5.94446e-06 
-2.42569e-05 1.43368e-05 -6.51937e-06 4.10295e-05 -5.77263e-05 0.000121596 -9.83147e-05 1.35097e-05 7.26382e-05 
0.000108824 -0.000476994 -4.65095e-06 1.61725e-05 3.62707e-05 2.61953e-05 -1.19513e-05 -3.63478e-06 5.18294e-05 
2.37802e-06 -1.44153e-05 3.08928e-05 -6.56282e-07 -6.33462e-05 -6.01486e-08 3.24876e-05 -8.47941e-05 7.9109e-06 
8.63891e-05 -9.81445e-05 5.62326e-06 0.000105707 -1.70241e-05 -5.66742e-05 0.000156368 2.51163e-05 -3.83737e-05 
-7.93771e-05 -4.87511e-05 5.47237e-05 9.21824e-06 7.5745e-06 0.000112935 -0.000581398 -0.000134883 7.99524e-05 
0.000320882 8.62073e-05 6.78034e-05 2.62591e-05 6.62197e-05 1.81125e-05 -0.000285179 5.92579e-05 7.12035e-05 
-0.000197374 -0.000205073 0.00032431 -1.01895e-05 6.70445e-05 -6.04614e-06 -0.000149464 9.72855e-05 -0.000281838 
8.42888e-05 9.64909e-05 -5.708e-05 -6.40583e-05 0.000188724 0.00044287 -0.000493345 0.000619339 7.05299e-05 
4.88469e-05 -2.65826e-05 -1.81657e-05 -0.000172026 0.000156553 -0.000157326 3.75797e-05 -7.06893e-05 4.20552e-05 
8.42308e-05 4.2708e-05 1.254e-05 7.2587e-05 -2.64581e-05 -5.75285e-05 -0.00014111 0.000252445 -5.6737e-05 
-0.000115419 0.000199099 -7.57349e-05 -0.000147343 0.000138237 -9.26823e-05 -0.000197732 0.000154569 -0.00032381 
-0.000182106 0.000294851 -0.000363532 -9.5632e-05 0.000339154 -0.000530653 0.000895301 -0.000176747 0.000564499 
-0.000295429 -0.000735954 0.000351264 -0.000351131 -7.54821e-06 1.04897e-06 9.81542e-06 -1.111e-05 7.23915e-07 
2.30393e-06 0.000250864 0.000294758 0.000134126 0.000108933 0.000118888 -0.000103534 6.75134e-05 0.000222912 
-0.000177552 4.90974e-05 0.00025284 -6.53029e-05 3.53143e-05 1.74689e-05 8.67445e-05 0.00028466 -0.000518461 
-6.6615e-05 -6.2438e-05 -1.33377e-05 -0.000254047 -2.54726e-05 0.000123732 -3.55316e-05 -0.000163231 6.4043e-05 
0.000294884 0.000188948 -0.000109102 -8.25399e-06 -3.68899e-06 5.76845e-06 -1.05472e-05 1.65125e-05 -0.000125986 
7.65426e-05 -1.00699e-07 -0.000644292 0.000257155 -5.74306e-05 2.77738e-05 5.31901e-05 -3.15596e-05 -0.000358865 
0.000122831 -1.93147e-07 2.54244e-05 -8.12304e-05 9.62799e-06 -9.11912e-05 6.17488e-06 0.000146562 2.03547e-05 
-3.88167e-05 0.000192313 -2.11188e-05 0.000118009 1.95711e-05 -1.40233e-05 5.61156e-05 -4.94829e-05 1.56611e-05 
-2.13635e-05 1.14136e-05 -0.000424679 -2.69753e-05 3.89081e-06 1.83951e-06 4.13814e-05 -1.2665e-05 9.16472e-05 
-0.000211998 1.04107e-06 -0.000142834 -6.67673e-06 3.51638e-05 -3.92195e-06 -2.92341e-05 2.82469e-05 0.000390449 
1.68599e-05 -0.000117824 4.7111e-05 1.43216e-05 5.93321e-05 3.7201e-06 1.46697e-05 -0.000152468 0.000108998 
0.000110635 -0.000137083 3.69997e-05 0.000196907 9.0379e-05 0.000187576 -5.21524e-05 -3.53075e-05 -6.10409e-05 
6.95716e-05 1.19246e-05 -4.69967e-05 -0.000537513 -4.86981e-05 0.000390117 0.000111671 -8.78245e-05 -0.000209478 
-2.36519e-05 4.9037e-05 1.58744e-05 -5.55626e-05 7.49964e-05 -0.000180583 -8.88033e-05 1.44783e-06 -1.57151e-05 
-6.39198e-05 3.72489e-05 0.000168463 4.2655e-05 0.000143367 0.000248808 6.75316e-06 4.45628e-05 -1.82847e-05 
-3.17356e-05 -0.000115874 -1.96879e-05 0.000122122 4.19689e-05 6.62913e-05 -6.98391e-05 -8.63889e-05 0.000171827 
-7.86964e-05 -5.67403e-05 7.07582e-05 -6.8223e-05 -0.000203326 0.000179012 -0.000130312 -0.000108489 0.000133528 
0.000147179 2.33707e-06 1.40533e-05 -1.9944e-05 2.54672e-05 0.000486233 0.000195498 -9.58203e-05 -0.000186882 
9.88643e-05 -8.10323e-05 2.05891e-05 0.000117458 -0.000300222 0.000344913 -0.000111196 0.000108325 -6.39003e-05 
-5.18996e-06 -9.38267e-05 -5.84026e-05 -0.000118658 -0.000112753 -0.000148578 -0.000109691 7.10297e-05 0.000121149 
3.61604e-05 -3.90601e-06 3.07837e-05 9.96078e-05 1.81179e-05 9.29109e-05 -2.44292e-05 -2.74604e-05 1.73752e-05 
4.57807e-05 1.68002e-05 6.39123e-06 0.00052104 -0.000441548 -9.48565e-05 0.000575726 0.000176464 0.000290202 
-0.000271135 0.000152649 5.10938e-05 -0.000361529 -0.000181565 -9.97269e-05 3.81232e-05 7.73535e-05 2.11932e-05 
2.06319e-05 -2.57874e-06 2.88396e-05 -4.52019e-05 0.000102478 1.06881e-05 -4.2223e-05 -4.87114e-06 -3.37299e-05 
-2.43927e-05 0.000129613 -0.000319275 -7.0858e-05 -8.5842e-05 2.36377e-05 -8.30727e-05 1.84735e-05 -5.33647e-05 
2.54868e-05 4.25051e-05 -0.000110053 -3.18517e-06 2.35368e-05 -1.24782e-05 -6.65798e-05 0.000106247 -6.41708e-05 
-1.07546e-05 0.000105283 -7.24399e-05 0.000196187 -0.000280325 2.14166e-05 -6.4636e-05 -0.000216495 -0.000105922 
-4.58743e-05 3.60338e-06 -2.46647e-05 0.000220897 9.39491e-05 -0.000158967 -2.56447e-05 -9.36871e-05 -4.31056e-05 
-2.47405e-05 9.16618e-06 -9.53109e-05 7.53215e-06 -4.09026e-05 6.49444e-05 -0.000211904 -7.60838e-05 -4.91654e-05 
0.000159239 -0.000250294 -4.19316e-06 1.55011e-05 -2.78965e-05 -7.31527e-05 8.89282e-05 8.94749e-05 -2.10737e-05 
-3.75608e-05 1.19645e-05 0.000172148 1.30839e-05 -9.61749e-05 -1.10378e-05 1.17799e-05 -0.00016809 -5.93936e-05 
0.000148651 -2.24524e-06 0.0519948 -0.0332275 -4.72982e-06 -7.37869e-06 -3.23545e-06 -2.5407e-06 -1.64972e-06 
2.80211e-07 -2.2276e-06 1.34579e-06 -5.9029e-06 1.21741e-06 -0.000278264 0.000426268 -0.00122247 -0.000368382 
-0.000874788 0.000209677 -0.00293931 -0.0019524 -0.00241503 0.000201827 -0.000154803 2.60741e-06 -9.61984e-07 
2.6579e-05 -1.52795e-05 9.07784e-06 4.53196e-05 0.000142752 1.29697e-06 -2.35216e-05 -1.70662e-05 -1.29912e-06 
-2.57257e-05 -1.45455e-05 -1.87952e-05 -2.79717e-05 -9.89039e-06 -1.25361e-05 -7.70622e-05 0.000113876 -0.000141936 
0.0482975 -1.46044e-05 7.56785e-06 -0.0300375 0.00369093 -0.00111226 -0.00303612 0.00014847 -0.00040451 
-0.000272532 -0.000122304 -0.000429752 4.41652e-06 -0.000192369 -0.000183399 -2.386e-05 -1.9015e-05 -2.35191e-05 
-1.00778e-05 -6.12341e-05 -1.61811e-05 6.08746e-06 -1.37066e-05 -6.19831e-06 -3.91082e-06 4.92315e-06 4.0832e-05 
9.0521e-06 1.91162e-05 1.95633e-05 1.61854e-05 3.82825e-05 1.22419e-05 8.255e-05 0.000105141 2.08409e-05 
4.46475e-05 3.46148e-05 3.2014e-05 6.18915e-05 2.8454e-05 0.000156189 9.43085e-05 1.10285e-05 2.19749e-06 
-9.65444e-06 -5.07641e-05 -0.000101259 -7.15828e-05 -0.00031393 -0.00032773 -4.85635e-05 -0.000114 -1.85106e-05 
-2.20075e-05 2.49513e-06 2.08085e-05 2.7808e-05 2.59256e-05 5.4105e-05 2.06074e-05 0.000100707 8.37383e-05 
1.51552e-05 3.81711e-05 1.99029e-05 1.83235e-05 5.02552e-05 1.93632e-06 3.72067e-05 -5.40706e-06 1.69159e-05 
-7.22586e-05 -3.25313e-05 -5.29113e-06 -2.54631e-06 -1.27475e-05 -1.19193e-05 3.27231e-06 2.04426e-05 2.97199e-05 
-6.56387e-05 1.96816e-05 -4.6937e-06 -3.36008e-06 -7.29112e-07 9.65626e-06 3.91204e-05 3.97544e-05 5.79917e-06 
4.62643e-06 2.92642e-06 -7.56781e-07 -1.41287e-05 -2.43215e-05 -2.70358e-06 -4.75672e-05 -1.13505e-05 -1.41919e-05 
-4.31734e-05 -3.42531e-06 -3.34527e-05 -1.54919e-05 2.38632e-06 -1.58229e-05 -5.76912e-07 -1.3779e-06 4.44861e-07 
1.34668e-08 3.94969e-06 1.27413e-05 1.38997e-06 2.19001e-05 6.79994e-06 5.31581e-06 2.05438e-05 5.04265e-07 
1.36351e-05 8.9247e-06 -5.53106e-07 8.94925e-06 1.32222e-06 1.29985e-06 7.01684e-07 4.91862e-07 -3.77532e-06 
8.20172e-07 -8.87875e-06 1.46136e-05 -1.64087e-06 -1.82069e-06 9.79699e-08 2.47465e-06 -0.0314991 -0.00286136 
-0.0446948 -0.0119715 -0.0183574 -0.00664331 -0.00546708 -0.000761359 0.0042355 -0.00277878 -0.0013731 
-0.00515573 0.00320669 0.000861568 0.00436319 0.00215401 -2.90924e-05 -0.00416164 -0.00358813 -0.0019824 
-0.00135226 0.0026873 0.00753487 -0.0225598 -0.0217674 0.0051207 0.027665 0.0383155 -0.0153086 
-0.00605805 -0.011413 -0.00312705 -0.00287254 0.00186586 -0.000101821 0.000150713 -0.00559156 0.0035943 
-0.00141098 -0.00192048 0.00247275 0.00422276 0.00368894 0.00374889 -0.00435567 -0.00346223 -0.00445331 
-0.00345784 -0.0112857 -0.0204169 0.0347535 -0.00453346 0.014489 -0.109746 -0.00731939 -0.0185593 
0.0211723 1.78794e-05 0.0218648 -0.00160979 0.00606927 -0.000221979 0.00637711 0.000106565 0.00129608 
-0.000834871 -0.00223035 -0.00151553 -0.0029922 -0.00319435 -0.00365615 -0.000383294 -0.00253303 -0.00367682 
0.00378918 -0.00133318 -0.0053032 0.000854508 -0.00497153 0.00786588 -0.001389 -0.0897761 0.0118804 
-0.0094473 -0.0114583 -0.0395527 -0.0841283 -0.0198926 -0.00420453 -0.0122432 -0.0103206 -0.00997079 
-0.011406 -0.00684555 -0.0105988 -0.00943571 -0.0109956 -0.0454682 -0.00517754 -0.00872137 -0.0106084 
-0.015103 -0.00964258 -0.0120406 -0.00942558 -0.0257168 -0.0122041 -0.00937377 -0.011155 4.30294e-06 
-5.64463e-06 -9.53817e-07 -9.73587e-07 1.14755e-05 -5.61377e-07 -9.83895e-06 0.00496058 1.27626e-05 -9.98363e-06 
-4.15601e-06 -1.29202e-07 0.000277157 8.18456e-05 0.000300959 0.00426864 0.000183257 1.96912e-05 0.000554623 
0.00262254 -0.00644929 -0.0110442 6.75237e-05 3.41065e-05 -4.40506e-05 -4.0898e-05 -6.93337e-06 5.7166e-05 
-0.00245135 -0.00835876 0.000218708 -1.73241e-06 -6.96417e-06 1.2464e-06 0.0120169 -0.0163624 0.0110849 
-4.37552e-07 1.86109e-05 -1.94568e-05 0.0245445 0.028724 1.22195e-06 -4.35871e-07 -5.25924e-07 0.00095011 
0.000758245 -0.0046921 0.00372136 0.0192087 -2.4354e-07 2.50925e-06 -2.30521e-06 -2.79612e-06 8.18614e-06 
-0.0166336 -0.0144443 0.0313518 0.0328151 6.84026e-06 7.82515e-06 2.95633e-05 -6.90535e-06 -9.07976e-06 
-2.44707e-05 1.20617e-05 -5.90918e-05 2.81036e-05 0.000107007 -0.000117115 0.00086593 -0.000465896 0.000580076 
-0.000145736 -5.35134e-05 2.40713e-05 1.53777e-05 -2.2409e-05 0.000160953 7.08791e-05 7.48967e-05 8.47173e-05 
3.79351e-06 -3.75217e-05 0.00414914 -0.00520504 0.000152991 4.45451e-05 3.07775e-05 0.000168529 -0.000129326 
-1.9056e-05 2.3713e-05 -2.01108e-06 5.70426e-06 -2.66418e-06 -2.46753e-06 6.46767e-05 -9.70281e-06 2.41872e-06 
3.63234e-05 3.36067e-05 5.99417e-05 -0.000143631 5.61124e-05 -9.58599e-06 1.22636e-05 -5.1225e-06 -1.71576e-09 
1.09347e-05 2.0469e-05 -9.10621e-06 7.42431e-05 1.16154e-05 -0.000117691 0.000181462 -0.000124983 -3.21281e-06 
9.44725e-05 -5.58774e-05 -2.62683e-05 -1.45751e-05 1.39846e-06 -1.99504e-05 8.82922e-07 -0.000229478 0.000208117 
0.000456575 8.19752e-06 -2.13396e-06 -7.03379e-06 3.52665e-06 3.22009e-06 -1.06968e-05 3.04718e-06 -1.29246e-06 
1.23758e-05 1.87851e-05 1.39485e-05 -1.05551e-05 -0.000177399 -2.76629e-05 0.000167392 -6.53665e-05 -3.34273e-05 
-5.67002e-06 -3.00609e-05 -8.99197e-06 0.0101771 -0.00162426 0.0541528 -0.00225409 -0.000860579 0.000218519 
4.55128e-05 3.98522e-05 3.93441e-08 2.73581e-06 1.06069e-05 -3.51285e-06 -0.00083852 0.000729568 0.0439534 
-0.043681 -0.00541575 -0.000320822 -1.01421e-05 1.39506e-05 8.37495e-06 -1.71489e-05 2.87898e-06 2.49434e-05 
-1.38799e-05 3.41736e-06 -3.40616e-06 -9.36011e-07 -0.00247644 0.0330672 -0.00217674 -0.000180443 -0.000283469 
6.97772e-06 -8.29533e-06 4.12847e-06 1.70355e-06 4.28284e-05 1.35901e-06 -1.2357e-05 -1.43549e-05 4.59709e-05 
-6.93295e-06 -3.95847e-05 -0.000318456 0.000236773 2.79117e-05 0.00033043 0.000315337 4.08764e-05 -0.00014639 
-0.000369603 -0.000179551 2.37714e-05 -1.48637e-05 -2.71344e-05 1.34964e-05 -2.55355e-05 -1.49472e-05 0.000132855 
-5.971e-05 -9.30834e-06 -1.1791e-05 7.02087e-06 1.46625e-05 -7.61248e-06 1.351e-06 4.53638e-06 2.64617e-06 
-8.22629e-06 0.00514629 -0.0106954 0.0038877 0.0041502 -0.0106103 -0.00533846 4.18403e-06 2.59748e-05 
7.63143e-06 -1.9591e-05 9.29632e-06 -2.27631e-05 -2.09552e-06 0.000103324 1.93369e-06 -0.00103052 -0.00173092 
-0.00185258 -5.58405e-07 -1.67684e-06 -4.3513e-06 1.94876e-05 -8.17993e-06 0.000176118 -9.13666e-06 0.00479918 
-8.62678e-05 -3.53013e-05 5.98538e-05 0.00815466 -0.0116464 -0.00255018 4.98201e-06 -8.00827e-06 8.94932e-06 
-2.35306e-05 8.22067e-07 -3.55313e-05 -7.94837e-05 -1.45737e-05 0.000124394 -5.44007e-05 1.48611e-05 3.35042e-05 
2.3427e-05 -4.35848e-05 -2.54083e-05 3.63455e-05 -5.91465e-05 0.000107222 -1.94433e-05 1.95665e-06 -0.000114524 
-2.08438e-06 1.44268e-06 -1.07253e-05 -0.00197265 0.00513868 -0.00641354 -2.63149e-05 1.31607e-06 1.77773e-06 
-3.77557e-07 -6.67227e-07 3.85396e-06 2.18926e-05 -1.3579e-05 -3.28501e-06 3.45651e-06 5.7441e-07 3.63835e-06 
-3.34484e-06 3.22169e-06 -0.00154791 0.000102499 -7.13334e-08 -5.31928e-05 -4.69128e-05 3.45102e-05 -2.16639e-05 
0.000125983 -5.30267e-05 -2.89601e-05 0.000109432 3.12715e-05 1.95948e-05 2.32687e-05 2.46481e-05 -4.40341e-05 
0.000834848 3.29708e-05 -8.9635e-05 -7.98522e-05 8.45852e-05 0.000132465 -1.01765e-05 0.000357908 -0.014527 
-0.00974132 5.71378e-06 -3.60381e-05 -3.93801e-06 1.17845e-05 -3.02703e-05 0.000258279 -0.000348478 -4.91918e-05 
1.24301e-05 -2.52112e-05 -0.000100986 7.64653e-05 7.52371e-07 -5.83973e-05 0.000139349 3.76235e-05 3.3926e-06 
1.14528e-06 -6.30112e-06 1.32749e-06 -9.11922e-06 9.77915e-07 -3.64905e-05 2.01734e-05 0.000111113 0.00525361 
-3.60438e-06 -3.23154e-07 -4.27606e-06 -3.64838e-06 -6.41424e-07 5.41853e-06 -3.2307e-05 -1.80482e-05 0.00021754 
3.08792e-05 2.99013e-05 -0.0021614 -0.00530583 0.00389906 4.20292e-06 2.9336e-06 -1.6498e-05 -1.49373e-07 
-0.000416619 0.000141157 -0.000183815 0.0046911 -8.21344e-06 3.62099e-05 -5.10794e-05 6.77164e-05 2.17692e-05 
0.000108705 3.98383e-05 0.000165511 -0.00575685 -0.000145552 -0.0020606 6.44137e-05 9.48069e-05 -7.13102e-06 
0.00601518 -4.53763e-05 1.90491e-05 -2.70826e-05 4.56968e-05 -0.000291559 0.0316468 -0.00802011 0.0360922 
3.22732e-06 1.31929e-05 -1.24486e-06 4.1039e-07 0.000252293 -0.000194166 9.80102e-05 -3.43366e-06 0.000203446 
0.000982028 -0.000143038 1.50141e-05 3.08968e-05 -1.11512e-05 6.81979e-05 -0.000312141 -3.44405e-06 -3.07247e-07 
-4.82287e-05 8.23748e-07 8.71932e-06 1.59166e-06 6.02202e-06 -1.18872e-05 -0.000257397 -0.000512587 0.000553286 
0.000160513 0.000218685 -0.000237764 5.12279e-06 1.85819e-06 -9.514e-07 1.80406e-05 2.69526e-05 -1.41385e-05 
-8.51633e-06 1.73362e-05 -2.29941e-05 -4.02206e-05 0.00986697 -8.96814e-07 1.82758e-06 -0.000310943 -1.80373e-05 
7.94185e-05 -1.15493e-07 -1.21916e-06 0.0102974 0.0176767 -0.00313454 -3.10544e-05 0.000218407 1.98947e-05 
0.00018824 -2.52269e-06 -2.37845e-06 1.99646e-06 2.06624e-05 -7.01521e-05 9.87619e-06 -3.0001e-06 -1.06976e-06 
-6.24214e-06 -9.36333e-06 -1.97769e-06 2.26037e-06 0.00109774 -0.00287169 0.00192077 -0.000713945 3.09975e-07 
-3.68823e-06 -1.30336e-05 1.72402e-05 -0.000736136 0.000236309 0.00313836 6.67461e-06 5.8435e-05 -5.27333e-05 
-0.000104579 0.000163334 -9.12418e-05 6.47875e-05 -0.000125419 2.99231e-05 -5.39642e-05 -2.42897e-06 9.80715e-07 
-1.40147e-05 0.000143221 4.41236e-05 -5.08387e-05 -9.9633e-05 0.000488871 -0.014908 0.0012122 -0.00362992 
-4.12051e-05 9.18675e-06 7.27913e-07 2.43559e-05 -4.59741e-06 -4.03244e-06 -2.74059e-06 -8.6627e-06 9.85999e-06 
-2.94364e-05 -5.49414e-05 1.19942e-05 8.60775e-05 -6.38771e-06 -6.5096e-06 -2.48338e-06 0.000106171 -6.98829e-05 
-1.20608e-05 1.20423e-05 -0.00204122 -0.000605328 0.000232011 0.00016823 -1.18608e-05 7.80437e-06 3.12728e-05 
1.59949e-05 1.3947e-05 -6.77288e-06 -0.000132112 -4.27426e-05 7.44161e-06 2.06422e-05 -1.77091e-05 1.48892e-05 
-0.00455767 -1.88547e-05 7.42982e-05 7.39168e-05 -4.66944e-05 -0.00022565 9.41692e-06 7.64742e-06 -6.17377e-05 
8.79067e-05 -0.000354039 -0.000293301 0.000195464 8.47801e-05 8.32345e-05 -3.60234e-05 -0.000131332 2.09066e-05 
1.09218e-05 -1.0723e-05 -0.000115048 3.07232e-05 -0.000126141 -0.000155763 -2.39005e-05 9.49559e-05 1.85156e-05 
-1.14582e-05 1.05575e-05 -3.05082e-05 -7.00749e-06 -9.99809e-06 -0.000296401 2.64646e-05 5.35693e-05 -0.000123785 
0.00025947 0.000431707 0.000223517 -1.00183e-05 3.7544e-05 -0.000378231 2.97163e-06 -3.4814e-05 2.4842e-06 
-1.16772e-05 9.8635e-08 2.13456e-05 1.70899e-05 -4.6467e-06 1.73788e-07 -5.65751e-06 7.31004e-07 -7.56687e-06 
3.23988e-06 0.000302384 1.53937e-05 1.16185e-05 -1.39809e-05 3.09724e-05 -2.01448e-06 9.71789e-07 -2.09976e-06 
-1.05089e-06 -0.00778109 0.0078683 0.00213657 -1.72146e-05 -9.39456e-05 7.00115e-05 9.35952e-05 -0.000290323 
5.27206e-05 -8.01687e-08 8.75871e-06 -2.62209e-05 5.25975e-06 -0.000417768 -0.000164433 9.31201e-05 1.82299e-05 
0.00320002 0.000447525 2.86402e-05 -9.93286e-06 -4.64347e-06 -2.4544e-05 -3.37336e-06 0.000102918 4.10273e-06 
2.44291e-05 -3.38065e-05 4.20987e-05 5.94351e-05 0.000108952 -5.25116e-05 4.92831e-05 0.0001985 0.000251284 
-0.000362267 -1.83575e-05 0.000331418 -4.91139e-05 -0.00288345 -0.000404896 -0.00309638 -9.64953e-07 -1.33969e-05 
-1.298e-05 -1.14632e-05 6.06864e-05 3.57541e-05 6.19133e-06 -2.0283e-06 4.53945e-05 -1.23831e-05 0.000101562 
-6.72769e-05 2.59866e-05 3.91939e-07 -1.78408e-05 2.24079e-06 -2.1432e-06 4.69052e-06 1.88306e-05 -0.000295929 
-0.0014107 -0.00762151 9.14376e-06 4.36041e-07 1.36872e-05 -7.53416e-06 7.4164e-05 -0.000100622 6.94282e-06 
2.06691e-06 0.00033643 -0.00191146 -0.00571573 8.71822e-06 5.30472e-06 1.3693e-06 -4.44232e-06 4.64044e-06 
-4.04281e-06 1.5864e-06 2.13357e-06 -1.06815e-05 -0.013453 0.00133888 -0.0065469 -0.0254484 0.0151183 
-7.50344e-06 4.98776e-05 4.69031e-05 -5.31338e-05 6.04568e-05 0.00011228 7.28437e-06 -8.40284e-06 6.64771e-05 
3.56732e-06 3.55953e-05 -1.52653e-05 6.73276e-05 4.73277e-05 5.31267e-05 0.000275534 -1.86854e-05 -0.00020016 
5.48162e-06 5.88507e-06 -1.37743e-06 -4.06253e-06 -3.04911e-05 -5.35992e-06 2.32124e-05 0.00810691 -9.44021e-07 
-7.69032e-06 -2.66716e-05 -0.000111028 0.00010639 -1.82253e-05 6.66276e-05 4.00759e-05 -2.32036e-05 -2.77264e-06 
3.08132e-06 -4.77938e-06 -2.24925e-06 -4.16495e-06 -1.91054e-05 1.49316e-05 4.11811e-06 -0.000153622 0.000223431 
1.69632e-05 1.82787e-06 0.000106433 0.000124105 4.62152e-06 -2.17437e-05 5.01561e-06 -3.39304e-05 -7.99948e-05 
3.70002e-05 4.56269e-06 6.50784e-05 -2.06687e-05 -5.03423e-05 4.10741e-05 -4.68495e-05 -7.38253e-06 3.72701e-05 
9.827e-08 -2.86593e-06 -2.22631e-05 0.000516921 -0.00058805 -0.00132154 5.90556e-06 2.34813e-05 8.07684e-06 
-9.90477e-05 -1.95819e-05 -6.87737e-05 -3.18038e-05 8.49898e-06 4.46736e-05 2.41079e-06 -3.86856e-05 -0.000100228 
0.000603027 0.000484085 -5.9002e-06 -8.73302e-06 1.90154e-06 5.77509e-06 -7.09698e-05 8.65197e-05 3.51645e-05 
-0.000888758 3.48776e-05 0.00173863 -0.000790702 -0.00199533 -0.0114095 6.24003e-05 3.12776e-07 -1.73664e-06 
4.18594e-05 0.000148621 0.000225663 0.000612069 2.4262e-05 2.64533e-05 -8.37339e-05 -6.7315e-05 4.41625e-05 
0.000170373 0.000170413 -0.000370946 -9.55216e-05 -4.74949e-06 2.4549e-05 -2.11885e-06 5.67917e-06 1.81737e-06 
-2.66937e-05 -1.09386e-05 2.65508e-05 1.77667e-05 -4.02056e-05 6.31941e-06 0.000105273 -2.1294e-05 0.000134216 
-0.000190068 1.56166e-05 8.49314e-06 1.82428e-05 -4.48756e-06 6.86365e-05 5.03149e-05 -4.52602e-05 0.000112472 
6.31262e-05 2.43773e-07 -0.000138918 -1.59554e-05 1.4795e-05 0.000874788 -0.000292556 0.000307821 0.0233857 
-0.000835323 -1.29114e-05 5.65738e-05 -5.208e-05 -0.00119787 -0.00441277 -0.011984 -0.0150003 0.0166011 
-0.00477217 -0.00118175 0.000175657 0.00119126 0.000183157 -0.000141761 -9.56624e-05 -6.93151e-05 0.000244614 
9.4258e-05 2.59782e-05 0.000168032 -9.30998e-05 -0.0144491 0.0127924 -0.00225703 -0.00216548 0.00938464 
-0.00703824 -0.00453473 -5.50635e-06 4.17618e-05 4.3517e-05 6.09096e-06 0.000630611 -0.00221485 -3.58114e-05 
6.75553e-05 -1.4554e-05 1.34732e-05 -9.38383e-06 0.00114521 0.000718781 0.000219273 -0.000213339 0.00625427 
0.00128811 -0.000419306 -4.10685e-06 -1.10213e-05 2.03781e-05 -4.84341e-05 -4.72792e-06 0.00115368 -0.000185439 
-0.000445607 0.000112999 -3.7171e-05 0.00056643 -0.00515501 -7.26455e-07 5.02018e-06 0.0015847 -0.00193157 
-0.00138778 0.000753879 0.00778309 0.0564965 0.0251658 -0.00651445 1.25438e-05 3.4032e-05 -1.30873e-05 
5.21413e-05 9.22889e-07 5.62538e-06 8.09132e-06 -4.68121e-06 -1.29069e-05 0.000161851 0.000117669 -0.000824921 
-0.000238569 -4.11204e-05 6.5261e-06 -0.000207351 -0.000182212 -0.00170438 1.61349e-05 -3.31102e-05 -9.36385e-07 
-0.000173688 0.000138125 4.64074e-06 -3.38417e-06 -1.75336e-05 1.75008e-05 0.000163803 7.72901e-05 -0.000111289 
-3.02184e-05 -2.09902e-06 -1.91372e-06 4.15935e-05 5.58963e-06 -1.7963e-07 -1.57502e-05 2.62875e-05 7.90463e-06 
-4.58144e-06 -2.40284e-06 -1.6645e-05 6.95347e-05 -0.000121501 -1.1999e-05 4.51836e-06 3.06158e-05 6.81448e-05 
2.59062e-05 -4.02766e-06 3.65231e-06 -4.48944e-06 -8.12287e-05 -3.55344e-05 -1.98396e-05 -2.67605e-05 2.34783e-05 
-7.30651e-06 2.52447e-07 -1.5394e-05 5.09618e-07 6.57232e-08 4.60455e-06 -9.09619e-05 -0.000116693 0.000427025 
-5.36322e-07 6.96665e-06 -2.19261e-05 4.88126e-06 2.5532e-07 -1.60593e-05 3.54215e-06 7.15211e-05 -0.000108888 
-2.39647e-05 5.18021e-05 -2.74128e-06 2.25019e-06 -4.57137e-06 -1.19254e-05 -0.000327983 0.000414203 -0.000344332 
4.43281e-07 5.02351e-06 1.16972e-05 2.86439e-05 -2.0462e-05 5.70094e-05 0.000214781 -0.000209877 -2.95445e-06 
-4.97891e-07 2.07589e-06 6.57169e-05 -6.14047e-05 -3.12954e-05 1.03681e-05 8.00267e-06 -0.00394692 -2.05697e-05 
4.33222e-07 -3.48717e-05 0.000283796 0.000319179 3.71063e-05 -6.49966e-05 -2.20454e-06 -3.174e-06 -2.74223e-06 
2.45824e-05 -0.000131275 0.00894685 -5.30947e-05 0.000155762 0.000111181 3.34527e-05 8.63973e-05 1.28835e-05 
-3.06215e-05 3.04143e-05 2.76445e-05 -1.58673e-05 -1.10401e-05 -2.96505e-05 8.06492e-07 -7.60463e-07 0.00688971 
4.9198e-06 -1.68838e-05 -2.18594e-06 -3.22612e-05 2.21877e-05 3.5865e-06 3.32513e-05 -8.27513e-06 1.53874e-05 
-2.03671e-06 -4.88215e-06 2.44943e-07 8.49894e-06 -1.66801e-05 3.20218e-05 1.92911e-05 1.44907e-06 2.06348e-05 
5.36265e-06 -1.58251e-05 0.0199931 2.04209e-05 -0.000101978 -9.50213e-06 -1.30655e-05 7.76113e-05 5.57757e-05 
-1.01051e-05 8.7963e-06 -2.33263e-06 -2.54615e-05 -2.39631e-05 -8.85246e-05 0.0306997 -0.0225272 7.06038e-05 
-1.82012e-05 -1.10683e-05 -1.67285e-06 -9.20121e-07 -1.79903e-05 1.34215e-05 1.76731e-05 -3.85322e-07 -1.59955e-05 
-6.20857e-06 9.70975e-06 -1.09107e-05 9.88526e-07 -2.20458e-05 6.9126e-06 -0.00465475 -0.00637936 -0.00665115 
-0.00263634 -0.000523636 -0.00357528 0.00778022 0.00929863 -0.000959609 4.68882e-06 -1.05648e-05 3.39645e-06 
-2.0236e-06 8.68891e-05 -1.67294e-05 4.33819e-05 -3.02186e-05 0.0121121 -0.00530486 -0.00448742 -0.00362516 
0.000338052 -0.000208642 -1.71758e-05 1.73e-05 -8.68715e-06 6.97582e-06 8.04178e-07 3.11159e-06 8.10962e-06 
-2.72498e-05 -1.61547e-07 6.83529e-05 -7.97615e-05 -6.50212e-05 -0.00418836 -0.00141098 -0.00451972 -0.00963831 
0.00118479 0.00429878 0.00484468 -3.79906e-05 4.2977e-05 -2.52789e-06 -2.30874e-06 -8.0425e-06 1.579e-05 
-3.32858e-05 -0.00316112 -0.00027388 -0.000634028 -1.17164e-05 -0.000839212 -0.00063185 0.000143542 0.000356851 
-0.000377819 2.51575e-05 -2.2971e-05 -7.93855e-07 0.00504327 0.000164966 -0.000248549 0.000321706 0.0177542 
-1.1943e-06 -1.18909e-05 -6.41419e-05 -2.17023e-05 -3.71728e-05 0.000619201 -0.000473191 -4.92466e-05 -1.40515e-05 
-5.74589e-06 6.14031e-06 4.39603e-08 -4.97984e-05 -5.9061e-05 -1.69319e-06 5.0581e-06 -6.00754e-05 7.06355e-05 
-4.79226e-06 5.34868e-06 -2.05692e-05 0.00024823 1.32848e-05 -3.54353e-06 1.58077e-05 6.71202e-06 -2.10572e-05 
-2.09571e-05 -4.13123e-05 6.11493e-05 -9.27633e-05 -1.57162e-05 7.97368e-05 -0.00015084 0.000142506 -0.000360161 
-3.07378e-05 -7.59808e-05 1.62035e-05 0.00763702 -0.00140094 0.000413019 -0.000114992 5.69166e-06 2.48593e-06 
8.33295e-05 9.79608e-05 -1.42956e-05 -9.71922e-05 0.000135166 1.90413e-05 6.13085e-05 -5.48188e-05 -1.59468e-05 
-0.00107372 -0.000339415 0.000149764 -9.02956e-05 1.33254e-06 -3.86682e-06 1.88253e-07 -4.29195e-06 1.68376e-06 
-1.57921e-05 3.71956e-06 -8.62894e-05 -2.50053e-05 -6.37866e-05 -8.7884e-05 -0.00023425 -0.000205203 1.54236e-05 
-1.99032e-05 -5.31893e-06 6.04137e-05 -0.000276585 0.00010833 3.77926e-05 -1.14613e-05 2.82239e-06 -1.05732e-05 
-5.17572e-05 1.24767e-06 -9.2592e-06 -1.77258e-05 0.00105515 3.35936e-07 -6.67599e-06 8.89539e-06 -3.12232e-05 
2.68931e-06 -3.66273e-05 -2.86776e-05 1.24103e-05 8.57333e-05 -0.000833682 0.00137908 9.15824e-07 4.92593e-06 
0.013998 1.39751e-05 -1.1223e-05 0.00690932 -0.0105435 3.33212e-07 -1.49412e-05 3.52753e-05 -8.70156e-06 
-0.0101957 0.0149549 -0.0192007 3.23214e-06 1.8034e-05 7.11181e-06 -2.98672e-06 -7.08882e-05 -0.000247039 
0.00036475 -1.566e-06 0.000120832 0.00706877 2.49911e-05 -7.92061e-05 -7.44761e-05 7.52406e-06 -2.48343e-05 
1.82675e-05 0.00013437 5.05509e-05 -2.30676e-05 -1.78222e-05 0.0318654 0.0383354 0.00870769 -4.88191e-05 
-0.000198191 7.29099e-05 0.00013196 -0.000134538 -1.66621e-05 0.00418561 2.11745e-06 0.000127277 3.57746e-05 
-0.000141782 -3.52716e-06 -7.97155e-05 -2.91744e-05 -3.23383e-05 -0.000422216 0.00010833 -0.000149089 3.83224e-06 
1.08929e-05 -0.00728992 -0.0020193 0.0064639 -6.32528e-07 3.09695e-06 5.91541e-06 8.70623e-06 -1.84014e-05 
5.47121e-06 3.40671e-06 -5.66576e-07 1.27441e-06 -1.18639e-06 5.41773e-06 3.32726e-05 1.8027e-05 -1.00862e-05 
1.19307e-05 -3.80439e-05 3.44898e-05 -4.59542e-07 8.7858e-06 4.54768e-05 5.16216e-05 -6.92871e-05 -4.47851e-05 
3.5765e-05 -1.87767e-05 1.6588e-05 -8.14272e-05 7.34267e-05 0.00015288 -1.67434e-06 0.000560523 -5.7762e-05 
0.000110863 3.38188e-05 0.00016811 0.000253872 0.000419945 -7.34355e-05 -1.7581e-05 9.72841e-05 0.0118206 
-0.00951822 -0.000559439 0.000165693 2.32878e-05 -6.83061e-08 1.80131e-06 -0.00140821 -0.00432326 -2.69947e-06 
6.71606e-06 1.22477e-06 4.99393e-06 -1.37169e-05 9.10254e-05 -3.12427e-05 0.00016219 -0.000206058 -2.7062e-05 
-3.1701e-05 -1.08542e-05 3.73738e-05 -9.49418e-05 -3.13827e-05 3.83211e-07 1.84581e-05 -4.51888e-05 -3.22463e-06 
3.2394e-06 5.70278e-05 6.61271e-05 3.27579e-06 4.24957e-05 -0.000189396 9.75006e-05 0.0040069 0.00645058 
2.48523e-06 -3.22328e-05 0.000103707 3.32143e-05 4.85903e-05 0.00217843 0.000837263 -0.00702615 8.37904e-05 
-0.00021794 0.000582515 0.000348614 0.00018846 -0.000558996 -0.000217686 -9.73338e-06 -0.00634042 -2.80943e-06 
-7.71922e-06 0.000117574 -8.62873e-05 1.44238e-05 1.64018e-05 -6.84089e-05 0.000174743 -0.000826089 -0.00204818 
-0.00028554 5.3563e-06 1.68892e-06 6.2025e-07 2.07183e-06 0.000329004 0.000195387 1.88551e-05 2.56562e-05 
-2.80477e-06 -8.61265e-06 -1.41745e-06 0.00451531 -3.55608e-06 3.11299e-06 0.000176867 0.00010162 -0.00025577 
9.48397e-05 0.000237915 -2.75638e-05 -0.00284937 6.82377e-08 -2.22196e-06 -1.79309e-05 4.75907e-06 8.97346e-06 
-1.10874e-05 -2.2885e-05 1.30272e-05 1.89662e-06 9.2919e-06 -8.91342e-06 3.90656e-06 6.18926e-06 4.99299e-06 
-5.73485e-07 -5.7083e-06 -6.85538e-06 -0.00348596 2.20144e-06 -8.61635e-07 -2.92134e-06 7.24104e-06 -2.28882e-06 
-4.32204e-06 0.000453199 0.000263483 2.64256e-05 2.53662e-05 -1.53304e-05 -0.00401165 -7.3148e-05 -4.29519e-05 
0.00311784 0.00290631 -2.79436e-05 -0.00024022 9.50581e-06 -6.7798e-06 -1.81257e-06 6.78162e-06 5.97092e-06 
-8.97394e-07 -2.05815e-05 2.32298e-05 6.0266e-06 -2.1795e-06 -2.96114e-06 1.07865e-05 5.84767e-05 -5.45437e-05 
8.77321e-05 2.17439e-05 -0.000320084 -2.6217e-05 -0.000173105 0.000100786 0.000550847 -6.52627e-05 4.55104e-06 
-2.18698e-06 -1.59173e-05 -1.20229e-06 -1.26574e-07 -1.69144e-05 1.7285e-06 3.29352e-05 -1.17262e-05 -3.07071e-05 
-0.000345936 0.00318122 0.0031758 -0.00563941 -3.68828e-06 -0.00166348 3.43868e-06 6.83304e-05 -3.30933e-05 
-0.0174293 -3.67872e-07 0.000217113 -8.55047e-06 2.78676e-06 -3.38767e-06 0.000291347 -0.000198715 -6.7486e-05 
-0.000269819 0.000385334 -7.42465e-06 5.1438e-05 2.3465e-05 -4.54802e-05 -4.99135e-05 8.04518e-06 -1.43946e-05 
-1.25584e-05 4.8206e-06 -1.02753e-05 -1.37586e-06 3.42948e-06 4.87947e-06 -7.60072e-06 0.00023374 -0.000114172 
3.94525e-06 0.000682188 -7.94328e-05 8.31141e-06 -2.53623e-05 -0.000229743 9.82047e-06 8.24174e-06 1.55143e-05 
-2.57176e-05 -4.628e-05 -1.32467e-05 5.45366e-05 -4.77739e-05 1.66804e-05 4.3818e-05 -9.51673e-05 -0.000125063 
0.00125604 2.29402e-05 -2.90134e-05 -2.41236e-05 -1.49078e-05 -0.000686453 0.00173939 0.0308881 0.0218279 
-0.00258195 0.000344303 -0.000248116 -0.000319077 -0.000358118 1.43958e-05 -5.84478e-06 -2.79827e-06 -8.41955e-06 
6.44406e-06 -2.98868e-06 7.05038e-05 -1.67395e-06 3.17287e-06 -5.84862e-06 1.20812e-05 7.99184e-06 -4.72752e-06 
-2.40364e-05 8.97709e-07 -4.48171e-06 -3.49042e-05 1.5947e-05 4.25253e-05 0.00022151 -0.000914913 -2.69242e-05 
-0.000143858 -1.35995e-05 -5.83852e-05 -1.47201e-06 -1.78862e-05 0.000108741 5.3561e-05 -5.19908e-06 -0.000117732 
-0.01141 -0.00325509 0.00771398 -1.21132e-06 1.35993e-05 0.0201102 1.74475e-05 -0.00144681 5.35045e-06 
-8.05832e-06 -0.00552019 7.00435e-06 8.09299e-05 6.99668e-06 -1.58563e-06 -0.000155963 -5.50763e-05 1.14693e-06 
-1.61686e-05 1.70702e-05 -0.00451649 0.000886426 3.3193e-05 2.44029e-06 -8.14946e-06 1.75328e-05 5.85905e-06 
-2.05538e-05 3.12665e-05 1.92419e-06 -1.174e-05 2.75407e-06 -3.82789e-05 3.16393e-07 0.000145989 0.000160319 
-4.15161e-05 3.79836e-05 1.14364e-05 -2.42109e-05 0.000161824 3.6452e-06 0.000141017 7.98075e-05 -2.61417e-05 
1.99305e-05 1.95386e-05 9.68967e-06 0.0149704 1.23252e-06 -3.58399e-07 5.09907e-06 0.00464668 -1.96075e-05 
-7.31078e-07 -1.86988e-05 -1.66218e-06 -0.000130729 6.12391e-06 -2.91206e-05 -0.000153834 5.87091e-05 2.03889e-05 
-3.12542e-05 -7.71596e-06 2.17403e-05 -0.000277764 0.000349835 2.24767e-05 5.37016e-05 8.23349e-05 0.000712342 
-0.000611228 -0.000310549 -2.15452e-05 8.8695e-06 1.09402e-05 -1.2179e-05 -5.84727e-05 4.22098e-05 -2.45605e-05 
-1.74959e-05 -2.96234e-06 -6.72533e-06 1.70957e-06 1.8206e-05 4.18727e-05 3.80823e-05 2.35331e-05 -1.79292e-06 
2.0904e-06 -5.9826e-06 -1.23109e-05 -9.2366e-06 -2.75053e-06 1.51561e-06 -1.07847e-06 -4.56621e-06 5.31793e-06 
-8.75667e-06 -5.28407e-05 5.23403e-06 9.73412e-06 0.00978379 3.88835e-06 3.6498e-06 0.0132453 4.37208e-05 
-5.6627e-05 2.27062e-05 -3.0222e-05 -0.000124703 -0.00211676 1.3318e-05 -6.66016e-07 -2.1507e-05 -1.40106e-06 
6.43458e-05 1.00617e-05 -4.34251e-06 -1.2299e-05 -9.81906e-06 -5.89101e-05 5.8869e-05 -1.82506e-06 -6.59792e-07 
2.58637e-05 -3.39965e-05 0.0029798 -0.000429893 3.36513e-05 -4.34882e-05 -3.68611e-05 2.89415e-05 -2.50741e-05 
6.08369e-05 -1.68562e-05 2.231e-05 3.65877e-05 -3.54708e-05 2.55441e-06 -3.48449e-06 6.43321e-06 1.18117e-05 
1.21155e-05 6.94977e-06 3.84405e-06 4.12902e-06 1.51088e-05 -3.36295e-05 4.07387e-06 6.04797e-07 -9.68324e-06 
-5.60778e-06 5.52168e-07 -2.51796e-05 -2.3222e-06 -0.00118567 0.000136632 -5.92463e-06 -1.88326e-05 -1.99246e-05 
-1.79393e-05 6.88903e-06 -9.85115e-06 -8.04217e-05 -5.9802e-05 2.62073e-06 4.41416e-05 5.33545e-05 0.000230252 
0.000230442 -1.76083e-05 -9.90978e-06 -2.3702e-05 -3.85331e-05 1.26156e-05 6.31467e-05 -2.25072e-05 -9.10269e-06 
-0.000223064 -1.20154e-05 0.00437471 -0.000281174 -1.51998e-05 1.64923e-05 -5.99168e-05 4.58894e-05 -2.29447e-05 
3.02974e-05 5.35337e-05 -1.61236e-05 1.38051e-06 4.16244e-05 -2.45175e-06 -4.33877e-05 6.00255e-06 9.46512e-07 
-5.66088e-06 5.90423e-05 2.54116e-05 4.27828e-05 -4.97007e-06 5.27911e-06 -2.85111e-06 3.39515e-05 2.2265e-05 
2.66233e-05 4.1641e-06 -2.35064e-06 -2.01342e-07 0.0536851 -0.022436 -2.37221e-07 -4.10007e-06 -4.95701e-06 
-8.69817e-06 5.48689e-05 -7.47284e-05 0.00011897 -3.56538e-05 -0.00016575 3.10126e-05 -0.00550794 0.0197199 
0.000653526 0.000172202 -5.61135e-05 -6.81194e-05 6.36671e-06 -0.000142045 6.13159e-06 1.54556e-05 2.85449e-05 
3.79109e-06 -1.36092e-05 1.47983e-05 -1.16867e-05 1.12688e-05 -0.00580759 -1.25984e-06 5.55104e-06 -0.00511824 
5.51292e-05 -8.53318e-06 0.000153744 0.00014843 0.033671 0.0226889 3.89665e-05 -3.84508e-06 1.81041e-05 
0.00973289 -0.00363526 -6.01027e-06 -1.65395e-05 7.51763e-08 0.00348286 -1.80763e-05 5.87308e-06 -1.15096e-05 
-9.33502e-06 2.29365e-06 0.000327556 0.000266711 0.000101917 -0.000554616 0.00561149 -0.000589872 0.00011932 
-2.10532e-05 -0.00493022 0.0162306 -0.00316997 -0.0256003 -2.08788e-06 0.000762473 -0.00197132 4.50808e-05 
0.00162091 0.00107079 1.0971e-06 1.04559e-06 -0.000243853 -2.86914e-05 -0.000116493 -2.01986e-05 -6.78414e-06 
3.55322e-06 -1.45018e-05 -0.000101176 -4.62482e-06 9.47539e-06 4.21851e-06 -2.64727e-05 5.67019e-06 -1.75839e-05 
-8.59885e-05 -3.88295e-05 -6.65061e-06 -3.31434e-08 -0.000276977 1.2435e-05 6.13964e-05 -3.37837e-05 1.36194e-05 
-3.01191e-06 -1.11433e-06 -0.0164595 0.00750133 -0.00394063 -0.00357363 -5.93597e-06 -4.82821e-05 3.1397e-05 
6.19679e-06 6.58041e-07 -1.13791e-05 4.40939e-05 -1.22629e-05 9.934e-05 6.9069e-05 -1.30445e-05 -0.00072083 
-4.9594e-05 0.00090816 0.00517037 -5.14654e-05 0.000270995 1.52915e-05 -1.80047e-05 -1.30351e-05 9.77665e-05 
0.000364676 -2.0443e-06 3.29279e-05 -1.20343e-06 8.82418e-06 -1.15356e-05 1.42214e-06 1.34207e-05 -2.2176e-05 
-0.000174685 -0.000103417 0.000110437 2.36932e-06 6.2694e-06 1.59515e-05 -0.000353293 -7.46227e-05 -1.7913e-05 
-1.83481e-05 -0.000130212 -0.00236052 -0.00430963 1.26702e-05 -0.000931751 0.00088278 -5.99544e-09 9.29621e-06 
-2.79378e-06 0.00011638 1.30948e-06 0.000127346 0.000133996 -0.000104527 -4.57192e-05 7.80986e-05 0.000165954 
9.00701e-06 0.000139491 5.47392e-05 -0.00016818 6.13412e-05 8.81009e-05 -0.000396482 1.32443e-05 -0.000110015 
-0.00919083 3.89204e-07 0.000107473 0.00172222 0.00129275 0.00069245 0.00084123 0.000192597 0.000137313 
8.43306e-05 -4.15408e-05 -1.24123e-05 0.00141892 0.000392869 -7.69492e-06 -3.23342e-05 -2.45725e-06 6.21633e-05 
-0.0055807 0.00398294 0.00229109 0.00202102 -0.000315762 -0.000919795 -0.00190627 0.000263926 0.00113538 
8.24455e-06 -0.00118362 1.77558e-05 2.65481e-05 6.09148e-05 4.56333e-06 5.65641e-06 1.2874e-05 -2.80623e-05 
-2.07514e-05 -3.42875e-05 -3.11913e-05 2.65709e-06 3.41042e-06 1.34615e-05 1.37061e-05 -6.65334e-05 0.000147065 
0.000269697 -8.23584e-05 -3.71553e-05 6.76647e-06 0.000239336 0.000605307 -1.71642e-05 -5.91346e-06 -7.42603e-05 
5.83339e-05 -1.20357e-05 -4.203e-06 -2.24193e-05 4.24581e-05 1.28173e-05 3.79014e-06 -3.49833e-05 3.60099e-07 
-1.78761e-06 7.81725e-05 4.54313e-06 0.000113857 0.000101614 -4.314e-05 3.53928e-05 7.01892e-05 -2.99796e-05 
-1.04604e-05 2.49598e-06 -0.000608919 -0.00106438 5.07671e-06 -5.97237e-07 2.50441e-06 -5.89093e-06 2.37264e-06 
3.18772e-06 -3.00842e-06 3.1074e-05 1.9716e-05 -1.96294e-06 -4.81338e-06 3.27005e-06 1.50556e-06 7.07025e-07 
-1.48468e-05 1.65113e-05 -0.000100395 -0.000496359 -9.46447e-05 -5.94672e-05 -4.19187e-05 -2.39774e-06 6.10864e-06 
-3.13124e-06 0.000175511 0.0042857 -0.00397565 -1.57025e-05 -4.42713e-06 2.48387e-05 -1.64706e-06 6.43321e-08 
-6.82863e-06 4.79985e-06 3.5084e-06 -5.17223e-06 -5.84105e-06 -7.37163e-06 -3.48689e-05 0.000114672 -0.000313569 
-0.000417585 0.000130494 -0.000101434 0.000337604 0.000182196 -2.21479e-05 2.07158e-05 -1.4809e-05 -1.81873e-05 
2.76291e-06 0.000254494 -1.7569e-07 3.00845e-06 2.04741e-05 3.18082e-05 -4.38086e-05 1.35063e-05 -2.51379e-05 
4.45516e-06 6.1363e-06 -2.1948e-06 -0.000912221 -5.83008e-06 3.67405e-05 1.59434e-05 -1.77143e-05 -0.000192818 
2.33994e-05 -7.5391e-05 2.37639e-05 -3.63086e-05 2.41013e-06 0.00280529 0.000267161 0.0160783 -1.23049e-05 
1.34903e-05 -1.45902e-05 -0.00120608 -0.00466185 0.000777915 0.00538786 -0.0069921 0.000124879 -7.76423e-05 
-0.000538879 -0.000691383 -1.69552e-05 -6.37124e-06 -0.000945737 3.05493e-05 3.78458e-05 0.000542074 -7.57855e-05 
-0.000131335 3.88559e-05 5.60416e-05 0.00013535 2.89159e-06 3.97744e-06 -1.30007e-05 -5.56266e-06 -0.00045255 
9.49335e-05 3.39093e-06 2.13415e-06 4.53635e-05 -5.29169e-07 -2.25186e-05 8.40788e-06 3.64027e-05 -4.11119e-05 
-5.76498e-06 -2.73643e-05 -0.000150657 4.53933e-06 8.89337e-05 -1.97918e-05 0.000162509 7.60314e-05 8.12535e-06 
-4.92986e-05 8.04455e-05 -8.21914e-05 -0.000157334 3.07525e-07 -0.000153167 0.000417147 0.000279109 -1.62621e-06 
-7.79057e-06 0.00125345 -4.62653e-05 0.000417446 2.23498e-05 7.59444e-06 -3.13573e-07 -4.61907e-05 -2.83642e-05 
0.000747106 -6.9808e-05 -2.00771e-05 -1.91098e-06 1.28931e-05 2.41153e-05 -1.41976e-05 7.20365e-06 -9.12957e-07 
-0.00045342 -3.63062e-05 8.6307e-05 1.93349e-05 1.93622e-05 -4.45193e-07 -4.1398e-05 -4.0263e-05 -3.65165e-06 
1.42102e-05 -2.33242e-05 -7.3881e-06 1.19014e-05 -6.67182e-06 8.05017e-06 1.06331e-05 -5.94302e-07 0.00439334 
7.13552e-06 -0.000101526 -9.41966e-06 -0.000114529 0.000173018 0.000144246 7.79906e-06 0.0002779 -6.22807e-05 
-0.00029309 -0.0310311 -1.06775e-06 -2.64553e-07 1.04068e-05 0.00410701 -7.23749e-06 0.00156618 -4.72874e-05 
1.8226e-05 -1.7126e-05 5.78965e-05 -5.14279e-06 1.79056e-05 8.55263e-05 4.58818e-05 -3.89128e-05 1.92598e-05 
-4.22075e-05 0.00731951 -2.97374e-05 2.99178e-05 8.07048e-06 4.29774e-05 2.11132e-05 9.27451e-05 -0.000205929 
-3.35929e-05 5.0558e-05 4.5143e-05 0.00444332 -9.62538e-05 0.00424258 0.000125355 8.50933e-06 2.10758e-05 
0.000125043 -0.00021587 5.12229e-05 5.12709e-05 0.000263242 -1.94975e-05 3.31372e-05 1.53048e-06 -1.6526e-05 
-0.000390702 4.98653e-05 -5.79475e-06 -2.13959e-05 -6.76694e-05 6.78808e-06 -9.31499e-06 0.000176875 0.00254291 
0.000185624 -8.51236e-06 -3.26807e-05 -4.27602e-05 1.92843e-05 0.000290513 -3.6556e-06 4.97793e-05 2.68927e-05 
-3.49532e-06 -5.86592e-05 -0.000104491 -0.000137754 5.29797e-05 -8.97821e-06 -8.38134e-05 1.75569e-05 0.00198126 
1.38133e-05 -3.29757e-06 -2.01049e-05 4.58071e-06 -3.11331e-05 1.62794e-05 -1.59665e-05 2.08813e-05 -7.7915e-05 
2.57557e-06 -9.59193e-05 3.02702e-05 -0.00348705 -0.00117791 -1.37998e-06 -0.000137215 0.000176352 3.56911e-06 
-9.00468e-06 0.000145566 4.23345e-05 0.00060195 -1.29239e-05 0.0283676 -0.0211302 -1.20646e-05 3.47104e-05 
-1.70935e-05 -8.53582e-07 2.0829e-05 -0.000326674 -6.81083e-05 2.31221e-06 1.263e-05 -7.88396e-05 -0.00799247 
0.00185094 8.74376e-05 9.18321e-05 8.15184e-06 -0.000259772 -9.36108e-06 0.0153336 0.00649563 0.0140054 
0.000536057 -4.76377e-05 0.000104576 -1.03812e-05 -4.84646e-07 -1.63837e-05 0.0222806 0.000145688 -0.0108011 
-6.11326e-05 0.00120841 -1.09627e-05 0.000231675 -1.15805e-05 -1.53044e-05 -2.20073e-05 3.68635e-05 -5.8427e-06 
-0.000151392 9.32203e-05 -6.38304e-05 -0.000366085 -8.86445e-07 2.15942e-06 0.000162954 -1.47251e-05 -4.60912e-07 
8.39853e-06 -5.82527e-05 -6.16656e-05 -4.34949e-05 -2.8514e-05 -2.28728e-06 -6.63966e-06 0.000270696 -0.00242958 
0.000991503 0.00748469 -8.96732e-05 -0.000139313 1.13071e-05 0.00733013 0.00407478 0.000656579 -0.000245436 
-3.5553e-05 0.0055602 -0.00594847 -7.23074e-06 -1.95822e-05 3.16467e-05 -5.8606e-06 1.00561e-05 -1.92246e-05 
1.19998e-05 1.84949e-05 3.42861e-05 -9.16597e-05 -1.78811e-05 -6.48767e-07 -1.86663e-05 -1.23846e-05 1.5355e-06 
-4.03619e-06 2.16394e-06 -3.40802e-05 -0.0048294 -0.00301043 -1.05075e-05 0.000116883 -1.48708e-05 0.000141097 
-2.70729e-05 -9.19633e-06 -2.73831e-05 -0.00204521 -9.8031e-05 -0.000220962 7.68433e-05 0.00740711 4.71429e-05 
-1.75292e-05 -0.00262551 -0.00153865 0.000238308 -0.00143371 -0.00207494 0.00434661 0.000636309 0.00461867 
-6.68896e-06 5.39202e-06 8.0328e-06 0.000152825 4.63156e-05 -1.2833e-05 0.000228695 3.54174e-08 1.11003e-05 
0.000932197 6.04463e-05 0.000213712 0.00550446 0.00366566 0.00012677 7.01629e-05 -0.0104242 0.00182037 
2.36102e-06 -1.04023e-05 2.29944e-07 3.22728e-05 -0.000116119 0.000172684 5.6466e-06 -2.97865e-05 -0.00042397 
-0.000236433 -0.000169488 0.000120972 1.29682e-05 -4.86853e-06 4.61258e-05 -0.000191404 -1.52775e-05 5.53242e-06 
-3.83305e-05 -8.02465e-05 -5.23957e-06 2.9917e-06 0.000129075 2.35168e-05 5.94301e-05 -0.000201628 -8.04748e-05 
0.000145005 9.86017e-06 0.000140615 -0.00319716 0.00220959 -7.96338e-05 -0.00191159 -2.72161e-06 -9.96629e-05 
-0.000175198 -0.000105608 1.02443e-05 0.000181398 6.322e-06 -0.00013363 1.13566e-05 -3.79101e-05 -5.91865e-05 
-1.66782e-05 3.53305e-05 0.00212958 1.06001e-05 -1.66239e-05 1.25179e-07 -0.000172595 2.82345e-05 1.54628e-05 
-4.94267e-05 7.45468e-05 -9.56249e-06 -1.25379e-06 -0.000204071 1.12183e-05 -9.2319e-06 -2.49083e-05 1.30248e-05 
4.11634e-05 3.11383e-05 1.63225e-07 -6.51713e-05 5.01164e-06 -1.9425e-05 0.000490339 3.96169e-05 3.67295e-05 
-4.96959e-05 -3.54734e-05 4.69266e-05 3.84903e-05 -3.24697e-05 -4.61939e-05 0.00892597 5.03865e-05 4.57717e-05 
0.000637402 0.01392 -0.00213893 1.63591e-05 0.00308703 1.0602e-05 1.89366e-05 -0.000150405 0.000382284 
2.23872e-05 1.33067e-05 -1.24806e-05 -9.94784e-06 0.000942877 7.447e-06 -1.4755e-05 0.000180036 0.00760001 
1.07485e-05 0.000203603 -0.000569376 0.00555813 -0.000211788 1.69431e-06 -3.30801e-05 -2.00084e-05 -0.000183599 
2.51602e-05 -8.18626e-05 2.11602e-06 -1.86121e-05 5.44316e-05 -4.03046e-06 1.35371e-05 0.00244752 1.4173e-05 
2.88745e-06 -9.97018e-05 -1.82215e-05 -7.42794e-05 -1.43527e-05 0.0002464 -4.90265e-08 -4.54788e-05 -3.73942e-05 
-4.54205e-05 3.33583e-05 -0.000111128 1.3269e-05 -1.5167e-05 -4.13607e-05 -3.34639e-05 0.000102303 -2.75317e-06 
4.37349e-05 3.69664e-05 -6.01817e-05 -0.000291241 -0.00395647 -0.000138666 4.39122e-06 -0.0063521 1.03962e-05 
-2.08577e-05 -0.00482454 1.44425e-05 -0.000332868 -2.01347e-06 0.00382294 7.59587e-06 -0.00815335 5.59993e-06 
2.48326e-05 2.58987e-05 -1.92155e-05 -1.15721e-05 -5.09205e-05 -5.39837e-07 0.000801314 3.3205e-05 4.06516e-05 
5.63406e-05 -0.000328517 -1.74826e-06 0.00170542 -1.46217e-05 -0.000137473 -9.0902e-06 3.80074e-06 5.01768e-07 
3.95931e-05 -2.23837e-05 0.000710283 0.000129699 6.30258e-06 1.86128e-06 -6.18842e-05 -3.68495e-06 1.61999e-06 
-6.12454e-05 -5.11119e-06 -7.8303e-06 2.56008e-05 -0.00139114 -0.000183457 8.75595e-06 -0.000189796 -9.56176e-05 
1.21546e-06 -0.000216298 -0.000189095 -9.66361e-05 -0.00220066 -3.84799e-05 -0.000173107 6.17949e-05 9.30477e-06 
1.32467e-05 -1.84236e-05 -9.60186e-05 0.0389677 -0.0231716 -0.0343245 -0.000182254 0.000169709 0.00466164 
-7.0847e-06 -2.21127e-05 -1.95049e-05 0.000142897 -0.000103989 8.44409e-05 9.32391e-05 1.41181e-05 
Major%20Principal%20Stress 1 8918 double
1.0098120621 0.90264119264 0.88655014757 1.0221420052 0.3333100003 0.33332200078 0.33335500137 0.33335000122 0.33182797704 
0.27600140165 0.69515485538 0.77622178774 0.32139572942 0.35216479096 0.65187410613 0.77304818694 0.4669650679 0.38642956155 
0.36633643035 0.3441787589 0.33910451035 0.33288727161 0.32687641837 0.32254155348 0.32390650149 0.32423943802 0.31788074156 
0.31651593002 0.32088377065 0.32066775148 0.32250451226 0.31685417806 0.32998830194 0.33687501644 0.3497014963 0.36105233553 
0.39296262363 0.47966092647 0.4655261959 0.42810661123 0.38903214839 0.37189773269 0.34790642926 0.34134843515 0.33903078395 
0.36187184492 0.34365659533 0.32696157216 0.32832517856 0.32759430415 0.3432362853 0.35801536935 0.3263205169 0.3285966998 
0.32956948475 0.33135472109 0.36349747227 0.33970413036 0.34268000808 0.34606205812 0.35205597846 0.37601322341 0.41134366822 
0.43878818046 0.33332500395 0.33336000029 0.33335300307 0.33333700248 0.33332300381 0.33331500333 0.33332200046 0.33330200033 
0.33329900045 0.33332100024 0.33330400166 0.33332600262 0.33332200367 0.33333000293 0.33333100139 0.33334100166 0.33333200035 
0.33334600036 0.33334500043 0.33333300002 0.33334400015 0.33333200023 0.33333500052 0.33333100048 0.33332900032 0.3333270002 
0.33332700016 0.45102471217 0.33823306188 0.31596531071 0.30249571363 0.29466256466 0.29074041486 0.28927049158 0.28922944062 
0.29003621703 0.29159413871 0.2934980875 0.29566009678 0.29812306158 0.30105008565 0.30392707989 0.30706208872 0.31012209582 
0.3130960612 0.315886068 0.31828407612 0.32028108217 0.32143103329 0.32183100408 0.32141700419 0.31999700093 0.31751100033 
0.31348210751 0.30850528258 0.3025492804 0.29654434263 0.29226540482 0.2909830041 0.293143276 0.29812420001 0.30375611018 
0.31004907245 0.31539605723 0.32020704923 0.32384101953 0.32708700018 0.32946700039 0.33132000121 0.33264800001 0.33336300103 
0.33341700589 0.33333200056 0.33358000008 0.33403700052 0.33470400123 0.33562400321 0.33685001905 0.33823205529 0.33933405428 
0.33859101294 0.33400511136 0.32551856191 0.31422290553 0.3032186041 0.29398611434 0.28939014896 0.28753022711 0.28897227599 
0.29680858114 0.31075006396 0.34140971525 0.41109274646 0.73739206927 0.71191279255 0.72134883838 0.67550187819 0.68495639329 
0.75462113715 0.68913740925 0.68152080629 0.58098372176 0.63326472063 0.64722417469 0.39960072989 0.39221352708 0.47190238538 
0.61144231084 0.59329726398 0.67002234912 0.59500396708 0.68845749725 0.69050541451 0.6886744062 0.7403817069 0.67513949893 
0.60538649321 0.75682536589 0.33331800809 0.33336600203 0.33334500237 0.33333000559 0.3333090068 0.33329800101 0.33328800018 
0.33329600027 0.33329800047 0.33331100355 0.33332600232 0.3333360026 0.33334500129 0.333345 0.33335000001 0.333345 
0.33334700042 0.3333410015 0.33333400114 0.33332800123 0.3333240003 0.33332500022 0.40935232064 0.34254088593 0.31108114812 
0.29806941354 0.2920070529 0.28958813733 0.28973602788 0.29094103311 0.29313904165 0.29574501433 0.29883203105 0.30248302992 
0.30636503772 0.31037602283 0.31406904108 0.31737202696 0.31984501148 0.32149500272 0.32187900684 0.32090500127 0.31847303167 
0.31384109007 0.30725228449 0.29998742231 0.29361715494 0.29135307464 0.29404801535 0.2996141031 0.30661412469 0.31344207332 
0.31913802987 0.32394401672 0.3277350164 0.33046200352 0.33228800368 0.33323700071 0.33347501724 0.33334000001 0.33348900019 
0.33386300054 0.33442500119 0.3351450014 0.33609801009 0.33733503715 0.3388330949 0.33939805851 0.33668602878 0.32988138208 
0.32018987658 0.30943297957 0.29958968961 0.29240352329 0.28828779876 0.28706471028 0.28891097559 0.29330092421 0.30811499957 
0.33251800017 0.4503582614 0.70705781836 0.58526566285 0.58613799845 0.67505610326 0.68439032351 0.60317367659 0.69150346466 
0.68636817381 0.73716977894 0.65651716229 0.54253281582 0.55247918098 0.4110042809 0.41176912246 0.57879297034 0.60775333085 
0.75623662084 0.66512389102 0.74310932637 0.68587000185 0.68856892969 0.68490962972 0.598672219 0.67152267458 0.61285184791 
0.63735951434 0.33316413086 0.33319998483 0.33326609136 0.33332486339 0.33338857492 0.33342068214 0.33345575875 0.33347211605 
0.33346905522 0.33344748282 0.33341420353 0.33338387071 0.33334825669 0.3333142346 0.33329088148 0.33328035919 0.3332668704 
0.33326741184 0.33327113079 0.33327501756 0.33328600704 0.33329805701 0.33331511014 0.3333331298 0.3333501095 0.33337305299 
0.33336100368 0.43728971304 0.36093906235 0.33525002286 0.32009435983 0.31135826013 0.30629307236 0.30322855443 0.302056039 
0.30099214363 0.30114777999 0.30208202412 0.30322071406 0.30464581333 0.30640695931 0.30816345614 0.31010121702 0.31190791769 
0.3136635202 0.31511229011 0.31633570538 0.31682210497 0.31704314889 0.31666568396 0.31558561438 0.31387955954 0.31155871845 
0.30866711002 0.30552659854 0.302288727 0.29977489505 0.2992319398 0.30101481037 0.30361729735 0.30791035442 0.31222461294 
0.31654190932 0.32028430955 0.32363217103 0.32633958982 0.32848410644 0.33013467243 0.33152401233 0.33238914105 0.33297220949 
0.3337062364 0.33398944378 0.33433374444 0.33470912715 0.3346836175 0.33297855755 0.33071747878 0.32691462787 0.32142578009 
0.3155193548 0.31117554008 0.3089354073 0.31002309635 0.31387393892 0.32227473028 0.3621301553 0.41096315236 0.39690269905 
0.37492790812 0.35764044605 0.33561269438 0.32412195347 0.32172909687 0.3204283756 0.32181100041 0.31807947204 0.3111533961 
0.31025705932 0.31440656575 0.31787499716 0.31343252546 0.3104466842 0.3122895294 0.31197919713 0.31596444286 0.31226988327 
0.31881663402 0.32543524041 0.33298082215 0.34986349251 0.36869461155 0.40281227915 0.36647734341 0.34174547642 0.32480103082 
0.31237924675 0.30326575691 0.29642016224 0.29010632274 0.28465770693 0.27782799094 0.26995646347 0.25832134614 0.24103251519 
0.26649610705 0.45388854841 0.27054813859 0.23059269923 0.24798318205 0.25968958746 0.26831362295 0.27522216553 0.2820408574 
0.28886244334 0.29555223892 0.30375506921 0.31289197383 0.3303383739 0.35155570659 0.37739803877 0.39201029225 0.33348807455 
0.33400539141 0.33972603122 0.39520247088 0.29926747854 0.44169028934 0.29498343759 0.43190849393 0.33297326806 0.33319129993 
0.33342181204 0.33363304232 0.3338029042 0.33388911808 0.33389500614 0.33386575233 0.33374368401 0.33360696214 0.33346762292 
0.33333834845 0.33322471162 0.33313645616 0.33308967412 0.33307219929 0.33306298158 0.33307130623 0.33311402012 0.33316804653 
0.333232192 0.3332953065 0.33336331558 0.33355568357 0.35748706717 0.34172915663 0.33018245118 0.32321629296 0.31738564008 
0.31372630292 0.3114125656 0.31001440134 0.3093161013 0.30907715631 0.30944449259 0.30994384384 0.31051669334 0.31133819053 
0.31214669215 0.31288728778 0.31353868186 0.31376049009 0.31375815644 0.31340527385 0.31275707785 0.31184792844 0.31046846583 
0.30895252097 0.30746776677 0.30610824832 0.3046590484 0.30324042256 0.3034155321 0.30559732183 0.30882166425 0.31259814406 
0.31643313355 0.31992299895 0.32278712238 0.32528214497 0.32724700327 0.32879787124 0.32999039931 0.33110527274 0.331984911 
0.33274932176 0.3794072436 0.33353503852 0.33330047061 0.33301059737 0.29735984895 0.36129497704 0.32643484083 0.32413209578 
0.32131456349 0.31935078926 0.31986761178 0.32305218959 0.32746646448 0.3321913476 0.3293904039 0.35520220808 0.41445263774 
0.35820770976 0.34734016296 0.34193971618 0.33561318116 0.33202088226 0.32636303263 0.32402652106 0.32439193804 0.32428097897 
0.32303517179 0.32012533993 0.32038571735 0.32219637436 0.32305581464 0.32372683724 0.32442244724 0.32537936277 0.32912489786 
0.33346664063 0.33907306738 0.3471734994 0.359228424 0.33209327134 0.34049699361 0.3150335494 0.30765287444 0.30118508689 
0.29574034027 0.29076010645 0.28540771147 0.27987856336 0.27762046575 0.29017015954 0.30759054847 0.3334693157 0.37038782127 
0.26492805317 0.2681083407 0.27483033039 0.28144947521 0.28771129147 0.29401507454 0.30082468873 0.30846069446 0.31753649079 
0.32729977874 0.33798905859 0.3478862128 0.33099962349 0.33845382347 0.3280761429 0.37801547891 0.32301357273 0.28127458183 
0.33295908845 0.30381438822 0.35608406573 0.31875870979 0.38143945096 0.34395826643 0.38101277073 0.39312921399 0.33329220014 
0.33375660495 0.33420400876 0.33453060898 0.33466653929 0.33460250441 0.33441253991 0.33411500461 0.33379310156 0.3334867081 
0.33320884729 0.33296660081 0.33282340257 0.3327668762 0.33272523355 0.33270739587 0.33277734655 0.33288900053 0.33303414304 
0.33318836526 0.33281707925 0.31096482034 0.33247592953 0.34284974167 0.33526730565 0.32969344842 0.32485315493 0.32125992444 
0.31884176155 0.31679203783 0.31564880115 0.31502193114 0.31438747186 0.31391523698 0.31377491114 0.31363090651 0.31348209705 
0.31324058843 0.31275173101 0.31197070484 0.31089402085 0.30968507533 0.30840674441 0.30686292551 0.30552204442 0.30447463961 
0.30420696276 0.30426105321 0.30435057922 0.30446945708 0.30703354974 0.31273820115 0.31753647683 0.32141637069 0.3249130172 
0.32743344064 0.32910436754 0.33004967777 0.33053194129 0.33098088909 0.3315502223 0.33203113099 0.28733379782 0.29940884057 
0.33312176062 0.33261579427 0.33156267672 0.35566362275 0.34985780571 0.3230294768 0.32700819572 0.32999681072 0.3352214536 
0.33820901224 0.34128566154 0.34504945011 0.32492215032 0.37530220487 0.32238743278 0.34700705513 0.34099774188 0.33659801029 
0.33340817674 0.33070525093 0.32892140514 0.32831009666 0.32781222346 0.32695519378 0.32600943991 0.32597959329 0.32697393864 
0.32778139464 0.32848086852 0.3295585759 0.33177120306 0.33459791409 0.33873813949 0.34398548386 0.35077796018 0.30342416633 
0.31413107564 0.30103368749 0.29708508295 0.29362578248 0.29438147381 0.30153339909 0.31700559895 0.36078653457 0.3794163625 
0.28260694645 0.2860845344 0.29043637083 0.29538139534 0.3012322261 0.30727295016 0.31429236247 0.32157141802 0.32849973355 
0.33497456804 0.33970684486 0.31961313921 0.32354638543 0.32432752942 0.30854400234 0.31767449384 0.38484142121 0.28090526796 
0.33332856903 0.3372241905 0.32400916944 0.3248448403 0.36091601384 0.32343043727 0.34469332919 0.33042841962 0.37066215163 
0.32897782698 0.30324838901 0.3345572518 0.3352799481 0.33576527374 0.33595804064 0.3356563255 0.33507851524 0.33445838168 
0.3338686698 0.33331296838 0.33282693141 0.33249433402 0.33232344007 0.33233713755 0.33218404068 0.33223445315 0.33249318863 
0.33263502341 0.33300039035 0.34269518199 0.33130300468 0.2943088082 0.34165949429 0.33722611347 0.33358590899 0.32994525576 
0.3269511967 0.32447756401 0.32157600884 0.32129476622 0.31979934323 0.31845883926 0.31721419854 0.31616108156 0.31531782234 
0.31428051196 0.31299475113 0.31140148596 0.30950855301 0.30742782721 0.30543250866 0.30305062994 0.30085413676 0.29973825233 
0.29907805441 0.32723497407 0.33194592464 0.33403392906 0.33462026677 0.33459594207 0.3338271613 0.33307750238 0.33275551596 
0.3251639081 0.34692730075 0.34400276983 0.31888959458 0.30771604903 0.32346943116 0.3272709192 0.34455370329 0.35391355895 
0.32192675541 0.33246618988 0.34202850747 0.36923861287 0.34063103184 0.33864453881 0.33686722105 0.33486776623 0.33348704926 
0.33334623669 0.3334412592 0.33260374611 0.33091391778 0.33249222385 0.3331232689 0.33351636245 0.33417165397 0.33540669352 
0.33695479602 0.3392390118 0.34231247009 0.30500580375 0.30357726054 0.31139053996 0.32055147958 0.35213397487 0.36875687648 
0.36100590306 0.35920311552 0.31406293419 0.3327795197 0.29517638091 0.2987158752 0.30232401937 0.30687551661 0.31178651889 
0.31725243686 0.32253876659 0.33362424743 0.33269488018 0.32577191393 0.35743280392 0.33547320014 0.33385722779 0.32142472501 
0.29254423951 0.31376684821 0.32057103688 0.31055170512 0.32853591256 0.31905777224 0.3429680515 0.32097830354 0.3612900678 
0.34831404135 0.32009523418 0.32578048733 0.31787036148 0.32422524375 0.34079115322 0.33186475703 0.29246839856 0.33602979785 
0.33687054521 0.33788629866 0.33779887275 0.33680675721 0.33552515769 0.33468702855 0.33367114477 0.33277016573 0.33212127223 
0.33179547352 0.33166098221 0.33148499281 0.33182343297 0.34243098423 0.3258993913 0.33834930327 0.33618738906 0.33362743117 
0.33105261053 0.32801396475 0.3263340706 0.32325379046 0.32204899138 0.31946098206 0.31835376243 0.3166706812 0.3146517308 
0.3122418081 0.30958390678 0.30566589975 0.3399651873 0.34470037845 0.34158713103 0.34090776686 0.33827132493 0.33599475505 
0.32029154913 0.31129628473 0.34785065222 0.35515866411 0.35247713454 0.3302063277 0.33867223727 0.31379581793 0.34036540676 
0.34011463587 0.33809024249 0.33775793115 0.33953754393 0.33966960853 0.3372880937 0.33894677002 0.33850265718 0.33816774022 
0.33868916201 0.33900106077 0.33935710151 0.34029790434 0.31522667805 0.33840264392 0.34979261786 0.33108816736 0.3463513279 
0.31100490712 0.31462182375 0.33442368596 0.35844170011 0.30025945058 0.349013086 0.33335686651 0.34372592893 0.3026324584 
0.31704918951 0.3236291542 0.34282357265 0.32331343558 0.32739538952 0.32189669315 0.3411042307 0.31722440739 0.32055055827 
0.30709605487 0.31823804982 0.35094456543 0.34101801772 0.33685103368 0.33451586791 0.33301061836 0.33174073954 0.33100566978 
0.33099802472 0.33861404802 0.33640408878 0.3354104594 0.34087066956 0.33344703924 0.32928351662 0.32068901066 0.34302953628 
0.33891087548 0.34585754872 0.35364697501 0.32760392702 0.34540635065 0.34463862809 0.34222607013 0.34137541363 0.340948836 
0.33928646972 0.31469539731 0.33567635806 0.33074230483 0.3237684359 0.31770872669 0.33119747029 0.33982498638 0.33233343222 
0.32963795302 0.32789651255 0.32969534787 0.3240026262 0.34138932316 0.34524978365 0.3264826264 0.33300639084 0.33318679383 
0.33328202884 0.33337682649 0.3334815462 0.3335377403 0.33354100004 0.33351652993 0.33345276101 0.33338790579 0.33332731064 
0.33327589716 0.3332369552 0.33322004099 0.3332283511 0.33323204869 0.33326201546 0.33329212391 0.3333232077 0.33336217561 
0.33338804886 0.39502247001 0.35852636498 0.32939126221 0.3148319615 0.30783015491 0.30462892233 0.30286810706 0.30286447186 
0.30350131344 0.30430050618 0.30606245975 0.30820159165 0.3103693176 0.31234236306 0.3141903187 0.31552107849 0.31630949102 
0.31617700608 0.31529735328 0.31370880399 0.31122990784 0.30849458717 0.30495902792 0.30163131882 0.30026971997 0.30167527735 
0.30540485697 0.31020870434 0.31541362684 0.31972204621 0.32355417466 0.32683173873 0.32910457707 0.33097992639 0.33221756541 
0.33348505516 0.33366112506 0.33384334694 0.33414856757 0.3346557086 0.33422849409 0.33367402824 0.33211280879 0.32892557361 
0.32414240627 0.3190629119 0.31415930147 0.31062576041 0.30891421493 0.30966351303 0.31335018792 0.32348334666 0.36427728573 
0.43301985805 0.38517517347 0.35421473861 0.33783392181 0.3424003885 0.33166182819 0.32533167741 0.31003351826 0.3206667822 
0.32184131289 0.31923914899 0.30663177026 0.31984151322 0.32032434056 0.32181393787 0.32075298377 0.32518251374 0.32894424451 
0.33297480988 0.343215531 0.35400366034 0.36317130937 0.34482666663 0.3255986507 0.3130732868 0.30457328549 0.29822992406 
0.29261700096 0.28753444227 0.28200418914 0.2757040851 0.26750257488 0.25600335493 0.24006223846 0.27419527293 0.41234370211 
0.25169321612 0.23181210908 0.24758242407 0.25923436305 0.2701657146 0.27746749742 0.28431634381 0.29031774086 0.29745850787 
0.30610923935 0.31610481267 0.32935028824 0.34977243823 0.36546240621 0.40925066893 0.33412979475 0.34027171489 0.45340651947 
0.43483013458 0.30731463975 0.28506623415 0.33304362085 0.33261718682 0.33370684084 0.33405312881 0.33420657499 0.33414357746 
0.33396383749 0.33370886882 0.33345499944 0.33321013757 0.33302597751 0.33292292806 0.33289439123 0.33292764355 0.3329960406 
0.33310808256 0.33322334334 0.33335249392 0.33350335508 0.3273146999 0.33408505404 0.34918019248 0.36697792606 0.32412212815 
0.31857369802 0.31524645337 0.31312576913 0.31149217955 0.31087692802 0.31094135032 0.31142947641 0.31209377554 0.31267926966 
0.31322919593 0.31342892689 0.3131658582 0.31235103065 0.31087900326 0.30931178107 0.30785095371 0.30683673401 0.30584853823 
0.3046549028 0.30427493692 0.30645690924 0.31056443223 0.31522016965 0.31977039402 0.3231127084 0.3257843752 0.32792318731 
0.32947748045 0.33076848606 0.33183387102 0.36322282671 0.33350782519 0.33139690999 0.33348628742 0.32732438245 0.32898299303 
0.34495041878 0.33020317707 0.32519769662 0.32311309708 0.32089410169 0.31997526065 0.3214872702 0.32427657023 0.32817285383 
0.33381324014 0.38007647372 0.40116695782 0.34719075643 0.33857508386 0.33276326174 0.32842744424 0.32661472094 0.32561530796 
0.32438165932 0.32338404303 0.32331598406 0.32395928261 0.32575240017 0.32628060318 0.32793651561 0.33151994892 0.33668233948 
0.34374652951 0.35610325582 0.35948283916 0.30967547064 0.34541096856 0.33450962795 0.32532768539 0.31727795972 0.3098209878 
0.30390417557 0.29813517479 0.29294376098 0.28774317086 0.28261323691 0.27769067026 0.27732629372 0.29237324255 0.29534757984 
0.40770434697 0.27887106008 0.27488435748 0.28101142085 0.28770239633 0.293913343 0.30061947494 0.30817352078 0.31696705464 
0.3276501764 0.33907113432 0.35101011702 0.3332945552 0.34311250963 0.26768579743 0.26909332105 0.3589705271 0.3322430275 
0.30423010953 0.39542593276 0.38227048034 0.3174478 0.32986711137 0.3352430442 0.33456570101 0.33493146997 0.33441952287 
0.33385562034 0.33328793794 0.33283227729 0.33252258111 0.33239808627 0.33240482607 0.33252156135 0.33272400016 0.33297521618 
0.33314860359 0.32220401937 0.32491131888 0.33273363433 0.29184744422 0.33504967476 0.35199030073 0.32254300049 0.32001386847 
0.31801465217 0.31657978715 0.31562450062 0.31499165352 0.31445720492 0.3139220288 0.31309908211 0.31182689342 0.309989905 
0.30770340592 0.30502464632 0.30298578576 0.30209563834 0.30255125112 0.30400778412 0.30460877536 0.30770727765 0.31455617375 
0.32089484144 0.32609951613 0.32925677345 0.33051404003 0.33128291977 0.33148846763 0.33170432938 0.3261361624 0.33284776982 
0.31802349028 0.32312588392 0.33264136427 0.32739806381 0.32337476215 0.33605917194 0.35526342045 0.33517458879 0.33688817234 
0.33257724798 0.33145944513 0.33053161097 0.32972095508 0.32937105116 0.32904260942 0.32944517485 0.33037079905 0.33175105152 
0.33398242431 0.3370224685 0.34106643718 0.34165031734 0.31798260929 0.38784324985 0.32149174153 0.31612418529 0.31098869259 
0.30611241441 0.30161257417 0.29780566523 0.29487693544 0.29289307837 0.2942023895 0.30202035363 0.31203059144 0.29090842486 
0.28647753747 0.30140504389 0.30741661248 0.3143079904 0.32205623496 0.32975370582 0.33747850331 0.36613109212 0.32268858103 
0.34303322616 0.34920756575 0.33088251988 0.33416254433 0.33056361697 0.32662877853 0.29640782133 0.33356234877 0.33168202162 
0.32622912843 0.28185213923 0.33224833426 0.37116158079 0.37242716198 0.35551447786 0.32768896092 0.33836899136 0.340529603 
0.32160641194 0.33665490777 0.37243403237 0.34661653321 0.37452432753 0.30178493068 0.33197000679 0.29750042067 0.28384927139 
0.35766670741 0.33906858783 0.33644787491 0.33365887626 0.33278331947 0.33209939032 0.33173968362 0.33171544589 0.33185708404 
0.33211615055 0.33260616746 0.32217107054 0.32147618105 0.32290105251 0.32548905478 0.32816227401 0.32084496717 0.3190829636 
0.31763643564 0.31609472332 0.31433342055 0.3122270694 0.30928966692 0.3056404939 0.30180824622 0.29656009346 0.33008424559 
0.33314689087 0.33956069213 0.33748599952 0.33645815684 0.33507269229 0.33395662685 0.34942992406 0.33076150855 0.33724105072 
0.33568939865 0.31529982484 0.33926287641 0.31936223276 0.32712133634 0.34319163734 0.32861118472 0.3226073791 0.33650033693 
0.33797794165 0.33789676463 0.33611356962 0.33548604445 0.33527659707 0.33562095568 0.33629608717 0.33724463798 0.33857544648 
0.34063489424 0.32025811028 0.37177963629 0.33909528864 0.31616514829 0.3128084739 0.30936436175 0.30587555895 0.30475195889 
0.30546872624 0.30393889951 0.30763493128 0.31560152706 0.31228498703 0.30713480275 0.32367277301 0.32943887038 0.3201078957 
0.31787104096 0.29524511584 0.33466464674 0.29410663087 0.33683820809 0.34391467894 0.32400944676 0.33913361516 0.32980553886 
0.32342743863 0.33580784229 0.35512236213 0.33330706045 0.33447976689 0.32864289019 0.35165502312 0.32662330539 0.34096917399 
0.33636449005 0.32689371351 0.2997127115 0.33740259197 0.35931691748 0.33479767781 0.36331985198 0.34576895723 0.34300238699 
0.30465722652 0.33284234896 0.33062437189 0.3310192789 0.32410700918 0.32945251011 0.3200048931 0.32342267875 0.35139470024 
0.32658285394 0.33247985993 0.32197221552 0.3196722779 0.31713119666 0.31425713913 0.31065287149 0.34587976578 0.34295114858 
0.33943272156 0.33678222733 0.33174769603 0.33780361453 0.34295117431 0.3440850617 0.34220375314 0.352322 0.35369175831 
0.32006858543 0.34241618024 0.34331040885 0.33477369089 0.34151154783 0.34076070086 0.3404856679 0.34049396583 0.3398287709 
0.33898261388 0.36180919925 0.36314968488 0.33092134291 0.33179270837 0.31537353959 0.31219810646 0.31112653446 0.31328239463 
0.34864325021 0.3241569815 0.31974328091 0.33133814356 0.32297041515 0.35509228254 0.33848518994 0.32604224061 0.33934904003 
0.33611061655 0.33353806419 0.3290372347 0.33927903989 0.3344353689 0.32786901293 0.31713407323 0.31502809079 0.31711272205 
0.35059022329 0.33616915911 0.34593883785 0.32482632648 0.32769146901 0.34631463797 0.34671401265 0.33895852867 0.33920742677 
0.34439932286 0.34398094746 0.34182916872 0.33900059875 0.33040324262 0.34147345887 0.31750380878 0.35347713874 0.33572130954 
0.34909473768 0.34721506582 0.3213610662 0.32933873993 0.3318713926 0.35547917336 0.34757775977 0.34410610933 0.33096473429 
0.33504745453 0.33548561925 0.33330338545 0.34911503524 0.32730375276 0.34147935859 0.33669092903 0.98542978489 0.98487984528 
0.6657819089 0.42548857254 0.38633677426 0.36006571085 0.43597412426 0.43156660549 0.42842697909 0.33161847462 0.42328669311 
0.42056455669 0.42105615802 0.32491947827 0.41813264874 0.41755962265 0.4150283297 0.4176540251 0.42747809968 0.42881481767 
0.44312270867 0.46045871191 0.3830811864 0.44984981684 0.73487880867 0.71140344724 0.47499154719 0.40348767146 0.38733272233 
0.41601855039 0.43877732421 0.43274873089 0.40570255048 0.3514478738 0.39596379011 0.42385211515 0.42365661475 0.39907000794 
0.34982421114 0.39712102063 0.4232941665 0.42558434971 0.42618821113 0.40171989898 0.40998780713 0.43521842034 0.43901110425 
0.44331541781 0.42375465782 0.38990201408 0.4309988817 0.62046933687 0.33332100487 0.33337100119 0.33338100214 0.33336000418 
0.3333320049 0.3333090041 0.33330200116 0.33327700142 0.33326200236 0.33326900113 0.33328500068 0.33330200227 0.33331000348 
0.33332100443 0.33333500283 0.33334500146 0.33334600081 0.33336100078 0.33336000085 0.33335400028 0.33335200004 0.3333440002 
0.33334300049 0.33333700075 0.33332900053 0.33332300026 0.333319 0.33331600033 0.61152967991 0.34589385064 0.32406328191 
0.3063077863 0.29709356872 0.29197069485 0.28960944728 0.28904046258 0.28937340198 0.29060523038 0.29238314452 0.29444808943 
0.29683007744 0.29960208521 0.3024481106 0.30543710846 0.30855308896 0.31169507558 0.31461908624 0.31721409698 0.31941409366 
0.32094205888 0.32180601328 0.32186200811 0.32096900278 0.31907300022 0.31576901584 0.31107019555 0.30554139115 0.29929350146 
0.29384354707 0.2910371811 0.29160211225 0.29518225696 0.30080720618 0.30697413724 0.3128820935 0.31797306512 0.32212703233 
0.32561500308 0.32846300084 0.33055400127 0.33208200091 0.33308000041 0.33348800685 0.33339500254 0.33330900043 0.33342600004 
0.33378700047 0.33434800127 0.33514000263 0.33624000883 0.33758103224 0.33900805861 0.33946202895 0.33705601148 0.3304212993 
0.32010272033 0.30839072124 0.29777731513 0.29075909413 0.28736513033 0.28648715323 0.28902661771 0.29982912537 0.31822723027 
0.36083672478 0.6147156154 0.90751549832 0.83643685022 0.81012837511 0.67818034096 0.68749077211 0.84322694182 0.69771625481 
0.69218407383 0.68181498983 0.65906299566 0.74040184446 0.54512551864 0.41536705494 0.5633484364 0.47744300416 0.51554807384 
0.58660027675 0.63790058748 0.66578398146 0.68463493445 0.69491663018 0.69691363171 0.69837916381 0.83364493343 0.68644844236 
0.6734078149 0.70197810026 0.94622205337 0.58681595753 0.33328500284 0.33343600095 0.3333850019 0.33334500514 0.3333050069 
0.33326600418 0.33324600195 0.3332410006 0.33324400018 0.33326000202 0.33330300306 0.33333300326 0.33336300219 0.33336700062 
0.33337600023 0.33337200016 0.33337300023 0.333367001 0.33334800132 0.33333300153 0.33331700089 0.33330800001 0.33332200044 
0.61205051862 0.36423228857 0.31818034627 0.30238013341 0.29378844157 0.29006416721 0.28927308101 0.29006705216 0.29188205592 
0.29433105487 0.2971700291 0.30057004271 0.30440004855 0.30840505432 0.31229505336 0.31584104913 0.31879402828 0.32093401146 
0.32194001626 0.32166700227 0.32000501179 0.31654610476 0.31087126112 0.30361850631 0.29628044429 0.29163109781 0.29179602498 
0.29642409727 0.30302217394 0.31016513907 0.31652706555 0.32179402582 0.32607603194 0.32927600932 0.33156100235 0.33294200088 
0.33346100684 0.33343000528 0.3333220001 0.33339200002 0.33365700037 0.33413500126 0.33477400212 0.3356110044 0.33671602332 
0.33814606223 0.33943107195 0.33871700231 0.33403215924 0.32552061267 0.31481298363 0.30400686524 0.29530157627 0.28961459265 
0.28667014934 0.28618955468 0.28979508215 0.29644386808 0.31425366469 0.34531207353 0.61867824427 0.92517023251 0.69549218833 
0.67252084946 0.6764355054 0.68737386289 0.69597846589 0.69794624152 0.69606669979 0.68894254655 0.8175218406 0.64988920867 
0.61992668045 0.65597725122 0.41455705249 0.61084825596 0.45741776003 0.63026977058 0.59332201641 0.77182894078 0.66093263196 
0.68042665682 0.83815246323 0.69394866505 0.69377708625 0.69272783935 0.68491985404 0.67292171565 0.68962770127 0.82623490548 
0.62069634499 0.33331700041 0.33334900045 0.73796406864 0.32233464381 0.74542816934 0.32822036073 0.65044681103 0.65425956035 
0.49005602107 0.43354951216 0.38706386305 0.36684266359 0.36290427195 0.3446496689 0.34043021314 0.34958389858 0.34921895229 
0.34366396185 0.33478691136 0.33737423458 0.33488760207 0.3132966557 0.31453361767 0.32135678619 0.32814207375 0.32349462769 
0.32378715733 0.32585167447 0.32218611769 0.31021282808 0.30507259085 0.31899173503 0.32254561953 0.32412012714 0.32189593981 
0.32641494456 0.32152894248 0.33285818135 0.32398577599 0.33150691706 0.33923811523 0.33203821634 0.34038900649 0.33880227359 
0.34472416941 0.35265388345 0.35521447785 0.35243334745 0.36761761133 0.40035476624 0.4620015554 0.32740858268 0.31660652729 
0.32312691475 0.38538443867 0.33332500234 0.33325601909 0.33324404604 0.33327422013 0.33326227715 0.33322447928 0.33329254429 
0.33329756577 0.3332695338 0.33332575946 0.33333277168 0.33330354431 0.33335768631 0.3333626764 0.33333679284 0.33337447722 
0.33338041859 0.33337313759 0.33339922665 0.33340318351 0.333403183 0.33340303336 0.3334070262 0.33339937829 0.3334100115 
0.33340802212 0.33341000281 0.33339811859 0.33338415029 0.33340921915 0.33337430587 0.33337433862 0.33339481579 0.33335649649 
0.3333595048 0.33336954202 0.33334160531 0.33333860592 0.33334909326 0.33332259927 0.3333235932 0.33332929139 0.33330850156 
0.33330949514 0.33331406778 0.33330437578 0.33330234635 0.33330462099 0.33329024 0.33329622387 0.33329410223 0.33329511239 
0.33329810374 0.3332956248 0.33329803725 0.33329702758 0.33330025067 0.3332990051 0.33330400255 0.33329706034 0.33330700147 
0.33330600289 0.33329800048 0.33331401517 0.33331201686 0.33330902751 0.33332103045 0.33332203145 0.33331908509 0.33333103576 
0.33333103594 0.33332712502 0.33334103072 0.33334502814 0.33333612214 0.33334901559 0.33335301064 0.33335208121 0.33334400063 
0.33334200036 0.33336100054 0.33335802003 0.41299082428 0.43764752706 0.37980331787 0.35608530655 0.34002385839 0.37766306575 
0.32791591493 0.31973139502 0.34271412083 0.31229508182 0.30783567127 0.32557747323 0.30372770732 0.30143625042 0.31466309178 
0.29879878684 0.29794473518 0.30809124491 0.29645233812 0.29645529091 0.30423412966 0.29588709753 0.29619511094 0.3022973952 
0.29565379416 0.29632987924 0.30117684129 0.29645484229 0.2973598751 0.30086799436 0.29787499273 0.29891220233 0.30148005914 
0.29951102558 0.3006930125 0.30254574287 0.30142079538 0.30285585117 0.303857266 0.30376455249 0.30517057966 0.30548876743 
0.30605602014 0.30757505938 0.30725014712 0.30859921126 0.31010124292 0.3091551145 0.31099982082 0.31244750694 0.31103899027 
0.31335339789 0.31470229611 0.31284605657 0.31544925639 0.31660710141 0.31451172048 0.31723776918 0.31818665085 0.31582852751 
0.31847973649 0.31905559524 0.3167567848 0.31916611464 0.31931804639 0.31706684443 0.31913912227 0.31892116509 0.3170180385 
0.31838102452 0.31766019326 0.31628916511 0.31679425817 0.31553754823 0.31490851129 0.31437424993 0.31242776408 0.31290600521 
0.31095990509 0.30852300091 0.31024178728 0.30683343776 0.30405877642 0.307212015 0.30238905936 0.29963662485 0.30381621171 
0.29832477396 0.29647071656 0.30062267035 0.29615270337 0.29543913304 0.29894595845 0.2963103323 0.29739488031 0.29968171057 
0.29879853776 0.30104706287 0.30182281794 0.30322806884 0.30586171604 0.30556825424 0.30803217984 0.3110384486 0.31004657106 
0.31323083673 0.31582906689 0.31450722479 0.31771916398 0.32008653394 0.3185566064 0.32178202152 0.32364752612 0.3221165203 
0.32501765123 0.32662304981 0.32509329634 0.32768813902 0.3288890375 0.3275590024 0.32971973819 0.33065563192 0.32943819057 
0.33134780237 0.33201470558 0.33093966926 0.33246930746 0.33280023496 0.33205297229 0.33314605364 0.33320702407 0.33275755585 
0.33365906092 0.33387206896 0.33403011675 0.33434312727 0.33384434041 0.33454319744 0.33496821851 0.3341585886 0.33518330005 
0.3357433443 0.33452493665 0.33580745137 0.3363654739 0.3347763442 0.3360762926 0.33550187489 0.33440932273 0.33216034136 
0.33221215541 0.3300727782 0.32621123832 0.3292119843 0.32307415728 0.31803385793 0.32441570384 0.31460890799 0.30973534851 
0.31837874575 0.30716336569 0.30303181234 0.31288558769 0.30164272005 0.29970723885 0.30937593761 0.29991560058 0.29953606766 
0.3086377738 0.30106578445 0.30268978978 0.31076109876 0.30643140999 0.31195968327 0.31612617877 0.3396116417 0.35703846873 
0.38176478348 0.42177250768 0.37938418862 0.4132686522 0.42409484832 0.37757511835 0.37086258469 0.35511154136 0.38348733508 
0.34418878301 0.33817105689 0.36432622227 0.31965834081 0.31441077445 0.3491715525 0.31287461681 0.3055844963 0.33739991247 
0.3042432065 0.3014189855 0.33278326461 0.30413238947 0.29712393964 0.32661555588 0.3144757349 0.3119056228 0.32399545425 
0.29254097861 0.29551877294 0.32565047997 0.29715412764 0.29318220615 0.32291499407 0.29415723835 0.29273918881 0.32048153246 
0.2949931784 0.28828941817 0.3202287124 0.30933469165 0.31080238502 0.32183278358 0.2939704487 0.29625470269 0.31869868791 
0.29459840543 0.29411567578 0.32031653183 0.29251381982 0.29533696631 0.32071665819 0.29495637289 0.30030535607 0.32201624969 
0.29765119353 0.29941159488 0.32516231445 0.29746304157 0.30536244207 0.32380884943 0.3026730079 0.30697007662 0.32916475352 
0.30525602866 0.31204099871 0.33083344775 0.31109076125 0.32149843969 0.33582365503 0.32292074869 0.32687912 0.3455783014 
0.35002551556 0.36155320175 0.36140100705 0.37079388986 0.39711225143 0.38563375139 0.37223951119 0.40329122895 0.33525216825 
0.34775801156 0.35052940307 0.31845370858 0.32132808777 0.33349513081 0.30591345678 0.30654471924 0.32016526253 0.29717939463 
0.29735713179 0.31018023352 0.29304739896 0.29255175159 0.30269988066 0.28662691906 0.28587603786 0.29590795072 0.28114994835 
0.28129672866 0.28986153448 0.27339456235 0.27565761934 0.28403849948 0.26502169512 0.26771757964 0.27650974518 0.25067120203 
0.25873822936 0.26727115691 0.21940702397 0.2417546058 0.25274163013 0.20358653072 0.23139015901 0.243471739 0.58191503657 
0.40011976497 0.22857653344 0.23816455899 0.21741074244 0.23628708373 0.23220904131 0.24029893106 0.25099862215 0.24024687746 
0.25392268391 0.26391953152 0.25526784577 0.26835919503 0.26915381083 0.26598279971 0.27528442817 0.27427362549 0.27570797614 
0.28016960945 0.28228664502 0.28257686304 0.28739151571 0.28769469402 0.28934790923 0.29420229567 0.29364668716 0.29577157263 
0.30099507223 0.30358639995 0.30302057531 0.31089838905 0.30658803912 0.31187756128 0.3223452069 0.32814630874 0.32164475916 
0.3389343553 0.35612468836 0.33726934492 0.38091032984 0.42260611894 0.36299290204 0.50914968373 0.36207636439 0.33326701175 
0.43284480337 0.33342301452 0.33354202242 0.38207606502 0.33616224634 0.33646811166 0.32815725715 0.31988321175 0.32877414331 
0.33373711065 0.36290791902 0.46824783481 0.34943688034 0.29981962542 0.2947940549 0.52425891997 0.46225754068 0.33627432862 
0.26418587735 0.39890346086 0.52417546935 0.40863594694 0.41242767855 0.29138087026 0.3335911486 0.42315847553 0.33304667038 
0.33313453694 0.33319965916 0.33328121689 0.33308984713 0.33335443292 0.33343522679 0.33330472519 0.33349761193 0.33355786208 
0.3335089848 0.33361479039 0.33365793086 0.33368544965 0.33368198901 0.33369545522 0.33380433917 0.33370806019 0.33369800922 
0.33384831884 0.33369126551 0.33365966102 0.33383415754 0.33362031808 0.33358494037 0.33376660822 0.33353872508 0.33349028905 
0.33364479986 0.33344588201 0.33339819966 0.33351980727 0.33335946346 0.33331346257 0.33339504555 0.33327519487 0.33324492654 
0.33328708578 0.33321248778 0.33319604535 0.33319411297 0.33317843517 0.33317199611 0.33312454136 0.33316049205 0.33316010193 
0.33310089862 0.33315969321 0.33315844075 0.33308553547 0.33315922629 0.33317010668 0.33309058912 0.33318402175 0.33319500022 
0.33311111716 0.33321502029 0.33323305644 0.33315600193 0.33325411359 0.3332771548 0.33321310915 0.33329619927 0.33332021689 
0.33327025189 0.33334321386 0.33336219898 0.33332732021 0.33363442836 0.33376255147 0.3330231619 0.36108074224 0.34658914966 
0.34009392048 0.3314051103 0.34738499735 0.32614122215 0.32135206495 0.33442568856 0.31783352972 0.31510474251 0.32562671503 
0.31226730437 0.31063643651 0.31937866846 0.30878645906 0.30815175752 0.31508153663 0.30696631288 0.30639203825 0.31217844208 
0.30570973851 0.30573072194 0.31042200325 0.30533138193 0.30579929726 0.30946552304 0.30564142235 0.30623836331 0.30901732712 
0.30639652523 0.30710491521 0.30916311953 0.30729465984 0.30819078784 0.30964522927 0.30848340581 0.30938467286 0.31017695265 
0.30975040407 0.31070698051 0.3108882458 0.31111616124 0.31200734253 0.31175472125 0.31236907022 0.31323378473 0.31258721757 
0.31352450954 0.31423715722 0.31330054829 0.31437789364 0.31499017275 0.31376917898 0.31497996241 0.31521155071 0.31384273363 
0.31503018105 0.31516915401 0.31369495065 0.31479620899 0.31466236622 0.31320920401 0.3141590114 0.31362367736 0.31238561015 
0.31299204842 0.31208733601 0.3112119214 0.31139507217 0.31018629902 0.30975718458 0.30948042416 0.30808022621 0.30822716863 
0.30734390395 0.30587012684 0.30675645004 0.30513576003 0.30364353781 0.30532694925 0.30283829897 0.30182088886 0.30377391713 
0.30176804969 0.30161286558 0.30280898068 0.30267587619 0.30346508158 0.30413033864 0.30511342827 0.30621771624 0.30683870841 
0.30827627053 0.31024169371 0.31059050823 0.31222560654 0.31426055158 0.31457840681 0.31605280287 0.31815021066 0.31829645132 
0.31959035414 0.32147885606 0.32149795642 0.32270514197 0.32435088107 0.324139116 0.32536038527 0.32672866696 0.32640549576 
0.32750042133 0.32860465581 0.32814666539 0.32913827656 0.33000396953 0.32947282949 0.33056978916 0.33128386 0.33062282719 
0.33171395945 0.33215330877 0.33159067584 0.33252575084 0.3328619128 0.3324162752 0.38474525344 0.39335401766 0.36880473643 
0.33447506985 0.33376970628 0.3339198683 0.33383410693 0.33397328529 0.33344627183 0.33384852422 0.33375657512 0.3332075861 
0.29573633031 0.28738330077 0.34658958064 0.38369951415 0.34935273178 0.32847752669 0.32674333899 0.32530348679 0.32304735605 
0.32535011207 0.32109775983 0.31880362131 0.32264732612 0.31728203392 0.31555933358 0.31558942505 0.31473236676 0.31911278769 
0.31621102779 0.31705112985 0.32096613564 0.31903702658 0.32149735081 0.32467948397 0.32340274526 0.32836333827 0.32895027468 
0.3317802656 0.33100735092 0.35848590673 0.37183953423 0.4487791017 0.41598482853 0.3777106922 0.35586365738 0.34451256513 
0.34197739267 0.33303130059 0.35191526321 0.33723669058 0.33608617681 0.34483590797 0.32676258649 0.32872526888 0.34011847369 
0.32311643715 0.33061489805 0.33349243891 0.31834304754 0.3097106997 0.32955297139 0.30754350691 0.31266456382 0.32623793464 
0.32052839069 0.31606694628 0.32506831306 0.3166766897 0.3176126254 0.32597779862 0.31370727226 0.32065048551 0.32502561698 
0.31081168913 0.30440224028 0.32239367687 0.30414509269 0.30928869134 0.3211601733 0.31920451415 0.31320281422 0.3222887045 
0.3166640211 0.3150138643 0.32441399536 0.31618299156 0.31721265504 0.32345901027 0.3156175418 0.31826221459 0.32583150879 
0.3141310249 0.31192380506 0.32596601762 0.32121792183 0.32068311858 0.3285660566 0.32863994848 0.32573162483 0.33288203761 
0.33246820245 0.33175251522 0.33586242781 0.33898452608 0.34495098502 0.3426382839 0.34720736361 0.34859381246 0.3514648321 
0.36346210056 0.32858762436 0.33856804897 0.3406885019 0.35348412311 0.34613695937 0.33501018684 0.30886425278 0.31492310346 
0.30167585419 0.30690205313 0.31077577748 0.29521251266 0.30000479262 0.30401579279 0.28962588779 0.29445151779 0.29820089133 
0.28384846431 0.28927638518 0.29299627466 0.27724937372 0.28342015257 0.28773862583 0.26897986908 0.27692359528 0.28215232265 
0.26139334479 0.27014807102 0.27735454686 0.28142104328 0.26857971267 0.27994827322 0.30031809318 0.29487436093 0.3334801739 
0.33357927634 0.37052913679 0.39915338308 0.25167258642 0.25722962971 0.25633760685 0.26428258895 0.26504012935 0.2657361954 
0.27257500796 0.27134319131 0.27495891693 0.28003897123 0.27869009928 0.28185061082 0.28653968464 0.2850225836 0.28819426644 
0.2929177557 0.29131791118 0.29496555953 0.29980099996 0.29783875531 0.30266679622 0.30790650113 0.304790975 0.31163572057 
0.31726629369 0.31260474321 0.32223597501 0.32953227872 0.32159005668 0.33458402126 0.34532909489 0.33125135476 0.3486392526 
0.36053942469 0.34209175664 0.33284522166 0.332294413 0.33213302128 0.33060354552 0.33930004868 0.33418825567 0.330537866 
0.32932558677 0.32732276341 0.32881939621 0.37076220072 0.40226335667 0.31767846794 0.32518807985 0.31809734452 0.27221185041 
0.25234646034 0.26892587247 0.35037491889 0.3216588861 0.33297883574 0.33298464728 0.33287670423 0.33341602627 0.33356386218 
0.33352349157 0.3334022041 0.33342615611 0.33343606437 0.36735964652 0.29243592 0.29685309378 0.30069963104 0.34957671111 
0.36061640169 0.369712717 0.31997055671 0.33030110296 0.33716862927 0.31057931043 0.36847721488 0.38981032919 0.37532688885 
0.35734807577 0.36780151601 0.32628668001 0.34158704416 0.34218736549 0.34791320851 0.29910013116 0.3124149568 0.4236195738 
0.38664639285 0.35503716035 0.38423561129 0.40888104209 0.41250574377 0.35809729554 0.40746095216 0.31503147218 0.33319680002 
0.33340204029 0.33355643706 0.33374821082 0.33351958412 0.33389804696 0.3340539215 0.33395789951 0.33415338409 0.33423550539 
0.33434356633 0.33428786283 0.3343041458 0.33454910167 0.33427708296 0.33423365534 0.33458900008 0.33417283642 0.33406117047 
0.33446173035 0.33397191899 0.33384646198 0.33424164283 0.3337370728 0.33361517946 0.33393508804 0.33350826612 0.33339070496 
0.33363352538 0.33329077698 0.33319038173 0.33335489376 0.33310447889 0.33303164024 0.33309780723 0.33298336458 0.33295019201 
0.33290198914 0.33292577226 0.33291179393 0.33281157015 0.33288773337 0.33288691579 0.33276246739 0.3328762039 0.3328887339 
0.33273422094 0.3329103359 0.33294512681 0.33275877306 0.33298400826 0.33303301075 0.33284508905 0.33308308354 0.33313916907 
0.33297203407 0.33319726834 0.33324533407 0.33311424653 0.33285047962 0.33303444799 0.33307377536 0.30867704971 0.30033364286 
0.33257797908 0.33274703938 0.33265091062 0.33220493089 0.34322188975 0.33708091889 0.33351497311 0.32959485159 0.33811345164 
0.32699759995 0.32373396169 0.33176371842 0.32163386914 0.31952254159 0.32666191443 0.31787189193 0.31647083093 0.32264124111 
0.31540098797 0.3146127335 0.31978113034 0.31356039821 0.31316997535 0.31762204122 0.31255386299 0.31242247905 0.31602809225 
0.3121221964 0.31230757161 0.31523168241 0.31199081305 0.31221093706 0.31462287363 0.3119755031 0.31223553365 0.3140944714 
0.31215912949 0.31253324044 0.31380990913 0.3124686824 0.31287575258 0.3136904968 0.31281905675 0.31317627307 0.31359091683 
0.31304614105 0.3133310694 0.31345505017 0.31310346213 0.31317234277 0.31308978296 0.31280080519 0.3127889924 0.31243576107 
0.3122562563 0.3121150378 0.3115100241 0.31149277339 0.31122677971 0.3103507212 0.31053392412 0.31013378448 0.30908273061 
0.30932851522 0.30869154956 0.30760121052 0.30802683554 0.30730289926 0.30608410608 0.30682056114 0.30609228379 0.30483002939 
0.30592941818 0.30524905443 0.30402675695 0.30520211431 0.30461550936 0.30407956743 0.30451509105 0.30410990695 0.30427155659 
0.3037846046 0.30434533216 0.30415251553 0.30539108469 0.30652992167 0.30542355401 0.3093697842 0.31060443223 0.30977018541 
0.31325664844 0.31482292425 0.31529179628 0.31704543097 0.31875003342 0.31973595735 0.32066324139 0.32223358899 0.32340111403 
0.32365173454 0.32497789217 0.32635614138 0.32586362513 0.32711041071 0.32837934679 0.32757306625 0.32861790833 0.32962746174 
0.32883423073 0.32968626345 0.3303125044 0.3298311161 0.33048573892 0.33077348015 0.33073935037 0.33132483051 0.33128658358 
0.33152240772 0.33198825112 0.33224849197 0.33179191419 0.28457545984 0.27405803191 0.29814309231 0.29139930777 0.29461712482 
0.33334573553 0.3333038654 0.33308094014 0.33292505066 0.40590867856 0.33247007535 0.332264125 0.36256943031 0.35810971421 
0.36455018605 0.35686297381 0.35292943985 0.36467384714 0.3233896302 0.32270308499 0.3291493637 0.32803493976 0.32501941855 
0.32668894664 0.32916289209 0.33169521932 0.33272065582 0.33270902409 0.33565897494 0.33654670719 0.34796206326 0.33361264639 
0.34622873789 0.35601891476 0.32424120658 0.32878239045 0.39524117435 0.37448460878 0.35562037568 0.3570578245 0.32152430086 
0.32127678662 0.32238400975 0.34574224691 0.34343220508 0.34089119423 0.33795663594 0.34419642936 0.3356510464 0.33385322221 
0.3389507609 0.3320058353 0.32895615655 0.33528528996 0.32702240278 0.32638839296 0.33222943558 0.32578377218 0.32617120972 
0.32988814668 0.32571182536 0.32599873022 0.32856858211 0.32571081988 0.32483728794 0.32821605756 0.32449690129 0.32276092431 
0.32734449841 0.32175189041 0.32211587235 0.32663040973 0.32237276942 0.32354227263 0.32596837446 0.32399869811 0.32459917838 
0.32642588745 0.32506206761 0.32551123749 0.3274975046 0.32573327699 0.32596194242 0.3281909672 0.3266626604 0.32648245238 
0.32908037864 0.32765760958 0.33015472992 0.33079869354 0.33133801044 0.33355728975 0.33328657854 0.33544623567 0.33828524189 
0.33694738676 0.34075934023 0.34496414367 0.34165725219 0.34803272385 0.35369400915 0.3541606845 0.34783225444 0.29968255833 
0.30232823294 0.31109413017 0.31468926386 0.29600154192 0.29825211036 0.30200106896 0.29128278556 0.29385168724 0.29858841669 
0.28704592968 0.28957782411 0.29475251888 0.28725754066 0.28710387917 0.29291446847 0.29796392134 0.28966748788 0.29693809634 
0.31788464187 0.31244535792 0.364913086 0.37746903656 0.35305421032 0.38429935729 0.39429747367 0.27536441642 0.27857031762 
0.28022625574 0.28362014838 0.28368684838 0.28587348914 0.28891282314 0.28778563877 0.29152331372 0.29461463762 0.29256537124 
0.29766062821 0.30094198704 0.29796125963 0.30415755005 0.30782063116 0.30383546674 0.31151713546 0.31586203391 0.31014656028 
0.31962464317 0.32460366694 0.31716016384 0.32805493639 0.33378701693 0.32445437861 0.33589208545 0.34088100489 0.33968052682 
0.33129269705 0.33569921677 0.33913257882 0.33924187399 0.34013875584 0.33855985004 0.31765134062 0.32154353242 0.32163593594 
0.31634928004 0.34877133046 0.32489982164 0.32411962995 0.32182529865 0.32230288166 0.32686666833 0.32280155554 0.30500976235 
0.30808397011 0.31091662522 0.30578508776 0.32176302657 0.31175372802 0.35107481811 0.39323804852 0.39484640529 0.2744089235 
0.2744452578 0.28065341342 0.28274625714 0.33329041716 0.33335544696 0.33340731897 0.33290877935 0.3142298984 0.3334054471 
0.33216871445 0.3457302203 0.34336491471 0.33859251653 0.33342961803 0.32304914106 0.31199806224 0.30586632997 0.3260842321 
0.3253182616 0.32349616249 0.32598187172 0.32724532015 0.35615526572 0.3679985613 0.33158314316 0.31964457662 0.32029267035 
0.37943393867 0.38077376218 0.34199938519 0.33007452256 0.36160286847 0.33104233632 0.3359606312 0.33375656919 0.33325066836 
0.34785412343 0.30578078597 0.36757680332 0.37818491297 0.37147143502 0.33167739374 0.33029800085 0.32982600473 0.32801776942 
0.32637206113 0.33325346095 0.30348026129 0.30018151993 0.35121517662 0.37861292462 0.30175474283 0.3273740075 0.33410521051 
0.33445553082 0.33468356271 0.3349495483 0.33491286178 0.33513103763 0.33524656676 0.33547786775 0.33533609182 0.33527722597 
0.33581167161 0.33516786409 0.33500593199 0.33575134267 0.33479684044 0.3345656771 0.33533168012 0.33434292771 0.33409447836 
0.33473943859 0.33387968645 0.33364533501 0.33415319132 0.33343088044 0.33322398058 0.33358860171 0.33304011596 0.33286575149 
0.33308717556 0.33273735284 0.33264548021 0.33267213203 0.3325749386 0.33254285011 0.33241727729 0.33254452529 0.332520978 
0.33234161241 0.33244967205 0.33244352373 0.33226949914 0.33246044215 0.33251579337 0.33222556973 0.33261326821 0.33269705067 
0.33235866133 0.33274000256 0.33284607387 0.33257701914 0.33299224188 0.33310137996 0.33282916823 0.33632752921 0.33897404832 
0.33195419363 0.33138109724 0.28884680105 0.29025591011 0.33243411888 0.3430861071 0.33824539816 0.3369487286 0.33343211665 
0.33895168526 0.33218102872 0.32926394518 0.33484170872 0.32779927884 0.32572521578 0.3313527382 0.32441408159 0.32302192317 
0.32818338907 0.32190753614 0.32075597559 0.32553515541 0.31928419171 0.31870874699 0.32291055576 0.31853104062 0.31822153092 
0.32138400116 0.31749928703 0.31716338467 0.32047000788 0.31649679848 0.31623412029 0.31905857962 0.31559018614 0.31547689229 
0.31778950171 0.31496266312 0.31485501211 0.31663356569 0.31445763138 0.31436818757 0.31577050955 0.31388213967 0.3137176296 
0.3148711406 0.31310690863 0.31281304356 0.31375613775 0.31198371332 0.31160516918 0.31229640102 0.31064300032 0.31015643731 
0.31053467193 0.30906448615 0.30858199756 0.30848998973 0.30752589021 0.30700693838 0.30639024382 0.30573473678 0.30509666629 
0.3041661888 0.30386411365 0.30334710285 0.30178169808 0.30278431643 0.30239338537 0.29996917684 0.30198389801 0.30208973314 
0.29890401612 0.30188515444 0.30221344649 0.3036253634 0.30385079712 0.30392500712 0.31449302526 0.32201306831 0.32391533273 
0.32666444147 0.3281683778 0.33003949602 0.32929888342 0.33057140566 0.33333108567 0.33088553916 0.3317898539 0.33453298043 
0.33176947625 0.3323257842 0.33462412798 0.33191072436 0.33220454903 0.33413018101 0.33183065315 0.33208437851 0.33335369362 
0.33189320785 0.33220740201 0.33283771172 0.32504518856 0.32783910492 0.29863792448 0.29357320793 0.35129444725 0.34449872495 
0.34376951071 0.34885315777 0.34659899561 0.35276784034 0.31766064252 0.31540851183 0.30280035722 0.30437862176 0.3253489924 
0.32392405445 0.32756704952 0.33090531174 0.33960665586 0.34171356485 0.34388407401 0.36334206104 0.35033677785 0.32230306698 
0.32279285658 0.33279645064 0.33249341821 0.34348221403 0.35103636991 0.37150259946 0.37464315321 0.34068870326 0.33845606361 
0.33745774291 0.33600294897 0.33988218455 0.33499127425 0.33379564441 0.33806717978 0.33263576222 0.33187073541 0.33609594444 
0.33112399211 0.33088760729 0.33431809765 0.33082783513 0.33048647702 0.33351762476 0.33050653604 0.33018590017 0.33346709349 
0.32970759169 0.32925365424 0.33312745744 0.32838968706 0.32838316126 0.33175703099 0.32926668268 0.32963168124 0.33172979663 
0.33000734179 0.33037950124 0.33286151567 0.33065562409 0.33097042357 0.33342784531 0.33128353603 0.33179289331 0.33399425085 
0.3324342165 0.33344558053 0.33501956178 0.33433806469 0.33570096677 0.33641762631 0.33688331902 0.33889576039 0.33846143152 
0.34046403595 0.34293381959 0.34124131809 0.29967096191 0.30119002292 0.30590784154 0.3061170927 0.30711285806 0.30865952542 
0.29950724145 0.29871780599 0.30368311126 0.3072883159 0.30335184563 0.3074505329 0.32213633607 0.32231462137 0.32118629803 
0.35519131884 0.36170151819 0.34762904366 0.37852025346 0.37195322206 0.37334306663 0.36767860991 0.36189263778 0.36633188673 
0.36053108583 0.31271248962 0.30767629917 0.31211767504 0.33376373733 0.33828686016 0.33002730562 0.29087102413 0.29288947757 
0.29412338229 0.29476577628 0.29710920424 0.29646365794 0.29910354026 0.30189061766 0.30009748806 0.30427461593 0.30722133082 
0.30413793889 0.30971432459 0.31317561393 0.30891537047 0.3158724572 0.31958214969 0.31408425123 0.32186016169 0.32592004177 
0.32495778127 0.31974629258 0.30502333347 0.34590941538 0.33340170539 0.33375958348 0.334085681 0.32429410075 0.3327148231 
0.33305057999 0.33320941771 0.33238734988 0.32295881605 0.31862408806 0.32102072656 0.33378702889 0.34291358904 0.33027229702 
0.33728183958 0.33303456179 0.33276828439 0.35590878767 0.36183458798 0.34271103044 0.33987710879 0.33637916503 0.33596735211 
0.32986708594 0.3432533334 0.32700435473 0.3233741771 0.32290582669 0.32065844746 0.33213720286 0.29624582906 0.29031527844 
0.28633254539 0.29653533209 0.33316949486 0.31672511923 0.31133898597 0.31412455958 0.32216454827 0.32276831006 0.30947306098 
0.31193117913 0.44320294205 0.55325187458 0.32704297488 0.32933161744 0.33235381103 0.32169049731 0.32146501804 0.34372074901 
0.34052906507 0.33268133613 0.32211615 0.3187916827 0.3607625018 0.35306891683 0.33194803277 0.36878165647 0.36608964792 
0.36435629714 0.34712972108 0.35259662696 0.34528330356 0.3226776012 0.32214027564 0.31916023561 0.32003002209 0.32622036964 
0.32467665403 0.32751848539 0.31609315365 0.3189844772 0.31937619462 0.31562139392 0.31913651207 0.35394678567 0.34224578769 
0.32309953872 0.32436370768 0.3419318476 0.3406492801 0.33949029604 0.34165500897 0.32823193683 0.33080108158 0.33756851871 
0.32789619936 0.28716861838 0.28778771539 0.292717829 0.29177496179 0.36381072886 0.31966948912 0.34507467374 0.33519778334 
0.33573915689 0.33601683857 0.33637353405 0.33641349561 0.33677326495 0.3369421994 0.33744196904 0.33690608343 0.33668014853 
0.33780515237 0.3362936558 0.33587834444 0.33722700289 0.33537131507 0.33495008017 0.33619144099 0.3346473484 0.33423073393 
0.33505742266 0.33381916328 0.33343889085 0.33416435707 0.33308073029 0.33275333748 0.33323310683 0.33249090287 0.33228270508 
0.33246727215 0.33213590584 0.33205663643 0.33196860894 0.33198086653 0.33201198203 0.3317218131 0.33190500124 0.59079165818 
0.54491327276 0.33183506307 0.33187454529 0.33157007467 0.3320069013 0.33216829985 0.33166572733 0.34619143822 0.34996701986 
0.32107238885 0.32084546552 0.32655735072 0.32909635257 0.3380856346 0.33595998529 0.33519180674 0.33298171408 0.33697092581 
0.33209555817 0.33027785664 0.33474710668 0.32919833932 0.32780227179 0.33218020617 0.32639196681 0.32482470303 0.32945791144 
0.3246388013 0.64081966667 0.57167904663 0.32389245683 0.32308019534 0.32713469979 0.3215957682 0.32088096374 0.32475644293 
0.32030960117 0.31959382047 0.32268814479 0.31834505095 0.3177744532 0.32065532579 0.31725794081 0.31676577205 0.31895767588 
0.31600574826 0.31540837159 0.31758361102 0.31445498369 0.31375064622 0.31576624629 0.31258670835 0.31171042207 0.31359306374 
0.31040111856 0.30947824703 0.310999772 0.30750790181 0.3065299044 0.30776223496 0.29884582735 0.29765841754 0.29679900767 
0.29634248737 0.33344299337 0.33532127237 0.33842345691 0.33902997105 0.34304315629 0.33755143285 0.33803119792 0.34294896908 
0.33772386311 0.33779984757 0.34134220946 0.33647613552 0.33615823804 0.33938934315 0.33500640705 0.33463437425 0.33691735123 
0.3417688812 0.3218815056 0.32017695646 0.33326075889 0.30752129227 0.308515792 0.34588393963 0.34547865949 0.32322405454 
0.3230135089 0.36248395184 0.35501837277 0.34735198923 0.34881603225 0.35000410588 0.32253675973 0.3307500424 0.32950833333 
0.3512865523 0.34214673354 0.34073449722 0.34349632623 0.30966570797 0.31089514605 0.31227261649 0.33929167354 0.33860895342 
0.34084272553 0.33827585095 0.33762702042 0.34062044458 0.3362945389 0.33576860814 0.33913759293 0.33552888905 0.33548788468 
0.33810797923 0.33634790278 0.33645673399 0.33866398875 0.33644436806 0.33611456946 0.33975413048 0.33489909896 0.33411031923 
0.33852479905 0.33481691107 0.66337097018 0.67241027164 0.33571988008 0.33589351529 0.33814460786 0.33577319133 0.33587316629 
0.33886779264 0.33580247565 0.33598218525 0.33849321015 0.33639799592 0.33678864763 0.33863895816 0.33712741659 0.33771366191 
0.33917234952 0.33810870516 0.33908783191 0.33952808024 0.3397169673 0.34111595332 0.3414850962 0.34026955743 0.31183312696 
0.31292980695 0.31412013249 0.33985350151 0.34473345276 0.34090806408 0.33215300482 0.33152813824 0.35560921249 0.35445366153 
0.35188936496 0.3470100392 0.33189786609 0.33616623469 0.33480800372 0.32847743056 0.34849198941 0.35151572936 0.30238513548 
0.3040650314 0.30908242768 0.31138578259 0.31336509285 0.31599742209 0.3125184687 0.33879638113 0.33394066353 0.33459388883 
0.33522473186 0.33365444301 0.35921208931 0.36243556829 0.33252008452 0.30177418145 0.29748367821 0.2976587931 0.30285215729 
0.3286487803 0.34653757129 0.3520619675 0.35405904274 0.33106785955 0.31926475228 0.31794623486 0.34824877769 0.33432443299 
0.33882483871 0.33634175318 0.34812033733 0.33987632804 0.34904832761 0.3050460109 0.3041224784 0.3322507176 0.35980226608 
0.31643206502 0.31567838108 0.33504147064 0.33385214099 0.332699763 0.31885166101 0.31888098142 0.32454647703 0.32577899785 
0.34542045204 0.3428763685 0.32456064819 0.3231731785 0.32199040535 0.32807418681 0.32649104902 0.32888916633 0.32205093357 
0.32442578622 0.32401567086 0.30125031051 0.31589036301 0.31819659763 0.34123707833 0.34168857319 0.34032818744 0.34365945031 
0.31779530594 0.3491511026 0.35364669317 0.31537650977 0.31764981793 0.35803721723 0.33197756774 0.34393421692 0.31711795971 
0.32276856806 0.3209634558 0.32181705627 0.31397570269 0.29915958633 0.30087103224 0.33900236283 0.30494324568 0.30719159422 
0.3164512796 0.31764223695 0.32048654172 0.30891630217 0.35051925058 0.35407292639 0.3393354583 0.3394080578 0.33693952039 
0.33616313876 0.33563314662 0.67624533874 0.68062758042 0.33469826569 0.33401732339 0.3357563164 0.33337708756 0.33283345837 
0.33375893063 0.33229889168 0.33189040202 0.33233831121 0.33157097546 0.33139889995 0.33140494071 0.33138423242 0.33132152754 
0.33097351753 0.33226205243 0.30392234487 0.33763118146 0.33612990576 0.33512799047 0.33364587913 0.33754306661 0.33337507097 
0.33165121966 0.33580077925 0.68295858845 0.68579063768 0.33438254753 0.33833051698 0.33708366017 0.33080270816 0.32987848907 
0.32786904422 0.326224508 0.33150168721 0.32560370536 0.68345525103 0.5960741983 0.32301213251 0.32158421221 0.32658967845 
0.31950225183 0.31856508846 0.30817758867 0.30594852616 0.33792808891 0.34132422894 0.34519421944 0.34195543437 0.34090759011 
0.33876243026 0.3375691165 0.34069345274 0.34699673097 0.34450056117 0.35663810023 0.35696295642 0.31852675008 0.31713326352 
0.32563201721 0.32809160371 0.331345634 0.34124297093 0.31401426253 0.33616859779 0.35314729052 0.35116868425 0.31011764653 
0.33727652858 0.31156638786 0.34537195766 0.34602229795 0.33354404149 0.33574437429 0.67751156083 0.67407414255 0.34126096488 
0.34202495207 0.66839288791 0.66534033894 0.34177905358 0.3413823235 0.34516486089 0.34032667146 0.34000238394 0.34350402021 
0.33981161702 0.33967653885 0.34200057704 0.33996003976 0.33970029558 0.34129058333 0.33879733993 0.33911778891 0.33920594438 
0.31089732571 0.34266982363 0.35742064242 0.32020580472 0.31892818229 0.31334216329 0.31301561331 0.31450468951 0.3146036005 
0.31552193298 0.34289959994 0.34066176859 0.33760812573 0.33682350324 0.33843092676 0.65598958378 0.57959534517 0.33049683241 
0.3388816728 0.32089784321 0.31718527964 0.31607419706 0.31646479273 0.34545313821 0.32559714569 0.33780671553 0.34593840863 
0.34949714098 0.33088394958 0.33121221825 0.35268999278 0.32198336987 0.32018385895 0.64786533047 0.59283082609 0.34355793582 
0.34242319387 0.31930412444 0.68062906072 0.68728471484 0.33651219001 0.33865794877 0.34034053879 0.34031482897 0.34123608916 
0.34259172343 0.34276972176 0.34242025857 0.3936985492 0.34580674255 0.33901370669 0.31935545279 0.33995515222 0.32481608114 
0.32728735365 0.31635334218 0.34033125242 0.32232797917 0.33477265312 0.33353719628 0.33205634797 0.33857544329 0.33889177359 
0.33817886172 0.33273710433 0.33193438355 0.33085769655 0.33043263644 0.33083424908 0.32774304957 0.33052473765 0.32984619683 
0.33109112958 0.31630416313 0.3397090126 0.33822421324 0.34031129449 0.33086523978 0.32992147578 0.32861826631 0.33019333008 
0.32380155417 0.32556616354 0.32579310907 0.34114131159 0.3450170046 0.32314116216 0.34820179851 0.34754371788 0.340109631 
0.31791021671 0.31966998062 0.32126756526 0.34683089798 0.34852388489 0.34313239184 0.34513979592 0.3302524718 0.33045545912 
0.34936107342 0.33997341115 0.33897244049 0.3349887339 0.33401698876 0.33345143724 0.3383681018 0.33194613702 0.32333479436 
0.32248831667 0.34126456546 0.32492449918 0.32543697564 0.3429665397 0.32956548731 0.32842046286 0.33780917435 0.34384030828 
0.34316298833 0.32687727975 0.32834943282 0.33031649113 0.33040041665 0.33020507089 0.32874453883 0.32698889655 0.33333500897 
0.33319213685 0.33320804585 0.33327451345 0.33325243848 0.33311499408 0.33331883906 0.3332987942 0.33324946439 0.33336402479 
0.33334306781 0.33332955076 0.33341762271 0.33338976869 0.33339924132 0.33343416552 0.33343223851 0.33345255279 0.33343300048 
0.33342900213 0.33348218481 0.33341617183 0.33342811076 0.3334651352 0.33338751204 0.33340543244 0.33344108683 0.33335579181 
0.33336176622 0.33339233884 0.33332688754 0.33333388775 0.33334815524 0.33329875555 0.33330579364 0.33331314259 0.33328147799 
0.33328755514 0.33327843791 0.33328024933 0.33327628312 0.33325546999 0.33327907685 0.33327809853 0.3332506505 0.3332850059 
0.33327801526 0.33326116064 0.33329700904 0.33329100387 0.33327100166 0.33331204055 0.33331003599 0.3332940597 0.33332806345 
0.3333250621 0.33331516894 0.33335004793 0.33334305461 0.33334219835 0.33335300921 0.33335601565 0.33337310854 0.33334400003 
0.41201952176 0.38314450793 0.42146037555 0.33587929026 0.35581759904 0.37553661534 0.31433186224 0.32202832278 0.34040744591 
0.30364734045 0.30724920534 0.32023061763 0.29899145308 0.30041348926 0.31026013085 0.29725853159 0.2974948172 0.30559549626 
0.29696215389 0.29650705663 0.3033275576 0.2980263586 0.29703110292 0.30257142579 0.29964593962 0.2984327037 0.30297319794 
0.30163328936 0.30009694568 0.3037310702 0.30426789744 0.30254468765 0.3050875849 0.30724199479 0.30538291687 0.30707806771 
0.31032193214 0.30839909411 0.30926830438 0.31311312132 0.31135928068 0.31142129261 0.31568855659 0.31412293132 0.31338852123 
0.31754744165 0.3164028621 0.31501690281 0.31875261844 0.31796186971 0.31605131814 0.31887200283 0.31870600688 0.31648260743 
0.31794896985 0.31845864717 0.31593589031 0.31592009269 0.31713828704 0.31469154874 0.31236909447 0.31463141038 0.31265084727 
0.30786417553 0.31093795219 0.31007728339 0.30265898883 0.30598122727 0.30672464912 0.29800945837 0.30080960186 0.30299255441 
0.29632897367 0.29719643356 0.30038803654 0.29815727714 0.29696781788 0.30022292814 0.30253987016 0.30002662384 0.30316463753 
0.30831578374 0.30502862746 0.30766876954 0.31427848265 0.3110238767 0.31288563346 0.319273317 0.31649681834 0.31770189556 
0.32357901382 0.32121800993 0.32182046213 0.32714758388 0.32527126061 0.3254100164 0.32969941922 0.32832587494 0.32810814349 
0.3315346919 0.33063596801 0.33021004965 0.33263855492 0.33214176993 0.33170745728 0.39560561024 0.33349701625 0.33342101206 
0.33376703379 0.33358903008 0.33356409085 0.33413209958 0.33386909374 0.33376121941 0.33463916348 0.33430215704 0.33400146271 
0.33533820284 0.33490217966 0.33437766249 0.33637449769 0.33581954022 0.33629001225 0.33625402519 0.33410342355 0.33414710052 
0.33562198361 0.33319473827 0.32925449373 0.33247048467 0.33090882699 0.32219894619 0.32656019089 0.32685987115 0.314548672 
0.3192898115 0.32169869372 0.30733115827 0.31171972203 0.31635270948 0.30201285734 0.30529882141 0.31183492445 0.2991528564 
0.30086038544 0.30909701003 0.29917308056 0.29919400269 0.30841141287 0.30263380009 0.30066459728 0.31013771222 0.31075825757 
0.30719631692 0.3160662897 0.35491891154 0.34044089968 0.42518070382 0.37325057824 0.37425293154 0.4467782499 0.36542700329 
0.37714889861 0.33646488459 0.34221507343 0.37258438281 0.31475651694 0.32890781262 0.34466004711 0.30632973744 0.32330459351 
0.34523057133 0.30138947814 0.30729881205 0.3456782407 0.30894215166 0.30240619576 0.3367402658 0.28846156505 0.29195583781 
0.31992973974 0.29086811781 0.30443578941 0.31703602409 0.29028104771 0.29142180563 0.33047696804 0.30035828261 0.29205969427 
0.32830276507 0.28751775214 0.28580804191 0.3155980085 0.28983260951 0.30049158706 0.31526183743 0.29034563911 0.28874785064 
0.32896505133 0.2916587933 0.29042449686 0.3287575552 0.30080362557 0.29144847671 0.33136531446 0.29970748595 0.30126945718 
0.32734527694 0.30422546302 0.29684716302 0.33528136536 0.31310312089 0.30273255438 0.33832241972 0.33565457679 0.31219341392 
0.34592409922 0.35588417803 0.32684209362 0.34435713848 0.40217893116 0.38693739553 0.36193446232 0.34011980287 0.34687919953 
0.32432147781 0.31845805533 0.33224849535 0.30762298662 0.30804930778 0.31977897606 0.30037931868 0.30116352863 0.31055220855 
0.29531579251 0.29430434766 0.30323503046 0.28831012078 0.29043982503 0.29742650581 0.28398586372 0.2845319501 0.29232910647 
0.27870117294 0.27951069518 0.28733358381 0.27467320247 0.27214306557 0.28191543535 0.26566516533 0.26177753278 0.27436808255 
0.25616289478 0.24939664902 0.26390509284 0.24741932912 0.2255259778 0.24954427116 0.22017873873 0.22687698856 0.24790351591 
0.3979188189 0.53117353676 0.21648062779 0.19180595856 0.23487485567 0.21163124139 0.23471728852 0.24646274902 0.23436598963 
0.2405418944 0.25738377981 0.25715389481 0.25485355087 0.26864268974 0.26535371763 0.26634270619 0.274291447 0.27413263418 
0.27622053043 0.2821482969 0.28229982486 0.28365844272 0.28635007301 0.28641654751 0.29009191253 0.29259064464 0.29295713508 
0.29626293168 0.30059120189 0.30100610567 0.30414493155 0.31474921151 0.30888367073 0.31270728361 0.3257015057 0.32291348706 
0.32006736052 0.36446032017 0.34671770324 0.33513156158 0.42152917146 0.40084748621 0.35428436163 0.40466518726 0.50414096376 
0.33319504205 0.33337101146 0.33300311402 0.33424179612 0.33565461851 0.33515157316 0.31864384822 0.32755671973 0.44652894823 
0.32816018943 0.44062259201 0.55906273845 0.52701191337 0.38507514401 0.35861123276 0.29637873109 0.30307614633 0.33481414002 
0.28785538523 0.28773330319 0.3952498429 0.39483868669 0.3383288447 0.34553589561 0.33269021467 0.37452536398 0.33318307984 
0.33307411703 0.33294167432 0.33276329348 0.33236833169 0.33282100304 0.33364487608 0.33350996669 0.33383733477 0.33374387564 
0.33384992496 0.33388211488 0.3338707588 0.33407832516 0.33382360701 0.33387111521 0.33412200009 0.33369578307 0.33377972072 
0.33400890354 0.33353613941 0.33361520087 0.33380679331 0.33336923985 0.33345188645 0.3335670246 0.33321997497 0.33328528173 
0.33333422574 0.33311642687 0.33315720102 0.33313114086 0.33305959009 0.33308236893 0.3329934216 0.33305909677 0.33304970236 
0.33293155709 0.33307924503 0.33306350904 0.33293336671 0.33313300043 0.333097051 0.33298224579 0.33320310806 0.33317003884 
0.33306600275 0.33328127516 0.33324321599 0.33317219941 0.33337731692 0.33333233697 0.33329443149 0.33344816581 0.33341925674 
0.33342943413 0.32808741088 0.32970491955 0.32495576921 0.33296352491 0.3393884763 0.35440010211 0.34065222541 0.36104175723 
0.38024182976 0.36283707812 0.35834249475 0.31635919384 0.32033714215 0.32805226847 0.311793653 0.31383050867 0.3206869164 
0.30924661426 0.31027734405 0.31628558799 0.3080943922 0.30819614096 0.31381061451 0.30755926067 0.30728159334 0.31203342179 
0.30766674879 0.3072847532 0.31102086861 0.30856768271 0.30773597054 0.31080648959 0.30981504754 0.30881703068 0.31110404034 
0.31117593893 0.31014584398 0.31174667569 0.31246937899 0.31151857553 0.3123842983 0.31367797623 0.31281308194 0.31302100261 
0.31437614693 0.31378230438 0.31343037596 0.31460890195 0.31424170628 0.31344444049 0.3141800182 0.31423866267 0.31286332487 
0.31302595437 0.31345596252 0.31170344739 0.31145787554 0.31224709858 0.31014324089 0.30953860469 0.31074110621 0.30854154579 
0.30771194011 0.30902821306 0.30723923873 0.30551522619 0.30709873851 0.30625498581 0.30342381581 0.30477595094 0.30508855489 
0.30267275074 0.30306154546 0.30404695021 0.30423331986 0.30359790926 0.30480714513 0.30798918517 0.30657583556 0.30831344967 
0.3126530966 0.3104747742 0.31298767484 0.31751639151 0.31503445167 0.31766113956 0.32129153668 0.31917032574 0.32157082834 
0.32455837125 0.32263274377 0.32458457269 0.32730976297 0.32561202967 0.32695298755 0.32924887444 0.32804673941 0.32878251755 
0.3307974237 0.3298800166 0.33022096631 0.33195138198 0.33134390519 0.33139784845 0.33228103788 0.36883292149 0.35350425026 
0.33380869136 0.33367458234 0.33269314089 0.33281231989 0.33405204571 0.33383788427 0.33351004091 0.31489036372 0.3585663124 
0.33041759815 0.33137757258 0.34623395979 0.33551242295 0.33176512997 0.33227118961 0.33087516917 0.32968666156 0.32477669648 
0.32692528016 0.32621570097 0.32129975453 0.32343675616 0.3240372404 0.31781052747 0.31984228616 0.3155529118 0.31715738738 
0.32004316295 0.31559340486 0.31628509848 0.32025617417 0.31761693674 0.31686705315 0.32240620911 0.32174402012 0.3191980797 
0.3255251909 0.33002784101 0.3237522639 0.32995201093 0.33754439468 0.41301829022 0.38049972803 0.41635401287 0.43758076831 
0.38589078667 0.42156123401 0.33846130134 0.34641367466 0.33253134183 0.33347667629 0.34293328121 0.32719261053 0.32623785342 
0.3362907395 0.31900540098 0.31880900571 0.33037913493 0.31639376704 0.31980282912 0.32839070316 0.31942945368 0.31841218458 
0.32678819532 0.31788736834 0.31818803938 0.32493121811 0.31490863023 0.31322629155 0.32480739739 0.31247400106 0.31676678613 
0.32433907245 0.31682878714 0.31723930602 0.32467831788 0.32024054937 0.32058488452 0.32427247101 0.32033395099 0.31894988723 
0.32545070803 0.31926640463 0.31955847393 0.32822562265 0.32349611333 0.32553962179 0.33086123275 0.3300657295 0.33143525729 
0.33378581609 0.33994793414 0.33641520109 0.33904969297 0.35883209304 0.34328769835 0.34852296735 0.36328197296 0.38554434565 
0.36866257745 0.29510157581 0.30812469668 0.33022888679 0.36603317349 0.34316129057 0.33151542249 0.32840363349 0.32046611297 
0.32808368094 0.31746624605 0.31172274967 0.31993661364 0.30908081775 0.30408022188 0.31265129851 0.30254030631 0.29805334089 
0.30627386097 0.29676227817 0.29218020779 0.30065996025 0.29170464837 0.28682123174 0.29529357904 0.28652679494 0.28091611362 
0.29012794495 0.28071736701 0.27416687242 0.28476976935 0.2745441369 0.26663808973 0.27923729231 0.26996041405 0.2633217901 
0.27515316477 0.26465635232 0.28567982327 0.28191856896 0.28417748455 0.29446762652 0.41981844548 0.42980744377 0.25829510243 
0.26993622616 0.28644086527 0.27221037979 0.2670589468 0.27985209269 0.27408198083 0.27762308627 0.28654647711 0.28163959976 
0.28435676333 0.29279436177 0.28824660962 0.29080901529 0.2995980141 0.29467349598 0.29716509187 0.30770545896 0.30210031127 
0.30416933714 0.31691568865 0.31088452312 0.3120793777 0.33216505382 0.32133734132 0.32110377995 0.3466593899 0.33621238763 
0.33204715273 0.36509620818 0.35072251016 0.34380795186 0.33337411416 0.33325259788 0.33318957126 0.33350744615 0.35695325097 
0.34431794757 0.33815664385 0.35012838452 0.25902384992 0.25353430986 0.27089158081 0.26456138369 0.25980516371 0.26650325004 
0.2715823248 0.35026491959 0.32822234575 0.32182647965 0.35570060531 0.35360972741 0.34714846482 0.37176232558 0.38425830501 
0.33353456832 0.33365234252 0.33186403333 0.33314940109 0.33343805325 0.33357523607 0.33350217049 0.29562971532 0.31364186526 
0.33446612444 0.36420049282 0.40964435615 0.39343504467 0.36770882985 0.40138860175 0.36002726862 0.36989574697 0.39582158088 
0.37064178143 0.3934147519 0.30087270429 0.31385832371 0.31039270707 0.30060953669 0.32905629665 0.33374749391 0.33289212203 
0.33052307471 0.33106412792 0.3346812639 0.33474010152 0.33437482147 0.33408476904 0.33441922352 0.33458198863 0.33503340819 
0.33403507196 0.3342394205 0.33464819863 0.33361795404 0.33383158235 0.33412668093 0.33321001799 0.33341096622 0.3335750884 
0.33290654944 0.33304195281 0.33306981293 0.33270727641 0.33278727757 0.33269345882 0.33263739909 0.33266005122 0.33247969735 
0.33267050519 0.3326386609 0.33241671015 0.33276821847 0.33270762412 0.33247946279 0.33292702056 0.33284001403 0.33263213494 
0.33310427817 0.33302213693 0.3328520563 0.3332645481 0.3331684552 0.33306038563 0.32311991805 0.32374820058 0.32611561408 
0.32704702401 0.3328921275 0.33263817982 0.33224958572 0.28004058642 0.28674934845 0.32973312122 0.33514977503 0.34989374336 
0.35815032613 0.35425500713 0.34573358228 0.31792382784 0.31924723882 0.31584200213 0.3167491035 0.32099151653 0.31453500645 
0.31491468885 0.31882223738 0.31382703949 0.31383936417 0.31716024794 0.31352556785 0.31336173091 0.31601176779 0.31351713931 
0.31325663684 0.31525040221 0.31352289997 0.313281897 0.31470877478 0.31350274152 0.31330690203 0.31423459226 0.31317882645 
0.31316743155 0.31363716559 0.31240593209 0.31259744888 0.31261183882 0.31111355669 0.31148241445 0.31104411774 0.30928268395 
0.30996139873 0.30891834845 0.30722982162 0.30794451454 0.30635079261 0.30555293935 0.30623070569 0.30385477352 0.3046344546 
0.30505606021 0.30210800149 0.30440215081 0.30486079543 0.30194808263 0.30467433349 0.30502510468 0.30312939984 0.30495912189 
0.30460188697 0.30383353736 0.3070580945 0.30629614116 0.30562807044 0.31241226889 0.31086390973 0.31109318171 0.31783522214 
0.31577932226 0.31826116557 0.32265397327 0.32071097069 0.32412398191 0.3260212855 0.32444977838 0.32799422575 0.32806252074 
0.32671016114 0.33001701281 0.3295553365 0.32843590932 0.33092570042 0.33046278867 0.32962197597 0.33136510762 0.33122587478 
0.33054566636 0.33156688762 0.3208113858 0.32288076638 0.32393251844 0.33315399871 0.33319680172 0.3325858882 0.31108406676 
0.31850637321 0.32441229035 0.32529112397 0.32224214278 0.3287390836 0.32715559856 0.32453473622 0.32377132066 0.33003680704 
0.32183940974 0.32211058129 0.3249770855 0.3325671215 0.33001474536 0.33434809544 0.35364361233 0.3764806192 0.33473000365 
0.33457909182 0.3348219663 0.3351559331 0.33418874495 0.33680944112 0.32909392168 0.33028704026 0.32782520289 0.3286826054 
0.33218603326 0.32707376686 0.32755040969 0.33099403428 0.3262840591 0.3264070361 0.33015734259 0.32586928342 0.32609375704 
0.32965838328 0.32577810395 0.32586370612 0.32929048766 0.32654166272 0.32632877214 0.32927698336 0.32779544811 0.32710003987 
0.32994422388 0.32953973103 0.32829934904 0.33119329385 0.33201032472 0.3306578117 0.33312890309 0.3360353238 0.33359757102 
0.33571120767 0.34156838234 0.33776211328 0.33926540062 0.34317763561 0.34449703475 0.31381358414 0.3175233627 0.39370991301 
0.39750578861 0.32380073287 0.31962306289 0.31680904052 0.31319903374 0.31817410186 0.3104477963 0.3076658473 0.31298440246 
0.3049521805 0.30222890406 0.30811186659 0.29985753098 0.29734199121 0.30350445036 0.29537047067 0.29289525102 0.29931857543 
0.29138552569 0.28903326943 0.29582994876 0.28807355695 0.28608469886 0.29313654604 0.28622557181 0.28709077754 0.29255382453 
0.28863591763 0.29807520834 0.29711732828 0.30232774027 0.3105133342 0.30698346461 0.28936019489 0.28596090974 0.28378942164 
0.28088043354 0.28812565736 0.30104288241 0.29779283652 0.3079452772 0.3041627743 0.30390077514 0.3161273848 0.31150069398 
0.31037980967 0.32555622791 0.31972488856 0.31761920355 0.33517273372 0.32880832012 0.32542176096 0.34395291812 0.33792301268 
0.3334326905 0.3833480814 0.36922237702 0.32220064117 0.32269640294 0.32245260749 0.32275207687 0.33820030795 0.34643088594 
0.3475120254 0.33897712993 0.36148653308 0.35046947691 0.3433052927 0.35706125197 0.32489098801 0.32818364658 0.33234785103 
0.32792279165 0.33080795737 0.33238968192 0.33577388178 0.33350360512 0.32557338011 0.33411532664 0.34032002076 0.33091583782 
0.32617628684 0.32349081091 0.29519307369 0.29206951292 0.29327655439 0.29852147907 0.33404483216 0.33372147756 0.3333831678 
0.33717098061 0.33089000848 0.33192531363 0.33227227867 0.32555547055 0.32747488822 0.27555402333 0.28660211826 0.2753476677 
0.33201763314 0.33147691067 0.33200215896 0.33252421207 0.36903060347 0.38358918132 0.3334066276 0.33333172657 0.32832861887 
0.32383449952 0.36392422482 0.3820373803 0.38165315586 0.37063385121 0.35823746449 0.32877588641 0.3296300356 0.32887559062 
0.33296490418 0.33690992665 0.33658002879 0.34268968881 0.33673698682 0.33886859439 0.31890375516 0.32551700514 0.34523934751 
0.34671387575 0.33999227492 0.315314864 0.33958151589 0.39112968866 0.37777755965 0.37189887027 0.34135694254 0.34997757886 
0.34390234588 0.34409358854 0.34928265039 0.31963736627 0.38197456659 0.38093331972 0.29809729903 0.30259229303 0.33743864191 
0.33260337121 0.32913056152 0.33970540072 0.33303048296 0.33301269209 0.28839124142 0.29593160337 0.28454956212 0.2793839039 
0.27699802603 0.37230642144 0.36687613742 0.3602908002 0.30562379501 0.31380394489 0.30005321183 0.2939976945 0.34635218613 
0.3387257372 0.33565025514 0.33590111697 0.33341416005 0.33382486189 0.33276557321 0.33307614171 0.33323303401 0.33229131586 
0.33249082968 0.3324470463 0.33205791597 0.33213823581 0.33193437249 0.33205881849 0.33204332559 0.33174317052 0.33220419397 
0.33211348238 0.33179330787 0.33244103942 0.33230034319 0.33199382114 0.33279819252 0.33263603305 0.33236500108 0.32355333273 
0.32431425583 0.31976184748 0.32152606439 0.31977978543 0.32058425902 0.32181690131 0.32292761826 0.32407369676 0.32413737884 
0.32564452951 0.32664540009 0.318253586 0.31881801038 0.32181158646 0.31702664772 0.31741361151 0.31993840259 0.31599536625 
0.31634696041 0.31836004662 0.31493118873 0.31529979359 0.31686902667 0.31361348944 0.31414663857 0.31529739944 0.31191823043 
0.31264010769 0.31345149633 0.30956548098 0.31045830723 0.3109203023 0.30666490004 0.30773726573 0.30754186059 0.30352258312 
0.30475093555 0.3036899449 0.29997194666 0.30092504089 0.29920433717 0.29774923617 0.2974639998 0.31547124834 0.32470422967 
0.32181803074 0.32581504203 0.32903352827 0.32650564254 0.33223875927 0.33404180731 0.3327897009 0.33678957664 0.33396017984 
0.33318323112 0.33835255288 0.33392032187 0.33343117312 0.33690886758 0.33334047396 0.33315084843 0.33558868343 0.33285756917 
0.33273662071 0.33435665473 0.35259742536 0.362986091 0.32670974323 0.32883796022 0.32922602577 0.3270030464 0.33384774001 
0.33425921182 0.33500185705 0.3353846467 0.3360216908 0.31926665467 0.3196738814 0.33594367721 0.33321289165 0.36295885958 
0.3206943941 0.31791078685 0.3248256381 0.32806818149 0.33991426472 0.3375653549 0.34166802327 0.32785878541 0.32600859285 
0.32485225247 0.32211093546 0.32087914885 0.33311558598 0.33342859259 0.33696727061 0.33314616141 0.3355946015 0.34642554584 
0.33465846752 0.33517744194 0.33778356814 0.33271388209 0.33283584411 0.33645047481 0.33218815542 0.33237280252 0.33589619329 
0.33225757339 0.33215112369 0.3354995805 0.3328547162 0.33251429122 0.33559386156 0.33386338413 0.33327436164 0.33613151103 
0.33540601754 0.33442128956 0.33701850792 0.33752028879 0.33621655273 0.33828476618 0.34076006886 0.33877443255 0.3400319408 
0.30009575723 0.31649864329 0.31883239498 0.37701891841 0.37519300938 0.33803532774 0.34049339434 0.3366233071 0.31640135443 
0.31386514764 0.31725463483 0.31211320345 0.30971622659 0.3140063051 0.30782532436 0.30570879497 0.31067341393 0.30387442626 
0.30208001356 0.30719016692 0.3013908111 0.30027175846 0.30487379296 0.3003830832 0.29978725403 0.30440927791 0.29849900955 
0.2996978664 0.30428274855 0.30002923205 0.30505879387 0.30550757519 0.30911230518 0.31361591139 0.31836652194 0.31194068604 
0.31357401604 0.31011693736 0.30746705597 0.30451667188 0.30947825283 0.3269963851 0.3228471048 0.33329211479 0.32939353776 
0.32653517929 0.30429922509 0.34152460638 0.32180277159 0.32262451854 0.32030982007 0.31630717101 0.32053617716 0.29332681876 
0.29126768994 0.33421070743 0.33461097997 0.3351606927 0.33416765432 0.33441830271 0.2922226633 0.29849863664 0.29882768766 
0.28818534572 0.33659321695 0.33604616789 0.3359937923 0.28221301526 0.34315634121 0.34762817533 0.3456258958 0.32310364721 
0.32494823111 0.33722459377 0.34095487518 0.34158553643 0.32054165804 0.3297405894 0.3307478051 0.32257143259 0.32248671732 
0.33988122784 0.34178381537 0.33673337117 0.33271964293 0.325955875 0.29483851923 0.30144703967 0.30403137645 0.30303698995 
0.35412070482 0.36093032829 0.33252348539 0.33355539596 0.33277102933 0.33235377945 0.3303618861 0.33323680457 0.31759899887 
0.32101775569 0.33332966646 0.33212709551 0.31920130674 0.3207328522 0.33219607198 0.33270340459 0.33379589694 0.35450098106 
0.34500919654 0.36241919821 0.35415109117 0.34483923433 0.33182279701 0.32698330011 0.32825004969 0.32846150667 0.34245184168 
0.34110956784 0.33949947729 0.33583272096 0.33537753183 0.336550053 0.32808020253 0.33105248641 0.32939611157 0.29829126914 
0.29551189457 0.29733784739 0.33761499481 0.3348175859 0.33566241925 0.32537036279 0.32575436016 0.32340960525 0.36636470842 
0.36563443281 0.35781265 0.33524032423 0.34252617842 0.32275948642 0.33962707316 0.32198870717 0.33556995178 0.33477117457 
0.33408106359 0.37242688898 0.31472631295 0.3680741369 0.36746220283 0.35577217033 0.34719690978 0.34060224687 0.32681998697 
0.34110020933 0.33914613826 0.34173989256 0.34311250116 0.324590498 0.36154444432 0.30566203048 0.3030909658 0.30074605327 
0.33287936319 0.35192411752 0.33276356135 0.33333146057 0.33119505302 0.33117762632 0.33145349431 0.33133835504 0.33078258537 
0.32156267025 0.32255296186 0.32616183279 0.32761928472 0.32102178984 0.32209353714 0.33989173559 0.32500252951 0.32311039703 
0.35779008245 0.35366861102 0.33292904761 0.3237010243 0.3248407427 0.32800281132 0.3253472197 0.32896218748 0.33052204304 
0.3309184499 0.31974050367 0.32056235236 0.32307776892 0.31779434572 0.31867762164 0.32086940595 0.31559899169 0.31661147963 
0.3184465568 0.31304282402 0.31428700973 0.3158490216 0.30980151731 0.31137599043 0.31274757619 0.30508277888 0.30691679472 
0.29568598143 0.29835540479 0.33065048444 0.33042706 0.33119877244 0.34108571186 0.33869720821 0.33650168028 0.34209846174 
0.34328842778 0.3399523732 0.34038911854 0.34423175839 0.33742653839 0.33800788416 0.34084365547 0.33544555366 0.33606449564 
0.33777656814 0.3350848999 0.33062653039 0.33665740437 0.33721061126 0.33950541116 0.33955255013 0.35111266142 0.34463460073 
0.3479892768 0.28921712013 0.33938622293 0.33959023628 0.3428024677 0.34806741962 0.34558062391 0.36393109404 0.3213411222 
0.31971400234 0.32164483037 0.33888127919 0.33914180874 0.3428964686 0.32581473486 0.34033609399 0.34046062599 0.3427876252 
0.29166146401 0.3278347005 0.33148519587 0.33298614208 0.33355263229 0.33827584027 0.33844393066 0.34212297518 0.33802610825 
0.33801255629 0.34132814243 0.33816493124 0.33804206047 0.34076516356 0.33856459151 0.33838368931 0.34070397048 0.33882124895 
0.33862009116 0.34047575563 0.33945613275 0.33888255402 0.33976271384 0.36556327998 0.36366805 0.36655952633 0.3687290175 
0.36267133505 0.35822901591 0.34244619949 0.34301507642 0.331315669 0.33153546358 0.33079044438 0.33190070604 0.33229871193 
0.33135666741 0.29069759097 0.31434563765 0.31257454016 0.31101522342 0.30924717124 0.31364757036 0.30856318696 0.30821227967 
0.31139354617 0.30921088237 0.3098151475 0.31210270375 0.3113966357 0.30882193748 0.33315993697 0.34617968227 0.34551637462 
0.35015377841 0.32666171734 0.32383665416 0.31391985584 0.31665479369 0.32184045199 0.31884338935 0.32184444539 0.32542289099 
0.33853196793 0.33934108783 0.33869802211 0.32201837146 0.33227701718 0.331731547 0.33157357746 0.32152284447 0.32332340351 
0.3248573753 0.33012831618 0.35819607065 0.35366571698 0.33937808994 0.3335090962 0.30072971403 0.3026414183 0.3432218475 
0.3478560555 0.33744745167 0.3377320002 0.33804525584 0.33683517303 0.32875358979 0.32712940051 0.32499165068 0.33451381341 
0.3356458292 0.33969872691 0.33525493079 0.34551274263 0.33406417399 0.33342473049 0.33549952303 0.33526540829 0.33668416804 
0.33866960893 0.33941223309 0.35507242089 0.32939883247 0.32990395116 0.33003883276 0.33806269906 0.33769861735 0.33902814207 
0.34583438942 0.33463905774 0.30193111704 0.31043644117 0.35878953051 0.33361797325 0.33397537419 0.33464131533 0.34667257984 
0.33815808889 0.33151079304 0.32865051498 0.32608012235 0.33078912618 0.31838003545 0.31519239966 0.31601787667 0.31691120216 
0.31382901186 0.31259204184 0.31468671066 0.31663189651 0.30999242714 0.31185505542 0.31853347268 0.3527303486 0.31716189576 
0.3187369423 0.31967913638 0.33924573806 0.34959307693 0.34826590694 0.35356347496 0.3551015171 0.31843275484 0.31470782175 
0.33532188362 0.33603039726 0.33535141752 0.33695767403 0.35058098511 0.34799710278 0.32212647473 0.32334592646 0.33186501962 
0.32471541768 0.32590889279 0.32639882261 0.30779949343 0.33961750532 0.34712802852 0.33757019047 0.35266539441 0.34903634119 
0.3436112857 0.34408511448 0.33736501485 0.33857666617 0.33592890848 0.33714394874 0.3422200851 0.34261240064 0.34585152389 
0.34190138337 0.34233937737 0.34426776265 0.34049333647 0.34123245886 0.34305476369 0.33854787066 0.33947745477 0.34061802545 
0.33775030877 0.33061660365 0.33117753914 0.33156024684 0.32969989794 0.35833655582 0.3466201413 0.34240630325 0.34387338187 
0.31640897129 0.31572518368 0.31730649011 0.31872543734 0.35718563748 0.3547771027 0.31980696101 0.31865790667 0.33250275441 
0.33411255779 0.33747325538 0.31509533836 0.34568854995 0.34581698428 0.34419240266 0.34468597869 0.34830543618 0.34707924791 
0.32274187358 0.3206273025 0.31941109832 0.3216430328 0.32052742727 0.32320324773 0.33145819812 0.32667931319 0.32795533038 
0.32863670263 0.33103576204 0.33248191147 0.35264308904 0.35395976444 0.31911796331 0.35932590058 0.35489639759 0.34565583029 
0.34801786583 0.34200300122 0.34370581317 0.34690617761 0.34122490149 0.34314675527 0.33132702697 0.32861100861 0.33574446488 
0.33711842886 0.33471376835 0.33502225151 0.33695693555 0.33988441569 0.33462778363 0.32993072078 0.33144153976 0.33456298887 
0.33133090367 0.35158812824 0.35161494169 0.34533433097 0.34479867397 0.3277777264 0.3243581265 0.31785395976 0.3385826687 
0.33893649754 0.31622189645 0.35854557688 0.32817483725 0.32910480169 0.3294500816 0.32674938891 0.34763552097 0.32892909604 
0.32626600096 0.31470092645 0.3141116437 0.34854361414 0.35117634185 0.32523113312 0.3304901227 0.352211521 0.33138787872 
0.32892289032 0.33151044929 0.34053502051 0.34317015536 0.32672626304 0.32420663175 0.33954296428 0.33982074933 0.34062393638 
0.33346311396 0.33389895881 0.34008539839 0.33235962786 0.3466331151 0.34798704341 0.34979887547 0.34203723361 0.34371113249 
0.34278504487 0.34333189514 0.33385020708 0.33425794345 0.33565682907 0.33765777253 0.3458105539 0.33818382061 0.34155896155 
0.34646860185 0.34509296695 0.34871727855 0.3400349463 0.35019651626 0.32314435825 0.33740142309 0.33419887017 0.35139703974 
0.33865122549 0.33331300011 0.67739545633 0.42979614892 0.33332700022 0.33339200004 0.33352400014 0.33371000018 0.33394400057 
0.3342240007 0.33455700124 0.33491800129 0.33537100187 0.33586700562 0.2869706421 0.28812412399 0.29006899959 0.29510270733 
0.29895746829 0.30715759146 0.31868651274 0.3346892074 0.36846536816 0.28688380454 0.28729631598 0.33647801162 0.33709202818 
0.31726478354 0.31175792201 0.30616160732 0.30118870988 0.28859844992 0.33780403558 0.32299465108 0.33856207647 0.33920306355 
0.33949905865 0.33922103304 0.33793300941 0.33560907336 0.33224120825 0.32789944002 0.29634221767 0.29299633665 0.29039217596 
0.67774196331 0.33343400284 0.33346501016 0.42840359507 0.37874743518 0.3415239089 0.3219141508 0.31180991354 0.30520614656 
0.2994059025 0.29568841549 0.29247533769 0.2913681302 0.28961021983 0.28915014975 0.28933516515 0.29117906647 0.29228806564 
0.2932560576 0.29448604301 0.29687701506 0.29847003188 0.2999180363 0.30174404672 0.30671405672 0.30871704238 0.31182703431 
0.31362404479 0.31504204223 0.31670003694 0.31789404317 0.31916902744 0.32015103799 0.32106701869 0.32187300808 0.32196300598 
0.32179500556 0.32129700114 0.32058800021 0.31942000368 0.31812600475 0.31600502597 0.31138313461 0.30795225945 0.30491721456 
0.3012122806 0.29808832513 0.29475319968 0.2926122492 0.29120209868 0.29146000862 0.29333310978 0.29578108383 0.29876313601 
0.30159408805 0.30517909953 0.30838907779 0.31183305632 0.31451705461 0.31740602906 0.31977803642 0.32224301702 0.32572000496 
0.32748700292 0.32871300325 0.33004400081 0.33097000188 0.33191400075 0.3324750007 0.33306500005 0.3332990009 0.33349100388 
0.28968907514 0.29035709122 0.30318404261 0.3051340418 0.28937821666 0.29568403104 0.31023504037 0.32148600946 0.31367907202 
0.29102502756 0.32393801409 0.33329800227 0.33332500041 0.33332800016 0.33331300398 0.33336900019 0.3333830014 0.33336400262 
0.33334300199 0.33333900313 0.33331900421 0.33331000328 0.33330100169 0.33331500042 0.33325900046 0.33327400007 0.33326800027 
0.33325800013 0.33331600016 0.3332880003 0.33331000047 0.33332700217 0.33330600223 0.33331900269 0.33332700231 0.33333200198 
0.33332800126 0.33334000049 0.33334500038 0.33333600004 0.33336600018 0.33335900009 0.33335600016 0.33336300005 0.33333300002 
0.33334800014 0.3333420001 0.33333200054 0.33334500055 0.33333800071 0.33333400067 0.33333100062 0.33333200047 0.33332600017 
0.33332900018 0.33332200001 0.33336000091 0.33331500345 0.3333060005 0.33334200079 0.33334300015 0.75188156554 0.88680383177 
0.93895603294 0.9705640838 1.0293695951 1.0525388895 1.0845669943 1.1068385688 1.1260432339 1.141063539 1.1531092098 
1.1575035996 1.1574587321 1.1647284777 1.1602111993 1.1577716022 1.1493581269 1.1442032795 1.1244456063 1.0976054686 
1.0931047891 1.0411507024 1.0060989685 0.90171437996 0.85479832229 1.0340517717 0.72134047058 0.85485435359 0.94950909786 
0.94702117882 1.0498219471 1.0298298323 1.1025645438 1.091026657 1.134401268 1.1196078099 1.1533886918 1.1424199256 
1.1612504937 1.1618158441 1.1610958888 1.1614153375 1.1430918928 1.1543888203 1.1223891089 1.1339687342 1.0730083194 
1.095375059 0.97424556159 1.0408318017 0.80428945934 0.9812172405 0.87073955111 0.49190024393 0.28929765947 0.65612131566 
0.38932992635 0.52694447253 0.43088883873 0.60311834469 0.58111679552 0.63888503761 0.54711419462 0.65051414698 0.66949119243 
0.65996764743 0.59093184533 0.67400602416 0.68149880286 0.67956838348 0.68062905838 0.68163087301 0.59371353202 0.67973413966 
0.66908767468 0.67394900439 0.66021948768 0.66785931224 0.68356551724 0.67812668894 0.58805735164 0.53048843728 0.34407531968 
1.0636651076 0.84246353461 0.93760658112 0.68598181181 0.80708077274 1.0230198914 0.98771422377 1.1321936149 1.1422472048 
1.1188159581 1.1382679632 1.142091488 1.1300704231 1.1084149452 0.70668280787 1.1145747176 1.0988544869 1.1447277304 
1.0137323604 1.0708995344 1.086858949 1.0393309638 0.9171031765 0.95623149511 1.1445010727 1.1259335282 0.33305456486 
0.33315674479 0.33307461695 0.33317743762 0.33327393324 0.33327833079 0.33330748292 0.26824512862 0.3328247393 0.33306022974 
0.33266299385 0.33298611964 0.27508810975 0.28133120487 0.27477503157 0.25927658355 0.32448064239 0.32769120429 0.32489146045 
0.32241571823 0.31946481831 0.31524441646 0.36084040464 0.35696048997 0.36000226968 0.31006826699 0.31141896021 0.31267212208 
0.36802820496 0.35399098976 0.35380709443 0.3333063965 0.33334631539 0.33330593464 0.29657103284 0.3402519681 0.30535160994 
0.3333871318 0.33336968241 0.3334125938 0.3164976567 0.32320009994 0.33391739359 0.33373462113 0.3340685032 0.32545424464 
0.32527978383 0.31951792141 0.28299784624 0.30404362278 0.33332605753 0.33271113892 0.33246197674 0.33239433225 0.33214690951 
0.38487099789 0.36559109559 0.39536106485 0.38322074269 0.33093299018 0.33011622281 0.33399934882 0.33317163218 0.32909839727 
0.33019395696 0.32999185503 0.34000268319 0.34201040081 0.34140377203 0.34280162451 0.31203210095 0.33008435046 0.31826483835 
0.33947248068 0.32615258071 0.32232559956 0.32759274263 0.32339120599 0.2939424755 0.29060087051 0.29459811094 0.33008619974 
0.3305695205 0.3328423319 0.32438837152 0.31777135445 0.32297268685 0.29145723827 0.29592712535 0.2876962155 0.3263432715 
0.3250686149 0.32481043144 0.32313597733 0.33261904831 0.33266800373 0.33280000056 0.33919771871 0.34340158391 0.33754223016 
0.34283670574 0.29074599588 0.29489388763 0.29317931927 0.29764719121 0.33330300254 0.33327800011 0.33331000174 0.3332670099 
0.33467977653 0.33464310466 0.33537838938 0.30192043895 0.3013350948 0.29819293376 0.33542358984 0.33630726999 0.33366850687 
0.28904328435 0.31593574877 0.31444655345 0.31443217892 0.33496207659 0.33549058722 0.33560404352 0.35175455426 0.36923790651 
0.34827562353 0.33341164247 0.33355392754 0.33364361545 0.33388143794 0.33859488401 0.33818500109 0.33735423878 0.31131404806 
0.31097673956 0.31294711912 0.31265817312 0.30447437363 0.30229490882 0.30707925231 0.30542848293 0.30649523459 0.31153254156 
0.30904281099 0.31669038656 0.33329903102 0.41902330163 0.3810797751 0.55408702668 0.41991020014 0.37495973543 0.36806219306 
0.36648346705 0.35841611682 0.33348388216 0.33367327227 0.33355410609 0.33331000673 0.32318020512 0.33028962124 0.57058959074 
0.45149723961 0.45400043174 0.33114518881 0.31443824913 0.31477653176 0.31268004597 0.30489385609 0.30809647048 0.30430111102 
0.3073755912 0.33328867364 0.33338359043 0.33333107885 0.4391927706 0.4580354692 0.42452361399 0.3282942327 0.32494472631 
0.32901422783 0.3332316576 0.33335336654 0.33347416671 0.29720161001 0.32746208016 0.32787856479 0.33074155464 0.31653824314 
0.3166300216 0.31885500066 0.31746513087 0.31955043215 0.31431443598 0.31572194035 0.3434505631 0.34658001997 0.34304576914 
0.34358796731 0.34111826464 0.32047524216 0.32281428445 0.32110574399 0.32319487172 0.32978439368 0.33402715976 0.33239249914 
0.3427798273 0.30619804755 0.30728703113 0.30895033334 0.33373500131 0.33401410389 0.33370815535 0.33401466418 0.33734515468 
0.33816731787 0.36787121838 0.36869256272 0.37686868258 0.32991239879 0.3197228516 0.32505952101 0.32003523659 0.32219102707 
0.32264134112 0.32436833104 0.30929006049 0.30873621216 0.31022340624 0.30915193315 0.31393054918 0.30751148735 0.29548536455 
0.30332997548 0.3332360826 0.33313106025 0.33320302622 0.33344100024 0.33656877752 0.34477628072 0.33969160664 0.30001517577 
0.30329803513 0.30339488317 0.30089477555 0.38759050692 0.36273843634 0.37804747806 0.33427404538 0.33407539805 0.33446370893 
0.30725209458 0.30858330969 0.30797272749 0.32860480863 0.33082245276 0.33236057813 0.30999329593 0.31043721488 0.31332425598 
0.31359906001 0.32509659935 0.32365534591 0.31950377254 0.31971711966 0.32237998765 0.29765880168 0.29521400599 0.29451730684 
0.33191785989 0.33169311927 0.33188609713 0.28800293061 0.2814640261 0.29034098859 0.33105280108 0.33421312086 0.33353575359 
0.33352291912 0.33394809232 0.3364130276 0.33499629885 0.33551169828 0.3338387675 0.33352215634 0.33423864505 0.33391298564 
0.33323180513 0.3333710975 0.2742424809 0.27002935907 0.33323122268 0.30179971353 0.30175178947 0.30726310921 0.3363807985 
0.337709958 0.33469127605 0.3361846457 0.30572718737 0.30977563158 0.31071903332 0.31103615064 0.31191508574 0.34830377091 
0.35220710272 0.32071093544 0.32033875248 0.32187607617 0.30871648704 0.30105633685 0.29958158789 0.33186269672 0.34410014085 
0.34883767493 0.31915442509 0.31844369306 0.33433992846 0.33474815389 0.33782947514 0.3069829937 0.3165735191 0.3219534178 
0.31482308766 0.31348954198 0.31290606646 0.31171671139 0.33443415525 0.31857158165 0.31680048735 0.31716802516 0.33245787617 
0.33304199774 0.33277219334 0.33339238331 0.33367553228 0.3275854272 0.32919725723 0.32897280191 0.29960552691 0.32215356374 
0.33281141351 0.33292464996 0.33267190582 0.332130273 0.33274078172 0.30983397992 0.31096077236 0.30865106697 0.33711861977 
0.33581712118 0.33249262582 0.30840509126 0.31202363059 0.30040329009 0.32205889168 0.32370123562 0.32110142259 0.33319 
0.35242334356 0.35648374934 0.35813199673 0.30725062627 0.33398110896 0.30187650464 0.32354468397 0.32222507407 0.32173296998 
0.3038943236 0.30739076652 0.30777157749 0.32183639354 0.32009629742 0.3170010322 0.33065013535 0.32729980892 0.33012109024 
0.35227433383 0.35620870831 0.30518257754 0.30748976938 0.30571078442 0.31138670803 0.36206801757 0.36366287673 0.37583298012 
0.33315938728 0.33324094194 0.33299837807 0.33319135898 0.31307974541 0.30506135591 0.31106193542 0.30388737743 0.32277998424 
0.32340156319 0.32486374303 0.33199058455 0.32928922253 0.33241742296 0.32976828984 0.3264225977 0.33331858365 0.33332051006 
0.30894885784 0.33324695217 0.33326032103 0.3331551052 0.33475486221 0.33887832089 0.33452275684 0.33645210841 0.33485980669 
0.32275562146 0.32709449074 0.32036461851 0.33330253926 0.33328884465 0.33320828221 0.30725064457 0.31362260424 0.31408743093 
0.3136768554 0.31617129793 0.31810324341 0.31653631484 0.30089123698 0.33332887841 0.33331872288 0.33905643009 0.33975251584 
0.34070894439 0.33492098284 0.33547486683 0.29730269517 0.30008771949 0.33791237281 0.33603568719 0.3192667841 0.31291331049 
0.32295993584 0.33086596612 0.33123628991 0.33069128649 0.2955213308 0.28965738096 0.29189648513 0.3331473444 0.33325022479 
0.33313761575 0.33545626774 0.335286394 0.33604708796 0.34170191465 0.33351065284 0.33883018623 0.26540791506 0.32223139659 
0.32351596967 0.32540266916 0.32680220139 0.33167819493 0.33385692547 0.32621065034 0.33813791102 0.33875379705 0.33930137699 
0.34297083721 0.34548245045 0.34250122893 0.34118114799 0.34185164108 0.34051889619 0.3411037614 0.34303430877 0.33743622644 
0.33633119536 0.32168784848 0.32750682821 0.32974643111 0.3471504233 0.33958545203 0.35696267651 0.3462583069 0.34287489373 
0.32551566014 0.32986489868 0.33187490739 0.33559295764 0.33225116527 0.33260730223 0.33355665778 0.30534431295 0.30179242487 
0.30441836136 0.30282574146 0.30199721888 0.29881435143 0.33219614524 0.33202901463 0.33241747914 0.3403089073 0.34124856601 
0.33878578455 0.34001675605 0.26167395209 0.2696782188 0.26783155306 0.27680076534 0.31178697 0.31029271039 0.31260874147 
0.35217244843 0.35584691374 0.35363302554 0.30937217442 0.30272961234 0.30817379601 0.33789286634 0.33913181541 0.33912307386 
0.26749952542 0.31066921569 0.34561823781 0.34365170263 0.34736117849 0.32420894612 0.31085162966 0.30982723997 0.29295873074 
0.29846124174 0.29281060526 0.3520772451 0.35388943559 0.34647482904 0.30262080247 0.30053426765 0.30341182833 0.30220915059 
0.33459207041 0.33413008682 0.32838124278 0.32609300517 0.32589686476 0.31104580231 0.31910082888 0.30953327213 0.30521466044 
0.3037564366 0.30628980996 0.31884503309 0.32102940232 0.32017623909 0.35863821339 0.3639132562 0.35313331416 0.35505217186 
0.36456415882 0.36941187929 0.28764820899 0.28704713458 0.35926074012 0.36810329338 0.34413307107 0.34909721705 0.33209973063 
0.3319416088 0.33154118829 0.32006726436 0.32030489866 0.32185852118 0.33335400097 0.33341402135 0.33341501063 0.29864233151 
0.30123829465 0.29436618756 0.29696362639 0.32373534388 0.32013323403 0.32178658613 0.33355921936 0.33368517478 0.33348733113 
0.33359428413 0.39204938845 0.39168571108 0.37415195637 0.33725848517 0.34143933734 0.34452825412 0.35006844496 0.35731168396 
0.35216523035 0.33359223381 0.33364634205 0.3334300043 0.33349650525 0.31649549679 0.30937644213 0.30723506628 0.30707098088 
0.31655571176 0.3610472034 0.35907120556 0.33267220116 0.33000302362 0.33154430857 0.33356709805 0.27850265564 0.31291458749 
0.31550700051 0.31205698204 0.31475540044 0.30414862621 0.31552502694 0.31554657346 0.32051744487 0.29927475651 0.29606077508 
0.301084332 0.36197315752 0.3669464322 0.36543469042 0.29339575533 0.29500383778 0.29587934044 0.33319831951 0.34535832953 
0.34777474718 0.30606100889 0.35605326805 0.32768852775 0.3257486145 0.32685657804 0.32512420123 0.31940006539 0.3212780784 
0.32014881077 0.31943517664 0.33225623305 0.33276619208 0.33176393874 0.33230177641 0.33636568141 0.33394889059 0.31792797145 
0.3203692682 0.31301527091 0.33366446157 0.33447477555 0.33332429846 0.33400796157 0.28825953756 0.29392960906 0.33335201259 
0.33332975501 0.29190868836 0.32880796244 0.33519684708 0.33341593794 0.33259791985 0.33277037549 0.33254043321 0.33294084874 
0.33336510672 0.33338305038 0.3333460161 0.33327609496 0.35033308063 0.35479087099 0.34447707526 0.33751716011 0.29439778916 
0.33330836519 0.30644218018 0.3052929288 0.30235798748 0.32000690909 0.3184334109 0.31443343798 0.3341826597 0.30655512258 
0.30196552415 0.30616637645 0.35511792649 0.35761904946 0.35174000504 0.35455717198 0.31236570459 0.31765736422 0.31595779142 
0.3333460007 0.33334400021 0.31499173408 0.31396181556 0.3138161163 0.32627784269 0.32693013077 0.29857111461 0.31688199966 
0.31743515834 0.31926095059 0.3231336313 0.31633261107 0.31984831189 0.33915940571 0.33957664761 0.33899044025 0.33299026944 
0.33442667733 0.31149453877 0.31082207072 0.31271791975 0.33347933972 0.33372793959 0.33349174997 0.31154040896 0.30986252805 
0.31375358716 0.33334202829 0.31755557596 0.31417065633 0.32983918861 0.32855774454 0.33064604658 0.33360893293 0.33181699465 
0.32983517783 0.32815602474 0.31867154632 0.31616093889 0.3153333977 0.30388004461 0.31916505696 0.31907745921 0.31681083108 
0.31658023809 0.31042662882 0.30868676744 0.34674277653 0.35162029099 0.35525044597 0.31347928935 0.31353397237 0.31256204246 
0.3390397042 0.33945587537 0.33884675717 0.30455400861 0.30525894034 0.30452407673 0.30502690658 0.31442255053 0.29920689942 
0.28114882258 0.28823516519 0.31207030529 0.32998465119 0.29431489113 0.33387066687 0.33459297159 0.33733836492 0.33702772039 
0.34814719108 0.34646989949 0.28422994872 0.2702340939 0.26351110219 0.24104784604 0.32538936667 0.32363769021 0.34180828733 
0.34346277377 0.28690129612 0.36664537057 0.37268300875 0.37032248356 0.32236403084 0.32236476122 0.32160773535 0.3275428983 
0.33292932141 0.33055767459 0.36600063962 0.37270556618 0.33281225842 0.35004349635 0.33208443821 0.33249049791 0.33231759508 
0.33304805606 0.3329683001 0.3326549955 0.3274271549 0.32791844859 0.32555727155 0.29638083806 0.30125420047 0.29575918978 
0.29999516395 0.31931296876 0.31855394451 0.3181856253 0.31742886689 0.31634364485 0.32348901248 0.32199969754 0.29777351613 
0.31072309722 0.32797677121 0.29563913402 0.2973358108 0.29239543682 0.33745776255 0.3389133746 0.33905548884 0.32308418527 
0.38394803045 0.31957033434 0.32205033052 0.3217737904 0.33842627732 0.3303528009 0.35268067599 0.3482098788 0.44334483255 
0.40960361459 0.31208878084 0.31855809509 0.33241993838 0.34278944958 0.34326759704 0.33766535039 0.33831158617 0.32879912604 
0.33225714947 0.36468407367 0.35757394847 0.32355395507 0.33457625384 0.28642379787 0.22201566197 0.26036361473 0.20925087043 
0.33654424513 0.31856309285 0.32837626091 0.33118419555 0.33229859504 0.33369665031 0.33959147053 0.34544413394 0.33140279433 
0.33267731762 0.3254792089 0.32347799199 0.32613234236 0.32802257126 0.33051597322 0.32929925694 0.33085149719 0.44751199164 
0.40903240616 0.40992035059 0.30838121246 0.31132284232 0.32978370715 0.32947368701 0.32892731827 0.32491479453 0.32511999583 
0.32551575336 0.32608265913 0.32893317156 0.32724931809 0.323857017 0.33297159452 0.33314604712 0.29544126359 0.24354387207 
0.28012581272 0.26453766695 0.42537082177 0.59723469987 0.23050048024 0.22679301659 0.3229797486 0.32436233145 0.32619007692 
0.32555499091 0.32778573012 0.32665368578 0.33469486913 0.3344384497 0.33538932158 0.30831310743 0.31118892256 0.30761339288 
0.30340547296 0.33018808002 0.32634329158 0.33083999355 0.31214373117 0.30989235927 0.32573819348 0.32370700589 0.33228977268 
0.31565779904 0.30947087092 0.33470444521 0.33537272284 0.33505261186 0.33585138111 0.3238700282 0.32405873489 0.32283066379 
0.32267677442 0.32055660429 0.33334174114 0.33672061816 0.33980462239 0.33878175172 0.33779498271 0.3392237094 0.30769222286 
0.31017187734 0.30801368468 0.31039358143 0.31748531606 0.31919305535 0.3173305434 0.30600487822 0.30503929648 0.32969157455 
0.32654467695 0.33443634771 0.33466896739 0.33418369171 0.29733265096 0.29977662944 0.31315246905 0.31299965436 0.31297314007 
0.33405316087 0.3344465524 0.33439600239 0.33336623283 0.33333625302 0.33336539518 0.30168735804 0.29074248083 0.29759011482 
0.30118320258 0.31812530515 0.31592136318 0.31331034277 0.31120523487 0.30098386873 0.33350102102 0.30735637042 0.31304504355 
0.30232105345 0.3088480877 0.33330832282 0.33303195456 0.33329058747 0.33339501473 0.33372189325 0.33233948101 0.33200647273 
0.3324983499 0.33271613774 0.30218659612 0.30758668995 0.30652641436 0.28568882654 0.28367580138 0.2881268006 0.33293101378 
0.33304903052 0.33288915453 0.35161455036 0.35361685558 0.31352561392 0.31602677166 0.33325838902 0.32498517456 0.30360338631 
0.3054657814 0.30408365189 0.30252421801 0.30565814612 0.30629084003 0.31243088012 0.3332460309 0.33314614672 0.33316703774 
0.32558349584 0.32332875705 0.35778823953 0.30420117502 0.30466576618 0.30419108928 0.29656516781 0.31306352392 0.31595216837 
0.31681480076 0.3154120941 0.31363382056 0.31419530855 0.31460151933 0.31616086206 0.33335813823 0.33333403385 0.25939779232 
0.3248975839 0.33054409815 0.33149500197 0.33127031498 0.32783093788 0.3283792695 0.32619734623 0.32668489826 0.34700725873 
0.33256192809 0.33257948238 0.33280378821 0.33283590892 0.32357468314 0.30241116828 0.33379830829 0.33531658986 0.31647686614 
0.31706203532 0.3187594918 0.30388195525 0.31592087756 0.31831691 0.32095368186 0.31724836249 0.32026592401 0.31011853917 
0.33131925634 0.33163981169 0.33087865283 0.33113411381 0.31149932897 0.31630490282 0.46855905467 0.45407835433 0.31100536939 
0.31005026037 0.31218379299 0.33277029011 0.33366981431 0.33344604995 0.3337952915 0.30944303807 0.33338933328 0.33340182922 
0.33145214249 0.33204000266 0.33390306833 0.33449262226 0.3325149246 0.33417484908 0.39068483621 0.42283089209 0.43650679741 
0.28146391668 0.28378756396 0.28458375514 0.33202707163 0.32806556881 0.3323734243 0.31326331296 0.33329153716 0.33327852332 
0.33330978406 0.27654986893 0.31149702002 0.28435593097 0.34405351453 0.32025901993 0.33770776249 0.35785818878 0.34342072786 
0.35479718918 0.34553987904 0.3538804464 0.33092979147 0.32818557145 0.33313737587 0.33298711423 0.3331033584 0.32020954078 
0.3166324244 0.33386521073 0.3399411434 0.33977199165 0.34024300299 0.31783596244 0.32165135553 0.31653248932 0.33530827911 
0.3197407173 0.28807722077 0.29011286726 0.34784138436 0.34159111762 0.33018699296 0.32939335754 0.33031239824 0.32700869109 
0.32725282041 0.29080532957 0.29257406664 0.28960305914 0.32921079993 0.26882363771 0.25215308943 0.2665391146 0.31218017358 
0.30742058846 0.33192687401 0.33183977605 0.33234936739 0.30918563508 0.3408115815 0.29796086758 0.29967382715 0.30949812674 
0.33118050126 0.33154661122 0.33205011434 0.33246785291 0.33642775981 0.37938894015 0.40836267712 0.37595953949 0.33349803102 
0.33370623012 0.29844969677 0.29547144454 0.29981128194 0.36160482951 0.36503220728 0.33900790509 0.34319622184 0.33705003333 
0.341240553 0.33845128381 0.34023277742 0.33647005289 0.33807918901 0.33347733372 0.33359042693 0.32553728929 0.32229435086 
0.32376980367 0.32052918697 0.34947252697 0.34684265272 0.34388677607 0.34370905146 0.34650928335 0.31583870674 0.31575212144 
0.30996860799 0.30807692569 0.31131436303 0.34504068012 0.34080826861 0.32480902665 0.32712793208 0.32163602343 0.33617649526 
0.29791956324 0.29942146331 0.30708177856 0.33334398122 0.33552148813 0.31495822088 0.31607930418 0.35044561278 0.35127485005 
0.26850198328 0.27351454613 0.27522727844 0.31680997323 0.33197327598 0.332305179 0.33215865019 0.33182810943 0.33157777217 
0.3337624756 0.30936565468 0.30489557952 0.30476553037 0.33607759306 0.331070884 0.3367811577 0.33243505725 0.32952363334 
0.33030399292 0.3323868506 0.33338971227 0.28409522279 0.29049029593 0.28638022714 0.33502764626 0.33538917638 0.33473005352 
0.32783113577 0.32538996191 0.31058256296 0.30883726655 0.3281159386 0.33329308451 0.33331001713 0.33328903434 0.32266773305 
0.32178117392 0.32269990421 0.3343762587 0.33134018455 0.29911925515 0.30588906047 0.31283336313 0.3332496295 0.3346004213 
0.28600861421 0.33543416892 0.33645978424 0.29664529098 0.33404238806 0.32086870616 0.31892819836 0.32111468092 0.32828418978 
0.33459807219 0.28772059867 0.3368068491 0.31785122101 0.31018072798 0.31174142147 0.31840528409 0.32546991999 0.32830268916 
0.32946940109 0.34738914159 0.34735310455 0.37886763906 0.33752309323 0.33994608941 0.3398860037 0.34250081708 0.34431651305 
0.34668040374 0.30192151299 0.33443095976 0.33697269712 0.33448608246 0.3846835412 0.54510547381 0.3858523351 0.3055764406 
0.30555318546 0.30749469652 0.30459622144 0.3042617243 0.33391396616 0.28532228919 0.30404987296 0.29316652287 0.29935569341 
0.31449990322 0.31753024055 0.33761177615 0.33879766547 0.30280059685 0.30320821555 0.30002817863 0.30423386871 0.32855672321 
0.32690349364 0.28381094759 0.28125714218 0.27620859266 0.33331800493 0.33082813118 0.3309617104 0.33349850296 0.33412548904 
0.33385766303 0.33328620316 0.33330924822 0.3333171529 0.30652941209 0.33312993718 0.32970374485 0.33062682373 0.33037276991 
0.29860185884 0.302238163 0.328823774 0.30999118533 0.30630950329 0.30646408262 0.32586728909 0.32376803478 0.32864900695 
0.31419920672 0.30960481335 0.30805943943 0.33901843225 0.34032692917 0.32839540953 0.33161838817 0.32970550516 0.31999716088 
0.31694744283 0.31469610783 0.3282492391 0.32656922366 0.32765850207 0.33633655453 0.33864638475 0.33867061999 0.31215352181 
0.35222051458 0.34252676594 0.34254200768 0.34517238309 0.33377328535 0.33379306472 0.32910061179 0.32474845372 0.31638300668 
0.31816974666 0.31720103666 0.31901743178 0.33622866439 0.33708716676 0.33562919014 0.33424369476 0.33218891881 0.33987063625 
0.33732390059 0.34026171727 0.32846834232 0.33533947567 0.33762308791 0.33272510719 0.33340503111 0.35933011407 0.33325514956 
0.33317813295 0.30632121732 0.3017157044 0.32381373929 0.31486419329 0.30796507657 0.31303151471 0.22059061112 0.23995898493 
0.32497416182 0.33713684134 0.33784373628 0.34106689086 0.34187511372 0.3347494166 0.32872489051 0.34823110408 0.38737215457 
0.39397254731 0.37976930392 0.28105091904 0.28394185458 0.27728015005 0.30898665432 0.33422710156 0.25210050007 0.31485927298 
0.32178000076 0.32825560584 0.33188514911 0.33040993246 0.32307093628 0.32235421969 0.3172108672 0.29271661517 0.29436194025 
0.29592272827 0.33327743465 0.33331639101 0.33320234822 0.33326632023 0.2970045405 0.30857944428 0.31204945166 0.31985771609 
0.33334315061 0.33342033724 0.33341946733 0.24920719468 0.3304019764 0.33289103609 0.30072632285 0.30089692828 0.36482916858 
0.29712106698 0.33043068132 0.32773714705 0.28789809453 0.33474920107 0.33414379175 0.3341169259 0.33439851628 0.33376044672 
0.33391703816 0.33071440602 0.33141582112 0.33094842913 0.34117430849 0.33635826596 0.3299904482 0.33080746263 0.33160159365 
0.33169610719 0.33194459126 0.33349801314 0.29881559191 0.33313868301 0.33306748035 0.33324858252 0.33280388416 0.33255404331 
0.33256005441 0.32318480285 0.32806097692 0.33190607079 0.31182714866 0.3125812059 0.32786987894 0.34742876856 0.31743191102 
0.37663777261 0.36688447328 0.3396839595 0.34002732785 0.312042308 0.31489727627 0.31404680778 0.31531030549 0.31290017712 
0.31412803229 0.33750840204 0.31618454525 0.31690440642 0.33343057257 0.33334766803 0.31440552758 0.31643792501 0.3181769217 
0.31952557956 0.31827719072 0.34730204487 0.33557332273 0.34408285229 0.33694368704 0.33528776163 0.33222016459 0.33239201263 
0.3331473409 0.3329590834 0.33359799017 0.33346505968 0.33345445476 0.3336352185 0.31371458277 0.31429082139 0.31364170192 
0.35227833465 0.39108330325 0.33491740695 0.34966021202 0.32296040011 0.32442967051 0.33668187536 0.342282276 0.34048335133 
0.33585477364 0.33298130798 0.32314052118 0.31267285011 0.33492721363 0.34663670155 0.35611196315 0.32725971847 0.34710958715 
0.33839580321 0.33494950116 0.33528071419 0.33345105669 0.32940676565 0.3224810989 0.32138934619 0.33216446581 0.33057974619 
0.33124870235 0.33009916358 0.33474893182 0.3328139766 0.33299681539 0.33406268752 0.333887998 0.33817598717 0.33880806248 
0.33335001026 0.3588740301 0.33540184122 0.32698073191 0.32504751211 0.33082681681 0.30940425632 0.31040069534 0.32936144475 
0.33226411511 0.33184516434 0.33514799246 0.33497607661 0.33920361863 0.33694997362 0.33957797135 0.34657414279 0.34413197015 
0.37762797431 0.31163104788 0.31346114848 0.31259431205 0.31303373906 0.26584173407 0.25881465914 0.36945434728 0.34542090175 
0.3631424827 0.39152834957 0.37518046845 0.28365568856 0.27697418503 0.33665649307 0.33726960814 0.33710885414 0.3357017652 
0.33503055509 0.33477097077 0.32805883306 0.33329727899 0.31570193544 0.33391055908 0.31803962023 0.3330902645 0.33442299908 
0.33336995257 0.33640919096 0.33620415534 0.33711794261 0.32004685072 0.3182320397 0.34170506388 0.34495146883 0.31487501664 
0.32171744917 0.3232812917 0.32377320561 0.33322025611 0.35229674851 0.34783379571 0.31075131509 0.30724670274 0.30950312986 
0.44014397869 0.33939538729 0.29723206943 0.33333352159 0.33247240124 0.31003049031 0.38033233699 0.38046445091 0.3324868562 
0.33278476718 0.32032775664 0.33336248415 0.33991691453 0.33303514779 0.33299445889 0.34054665123 0.34295547175 0.33487201938 
0.33188648281 0.33532830494 0.31743434666 0.32234880085 0.32969435373 0.32874794396 0.32524260823 0.30457436626 0.3039880381 
0.32678536994 0.32978445727 0.33063386866 0.33034402174 0.33423560076 0.33546575248 0.3221110775 0.29676765352 0.29098314944 
0.34102769031 0.34422474092 0.34129634574 0.34099152761 0.34322685682 0.33563905661 0.35718744287 0.35356628769 0.33954852676 
0.33610701354 0.33753646751 0.33781177997 0.28828354496 0.33167395235 0.33125763399 0.33140433675 0.28752566009 0.33662305291 
0.33448674094 0.34125677122 0.34151884981 0.32664564005 0.31685165434 0.31605557858 0.30300184672 0.29608500271 0.33558910991 
0.33257558285 0.33550123672 0.33257824957 0.32006188736 0.32744034075 0.31803933286 0.32420160218 0.29707039999 0.32476180989 
0.34462928405 0.33126186428 0.33009800126 0.33121776146 0.32934711859 0.30719529908 0.31315077967 0.31246846715 0.31545660076 
0.31446934387 0.33300127495 0.33313756014 0.33299838001 0.30913489364 0.30716114905 0.30886990021 0.34302881744 0.31350245087 
0.33579356661 0.33523062398 0.33490028671 0.31157867909 0.31229667175 0.33343806009 0.33348206347 0.33336701896 0.33354749893 
0.33171906963 0.3266679421 0.32134418319 0.32406042351 0.30779109677 0.30093584919 0.30375871315 0.30051849535 0.29928046051 
0.30175463106 0.30364272332 0.30354074142 0.27441107946 0.27344508651 0.33236929543 0.33353272384 0.33226899899 0.33122254575 
0.33835990848 0.33455484661 0.33136847734 0.32998576494 0.31875306351 0.31696760402 0.31863460718 0.32483164075 0.32307505243 
0.32858915505 0.32666594442 0.37824687308 0.38243718166 0.33244407197 0.33779082112 0.34458228256 0.34320378446 0.34254874437 
0.34105619866 0.32861673425 0.3360557937 0.33874640963 0.3392607084 0.3319493313 0.33136612618 0.33308504244 0.32857078064 
0.33511059154 0.33459612351 0.33629515767 0.33661035344 0.33609469467 0.33683474342 0.33301001844 0.33284949281 0.33201834228 
0.33203591231 0.33236208358 0.32351603778 0.32645459607 0.38038438379 0.3858252317 0.33260607406 0.31498592568 0.31763506108 
0.31543701169 0.31822404525 0.33327326878 0.32046966573 0.32772804302 0.32661589812 0.32774491334 0.33808733746 0.3409826677 
0.3379515477 0.31498744702 0.31468704088 0.32682040329 0.32801527191 0.3160156787 0.29921325302 0.3197399356 0.32538723937 
0.3228288717 0.31264444982 0.3009632278 0.34933199282 0.32286476258 0.32561994495 0.32410546579 0.30948772366 0.30993162363 
0.30682664098 0.3151354864 0.33599246056 0.33546758037 0.32598810193 0.32466623249 0.31810419176 0.33633600172 0.33343774236 
0.33229262054 0.34393615511 0.33959102587 0.34230157574 0.33263883579 0.33287495583 0.33283837611 0.32223776697 0.32356190957 
0.32522509112 0.33313623504 0.3329971733 0.33308628382 0.44798950321 0.39663686694 0.3329822889 0.33315546364 0.32031886451 
0.31962056266 0.35248171572 0.33624398768 0.31573912046 0.32367359823 0.30400936569 0.30599191865 0.34767484668 0.31044327703 
0.32167338695 0.32995740108 0.32801989346 0.30841533449 0.31110337066 0.30447943289 0.33337040202 0.33339021076 0.3283260274 
0.32707260709 0.33159992313 0.32942037366 0.3306850412 0.33066006073 0.4415363527 0.3336944945 0.33384508229 0.31787812964 
0.32131253287 0.32129643655 0.32245240424 0.32427277834 0.35355203369 0.33089961894 0.31964322655 0.32069943635 0.31612155642 
0.29817942265 0.33737800547 0.32289300693 0.32431271698 0.32572522449 0.44119632587 0.33938182066 0.34333882823 0.34379345925 
0.31212284884 0.31221116574 0.28654030288 0.2892504324 0.33888877625 0.3689446103 0.39565859314 0.37319288455 0.33566851071 
0.33689177377 0.34032216751 0.29465060447 0.33508879468 0.33378381344 0.33306110618 0.33794673023 0.34693083352 0.36101523791 
0.39636830063 0.42086990826 0.33428571387 0.33437854581 0.32648028022 0.30669216657 0.33551339693 0.33347421506 0.31479102255 
0.3228173232 0.30519787733 0.31053621242 0.30272120532 0.33326009108 0.32464461033 0.32129000855 0.33308149363 0.3216583132 
0.31961527235 0.31006904309 0.3129668463 0.31292580461 0.33694300075 0.29952738801 0.30329140811 0.30039922492 0.30916272514 
0.3067090138 0.30988805874 0.33530482981 0.29610020523 0.33696395731 0.36660041637 0.32700805189 0.32540248737 0.33296708355 
0.32626728549 0.32784770684 0.32119455895 0.32668592285 0.3243682022 0.30354142437 0.29028563236 0.32935048669 0.25611381088 
0.27948532142 0.31190214378 0.3176283223 0.30450374739 0.30111457943 0.32982860442 0.33593950822 0.320652158 0.33646845832 
0.34381097948 0.30690544479 0.30671021424 0.33332700241 0.33328101279 0.33325600858 0.33333403687 0.30970919988 0.32733887903 
0.30027673743 0.30342411978 0.30186456684 0.32771364033 0.32893723962 0.31611613033 0.31280278766 0.30877630651 0.33325105888 
0.33326924836 0.30895038057 0.32709977784 0.3191170874 0.3231094206 0.32262989728 0.32390370285 0.30567543614 0.30545939741 
0.30713022795 0.33178561272 0.32165394813 0.32383112597 0.31535526774 0.31225027591 0.31484422358 0.31256960055 0.2813158038 
0.30382170882 0.28941277898 0.28335083948 0.29413207854 0.29334036432 0.2883561845 0.28160454519 0.3333654888 0.35191709934 
0.3480848692 0.33344744734 0.30118589802 0.39454291689 0.40844569978 0.36372126173 0.35869745759 0.36175680044 0.36043407264 
0.35007701155 0.34030811544 0.3473183963 0.33801174851 0.34921517474 0.33223712778 0.33328473075 0.33302297421 0.31258556566 
0.3795924371 0.42745195522 0.35793187152 0.38469034227 0.33164507203 0.29952755269 0.30133703827 0.3500666283 0.36588609499 
0.33309300033 0.36901473582 0.31141216214 0.34023288199 0.32488235843 0.32898500109 0.33253548224 0.33573666689 0.31319241653 
0.31330913162 0.34618054081 0.31219859265 0.31285602313 0.33368873309 0.33021204246 0.33070901056 0.31465051705 0.30987404299 
0.31364895872 0.31578936632 0.33953966851 0.34052170045 0.34061990993 0.32583271682 0.31113723418 0.3126371809 0.34253766719 
0.33994475889 0.34309903142 0.34016649299 0.34245213309 0.34356778575 0.34022020128 0.33111317582 0.32903365475 0.33170121755 
0.33264645121 0.32902172326 0.32618016169 0.3409518476 0.33581957147 0.31313821344 0.32783541732 0.32362289173 0.31348288798 
0.31707667992 0.33228100204 0.28923755301 0.28625608421 0.32017340172 0.3325441752 0.33210607496 0.33262941531 0.33261094765 
0.33238095852 0.30611723711 0.30966902035 0.31207069304 0.33332203123 0.33331003513 0.33330911643 0.33281827146 0.33285442854 
0.31707239882 0.3219429381 0.36454496246 0.37324479832 0.36314284604 0.36044168812 0.34413029402 0.33428786095 0.33415871561 
0.33458055118 0.32181108357 0.26889281692 0.27743513885 0.31799141989 0.34359922268 0.34564348201 0.33324056283 0.33321508712 
0.3335722484 0.33377080606 0.33347415323 0.3336010608 0.33231274535 0.32937689541 0.33553816508 0.26916505725 0.26549766101 
0.27105301139 0.33953198845 0.27790080204 0.27893421777 0.28062765903 0.31305437712 0.31279751169 0.32687504967 0.33160004068 
0.33299875906 0.30227298971 0.33205076166 0.33281210076 0.3130423999 0.31471657592 0.31379042556 0.31519845121 0.31326982531 
0.30413275993 0.33190744208 0.33101333555 0.3673203979 0.33349908746 0.33269229245 0.33079978205 0.33367848838 0.31748999164 
0.31860590945 0.32019966562 0.31733444776 0.31325016887 0.31327307058 0.28053108208 0.322488093 0.30172518394 0.33797450989 
0.34120219921 0.34086166831 0.32392718039 0.31851646562 0.32486518187 0.26917827498 0.27701311186 0.31616648306 0.31214094453 
0.2884604928 0.29649901468 0.32136722482 0.31892004847 0.2798339417 0.294222011 0.28615692529 0.2873950599 0.30936983406 
0.30752162551 0.33057550509 0.32553649958 0.33054912498 0.33266930049 0.3325063085 0.33353582321 0.33337884358 0.37437761795 
0.36710984506 0.33513418325 0.29729232016 0.2960565537 0.33431861596 0.30311760696 0.29955252039 0.29894272872 0.33633680641 
0.33361879741 0.3389328376 0.34045477693 0.34170975763 0.33486807132 0.33573273459 0.34128316134 0.34402121953 0.34517933403 
0.35440867323 0.34861933615 0.30540912777 0.30092695427 0.30960552438 0.32387975859 0.33638089644 0.31696374948 0.33291694484 
0.3308924759 0.28447725598 0.29254272104 0.30512605813 0.31281064928 0.32107703457 0.31934684918 0.34080121755 0.33362588196 
0.32448093221 0.33887819485 0.3376565902 0.31756802662 0.31955796647 0.30873642356 0.3362204451 0.33656528535 0.32960461376 
0.30093038747 0.31221222487 0.30421378126 0.31009972112 0.34160904512 0.32882181446 0.33252907541 0.31063431426 0.33147411326 
0.33096600755 0.32866937072 0.32821682712 0.32972081611 0.32476807244 0.32551783778 0.33368592312 0.33394145391 0.27683812529 
0.331773477 0.35143275142 0.3544597965 0.35397345565 0.35821679556 0.35049131689 0.33739495175 0.34560349586 0.34819157338 
0.32710229115 0.44078987623 0.33323102606 0.33310224842 0.33312770255 0.33527191052 0.3328711188 0.35190144009 0.31487284691 
0.33340001419 0.33458508594 0.33697117372 0.33639443075 0.33625388638 0.30113693682 0.30163201185 0.3280781593 0.32454381878 
0.33122584418 0.24301297963 0.33699553332 0.30351957415 0.30586506345 0.31314807711 0.33344217672 0.32402575369 0.32620625867 
0.32893177875 0.34918142604 0.34627868656 0.26489015655 0.34702552407 0.27976525522 0.36142191402 0.33369389233 0.31591422841 
0.31311508487 0.31041472875 0.30123913252 0.33039800732 0.30973079213 0.32445392737 0.32356662908 0.33152502115 0.33101759226 
0.36000285773 0.33557223993 0.31114911492 0.31125606719 0.31154764433 0.33324668146 0.33329510249 0.31578536576 0.29222519556 
0.31971510902 0.33692456194 0.33702336229 0.32759001655 0.32577108638 0.27636461089 0.32496136177 0.30710586176 0.30938898205 
0.3138436581 0.3160147198 0.3501757377 0.34860290987 0.35021508587 0.3093794338 0.28730327338 0.31388328899 0.38420058397 
0.32312760882 0.32219316801 0.33799141387 0.33127868459 0.3173074679 0.31982801393 0.32075913099 0.30082223691 0.30461131055 
0.30366212498 0.30606539336 0.31761039427 0.34268189245 0.28944946864 0.3341243888 0.33821775358 0.34257661656 0.33406083272 
0.33436903158 0.34544800011 0.34385382838 0.32453170622 0.31712632577 0.32798452587 0.32828746662 0.31237495879 0.34728027709 
0.34898457454 0.33281696779 0.31343047154 0.33975174543 0.30333311867 0.33335234946 0.33337229161 0.33669486569 0.234981079 
0.27286956559 0.3519227732 0.36009337664 0.32554158584 0.2958055189 0.29845443741 0.28729997646 0.29646672679 0.31049755825 
0.32444405315 0.30120734071 0.29717551697 0.29751162064 0.33348215808 0.33396867708 0.38592631756 0.34621068216 0.33429383983 
0.29770611151 0.36624497705 0.33329621943 0.37165057501 0.33400456599 0.33147491078 0.33943947986 0.33808267793 0.33494215853 
0.34504605649 0.34321463561 0.35234630068 0.3602151405 0.33340723593 0.33363102929 0.30526230495 0.31306372249 0.31396396957 
0.31561027842 0.33867905315 0.31255927573 0.31915314124 0.31821579065 0.33136922632 0.31341853128 0.31959713359 0.23445245227 
0.26051508683 0.35172619509 0.37016195206 0.37088845886 0.33217764633 0.20993608148 0.22918828124 0.37962558664 0.37707669255 
0.31484412163 0.28803832088 0.29725898858 0.31403093033 0.33384965571 0.32303217448 0.3233430826 0.33250776329 0.31759653059 
0.33337909634 0.33338513514 0.30376685779 0.3078915908 0.3060312869 0.33332916366 0.31581635851 0.33326248274 0.33318590423 
0.33331376651 0.33415226013 0.33021370797 0.32353195493 0.325328777 0.31458673501 0.30297686055 0.29963334018 0.3021375753 
0.31618143799 0.3169813 0.32804915419 0.32410250558 0.3220952707 0.33981018124 0.30939636492 0.30919713256 0.34693012549 
0.32861935381 0.30184001018 0.35293350655 0.34578163698 0.25813988359 0.24965042119 0.29411505548 0.34078492685 0.27546224393 
0.33335756291 0.33344050953 0.33335877928 0.32201577373 0.329911927 0.3064460718 0.36298316933 0.33275710726 0.33324192162 
0.33010114808 0.32376122558 0.31973818603 0.31032009114 0.30072865592 0.29704010248 0.34315605038 0.38741512297 0.35738796393 
0.33179605504 0.32820055946 0.3196500474 0.34814655196 0.30447140312 0.3248652235 0.31892089921 0.33277784152 0.28288433051 
0.33515642538 0.29297198815 0.29782422282 0.3076371713 0.3162102673 0.3130365904 0.28137006231 0.30076256281 0.32997617344 
0.30075236169 0.34185043316 0.33172820908 0.31240235919 0.32314376608 0.33724401436 0.29747906217 0.34139439448 0.34764171247 
0.34560286041 0.3027865264 0.35056613379 0.39604811966 0.394168966 0.33285449303 0.41285663265 0.32784432177 0.33992915653 
0.34809752062 0.31308080982 0.35473878753 0.34871378182 0.33304356966 0.33792488365 0.33397743354 0.33439237426 0.32189654665 
0.33876924518 0.2994391222 0.42335876332 0.33973226943 0.32649844827 0.32484297892 0.33756691568 0.33563983695 0.32205797533 
0.34121659538 0.33716389909 0.3235359847 0.32912850521 0.32552129304 0.33237572119 0.32167015547 0.33014624167 0.33450803641 
0.33672947575 0.32159082672 0.33262828402 0.33526910955 0.33773393619 0.33596021588 0.32515089232 0.33149112746 0.32843407485 
0.33233931392 0.33536872423 0.33341605061 0.32853255869 0.33315373704 0.33740179102 0.25572647214 0.33206635498 0.33893463211 
0.34891697276 0.27657957745 0.28673827961 0.33946236038 0.25629293014 0.32350525737 0.33606933623 0.35756618771 0.3853783 
0.30694358614 0.3301410006 0.32926384808 0.32994930999 0.38210188405 0.32554470432 0.33111745854 0.30864410574 0.3142946392 
0.33236957123 0.34602593532 0.34751288114 0.29421889314 0.32595087225 0.31580441456 0.34315450266 0.31280878888 0.35802200889 
0.34156775052 0.34309846502 0.33504983445 0.3456757415 0.31828566287 0.3114607015 0.34140107742 0.2724444736 0.3227989645 
0.33116113712 0.30150542028 0.33574777328 0.33963556943 0.33953825828 0.34162007823 0.34323322429 0.35292821483 0.35620412123 
0.34488327751 0.34464005427 0.32006465957 0.34066253102 0.30368864674 0.32333468264 0.33990195457 0.33789118362 0.33191783866 
0.33758494948 0.33807109788 0.34058523766 0.30410461696 0.30477062305 0.34469907485 0.30696508467 0.30465200085 0.3041519735 
0.3338162017 0.32070171039 0.31315166801 0.33668396263 0.33892871595 0.29456464664 0.34145089673 0.24332561609 0.33484961624 
0.30359191475 0.31832597454 0.35982329723 0.32920444929 0.31412511035 0.30784373144 0.33214200665 0.30485052485 0.30566035681 
0.3457794561 0.27574288871 0.33201601797 0.34031478198 0.33399437989 0.30463649643 0.3314767809 0.33232108915 0.33229140135 
0.33196803154 0.33334136161 0.35725914664 0.29664608068 0.33109504984 0.30363620342 0.31762582562 0.33289321477 0.33334058378 
0.33891260033 0.32569662987 0.30801784146 0.31375355976 0.3803919191 0.34646609105 0.33942855296 0.32602630293 0.31509371163 
0.3334341522 0.3250184546 0.29961393449 0.28949862727 0.29403705034 0.33733498908 0.32556858676 0.34059391409 0.30446910928 
0.32490783945 0.32016513165 0.3215380094 0.42074450538 0.39598279035 0.42765849629 0.33853014448 0.2996107313 0.31992875807 
0.30931272658 0.3225403803 0.33477609511 0.35214608657 0.34993300828 0.30021014243 0.31576728173 0.34628209391 
Intermediate%20Principal%20Stress 1 8918 double
0.41830651519 0.48564598849 0.47656483611 0.42833907153 5.3833497783e-06 3.0679695417e-06 3.0550624585e-05 1.621542789e-05 0.019883054539 
0.00022924068999 -0.0045113388971 0.061774666966 0.013494792506 0.019590259922 -0.00073667868743 0.036952787815 0.20680034122 0.1656083254 
0.16895970456 0.16934452 0.17954448087 0.17936513626 0.17252267077 0.17422837061 0.18456981648 0.18635781706 0.17642358397 
0.17774606034 0.18383536818 0.18289080886 0.18177933273 0.17361153692 0.17986354058 0.17893290749 0.18090829895 0.17117698639 
0.17551930996 0.16743411174 0.17265389447 0.23630944571 0.21196501558 0.20431439161 0.18312470744 0.18142993843 0.18246014189 
0.20976053858 0.19890315496 0.18929113524 0.19152954009 0.19153992695 0.20099758953 0.21044472028 0.19112087364 0.19144079163 
0.19144025876 0.18920172336 0.20862776929 0.18465419527 0.18370321146 0.18142924446 0.18140106509 0.20542723034 0.22724455391 
0.22783429207 0.00017829439229 9.5110553257e-06 -6.1510535414e-06 -1.0644563773e-06 5.9835263497e-06 -2.5809824627e-06 3.8009170126e-06 -1.1952590495e-06 
5.6798788859e-07 1.2681013869e-06 -3.8726889037e-06 4.2208238866e-06 3.44840769e-06 -3.2226034759e-07 8.7348457814e-07 1.6400024323e-06 -2.4601916241e-06 
0.00046394008732 0.00090968281514 0.0011796333662 0.0012114935663 0.0011232711929 0.00090937466822 0.00063798267707 0.00036625592138 0.000127642014 
-2.0803172497e-06 -0.14680857432 0.0019548805543 0.00091957270688 5.273880469e-05 -5.2538463815e-07 2.8372506263e-05 -1.4471032495e-05 3.1652309672e-05 
1.3632952352e-05 -1.8208458973e-06 -4.5567823046e-06 -3.0181887437e-06 8.0528873643e-06 5.5673711593e-06 -2.1662502846e-06 9.6059560009e-06 6.9780219476e-06 
1.8861721492e-05 3.8994921011e-05 4.887265075e-05 6.5065798486e-05 5.3277003871e-05 6.0705276053e-05 6.1554529133e-05 7.1785384512e-05 8.0521451033e-05 
5.7144261449e-05 7.7127050197e-05 -6.7688348181e-06 1.9313468752e-05 4.7776745197e-05 -1.9209093879e-05 5.1507069429e-05 3.6429921945e-05 1.9981887871e-05 
3.1783401274e-05 5.4494399815e-05 6.6241506808e-05 4.8857435374e-05 5.5897511274e-05 4.6980377228e-05 4.4826318032e-05 1.3322080081e-05 1.4404503706e-05 
2.7055734006e-05 -1.2918158106e-06 -4.0689979752e-07 1.0823030815e-07 4.472758263e-07 -1.2676158732e-06 1.3074822838e-05 2.4564317367e-05 7.7503245784e-05 
0.00015689255493 0.00016840348768 0.00011583710653 1.6801233593e-05 -3.5372504625e-05 -3.9178233436e-05 -1.0792439431e-05 1.6720238166e-05 0.00014172334119 
-0.0002745579054 0.00033341726395 -0.00019031350549 -0.014930508438 0.019863742604 0.025795542628 0.041745290668 0.053225941445 0.059154399115 
0.058973483329 0.064999271131 0.068948293885 0.075333786522 0.073745464476 0.08019358779 0.11733632844 0.17296009546 0.086055428474 
0.087018830002 0.066098326907 0.067752410186 0.072047876862 0.061475849907 0.06006779969 0.05566779281 0.050093087953 0.059640121994 
0.031935450746 0.024677236618 0.00011353220585 1.0252415656e-05 -7.3207715738e-07 8.0705983177e-07 7.3084858435e-07 -8.1979302398e-06 5.3299851085e-06 
-4.9239864592e-06 -1.6523025599e-06 -5.3898035358e-07 4.1181667481e-07 -1.0625038958e-06 -1.6061262008e-06 6.2150673486e-05 0.00070728736848 0.0010943766678 
0.0012071984485 0.0010730947175 0.00078568865204 0.00043798544559 0.00015202163013 3.9200111142e-06 -0.013338409407 -0.0023538872058 0.00025715938986 
4.1192513911e-05 -4.8981260677e-05 5.4151654675e-06 -1.7121423022e-05 8.0135130667e-07 1.9055145939e-05 -5.4938651298e-06 1.2609808147e-05 -9.7501617842e-07 
1.1567619014e-05 1.4648933561e-05 3.8134619219e-05 5.3041641635e-05 6.2694130412e-05 7.4194399733e-05 8.6538798121e-05 9.0263491174e-05 0.00010343238034 
7.9041417369e-05 3.0574670339e-05 8.1835267132e-06 -6.3682226211e-06 -2.8489162905e-05 2.919484223e-06 -3.3377816649e-06 1.6231179205e-05 5.5234696246e-05 
7.8681835851e-05 7.4346698975e-05 5.2676786913e-05 5.5530778919e-05 4.4911107648e-05 5.1267546943e-05 2.4200977618e-05 -1.7232109157e-06 6.8511693545e-07 
1.9979786107e-07 1.0319526775e-06 6.7111051678e-08 7.6416327391e-06 3.1549108936e-05 8.1912560633e-05 0.00012659336953 0.00015864084587 0.00015945770245 
4.1238948221e-05 2.1770436088e-05 5.5812250802e-05 6.1709701753e-05 6.4791267246e-05 7.5417595059e-05 0.00026044360374 -0.00019833160024 5.4757547651e-05 
0.0010536321225 -0.14529776512 0.064769958576 0.024241595853 0.043229975562 0.051291929196 0.055397307226 0.063561053347 0.065235421598 
0.066855210564 0.066118886733 0.069927450109 0.079651904386 0.086269860139 0.17169402447 0.092174659864 0.079035809553 0.066659716347 
0.086482479467 0.069806357124 0.062784005345 0.065814744922 0.063350427717 0.059427341968 0.056176196668 0.039141052074 0.020683075071 
0.020633188221 -6.5357326844e-06 -5.1404935718e-06 -1.1672097514e-06 4.9769566473e-08 1.1803754399e-07 -3.3105745251e-06 7.9289456341e-06 -2.1601914084e-06 
4.0440890622e-06 2.9040546146e-06 -1.8913360298e-06 -1.838472144e-06 -1.8222444695e-06 3.0486503753e-06 -2.2646910692e-06 1.8518488096e-06 -4.6346611424e-06 
0.00019164223776 0.00051666219639 0.00068001585599 0.00071596648089 0.00067232256057 0.00055119186134 0.00039864519768 0.00025035249751 0.00012117649613 
2.7126984893e-05 0.0044458371413 0.0040416811983 0.0023432341263 0.001425545747 0.00093848723429 0.00062481679151 0.00048591727645 0.0003136439422 
0.00018789305054 0.0001457436993 0.00011137181835 9.3601480201e-05 7.9108010112e-05 3.8799464125e-05 1.5937373922e-05 3.5733886561e-05 -2.4504644099e-05 
-1.5817384656e-05 -6.1418201047e-07 9.373288862e-06 2.3375723487e-05 -1.7959716677e-05 -7.9284141331e-06 2.0990495421e-07 -1.3881575501e-05 -2.8727410668e-05 
5.2236896251e-05 2.775925129e-05 0.00023937072597 0.00069300884079 0.001137976793 0.0010394641456 0.00061978020511 0.00013273329731 -2.1531121899e-06 
-3.5813120012e-06 1.4895739841e-05 4.622700868e-06 -1.7605658604e-05 -1.1892394304e-05 -2.5906341944e-06 -3.2341593706e-06 3.4492949901e-06 -9.9258796721e-06 
2.7018071332e-05 2.1298905798e-05 2.659269161e-05 3.6981034889e-05 1.1857988726e-06 -3.1805235989e-06 -2.0886481191e-06 3.7729225014e-06 -2.6110061351e-06 
0.00025256044434 0.00077467743326 0.00082795647118 0.001069009194 0.0019403871114 0.0038446837983 0.0093675796645 0.011827771573 0.042400244786 
0.062566838256 0.068995548903 0.073184964224 0.077577242456 0.085436619552 0.086927671238 0.080691846247 0.090807412025 0.091227293639 
0.093517459721 0.09468960369 0.085903683462 0.093977695612 0.093887591775 0.094938055725 0.089604286717 0.088496585134 0.079250274536 
0.085030105716 0.083893389672 0.07784692874 0.070731546748 0.050413164375 0.044502394836 -0.0082111373082 -0.0084854219067 -0.0090653901127 
-0.0091944096475 -0.008690525336 -0.0089395825476 -0.0087853741994 -0.0091216744295 -0.0086794955942 -0.0049234231369 0.0047421165648 0.017969536118 
0.0041720923328 0.00098709015464 -0.0027889402729 0.016624771298 0.0076731291693 -0.003474244784 -0.0082194369726 -0.010082603776 -0.009839897142 
-0.0099312489391 -0.0098906104639 -0.010418099032 -0.013163527722 -0.01190017097 -0.007623505756 -0.0082697517322 0.015607348961 3.6413215295e-05 
-3.4089510769e-06 0.0093644591784 -0.0020201069054 0.068729046211 -0.0038161711294 0.04546711423 -0.0065112765295 1.0878035644e-06 2.1917928905e-06 
5.7537357811e-07 2.1011101458e-06 -3.0956306416e-06 -4.5135195645e-07 2.4988876403e-06 -1.9500967846e-07 -1.725056042e-07 1.4949227335e-06 1.6116808227e-06 
-2.9239908553e-07 -1.1201595774e-06 -6.8278778817e-07 4.6556185324e-07 -2.2178405042e-06 3.7207766195e-05 0.00024620966153 0.00037380555525 0.00042420959203 
0.00040597301339 0.00033235400379 0.00024558142413 8.1989807413e-05 0.013939696833 0.009054649467 0.0060506958473 0.0042638215143 0.0028800130953 
0.0019808500412 0.0014074225083 0.0010194807098 0.00075089380227 0.00056349899653 0.00046666787082 0.00032949267159 0.00017069045903 -1.4828194671e-05 
5.3804880453e-06 1.2171536048e-05 -9.9648880538e-06 9.4952003218e-06 -7.0991891818e-06 1.2204193541e-05 8.1958452023e-06 -1.0673073299e-05 2.8718045113e-06 
1.514721689e-05 7.2964940127e-06 -1.9132537864e-05 0.00028986406388 0.0019798742973 0.0038753134027 0.0045325369515 0.0030506839065 0.0013224148689 
-8.8135624649e-06 1.3234109352e-05 1.7206484115e-05 1.5976924071e-06 1.0348150064e-05 1.2017994654e-05 -7.1804943316e-06 2.8862052472e-07 -3.1098700271e-06 
4.0421372785e-06 0.033041660585 8.1938775829e-05 0.00010903580062 3.9842327948e-05 0.0081582208672 0.028237448104 -5.1001606402e-06 -1.0046140158e-05 
1.1599604378e-05 0.0025908837612 0.0036191048374 0.0040699012602 0.0060135792071 0.010168906735 -3.4636845072e-06 -0.00027329030063 -0.00023903902449 
0.061638738442 0.067077984032 0.074989263859 0.078466939951 0.083927631391 0.089060277654 0.092654365746 0.094482634849 0.096195326965 
0.097033408156 0.098538877253 0.098374263878 0.097812468543 0.09619463132 0.094515242516 0.092639568386 0.090311290978 0.086202333849 
0.082094531664 0.076268453313 0.069673337288 0.055885240547 0.00054006882873 0.0004563750927 0.00053297769778 0.00050726234415 0.00045572151388 
0.00045523217166 0.00048261450537 0.00051810317302 0.00054659640644 0.0045372290294 0.002503382293 0.013016160645 0.00012242738628 0.00028399012681 
0.0064722495919 0.0026678710334 0.0002349542606 0.00085578746897 0.00088675144756 0.00081305798852 0.00079367799031 0.00084158026268 0.00083132359349 
0.00054133508337 2.1457358515e-05 0.00023467565733 6.317788746e-06 0.018217452625 1.1468239847e-05 0.03998221101 0.00057804109841 0.00083184636424 
0.025325931238 0.023366915003 0.034216733667 0.035144399595 -0.00041075325051 0.033547048517 0.0018303452891 7.9352685831e-05 1.2593444523e-07 
-3.7371802346e-07 4.7318976792e-06 3.2557851029e-06 1.9628944353e-07 -5.7260774643e-07 3.0095213343e-06 2.0486884785e-06 1.119270182e-08 8.4257203663e-07 
6.3261012909e-07 -1.4733720573e-06 -2.9456347316e-07 3.3333619535e-07 -7.3601001167e-07 -1.229618477e-06 0.00012363393617 0.00022641359918 0.00025872408434 
0.00025593790729 5.4410318798e-07 0.00083581861469 -5.1211219885e-06 0.017228663822 0.012166451672 0.0087188182483 0.0059131853079 0.0040854899258 
0.0029916740782 0.0021868438124 0.0016944397138 0.0013546161363 0.0010167306529 0.0006471570273 0.00026497959408 -1.7679298325e-06 6.5739259116e-06 
5.3958253264e-06 -6.2966572537e-06 -5.2379863741e-06 -5.7599708821e-06 5.3593893254e-06 5.963738659e-06 -1.2835859829e-06 -1.4077195823e-06 1.5999123873e-05 
-7.4646874912e-06 5.6186575388e-06 0.0024992456085 0.0062125760567 0.011329746893 0.0083300197604 0.003807020593 0.00069794903843 -9.0537526228e-06 
2.086656273e-06 9.1694972671e-07 -8.3951069238e-06 -1.2395462623e-06 4.1845419527e-06 6.8816882024e-08 -3.848931157e-06 -9.7678094994e-05 6.0565953965e-05 
0.00013313964256 0.00015617241131 0.00016529713712 0.027299083315 3.1622107026e-05 -7.2608346242e-06 -9.4143520616e-06 0.0079053398999 0.0092003993416 
0.014363496003 0.024500999304 0.00056074170969 -2.6910711897e-05 0.0068490063025 0.0038290843525 0.052012657672 0.058369085989 0.064501799371 
0.069192334561 0.074326671423 0.078458532673 0.08043944673 0.081610601289 0.083010457339 0.084544262168 0.08437913065 0.082232069932 
0.080081175502 0.077804550682 0.075259955383 0.071148142064 0.066572498415 0.06102067399 0.055282209267 0.047985455898 2.029519275e-05 
4.4412647067e-05 4.1684584661e-05 2.5178543665e-05 5.2901669885e-05 -1.4816082674e-06 -1.9801143318e-05 0.01407251478 0.0010137478958 0.00070011383232 
8.5447305722e-05 6.2470804895e-05 3.5982960987e-05 5.1485525322e-05 4.8509101358e-05 4.773468792e-05 4.2804880959e-05 1.8126920252e-05 -5.9540816102e-05 
6.6892239051e-06 0.022946683242 2.3216589771e-05 -2.021995636e-05 0.0075383557507 1.884862764e-05 0.017056965037 0.00042211545424 0.00012005396223 
0.00017757398285 5.4973319689e-05 -8.0600183402e-06 4.7856218887e-06 -0.00012006994319 0.021785748786 0.0057378534848 -7.7659542434e-05 -2.3226035199e-05 
1.9880113001e-05 0.0072176986809 4.6226767104e-06 3.469761654e-06 -3.4631009686e-06 -3.0180808415e-06 6.312499818e-08 3.1559596969e-06 -8.4533373062e-07 
-1.3018309301e-06 -3.2636033112e-07 5.2208312772e-07 -1.6253603274e-06 1.7986455926e-06 3.3840657381e-06 1.9683129032e-06 1.1690264189e-05 0.0001252414055 
0.00017075075047 0.00017836560094 0.010957130644 0.00020480979458 -4.4061565996e-06 0.024479814035 0.018054402895 0.013013095943 0.0090848138668 
0.0064657454369 0.004769137032 0.0033903198791 0.0029933944679 0.0023180938688 0.0016769795249 0.0009725025249 0.00015949928281 1.3841072402e-06 
4.8351600984e-06 4.1548562353e-06 -8.0477966635e-06 -1.088086095e-05 -5.8753671387e-06 1.5340318831e-05 -1.6199766036e-06 -1.6740822244e-05 1.9612373423e-05 
0.00011707476152 0.0020768883081 3.0009548672e-05 1.2169508458e-05 -6.6001732043e-07 -7.3670582714e-06 -6.362089226e-06 7.5278196589e-08 2.798490289e-06 
3.7757368878e-05 0.034302965792 2.8537482948e-05 0.0017516487684 3.3749680027e-06 1.7779658245e-05 3.5264347591e-06 0.015958501622 0.012253639819 
0.0030415098002 0.00016828478515 0.0037066988084 0.0015930151246 0.047450590168 0.05064327274 0.055452582834 0.061835142463 0.066366651763 
0.067213765301 0.067212340997 0.069087763527 0.072754782254 0.068562476222 0.066298231701 0.064315037761 0.061472047053 0.057136308572 
0.052806909704 0.047720588525 0.04183423301 4.9620761555e-06 3.7854101243e-05 -7.5805233927e-05 -2.8701592997e-05 0.0042227640691 0.0032641405337 
-0.000117876441 0.00013724095547 -2.9353197141e-05 3.4851649286e-05 1.6776568037e-05 -1.5090043202e-05 1.5751784492e-05 -1.4238450977e-06 -1.678939013e-05 
2.4093747321e-05 -8.1620924962e-06 -1.4396441888e-06 9.9578836632e-06 0.0071711352356 0.0059365741696 -5.0657548824e-05 0.018432385007 -6.7992548646e-05 
1.5270224663e-06 3.4389272483e-06 1.5126542042e-05 -1.0375953517e-05 1.2613396212e-05 7.6461434507e-05 0.027883750912 0.010779100044 0.0080681853219 
-9.1976898754e-05 1.1723143326e-05 1.5855293145e-05 -4.2914016203e-05 0.012181930733 0.033454995187 0.012160011512 -9.3519364764e-06 8.8447247357e-06 
9.5905539671e-06 8.2923625002e-06 -7.4364457916e-06 -9.1621543563e-07 -3.05316711e-06 -3.4243844999e-06 -1.7146815857e-06 6.5192186521e-06 -1.9620038285e-06 
-1.5349914083e-06 -1.7813525391e-07 7.3094098196e-06 0.00014860007428 0.0082048615134 1.4263524885e-05 0.023143010938 0.016722122066 0.011589770473 
0.0083216856615 0.0057608774836 0.0045070905591 0.0031363698182 0.0023136617351 0.0010051803482 7.5821142867e-06 7.2642372269e-06 4.8005396773e-09 
-1.4535094382e-05 -4.1471818021e-06 -1.9712051027e-05 -5.5246131807e-05 -3.8490869978e-05 -8.2481323666e-06 -1.1499944442e-05 -1.0472781018e-05 6.5675464365e-06 
-4.252711495e-05 4.2937231231e-06 0.02498618391 0.0091040674442 0.013652583599 0.0001950730816 8.4598938036e-06 -5.4010264571e-06 0.037802794503 
0.044062064616 0.052815661213 0.055141175141 0.051646961385 0.052194794095 0.057547806688 0.052405130076 0.051389644228 0.049699060248 
0.044940940781 0.040309254074 0.036235200665 0.03111541339 -2.7058698133e-05 0.0056546495436 2.4992257543e-05 0.0033237841565 6.7923007857e-05 
-2.5017146706e-05 2.4723895381e-06 1.1271063118e-05 0.010982536341 3.1873165334e-05 0.014040316928 -3.1140105031e-05 0.01264008746 -8.9060147344e-07 
-9.1846316368e-06 5.3271338118e-05 0.040000545824 -2.2662303796e-06 3.6255916279e-06 1.138557325e-05 -6.0062658634e-06 3.0246259279e-05 1.3344669392e-05 
1.8770361528e-05 -6.5660896953e-06 0.022602155852 -3.3464902331e-05 6.1904080274e-06 8.2856703078e-07 -1.1963729027e-07 -4.1004270557e-06 3.4724000856e-06 
-1.9660009259e-06 0.01915927846 0.013099619865 0.0099408560372 0.011232704188 0.0072447733428 0.0048225030784 1.2269566326e-06 3.4483629766e-05 
5.6411766644e-06 0.03623655221 0.019927962708 -6.6466508187e-06 0.038474254262 0.036496973654 0.039045335323 0.036113689691 0.028313510509 
0.027107738511 -8.3204408527e-06 1.1083854803e-05 -2.0419531108e-06 0.001822526795 -5.9418012021e-06 -2.6504038685e-05 1.4134899116e-06 -7.4509973126e-06 
-1.8847814054e-05 -1.8624310547e-05 5.7137982943e-06 -1.994565768e-05 0.017359286843 0.025640660978 2.9993430667e-05 -4.6855853163e-06 -4.7906469509e-07 
1.2931969635e-06 1.394525692e-06 -2.780967149e-06 3.7301064788e-06 -2.5381073166e-06 8.8833399707e-07 -2.6086327189e-06 1.7324624712e-06 -9.0696275466e-08 
6.1717180374e-07 1.9954779121e-06 1.0432687196e-07 0.00027389589929 0.00051949643588 0.00062728862345 0.00055721942929 0.00041149130444 0.00024923546762 
9.9702546233e-05 0.022011481418 0.0053567384326 0.0024599981955 0.001326339984 0.00082882197218 0.00056942386951 0.00038197068216 0.00029189470667 
0.00022123940688 0.00014836293363 0.00010184037744 5.3337135824e-05 -1.0416710294e-05 9.3535783825e-06 4.8488986724e-06 -8.6414044892e-06 -7.3840732594e-06 
1.3498973757e-06 1.4653356758e-06 -4.9555397852e-06 5.8151152377e-06 -1.9947162957e-05 -3.5105168275e-06 0.00076395184322 0.00134752171 0.0011711036221 
0.00059187905171 5.7669178479e-05 8.4258027627e-07 -7.8822933067e-06 -1.5287605767e-05 4.0053383947e-06 6.1094905625e-07 -5.2653808637e-06 4.7453397653e-06 
3.6773823536e-05 1.6490060214e-05 2.5665709807e-05 2.3605602435e-05 1.1390996859e-05 3.2147454265e-06 5.0983554508e-06 -2.0214925364e-06 -6.5824946327e-06 
4.8806564883e-06 -8.8310342624e-06 0.00061802147744 0.00089307377971 0.00079401323988 0.000933516858 0.0015205045769 0.0031460964932 0.0068467399481 
0.0029916133778 0.036647867061 0.06429849791 0.071636589095 0.077534584348 0.083075914655 0.08835539373 0.095641588744 0.093523006355 
0.097617769728 0.095643164425 0.10185876819 0.096093193151 0.096053879465 0.094071238532 0.091850287245 0.090955946421 0.085946663166 
0.081407715723 0.075394290205 0.064874928884 -0.01204185453 -0.0082079155526 -0.0080918904669 -0.0089910993585 -0.0091822585652 -0.0089094527378 
-0.0088589529137 -0.0088029113563 -0.0086632724488 -0.0084276047404 -0.0036128091568 0.0046900284951 0.017049084085 0.0046126048974 0.018544487071 
0.0061185579914 0.016040488542 0.0051353806805 -0.0019209557435 -0.006604866394 -0.0083327235528 -0.0085508626905 -0.0081627453455 -0.0081125056649 
-0.0079713401713 -0.0071816454542 -0.0014267220857 -0.0097908855669 -0.006350115116 -0.014499053486 4.2837406861e-05 0.0052857904648 -0.026507014882 
-0.022153469843 0.047224738212 0.050975709242 1.8710688528e-06 8.3186007084e-08 -3.7100293771e-06 -4.833601829e-06 -6.7887893597e-06 -6.0417084698e-07 
-4.761896048e-06 -2.4609608801e-06 -1.2194042647e-07 1.386971407e-06 2.4714477183e-06 9.0348177218e-07 3.2833539332e-06 8.6407611776e-05 0.00026431571157 
0.00033100245943 0.00029287368745 0.00019918299711 9.9541979591e-05 9.9549935141e-06 0.0078782648162 0.014015676177 0.031531917525 0.0048946753937 
0.0032442157725 0.0022808544195 0.0016457747929 0.0011465256756 0.00083609045647 0.00060459206562 0.00037056199954 6.8382759764e-05 3.4792001359e-06 
-3.5364106249e-06 3.0465480282e-06 -7.6369615146e-07 9.0377117355e-06 3.1864602334e-06 1.4104677555e-06 -3.4186502053e-06 -1.2544331308e-06 4.9400887679e-06 
0.0014636484441 0.0043490098825 0.0053556710997 0.0035295775193 0.0010754331029 2.2112182894e-06 -7.896951567e-06 -9.0319832759e-08 4.8180956233e-06 
7.1241599675e-06 6.9993805116e-07 3.5540405142e-06 0.037083290988 8.6397860935e-05 1.3536664195e-06 9.6755470207e-05 0.037032731659 6.3912931318e-06 
0.023489220765 9.5281826526e-06 3.3341275247e-05 7.8680301234e-06 0.0018258596768 0.0035989942784 0.0039385462456 0.004340265877 0.0068395411054 
0.012033786521 0.0007244652832 -2.2049921221e-05 0.056966947477 0.072456607594 0.081221513952 0.085585110128 0.08794944097 0.090098493746 
0.091792516142 0.093326938228 0.09391059382 0.09292186658 0.090953235287 0.089316506349 0.086767140983 0.082028088604 0.076666782905 
0.070849615767 0.056085278075 0.00053491316598 0.0090733051439 0.036258330751 0.00046981677833 0.00056359073655 0.00056365333003 0.00048799911589 
0.00047787703529 0.00044219688495 0.00044215748776 0.00045037221086 0.0004676261179 0.00075611041739 0.0048684966554 0.0013228717641 0.0055590157068 
-0.00022389738932 0.0013229338943 0.000177126618 0.00016725684946 0.0002450567852 0.00023947947806 0.00024256755231 0.00020921199781 0.0003035755463 
-1.0109421886e-05 0.00028998030415 0.00024414372041 -5.4405287871e-07 0.0001339340341 0.0047924649156 0.0018722427561 0.0054635998195 0.0001555872986 
0.020565219929 0.00095329259094 -0.00027451977767 0.02814324864 7.4821279669e-05 -4.9185351162e-06 -6.3300701588e-06 2.9614658917e-06 -1.5498838254e-06 
-1.2284532584e-06 1.7938038203e-07 1.9111160643e-06 -6.5485258678e-07 8.5158370003e-07 9.8135233829e-07 6.4915829857e-05 0.00017289586891 0.00020718442339 
0.00015542768229 -2.8451399703e-05 -4.3445876236e-06 2.3006815162e-06 -3.8057347526e-05 0.012130029601 0.031700003025 0.0045380128587 0.0032399652635 
0.0023333803296 0.0016929850661 0.0011581494916 0.00055050749218 -2.1793755503e-06 6.3028693781e-07 -2.0367508367e-06 1.5734598948e-05 6.697753905e-06 
4.7458027841e-06 -4.8891004776e-06 -8.9642535081e-06 1.8354073862e-05 -1.814416985e-05 0.00035744383744 0.0066970880826 0.01221934138 0.0091003948031 
0.0039424629601 -2.8852115991e-05 3.0831007769e-05 -5.0320054056e-06 -1.4096593106e-06 -2.6828991403e-06 1.1182095306e-06 0.0066535059463 0.00014673924439 
0.019526508941 5.879485837e-06 0.0080851273831 0.0083834605526 0.0069338745552 0.010681950936 0.015991729353 -8.7523746809e-07 0.062551237174 
0.069650567801 0.071668764191 0.074090894091 0.076155249692 0.077285856643 0.077433092351 0.076115330712 0.073570112759 0.070161457301 
0.065086383723 0.059729145764 0.054676488346 0.046841619266 0.0088607865064 0.00051523307327 1.9374283651e-05 8.5953897765e-06 2.9457847262e-05 
2.7397859238e-05 2.6618429554e-05 3.007791652e-05 3.1821840143e-05 4.2334481273e-05 -2.9213117147e-05 -0.00016021888977 4.2521454186e-05 1.3374221688e-05 
1.3456845065e-05 1.3709232076e-05 -1.2368912906e-05 -7.1300812663e-06 2.2569775654e-05 8.8709166841e-06 -2.5679919858e-05 -0.000153631363 0.0022317899815 
0.019680774556 0.0012745699905 0.0097753933152 0.066991775959 0.02600418618 -3.8613206574e-05 -7.8576640243e-06 -3.9204734694e-06 0.00020662938601 
1.7334824955e-05 8.7570631012e-05 2.8006681901e-06 -0.00047545784383 0.002587373483 0.00023189418874 -7.6490885004e-06 0.017835917356 0.029457402875 
0.017625254014 0.0001555014228 0.00049319868301 0.049296969053 -2.7453495054e-05 0.0054623198495 -6.55516113e-05 -5.3771901802e-05 -3.2237397425e-05 
0.0028329851292 2.1862620805e-05 1.5790350163e-06 -2.7076520361e-07 2.7648348434e-06 6.9652713655e-07 -1.8385378384e-06 -4.5998834703e-06 1.7737300763e-05 
0.00014416205859 0.00016456660526 -2.3419289725e-06 0.0072261230272 0.0035753875522 0.0049780152386 0.0070018165098 0.0025624531636 0.0015818335973 
0.00048934150193 8.9930950329e-07 -1.2240156703e-06 1.53482479e-05 6.4110612358e-06 -4.5878837229e-07 8.6966586715e-07 -1.0547536526e-05 0.0078410461626 
0.00068550111394 2.9196697394e-05 -4.1394176959e-06 -1.1364027071e-05 -8.7847232495e-06 -1.3082731281e-05 7.0047238263e-05 0.0096717641782 0.056016751281 
-3.534227562e-06 -2.7410953426e-05 0.011842360884 -4.8962938934e-06 0.01830385209 0.012265076365 0.01331812523 -6.63810098e-05 0.059398563963 
0.017139040819 0.05248244414 0.060826431001 0.062137556274 0.061695104618 0.059348544394 0.055756714747 0.051112378046 0.045401754693 
0.039169213911 3.7442039922e-05 4.7293607361e-05 0.047473367867 -2.5002620675e-05 -2.0362375611e-05 -2.5442076423e-05 -5.6530809558e-06 3.764933021e-06 
7.9598115568e-06 -0.00011493891806 -6.1881613165e-05 5.7180853504e-05 -9.9385570485e-06 -1.1466319989e-05 1.0920497417e-05 -3.4326960953e-05 1.6348306932e-05 
1.2333747314e-05 1.4631729246e-05 1.1763176539e-06 -1.0068735005e-06 -6.6762989941e-06 0.034283625822 1.1041563718e-05 0.021537288953 0.00019226608627 
0.01094406863 0.00062050403026 4.2695646907e-05 1.0629207806e-06 0.014495840656 7.5624051962e-06 3.6112141288e-05 1.431030094e-05 0.035213658212 
9.0502889427e-06 1.3179490984e-05 -1.6841728561e-05 0.05379021123 9.3050053046e-05 4.1578909034e-06 0.0034190014925 0.0038731930859 0.020484414267 
-1.2703313275e-05 -3.2835366362e-06 1.4726674646e-06 3.9185372054e-05 0.0032349608992 0.0063045400311 1.6904769608e-05 3.369346166e-07 0.0080851680835 
0.0045725920277 0.0089978462527 0.0017318912013 2.2424003214e-06 2.055291287e-06 -5.2168034633e-06 7.2665189721e-06 -1.2054522595e-05 1.6364616996e-05 
-3.4712797786e-05 -1.0097350449e-05 1.4816737438e-05 3.2917862604e-06 0.043794425902 0.0061370365257 0.04346967062 0.010651985018 0.010119148001 
-1.6460229425e-05 0.045647119964 0.035598594624 0.012651219645 0.046850656691 0.046418899417 0.043627136635 0.038736446593 0.03317403346 
0.026295891542 0.0076218933621 0.0057373463981 1.6088712922e-07 -4.7424641565e-06 4.4970000406e-05 -5.4295524863e-06 8.9879934484e-07 -3.4896577227e-05 
0.018677637471 -1.9265415247e-05 -1.5496497433e-05 0.00015464087957 -2.4408146334e-05 0.011906435533 -1.6860800776e-05 -2.9486386599e-06 2.5115242318e-05 
0.016576193052 0.0040068147136 2.3284777486e-06 1.1530870515e-05 1.4339479733e-06 1.5111059068e-05 -1.3930788845e-05 1.9302164353e-05 -1.0331068004e-05 
-5.9244977799e-05 6.9272787964e-06 0.016390162321 0.0012999261546 0.0036881510675 1.2066919319e-05 0.032503989697 2.7391551957e-05 0.014907674231 
0.034107384805 0.028450157018 0.024389931947 0.02084470213 -3.9601653535e-06 0.0099203903719 3.2217382644e-05 0.019911110282 0.0097760516236 
0.029778980565 0.033797077779 1.448545535e-06 0.0050955738211 -4.7353953481e-06 0.015051744616 0.029717050644 2.3008992201e-05 -1.1709346845e-05 
3.8943068322e-06 0.0062290704022 0.0071463848709 0.022019489948 -2.1497285158e-05 -2.1141412486e-05 2.0002079273e-05 0.55952200694 0.5615140119 
0.34657394469 0.18711884868 0.17209951255 0.17107573365 0.26194998847 0.26179800855 0.2607320134 0.17693356375 0.26099698995 
0.26049904855 0.26108600332 0.18254308199 0.25859900303 0.25891799883 0.25646910777 0.25662398432 0.26318221774 0.26019827884 
0.265289343 0.27222841147 0.17552469991 0.20409261235 0.28294541886 0.26739153899 0.26420754669 0.2210894651 0.21470639613 
0.24395829159 0.26480636911 0.26124033226 0.24319429457 0.20630715171 0.24042198673 0.26263400138 0.26178799984 0.24273300975 
0.20772400001 0.24347003766 0.26195403788 0.26360004809 0.26492400118 0.24404108754 0.24685302101 0.26295799339 0.26316099505 
0.26443436394 0.24564336461 0.21403148357 0.23224452562 0.31998394167 9.6721721576e-05 0.00012226730697 3.7226993045e-05 1.3381409126e-05 
2.936420283e-06 -8.3729551191e-06 -2.2246559486e-05 -3.7820407002e-05 -3.278570258e-05 -3.8193903801e-05 -3.4071528759e-05 -1.1890151802e-05 -6.977340137e-06 
-3.1990744024e-06 1.7439772965e-06 6.8741160155e-06 1.2905287048e-05 0.00023471136059 0.00074007834235 0.0010844001937 0.0012280124698 0.0011909800308 
0.0010287922151 0.00078602666196 0.00050468806758 0.00023808119131 4.1165488681e-05 -6.1399815563e-06 0.056702653585 -0.0058665818198 -0.0032618459258 
-0.00049879252274 -0.00024611325119 -0.00023453756225 -0.00019126877076 -9.6573927394e-05 -4.6419258183e-05 -3.0671162459e-05 -2.1301563217e-05 -2.816885911e-05 
2.4514298864e-07 1.3797173756e-05 -8.8538195669e-06 1.6892054497e-07 7.8484208319e-06 8.5632886863e-05 9.877972511e-05 0.00010323612838 9.3756538523e-05 
7.27994044e-05 0.00013641616635 0.00015905624229 0.00016995333409 0.00021595862784 0.00018653155161 8.381634686e-05 6.0789832031e-05 -4.4693736617e-05 
-0.0001157965561 -0.00018957211083 -0.00012003271854 -0.00010904165916 -1.6083433105e-05 4.149672424e-05 0.00010940763537 0.00011812841229 8.8299896592e-05 
0.00010960507378 0.00012967257876 0.00011109148225 7.7936452704e-05 4.6727730312e-05 5.2725626302e-05 -4.8663052091e-06 -2.9012687021e-06 -6.9130357951e-06 
-3.6629036919e-06 -2.1412672464e-06 -1.6780934265e-06 1.5348021125e-05 3.6947170741e-05 0.00013611602446 0.00032667674717 0.00042842871411 0.00041290568664 
0.0001583000856 -3.951287635e-05 -9.4359627824e-05 -0.00015081849314 -0.00014600803114 -0.00022950587637 -0.00057467425349 -0.002758626053 -0.0018909649837 
-0.0027752703665 0.12523948541 0.10573815506 0.053145089946 0.053677250358 0.063923119033 0.074011833791 0.069044323536 0.080985030642 
0.083936374579 0.093813887029 0.093429851007 0.082103882784 0.13520563447 0.11110216552 -0.052636157756 0.15487655635 0.13253507919 
0.10076259509 0.098300674726 0.083097062056 0.085361371302 0.088249264368 0.077883582571 0.074009107921 0.068129295937 0.065437947829 
0.046245642246 0.050661138811 0.099811443379 -0.036983028358 9.2310845655e-05 0.00011008891254 2.8570697415e-05 7.4172970838e-06 -1.4885760816e-05 
-4.6116211975e-05 -2.8918740676e-05 -3.0385294883e-05 -6.9674668547e-05 -4.5636236253e-05 -1.2453360899e-05 1.7058848237e-06 2.1302688447e-05 2.6860828287e-05 
0.0004556489684 0.00097318651615 0.0012087765455 0.0011915750622 0.00095857455163 0.00061495551161 0.00027372866562 4.6687520283e-05 -4.4070879558e-06 
0.11867343208 -0.0061331402787 -0.0017598098232 -0.00035320732397 -0.00018774964376 -0.00034474498641 -0.00012389173622 -4.8802039762e-05 -2.626446388e-05 
-9.1642016118e-06 -5.6927901055e-05 -2.535669167e-05 -1.1429188338e-06 4.1246500521e-05 5.1703329273e-05 9.100366344e-05 0.00014447234833 0.00016634165748 
0.00016899682294 0.00018712900257 0.00021184194239 0.00022102968878 0.00020797807334 1.7558191013e-05 -9.3701322824e-05 -0.00021884076662 -0.00022333329136 
-9.6867748448e-05 -1.1207211224e-05 9.7649940491e-05 0.00016844230294 0.00016960694533 0.00015652051775 0.00011805741243 0.00011883799562 0.00011671948684 
9.5515754759e-05 -2.79942311e-06 -1.2914511148e-06 -4.0093523393e-06 -3.4372524473e-06 -2.8452858594e-07 -6.986415566e-07 -1.3788652054e-06 2.055228884e-05 
7.8639340614e-05 0.00019450174032 0.00034569174109 0.00043650541385 0.00030924977824 4.9900230014e-06 -3.3017131001e-05 -3.9571854194e-05 -2.8721381841e-05 
-5.8410403523e-05 -0.00014638807243 -0.00073075310941 -0.0013011477781 -0.0028918843008 0.0020339463053 0.062799792783 0.073604505554 0.041001963096 
0.06007608804 0.059121243903 0.066617206007 0.082367896643 0.077479645929 0.080710996627 0.082326751759 0.083059046703 0.097625423207 
0.1186712858 0.16298823122 0.098425633962 0.044621275577 0.10500380979 0.13180718726 0.08483263345 0.079922864408 0.084348345997 
0.085485691327 0.07286972216 0.081183403232 0.076813115536 0.073651947278 0.079289362283 0.037132018902 0.032858829506 0.024697890884 
-0.0067096235803 2.9966758167e-06 2.3649814743e-05 0.057599915463 -0.0082501055639 0.014688683023 -0.004991915863 0.34958997031 0.35388796483 
0.27083112601 0.25248394747 0.22474762306 0.21392099844 0.21421864617 0.20547489515 0.20383914585 0.19869728964 0.20698404273 
0.20469141887 0.19542280745 0.20643975996 0.19683926684 0.20092799972 0.199296998 0.20337303345 0.21627306436 0.20953317104 
0.21105742604 0.2144775628 0.20973117193 0.20065517589 0.20074200001 0.20435438493 0.21278101179 0.21144984811 0.20832243945 
0.21290925497 0.20410119415 0.21924867347 0.19970308253 0.19569248678 0.21327767804 0.193808248 0.2053561449 0.19683059742 
0.19832273778 0.20768265249 0.19372704328 0.20857203757 0.21687999711 0.23030600325 0.25430372362 0.20634456964 0.20391529738 
0.20178087344 0.22591291344 1.7964717838e-05 -2.5233271624e-05 -7.4741974735e-06 -1.7066294889e-05 -2.5360632899e-05 4.3623302074e-05 -2.3378245348e-05 
-1.4041717593e-06 1.8985053471e-05 -8.2955437758e-06 1.4992413812e-05 3.7789268236e-06 5.843946324e-06 5.7871576101e-06 -1.0888610698e-05 8.0483185285e-06 
1.8796355124e-05 -2.8919158727e-05 2.9521359055e-05 2.7863842718e-05 -3.8256327191e-05 1.6952614325e-05 1.8371432513e-05 -4.0837198973e-05 2.9170258103e-05 
2.9612286813e-05 -4.7084166796e-05 2.9036924285e-05 1.5351217039e-05 -4.4121841208e-05 4.7423223975e-06 1.695796519e-05 -4.5594491564e-05 2.5335061566e-06 
5.4806916911e-06 -2.1618214468e-05 1.0641217764e-05 -3.8078265998e-06 -1.3335298461e-05 5.0746779539e-06 4.626930798e-06 -1.1505125299e-06 -8.7759946008e-06 
-2.8874414914e-06 3.0408779921e-06 -5.770153103e-06 -9.9276589759e-06 1.9967267774e-05 -1.8626927893e-05 6.5327255305e-05 2.1283997964e-05 0.00030324933178 
0.00052578219364 2.399392307e-05 0.00068740341488 0.00082432912962 0.00040030636231 0.00090717829747 0.00092872168057 0.00063208584143 0.00094176074715 
0.00090748741637 0.00073489172887 0.00088183139832 0.00078056833538 0.00071980298141 0.00071906955659 0.00059414166239 0.00062896857247 0.00051515873994 
0.00038711136665 0.00048073829122 0.00031328655289 0.00020804973338 0.00031731596863 0.00013443643997 7.2091314429e-05 0.00017142999285 1.6973343524e-05 
1.5837027711e-05 1.0072711819e-05 6.0984428086e-05 0.0072412100476 -0.014557962189 0.0064156615839 0.0055946930962 0.0026384617749 0.002760798184 
0.0021435617357 0.001400437797 0.00036136073607 0.0010094582091 0.00087414585584 0.0006335466673 0.0006197690228 0.00056775113134 0.00046265046153 
0.00036946440772 0.00034465884108 0.00043547635158 0.00023269318726 0.00031256151717 0.00024584391493 0.00019865575958 0.0002363822627 0.00013246048546 
0.00011194012151 0.00013830897046 5.4702885288e-05 7.2720851529e-05 9.6868094269e-05 5.1243830326e-05 7.0286343563e-05 7.3342032363e-05 4.0636601575e-05 
3.3990931738e-05 6.9727441062e-05 5.9354472723e-05 2.2682998842e-05 6.4143038141e-05 3.2949135748e-05 1.6281685211e-05 5.270361435e-05 3.1014451575e-05 
2.1403926754e-05 1.5521210448e-05 1.0655768437e-05 8.3822075803e-06 4.1271840063e-05 2.6583739178e-05 -3.817054902e-05 -1.0976761018e-05 3.305124873e-05 
-6.6043188017e-06 -2.1220382157e-05 2.582203713e-05 -1.5903148548e-05 -3.6572768119e-05 4.6250998251e-05 -1.3799892512e-05 -5.572776207e-05 5.017338882e-05 
-3.5340837512e-05 7.5215642189e-06 7.3571411565e-05 -4.9814385496e-05 -5.6409728791e-05 8.4371301747e-05 -4.3826868666e-05 -3.8190515608e-05 6.7696347458e-05 
-2.975463596e-05 -4.0828906208e-05 7.3049822599e-05 -4.4892780543e-05 -5.5978563255e-05 5.9182049116e-05 -7.1746311329e-05 -7.3305179398e-05 7.0123902969e-05 
3.4131509176e-05 -3.693574553e-05 0.00010882019143 -8.204475076e-05 4.0018988002e-05 5.7555181027e-05 0.00013077148658 0.00015725708024 2.5636892367e-05 
0.0003972674507 0.00045217842741 0.00025118881771 0.00060205548322 0.00053002094533 0.00050835814195 0.00054061695029 0.00054807436057 0.00081461088082 
0.00040908633791 0.00030145390223 0.00055604450544 0.00014517245953 9.2082228603e-05 0.00023752983956 4.3497248136e-05 -3.9282948196e-05 1.3654699376e-05 
-1.0623185169e-05 -4.6107713223e-05 3.6891057633e-05 -2.4900329221e-05 -4.6240645308e-05 6.7417757423e-05 -6.4777900359e-05 6.5939811866e-07 6.7915733691e-05 
-4.5898575137e-05 -3.460194755e-05 5.8289538365e-05 -4.1699769069e-05 -2.6916947733e-05 5.576072822e-05 -3.612816918e-05 -2.8495978849e-05 4.9757943556e-05 
-2.8670019947e-05 -2.7447630184e-05 4.838026522e-05 -2.9710257601e-05 -1.5598086609e-05 4.7036047555e-05 -1.637125506e-05 1.9619188185e-05 4.3971594041e-05 
1.6184639767e-05 8.7851700206e-06 1.5491195629e-05 6.0037126557e-06 2.2731638879e-05 1.9096295978e-05 2.9667137398e-06 2.5576662185e-05 2.8474277713e-05 
-3.1380422216e-06 3.3594965621e-05 2.2458704375e-05 -4.0919505887e-05 5.2350674902e-05 7.3478124872e-05 -3.7085403847e-05 3.7251640033e-05 3.4957091394e-05 
2.189702736e-05 -3.4164931781e-05 0.00010832478685 2.4832246946e-05 -0.00011147260356 0.00013551991671 2.1676471698e-05 2.7716717025e-06 0.00034198839226 
3.2060588509e-06 0.00027786162557 0.00051959198571 0.00030055853703 0.00037391300383 0.00057314016753 0.00056213303904 0.00047015055681 0.00076544501869 
0.0006149074978 0.00077531130131 0.0013900699034 0.0010150266235 0.0015239563312 0.0027252308645 0.0021724862867 0.0047898226404 0.0058732102126 
0.0068863124404 0.014654240795 0.0063360102029 0.029631669881 0.10355200943 0.092956468676 0.10781980567 0.099031254966 0.051611018462 
0.10188496918 0.10220723878 0.065184635665 0.0903094635 0.099126874715 0.071121685436 0.10087721788 0.10434334573 0.087533129794 
0.10070878636 0.10704249476 0.094885919863 0.10810928007 0.10531647003 0.097430753153 0.11516961312 0.11445065305 0.090050558578 
0.10246503923 0.11247467771 0.092567666716 0.1156230593 0.11540690956 0.10354122478 0.11529125282 0.11731713289 0.10743726258 
0.11719588932 0.10942726922 0.10733488139 0.12018144848 0.12217716752 0.097389730919 0.11229135546 0.11732930443 0.096946640852 
0.11912173877 0.11554963954 0.10521122915 0.11409231548 0.11346397708 0.1080010758 0.11404123263 0.11383710904 0.10628174705 
0.1094671736 0.10194896384 0.10506485541 0.10378088123 0.10683273519 0.094342011792 0.11087694378 0.10563694599 0.10212948098 
0.10618584839 0.10133383839 0.097172392516 0.10167605941 0.099263343821 0.09019197896 0.094865730574 0.083707848476 0.080744471776 
0.093592926898 0.094977752122 0.063421079246 0.089364231277 0.089168250494 0.049020273254 0.0087535007942 0.0044139661418 0.0063531164109 
0.0052776104642 -0.0051361763799 0.0064671948472 0.0046109201923 -0.0038050938075 0.0037587496042 0.0026070336339 -0.0031557988239 0.0023985928265 
0.0022293097329 -0.0024443642732 0.0048896367475 0.0037461392656 -0.0020007097691 0.0032478048918 0.003298390412 -0.0022276077496 0.0028882182132 
0.0031361307069 -0.0023870495355 0.0022686687601 0.0040516289808 -0.0022796013642 0.0032226953452 0.0028194787927 -0.0017740208756 0.0074943706966 
0.0066422292192 0.0027969530119 0.022395555589 0.017645562481 0.014234939305 0.0083805713358 0.041196690235 0.016592385558 0.087271475805 
0.044496415219 -0.001925318945 0.044927974622 0.034126622019 0.018392280886 0.0043815887845 0.010493593716 0.0091708992605 0.011680976347 
0.0036167481571 0.0083991362152 0.0029273071166 0.0061096067484 0.0066312504661 -0.00020787242782 0.0059303539918 0.004110139703 -0.001161283539 
0.0043234945863 0.0064454135379 -0.001352994057 0.0047355059199 0.0052781367461 -0.001440615804 0.0052912268667 0.0050682017218 -0.0016198451442 
0.0064999905028 0.0076917964213 -0.0020293286739 0.005893824957 -0.00047084771789 -0.0025415932838 0.005092910152 0.0018876147639 -0.013899446197 
0.0015621943001 0.0060439192521 -0.016059429667 0.0083786420765 0.00510231871 -0.0037781027824 0.076751611322 0.0443801646 1.4367727454e-05 
0.059792381278 2.4361290725e-05 1.3373097061e-05 0.029251167493 5.3379103312e-05 -6.1334315118e-05 0.005550970269 0.0037937650665 0.0051709099989 
7.7373901389e-06 -0.0087170356001 0.014114743144 0.044439877573 0.067853755621 0.035458019886 0.020235965613 -0.0042945701842 0.049385366374 
0.032396511238 -0.0053574946344 0.014304247476 -0.018467670539 -0.0067382530467 0.014672849976 2.4035769503e-05 0.020700559235 -1.8260279207e-05 
5.8222864955e-06 -1.8350662619e-05 1.5625804644e-05 4.2331076145e-06 -1.0932180685e-05 1.0686241869e-05 1.5228466723e-07 1.0020721733e-05 1.6454864046e-05 
-8.522118022e-06 1.9471892471e-06 2.8480259813e-05 -3.1369227258e-05 1.3717051386e-05 2.6819911353e-05 -4.9661714885e-05 3.398945784e-05 2.9159872805e-05 
-4.1671552446e-05 3.0554447674e-05 1.0462019292e-05 -3.8339276175e-05 2.5732803313e-05 6.1364136556e-06 -4.0976908407e-05 1.578311732e-05 1.0149415549e-05 
-2.7009674248e-05 9.7280303017e-06 2.0189523404e-06 -1.0656779384e-05 8.0238211773e-06 -3.766099209e-06 -3.4826710594e-07 -1.8968707621e-06 -4.2861990568e-06 
-3.4783162808e-06 -9.035491835e-06 -2.1415185764e-06 5.0530581118e-06 -7.1212165139e-06 -1.1418389165e-05 1.8928540337e-05 -1.4220184557e-05 -1.2308671933e-05 
1.9202123261e-05 0.00010177640469 0.00024851544451 1.6696563236e-05 0.00035924481337 0.00044038610977 0.00017264551839 0.00051128961131 0.00052952068559 
0.0003432284745 0.00055357182645 0.00053807517576 0.00042506936509 0.00052148995681 0.00047670978515 0.00043020748004 0.00043117353209 0.00036628347636 
0.00037859644794 0.00032132715423 0.00025137995256 0.00029448919833 6.171760537e-05 4.1839493568e-05 -2.9379350048e-05 0.010803179051 0.0074318165744 
0.0071646861834 0.0053068318368 0.0094695955609 0.0044253193272 0.0035252070732 0.0066350839506 0.0029506783995 0.0024775256479 0.0046049327864 
0.00196291261 0.0017188233855 0.0030387308818 0.0013726226857 0.001237104653 0.0020809512187 0.00096819518041 0.00084746284078 0.0014380454052 
0.00067542112565 0.00061346767784 0.0009918100169 0.00046182986732 0.00045593985321 0.00077077256645 0.00034984761182 0.00038811850198 0.00058828672268 
0.00029333743312 0.0003115007526 0.00043455558216 0.0001829600455 0.00021199822102 0.00034957656516 9.9240808505e-05 0.00010788359044 0.00021351095994 
-1.3317901639e-05 2.6159949863e-05 6.7322918448e-05 -1.85754929e-05 -2.889880598e-06 -1.6622963036e-06 -2.7662401714e-05 -1.4550204736e-05 5.7895860493e-05 
-5.2577160506e-05 -4.8474551706e-05 7.7723070519e-05 -1.7547583354e-05 -4.6508608164e-06 6.5998257782e-05 -6.2126417554e-05 -9.6099656595e-06 3.8042747519e-05 
-3.9784055223e-05 -2.645933621e-05 7.5395023622e-05 -4.1271281342e-05 -3.5916676406e-05 8.8560132088e-05 -4.9718293896e-05 -5.9362543323e-05 5.3576808403e-05 
-2.5540454657e-05 -4.72543595e-05 1.7028508781e-05 -1.3299693061e-05 -5.0098264684e-05 4.2752431693e-05 -1.397708882e-07 -1.5704228416e-05 4.0686813175e-05 
1.5854725166e-05 1.0722632201e-05 -1.9951340875e-05 3.6988505067e-05 0.00042565641196 -0.0001077559485 0.0010001813419 0.0016040240692 0.0010145148852 
0.002267777181 0.0026727055259 0.0026966093275 0.0030158802177 0.0027587686777 0.0038921031005 0.0022732260529 0.0016990183978 0.0036272253218 
0.0012257735576 0.00060728429128 0.0021030099713 0.00019609771425 -6.2518760766e-05 0.00068857221856 3.4124422189e-05 -5.3546403189e-05 7.9922716067e-05 
-1.9274246507e-05 -1.629567107e-06 8.0751004608e-05 -7.1579915734e-05 1.886425965e-06 5.5045285091e-05 -6.1714200908e-05 1.2221023226e-05 9.0791412611e-05 
-4.4424355747e-05 -1.4086226754e-05 9.0271556977e-05 -5.7701019174e-05 -1.6948808761e-05 6.1457175278e-05 -2.451129784e-05 -7.1710559374e-06 3.1729536531e-05 
-3.5831048701e-05 -1.71445067e-05 2.7051881443e-05 -2.4110888462e-05 4.1968083424e-06 3.4944781808e-05 0.046992032168 0.01747893824 0.016697823058 
-3.6908408742e-06 5.5451355295e-05 4.9465017714e-05 7.3173807646e-05 4.6001873504e-05 0.00010577441182 6.2896268002e-05 -1.8725076878e-05 0.000104114544 
0.022025195541 0.0091217790427 0.0073451224431 0.016403760578 0.05964798086 1.3216634336e-06 8.1143381175e-05 -0.00013942334162 0.0001841740675 
4.2324806489e-05 -0.0002502703752 0.00060855625096 -9.5964389675e-05 0.0011545643773 0.0019941316063 0.002213175458 0.0023648773057 0.0029365688922 
0.0024999673847 0.002842818651 0.003673344962 0.003425361756 0.0046127622643 0.004785665987 0.0057534865552 0.008195121538 0.0077232212187 
0.00015289320328 -0.00012580053465 0.0013950527928 -0.0042913549565 0.010904704619 -0.014539216977 0.0039365036689 0.063916941326 0.0672058192 
0.072237447109 0.075316551983 0.064578522552 0.084891570858 0.080521151213 0.07151771782 0.084481162627 0.084295434507 0.077633866795 
0.089708337 0.090499639424 0.082180006561 0.09107574792 0.090806919687 0.08655056139 0.091510893708 0.096418282663 0.091719436105 
0.10050009914 0.09823773671 0.095295003336 0.10038237838 0.099891144258 0.096523216331 0.10107750289 0.10242213962 0.097768469449 
0.10104324421 0.098295180787 0.099006698354 0.09877144561 0.10016438445 0.09924739782 0.10168871497 0.10135154273 0.099679786549 
0.10022395649 0.10047890239 0.098070537052 0.098837727014 0.09997019956 0.096563603436 0.097120870399 0.098312529242 0.094792133772 
0.095546236688 0.090982821409 0.093167671513 0.088665543777 0.090829199978 0.089834453719 0.08658435517 0.088545543851 0.085430981025 
0.081751160157 0.082937420936 0.079810724261 0.075309926535 0.077704935056 0.073304815897 0.066564845901 0.056397514128 0.063642072322 
0.050190510619 -0.00078418030351 0.00031849298559 -0.0013665952652 0.0015119716191 0.00034785929638 -0.00041368357537 -0.00051643828548 -0.00056442594465 
-0.00048366181211 -0.00046059604936 -7.1211185406e-06 -0.00055913802441 -0.00078616802568 1.8465696106e-05 -0.00079401925265 -0.00061287184907 5.2245756108e-05 
-0.00075412010608 -0.00063632572582 6.9543913947e-05 -0.0006423267829 -0.00032421402716 4.8812486845e-05 0.002619105399 0.0002126202299 4.2468659759e-05 
0.011493190757 0.005400872586 0.0012266865097 0.0075180990417 0.0095857352892 0.0017483610383 0.024967143062 0.011314003618 8.3881979131e-05 
6.4742728292e-05 -0.00033252749694 -0.00014080988364 0.015272793882 0.0067626345834 0.0031929674286 0.0019338171195 0.0032397445532 -0.00016238477291 
-0.0013237568046 0.00058295824836 -0.0011229003155 -0.00060111324871 0.0010206175956 -0.0010279595857 -0.00060102393096 0.0013423562737 -0.0010952181666 
-0.0010062159469 0.0012664892074 -0.0011805808259 -0.00083047615423 0.0011614333878 -0.00077942218641 -0.00087382374971 0.0010189786454 -0.0008405742373 
-0.0016470837597 0.00066101569239 -0.00095895038716 -0.00079884044587 -2.8743298412e-06 -0.0017420446446 -0.00085623046625 -0.00052947401061 -0.0010824195288 
0.00040377603004 -0.00042153086853 6.7158007145e-05 -0.00013072833543 5.1459243734e-05 0.010571821919 0.014506709662 0.013706772233 0.00011846914082 
-4.1728879458e-05 7.2951977703e-06 9.2977060382e-06 0.024018251963 0.036012387759 -0.00055022475296 -0.00030003453569 -0.00017775483264 0.0027198378325 
0.0064332459414 0.0012772256198 0.023093707108 0.047075355788 7.0553350742e-06 -6.5047576068e-06 1.0251394714e-05 2.7536852949e-05 8.7247637567e-05 
0.00010083844808 0.00018472193525 0.00012433988039 8.2940105758e-05 0.021744403373 0.0057702754173 0.03093068377 0.01445461859 0.02218585042 
0.024863584497 0.046292116314 0.0010894064467 -3.8013553795e-06 0.037883589415 0.040052702133 -0.00024817012769 -0.0020625482278 0.046754493026 
0.049666378553 0.051442241245 -0.00033825211424 0.026373116597 0.021614830604 0.033054837051 0.0080643004677 0.021832759152 0.011134353286 
0.0082263797659 0.0093048839131 0.0014493769983 -0.0028395584561 0.001192348174 0.00049145464922 -0.00083160669654 0.027895551266 -1.8384385959e-05 
2.2586994768e-05 -5.4704798573e-06 2.0702751783e-05 -1.1718589055e-06 2.1100245419e-06 3.0913347869e-05 -7.2877060094e-06 6.0982574627e-06 3.8059949878e-05 
-3.6366831222e-05 2.2757638658e-05 2.2709676469e-05 -4.3642617399e-05 3.0321279665e-05 8.3160515523e-06 -4.2514517643e-05 3.9201838332e-05 5.0338104647e-06 
-4.3877433895e-05 2.7462440837e-05 4.1209691704e-06 -2.9192254652e-05 1.4296013947e-05 -2.071788593e-06 -7.0210833284e-06 1.2284813032e-05 -7.1576533063e-06 
-4.9827795976e-08 7.5145588827e-06 -6.8055753552e-06 -8.6510838964e-07 -4.9644021368e-07 -1.0233112381e-05 -2.9285247079e-07 -4.4572588772e-06 -1.0008470328e-05 
1.2368158834e-05 -4.7377130902e-06 -1.0093659453e-05 1.7734682853e-05 -8.9334560941e-06 -8.8975625155e-06 1.6327513028e-05 -1.5635592494e-05 8.6527599251e-05 
1.6183073992e-05 0.00016546114478 0.00023538965601 7.070836187e-05 0.00027741045727 0.00031883090588 0.00019880983755 0.0003211686304 0.00032819196609 
0.00025726701642 0.00031839849837 0.00029188448983 0.00026827551268 -1.6514001462e-05 1.5355272536e-05 -4.1779001722e-06 0.0054820004299 0.0013421408893 
-1.0805765725e-05 4.4424865592e-06 6.0694744146e-06 -2.3245879609e-05 0.014144581358 0.011479742144 0.0097672389809 0.0081222791183 0.014274480244 
0.0069683061806 0.0057074425757 0.009966683029 0.0047825481524 0.0039369883131 0.0069151268299 0.0032455283441 0.0027340755041 0.0047295948101 
0.002343913584 0.0020157191179 0.0033547043472 0.0016828353813 0.0014732059049 0.0024716272468 0.0012485532791 0.0011233892967 0.0018550657268 
0.00097514352335 0.00095417832335 0.0014695016871 0.00076482271626 0.0006978187884 0.0011092358328 0.00050164475191 0.00040668478014 0.00078538690674 
0.00022012178448 9.6874469256e-05 0.0004517853936 -2.9062494357e-05 1.8211051324e-05 3.6758536628e-05 -7.2123262324e-06 6.163644101e-07 3.0451570387e-05 
-5.8676023536e-06 -2.3090203446e-05 7.8695362229e-05 -2.7181511229e-05 -3.8852918572e-05 6.927033957e-05 -5.6349410883e-05 -1.1810193036e-05 2.9909290171e-05 
-6.911211355e-05 1.516030601e-05 3.0137418822e-05 -3.6847791513e-05 4.7766600539e-06 5.0615723442e-05 -1.3620342851e-05 7.9277356833e-06 3.3312405977e-05 
-1.1959239438e-06 7.4090834341e-06 -2.2889433538e-05 3.1685015873e-05 1.2342720937e-05 -7.3329028527e-05 8.1519206089e-05 2.8249166003e-05 -0.00011446260811 
6.5664058668e-05 6.7738503004e-05 -0.00016307267867 -2.4639889037e-06 0.0003541971731 -0.00017012716457 0.0012201820053 0.0026054966325 0.0012512069658 
0.0037794893454 0.0053631554775 0.0041817793313 0.0074243837662 0.0078439099547 0.0086335455393 0.0067766313779 0.0053560617144 0.010016758272 
0.0038548265594 0.0022600028263 0.0061969852331 0.0012469470725 0.00015477394288 0.0023279460422 1.2973704495e-05 -0.00012168958228 0.00016942966272 
-3.4691588301e-05 -3.4200045554e-05 8.1655494628e-05 -7.0269602056e-05 -1.7480509224e-06 5.4674824802e-05 -8.8342339345e-05 1.6263564451e-05 3.3296781125e-05 
-5.9197109031e-05 3.07241389e-05 2.1816398254e-05 -3.2413875619e-05 1.1178426746e-05 1.8935189219e-05 -1.9239957641e-05 8.8069981607e-06 1.4813364248e-05 
-2.3892097588e-05 -7.1480752152e-06 -9.026072242e-06 -1.0849577384e-06 -4.2541006451e-05 0.0010176187431 0.0028503709136 0.00044238272751 0.00030945172689 
0.00011555050037 9.1737659422e-05 0.00012280013826 0.0001147788788 0.041329801833 0.00015861865709 3.5477467913e-05 0.033999290668 0.04151826174 
0.02919892023 0.022228727693 -0.00045589785217 0.00024806984629 -0.00013387087196 0.00042958275716 0.00016798471195 -0.00017308633053 0.0059155109021 
0.0059886232499 0.0065522334044 0.0080146152597 0.0086074753588 0.0097970817545 0.013018293619 0.011654400953 0.023799824685 0.034711258462 
0.00010546625969 -6.9140104823e-06 -8.4070990914e-05 0.00055020453298 0.0037352793945 0.020478198928 0.015575554667 0.046985341618 0.0013470463716 
0.0037997298303 0.0006328164422 0.058633975544 0.063330494956 0.066670144812 0.067940236416 0.056041090779 0.071578724063 0.074228971904 
0.061807113544 0.075958316096 0.078280835274 0.067178543549 0.080444252004 0.0824747098 0.072185166194 0.08516694086 0.086366665529 
0.076739466429 0.086828190212 0.088155074831 0.079631530767 0.088704353609 0.088656887315 0.081096911847 0.089947767473 0.090208499676 
0.082422413231 0.090330758649 0.09061987682 0.083988612432 0.090868617304 0.090926907698 0.08469093456 0.08934243284 0.08880142015 
0.083380520699 0.088170545609 0.087395495445 0.081259422092 0.085788574386 0.084599238859 0.079120863372 0.083720919898 0.082134273849 
0.076735224001 0.079626668674 0.078449137052 0.073555030166 0.075650846733 0.07410055833 0.069244426606 0.071595991499 0.068380914067 
0.06432470408 0.065442580802 0.062064532551 0.058576166017 0.057897698187 0.051189152242 0.038202569433 0.052113050634 8.957349914e-05 
7.9890087147e-05 5.0410135081e-05 0.00021081163908 5.8830872064e-05 4.6622570964e-05 -5.4399967899e-05 1.6612157953e-05 0.00010828686372 -0.0002568798722 
9.5499704858e-05 0.00019009316824 -0.00014773850585 0.0008939205688 0.00010667059259 -0.00023728030257 0.0016263871539 0.00023441900717 -0.00036107948595 
0.02427897456 0.014383244722 -0.00046906278122 0.00056688024871 0.0011043469883 0.0021919411974 -0.0051557679958 0.00024144455018 -9.446442127e-05 
-0.0002311608972 9.5836442e-05 -0.00031512023252 9.3278787432e-05 1.443459316e-05 -0.00023974802327 0.00013512492348 9.2791755045e-06 -0.000182891325 
0.00016454438556 -1.9548242822e-05 -0.00018147410743 0.00020095755087 1.4002893068e-06 -0.00022732910592 0.00022334302483 -5.9176332429e-05 -0.0003643168921 
-6.760401498e-05 0.0005214163059 -0.00060337017102 -1.6208535755e-05 0.00090350588372 -0.00068582574936 -0.00021383052236 -3.3107210098e-05 3.5446611359e-05 
3.2878647577e-06 0.01600147434 0.021138506359 0.025599228764 0.02838374909 0.018327501291 1.8436319572e-05 0.00035591329258 -0.00024283715374 
-0.00018897719114 0.017668583975 -0.00010663401922 0.00010962305005 0.0049314654116 0.0056778247952 0.0076723438926 0.0054766114203 4.2954803601e-05 
0.0001061089803 -0.00013263820851 -8.2812384109e-05 0.018676341472 0.022462311251 0.050313109615 0.0021045239356 -0.00069365733395 0.0036928227587 
0.0014971263977 -0.00061565429238 -0.00066724831872 0.0002411498861 0.00022071803084 0.00017662095066 0.00015669171969 0.0070230932222 0.0001610881174 
0.00017825121054 -0.0010664215409 7.6675722623e-05 0.00045845929582 0.00012024001524 -0.00027146692087 0.015441848095 0.016693564628 4.0668905708e-05 
2.9752635842e-06 -4.4496216134e-05 3.3390485762e-07 0.00014665760035 4.2913003396e-05 -0.0013020753695 0.025681452175 0.025735986907 0.018338649874 
-0.0010532465806 0.0010745959307 0.016932812688 0.011950777923 0.002522769254 -0.00031317059625 0.00069339439758 0.00014538114538 0.00015483027527 
0.021912125341 -0.00025596506975 0.0011044644345 -0.0017859367991 0.0004860153522 -1.7089784981e-05 9.3758645037e-05 -0.000110768813 6.1854952935e-06 
-8.5911913285e-05 0.00020866438017 0.014299227047 0.0086484108538 0.044665370547 0.00026294821774 0.0026383758053 -6.135017529e-05 -1.7612203508e-05 
4.8282449266e-05 -1.2573661389e-05 5.1745911859e-05 -2.8347173462e-05 3.2868342598e-06 3.4421411572e-05 -5.4226100436e-05 2.9037811495e-05 2.3345257056e-05 
-5.3536695972e-05 4.6166939483e-05 2.290069626e-06 -4.3942108645e-05 3.9648055506e-05 -1.0087702281e-05 -3.707367847e-05 2.9985911306e-05 -1.1187597791e-05 
-1.6548198182e-05 1.4703386266e-05 -1.450096723e-05 -2.9096269431e-06 1.280690724e-05 -1.2659142975e-05 6.5333542884e-06 9.9235801049e-06 -1.444812053e-05 
4.6003854236e-06 1.72202028e-06 -9.2542885398e-06 4.2603867815e-06 -2.0448112291e-06 -5.8666099926e-06 1.2255581661e-05 -6.3508502847e-06 -8.0885630876e-06 
1.3862898271e-05 -6.500276549e-06 -6.0386119273e-06 1.3394123945e-05 -1.4746287604e-05 5.9508916543e-05 1.1167317747e-05 9.9320295785e-05 0.00017134220176 
7.9120701645e-05 0.00017914070828 0.00021725243982 0.0001593088927 0.00019870087905 0.00022227646879 0.0001891499087 0.0097255802124 0.010202957674 
0.00018987911799 0.00014763397298 0.0002391350982 8.6935183063e-05 -4.30825908e-06 0.021629111041 0.017980066347 0.015780233557 0.013147659035 
0.0209279594 0.011377846111 0.0093335559985 0.015279723772 0.0078385864399 0.0065102178751 0.010829490793 0.0055027592553 0.0047285951876 
0.0076215438077 0.0040394161264 0.0034551842642 0.005514264834 0.0028401984592 0.0025270906081 0.0040315279348 0.0023839845613 0.0021904241176 
0.0031525707867 0.0018806397369 0.0016944297538 0.002589821338 0.001385425649 0.0011742534683 0.0019391848125 0.00082802937929 0.00058672898016 
0.0013068217978 0.0002160394704 -1.3689950655e-05 0.00055981546861 -2.0035490529e-05 -1.1561748907e-05 3.6501912628e-07 9.4462788595e-07 -2.9933139918e-05 
6.3263576741e-05 -3.3679593377e-06 -2.9395920802e-05 9.8054807027e-05 -6.1389242453e-05 -4.6303765646e-05 7.7263119114e-05 -7.6604771411e-05 -9.1283622351e-06 
2.3561433044e-05 -7.7624322356e-05 4.2790811665e-05 -5.0097732094e-06 -2.4439165694e-05 8.3649344612e-05 -1.4571239694e-05 -1.1968265672e-07 7.8388285009e-05 
-2.8408569707e-05 7.2770266013e-06 5.8823448674e-05 -0.00012028388275 9.7847742226e-05 8.7311406118e-05 -0.00020719096877 0.00019368843717 0.00017928455355 
-0.00023259017371 7.1981765717e-05 0.00024223364448 0.0028562585184 0.0047521768714 0.0072767264669 0.011880878949 0.0030093540067 0.0011254991857 
3.625681544e-05 -0.00014443488791 0.00023849948826 -9.7466480966e-05 -9.8893628578e-05 0.00030596771515 -0.00010468427086 -1.3182047808e-06 5.4407238298e-05 
-7.80267366e-05 2.3760079161e-05 8.284170021e-06 -4.0976136658e-05 3.8177725282e-05 -4.7190255875e-05 -1.997149444e-05 5.5372239356e-05 -4.9836488441e-05 
-1.0471195185e-05 3.9349235626e-05 -3.2186638911e-05 -8.1535285723e-05 0.00019802761492 -0.00015692015008 8.7917526005e-05 0.031070741129 0.025255814228 
0.029246693254 0.04160156722 -0.00016937735081 0.00034955987553 0.0068800862615 0.0019235386895 0.00019914051358 4.1169876632e-05 0.00016603315192 
-0.00016539403018 -0.00010850325939 -1.6705635421e-05 0.012064590202 0.015774137973 0.013094769198 0.0099222023345 0.019878038668 -0.00012772381349 
0.004339382334 0.00016270964667 0.00013639869071 0.0020747469394 0.0027181578897 0.0012055211177 -0.0013631353142 0.052494538932 0.055650549109 
0.057494295471 0.059605642741 0.049476233803 0.062221244915 0.064568682974 0.053480026234 0.06777146373 0.070010870864 0.059046073805 
0.072253128667 0.073366812363 0.064424603502 0.073762070849 0.074231826483 0.067008876211 0.07435416919 0.074998815281 0.067394806999 
0.075939615103 0.076604059321 0.068344843295 0.0784611153 0.078461438845 0.071019873518 0.076373921802 0.075307824605 0.070760403454 
0.074084561671 0.07307960615 0.067598884572 0.072117390647 0.070940584438 0.065538055281 0.069466867528 0.068187026511 0.063207349394 
0.065989484579 0.06391552716 0.059704238568 0.061711852815 0.059592745329 0.055401575773 0.056807795001 0.054331265847 0.050838280006 
0.051054982298 0.048426071844 0.04546290773 7.4782460556e-05 9.7232523526e-05 -0.00020599586125 0.00012574292771 9.4913478969e-05 -0.0002218420752 
0.00032868971422 5.977379634e-05 -0.00019828031844 0.00018265088081 6.6844139454e-05 -1.5211075301e-06 3.455108081e-06 0.00029964038036 -0.00010481361296 
0.0018801367404 0.0021290508093 0.0042280036752 0.0014669270054 0.0044323726986 0.0010712884793 -0.00066717706489 0.00052574534108 -0.00088666025027 
0.00011316128393 -3.0025270053e-06 4.5483040623e-05 -0.00021251089844 -2.4487375899e-05 -7.1646224589e-05 5.0848339047e-05 0.0002106942254 0.00010879867085 
-0.00032702540432 0.00017079962569 0.00010040376846 -0.00034323985171 0.00019404712758 0.00010289748969 -0.00029975527941 0.00020166004857 0.00013091332422 
-0.00026772084373 0.00013524015558 0.00014606256884 -0.00029017283361 1.9114995894e-05 0.00032717554959 -0.00036116977436 -0.00016758120291 0.00039965152856 
2.1144608738e-05 -0.00019988443628 0.010110994813 0.042918913969 -1.8428355525e-05 2.5678615172e-05 1.3422712669e-05 6.1269869155e-06 -1.0810662736e-05 
3.4199123026e-05 2.0394121049e-05 2.2332243813e-05 0.012907829205 0.0084044544588 0.0051703515269 0.0066231892452 0.045815593805 0.00014765686637 
0.0020890082677 0.0001370957053 0.00018790623281 0.0056972691501 0.0013433671509 -6.1827843442e-05 1.4828387247e-05 -9.8692881777e-05 0.020014082632 
0.021735153625 0.015897457844 0.0046318737695 0.00021523514554 -0.00015777130735 -5.2858152429e-05 -2.8154785867e-06 0.00021870161416 0.0003257793786 
-9.6806903808e-05 0.00012647180105 0.0001855237162 -0.00020385019632 1.6645495671e-05 0.00018297970146 0.00011729884319 2.2408280113e-05 7.5951998864e-05 
-5.1677568372e-05 0.084896221252 0.075521650348 0.000257411662 1.2285373713e-05 -0.00053740738214 -2.3104696735e-05 0.00020136179357 0.021567490194 
0.020487152113 -1.6265995514e-05 0.016777259655 0.012239461082 0.006441103829 -0.0001869767771 0.00021272023938 0.0014924765384 0.0055194838365 
0.0050862152094 0.00031233968651 -0.0012971380347 0.044440199979 7.9998702468e-05 -3.812748428e-05 -4.8445569016e-05 -0.00020934172152 -0.00016005072888 
2.5054231104e-06 0.00015309908081 -6.2252035151e-05 0.00024817563271 -0.00024602381897 -8.6069531624e-05 -0.00030365130868 0.00021572650417 0.040993532818 
0.0076087125968 0.0099319003752 0.033617154558 0.040536020557 0.041643206344 0.02612009327 0.010358144615 0.009642711819 0.011490758765 
0.012681852053 0.00030548366577 0.00011671572019 -0.00043034075604 -0.0004439754413 0.0038114948001 0.0057429910121 0.03870393626 -4.3305438396e-05 
5.8138709344e-05 -1.0060512291e-05 5.0483946326e-05 -2.9040250722e-05 1.995799185e-05 3.0448086513e-05 2.2675710951e-05 3.4968641154e-05 9.1211657602e-07 
-1.9159745159e-05 5.3248971693e-05 -6.150746375e-06 -5.8437460295e-05 4.5358159884e-05 -1.6117904549e-05 -1.2812415334e-05 2.2722183868e-05 -2.4519961954e-05 
-2.3620074685e-05 1.448732711e-05 -2.1044848405e-05 3.2084048577e-06 2.0350626638e-05 -1.3391493489e-05 1.0974745163e-05 3.9982877067e-06 -1.4247670554e-05 
1.0088361797e-05 -7.4181460997e-06 -1.7843748719e-07 4.2212749015e-06 -6.5872729209e-06 3.3536887855e-06 4.7533217503e-06 -2.9239536138e-06 0.071659950901 
0.066315961279 -9.8144488031e-07 8.084841328e-06 4.8411052604e-06 5.9800045013e-05 0.00012807422515 8.5931534844e-05 0.0056807893908 0.0075671451165 
0.0060226174946 0.003045719009 -2.1031420271e-05 -5.3655101517e-05 0.021044768957 0.017865822085 0.015231801669 0.012685390653 0.019701353182 
0.010695748426 0.0089751622064 0.014073620377 0.0075764009449 0.0065217194071 0.0099095011958 0.0053583957498 0.004593285676 0.0069958088641 
0.0043177114687 0.067054249164 0.061268628366 0.0038110373963 0.003391925795 0.0051354747701 0.0027813630673 0.0024164331834 0.0037984257827 
0.0020418232213 0.0015878910605 0.0027211555094 0.001001571153 0.00053723639916 0.0016456434188 -6.2356357093e-06 -1.9869039775e-05 0.00041894603296 
5.4296743172e-06 -4.6370154727e-05 7.3933558632e-05 2.0686485824e-06 -5.5594349366e-05 9.7839955418e-05 -3.7777608313e-05 -5.6239984224e-05 8.8425270009e-05 
-5.7407542939e-05 -1.1830731296e-05 6.326522146e-05 -6.0584114005e-05 5.2164724941e-05 2.7457044287e-05 2.3178098346e-05 5.0357165085e-05 9.3000703866e-05 
0.00016885402394 0.00097541803484 -0.0002870289874 5.3844367461e-06 -0.00010324122602 0.00042012276737 -0.00012883887372 2.524349022e-05 -0.00016053072743 
-9.228698571e-05 4.0191028761e-05 -5.3104386758e-06 1.3907696745e-05 4.6521728941e-05 -0.00010518108591 4.8968320801e-05 4.3428654767e-05 -9.8999825993e-05 
0.032633552539 -8.5540199398e-05 -5.9226108273e-05 1.8251057445e-05 5.7584772707e-05 0.0001771667788 0.019743671372 0.026740044447 0.015598515502 
0.012069287567 0.0071658991385 0.010319475257 0.011549603679 0.015417613546 0.01898299602 0.007679009255 0.00020061944827 6.7567456804e-05 
0.00025586711968 0.0018066295638 -8.4305313631e-05 -0.00016033086091 0.000116700976 6.267917792e-05 -0.00013212368483 0.044141574586 0.046204959945 
0.036195711831 0.04957115747 0.05274808992 0.041348458643 0.057135874748 0.059446392318 0.048601791713 0.060605311953 0.061067716784 
0.054230932659 0.059271505306 0.059262469652 0.053505620699 0.059603232899 0.060510631892 0.052241573167 0.063245101604 0.065061980999 
0.055047301928 0.062950389064 0.062982327674 0.056571857538 0.060420320564 0.05920258481 0.055115092754 0.058689909292 0.057693136245 
0.052182308813 0.056841424442 0.055344135691 0.050912489947 0.053027404391 0.050746958473 0.047763249214 0.048360194556 0.046337067096 
0.04301928475 0.044110115957 0.041781877362 0.038869627516 0.038954634419 0.036328979463 0.028515218221 0.034291344281 0.00018853818654 
0.00014237666762 -0.00019792633878 0.0044120272136 0.005143968307 0.0071610408879 0.00017728679828 0.00016805860452 0.0006247582322 -0.00011017534564 
-0.00040344423539 -0.00025083603264 0.0017698287789 0.0034964264149 0.0045168973733 0.0015850249389 0.00062593230107 -0.00049056154085 0.00014833811048 
6.4735172547e-05 0.00012840340303 8.9333867731e-05 4.4537057159e-05 0.00017060192043 -0.00022201832828 0.024180115589 -4.4633727005e-05 4.976136171e-05 
2.1985395518e-05 5.2416805102e-05 0.0089839881736 0.0054782628529 0.00014447943186 0.00011306062158 0.00012505612322 3.3583281356e-05 -4.4875470434e-05 
0.016292574239 0.011215125654 0.0093689585711 0.012989223139 0.00017724135191 -0.00032489761253 0.00019737250346 -2.4870856082e-05 -1.9605128633e-05 
0.00016357969679 0.00010356594157 0.012171166857 0.016277860083 0.010266546475 -4.6767083525e-05 0.00012080497757 0.014502989449 0.0091389369352 
0.00021438825573 2.1098649702e-05 -6.6686135656e-05 3.6469000548e-05 0.0027637466202 -8.2898741143e-07 0.00013717510844 0.00035428994511 -0.0002644643951 
0.032449886261 0.033765253993 9.4318222404e-06 -4.2196700479e-05 0.00010824484394 -0.00010575709801 -1.9447095957e-06 9.5577803016e-05 -1.5426226478e-05 
-1.8996754826e-05 0.00011353105259 -7.1415299075e-05 -0.00015756632204 6.2594560351e-05 0.032539448033 0.035798397073 0.00016822438527 -0.0003257678744 
0.00010133826991 0.0109491602 0.010954917971 -6.0006949513e-05 0.00013927776271 0.0076608254187 0.00019766233798 2.7579812633e-05 5.3392982528e-05 
0.00013300862586 7.6093722607e-05 -0.0001189172363 -8.174040662e-06 0.000113871443 0.0001269921929 0.026940515572 0.00022394088024 0.00011469484998 
2.697846188e-05 -5.087484119e-05 0.00010507944337 -0.00014456507325 0.018442213304 0.016372620784 -7.5547898913e-05 7.1770061748e-06 3.7693154529e-05 
1.1282963155e-05 -3.6482830431e-05 0.057029979492 0.053841886513 3.3847634739e-05 -3.6090187363e-05 -3.5301444331e-07 4.7167714272e-06 -1.6966776932e-05 
6.3192772701e-06 2.5535403994e-05 -1.2433817977e-05 -1.0518940613e-05 -8.2873030704e-07 -5.9298429979e-06 1.3173374084e-05 -1.2097890539e-05 -8.5727032429e-06 
-9.0053141413e-06 0.00017029505353 -0.00015093475852 0.018214723035 0.015209619164 0.01246743383 0.010547321345 0.016131673534 0.0093572468451 
0.0078222059603 0.011326121163 0.053543181653 0.051630051622 0.0085765270735 0.010870291468 0.0090587423185 0.0066487024641 0.0058572519701 
0.0046813815327 0.0039437317502 0.0061020316064 0.0034875752838 0.055613450999 0.046426761187 0.0021703655343 0.0013467190672 0.0034221214719 
-7.0487839288e-06 -7.685878678e-05 -6.9678117454e-05 -0.00024417257637 0.013085305567 0.0093456266473 0.01291580124 6.2362997248e-05 5.7791495108e-05 
0.00010854611524 1.7122826482e-05 -0.00013734878217 0.030200937749 0.038480866595 0.015812764951 0.013449363485 -0.00011451300511 6.0033552202e-05 
0.00020921567484 5.9157923072e-05 -0.00013430702395 0.042079673365 -9.3044774831e-05 0.00010359560369 0.016244519064 0.023153716069 -7.6912572348e-05 
-0.00011876077233 -2.2748904067e-05 0.00048680291909 -0.00026069107323 0.0052552897414 0.0065415050781 0.048873368359 0.043168683512 0.04781893721 
0.045258158212 0.0416007633 0.036182624202 0.04431464772 0.043741079265 0.037937039884 0.045023131546 0.04411852069 0.038005180429 
0.042805685686 0.040122509618 0.037905536769 0.036412340029 0.033982221394 0.032350222256 0.029333442723 0.031508248039 0.025604274294 
-0.00022579578981 0.011073853112 0.011467184794 -0.0001512111743 -6.9069000141e-06 -8.1868986374e-05 9.4251197594e-05 -1.1273649762e-05 -4.6423020097e-06 
0.00024490802703 1.7270880443e-05 6.2826411504e-05 0.021632984307 -4.4600155497e-05 -4.9015608163e-05 0.035410475512 0.018145928352 -7.3552212043e-06 
0.023048842625 0.00065092637932 6.4844593168e-06 -8.4962616923e-05 0.0001040864974 0.00013993594454 6.9888110273e-05 -2.2776521836e-05 0.00011391540305 
0.027815760866 3.6521441919e-06 2.2165361334e-06 0.021725144027 5.1976726399e-05 9.7076544644e-05 0.017433178936 0.0029472921187 -5.9231980134e-05 
0.00019330340022 0.00011075408788 -0.0058636345589 -0.031092813272 6.3229533078e-05 -3.6092826663e-05 0.046341874803 0.047395278344 0.045797530709 
0.043836392554 0.044081279057 0.045091943579 0.11280533091 0.037785262941 0.033233115815 9.2769784189e-05 0.029932058324 0.00089281110797 
0.002465201917 -9.0717632175e-05 0.028127792205 0.00035120810123 -6.0336303942e-05 -3.2205670752e-06 -2.3619499375e-05 9.3413252078e-05 5.0426971192e-05 
-1.1346512845e-05 1.2249635943e-05 -3.73919552e-05 4.2584076221e-05 1.4128122365e-05 -3.3876611844e-06 8.8945996962e-05 -2.1221841885e-05 4.1487199808e-06 
-1.2483527491e-05 8.3869868634e-05 0.023545788792 -6.9924722411e-05 -8.5736338388e-05 8.0132119534e-05 3.9894525587e-05 2.1008803908e-05 0.004174555686 
8.8013399614e-05 -0.00020850372544 -1.8957391518e-05 0.014443282915 0.015974291475 -0.00010432642763 0.030257603276 0.0293036057 2.7863923592e-05 
7.6205108029e-06 -9.0947009095e-05 3.3517697778e-05 0.01958436708 0.024699452457 0.02120223782 0.030918651428 1.7511592537e-07 6.8977397284e-05 
0.028759231925 0.018292490647 0.015378862087 -1.3914901754e-05 3.4128582328e-05 -7.3809970912e-06 0.013350400568 1.3855294107e-05 -0.00013069615787 
0.00017907209729 0.022748688086 2.59974336e-05 0.00010137701546 0.027243983177 -3.2039822348e-06 1.0777155957e-05 0.0079402991785 0.032191754538 
0.030917580672 4.9396318172e-05 5.4957349947e-05 1.003054203e-05 1.7982257982e-05 -7.3335980278e-05 0.00013091634874 -0.00010277519598 1.3289397635e-05 
-3.1302224028e-05 -8.5127707284e-07 5.8894279972e-06 -1.028908432e-05 7.5673967304e-06 1.0038877401e-05 -1.2850710835e-05 9.1962609784e-06 9.2355109924e-06 
-1.0682558627e-05 -1.9132759648e-06 2.8940449689e-05 1.642415121e-05 -2.120628242e-05 1.2962239922e-05 7.4924950456e-06 -4.3583798205e-05 6.8968606124e-06 
1.0405705963e-05 -4.5338837428e-05 1.4424447161e-05 3.3879495822e-05 -5.3440777578e-05 1.9177011599e-05 3.8175171547e-05 -3.699116694e-05 -1.8195748029e-07 
6.9170639417e-06 -2.1498326996e-05 -3.5175314716e-06 4.5582756084e-06 -3.3384557795e-06 -4.9955514333e-06 -8.9963646275e-06 4.8254501421e-06 -1.2294115332e-05 
-1.1901212986e-05 1.3064203574e-05 0.00021923080597 -2.5330489025e-06 2.350373584e-05 0.00065202280001 0.00045494159536 8.8095269437e-05 0.000828200757 
0.00077003097485 0.00045052849197 0.0008281946531 0.00087702868123 0.00061276591112 0.00066474444957 0.00079145329377 0.00061957361429 0.00043352061381 
0.00058736182823 0.00049656610273 0.00021814548494 0.00034651154531 0.00032942486337 5.9361682994e-05 0.000138550931 0.00017430047081 1.1295951251e-05 
0.026028800203 0.012987127963 0.023254937122 0.0022992693328 0.0025620146952 0.010984863927 0.0010787911066 0.0018074853838 0.0026536236676 
0.0007130829697 0.00087656346242 0.0010494057463 0.00042906621164 0.00053992829902 0.00051456172474 0.00029207551086 0.00032027864586 0.00028851894412 
0.00019403164795 0.00020452989072 0.00027029374641 0.00015975585587 0.00013105952161 0.00017310371425 0.00014702528781 9.8641274148e-05 0.00016293167659 
0.00011287709927 6.4945707384e-05 9.4118536814e-05 6.2591375382e-05 3.5713220621e-05 5.1709888263e-05 3.6406946775e-05 1.570394472e-05 4.1929752056e-05 
-5.5947059372e-06 -3.0596751512e-06 1.9054384369e-05 -5.4712974643e-06 -1.93482708e-06 4.1397019956e-05 -1.4964540791e-05 -1.6681765752e-06 5.9479385238e-05 
-2.9568281282e-05 -7.3053678427e-06 3.9363665951e-05 -6.296740263e-05 -3.7195692581e-05 7.2565088978e-05 -2.6672915949e-05 -2.9953013241e-05 0.00010282595573 
-2.9677411423e-05 -2.4812375833e-05 8.5160941295e-05 -4.0586886886e-05 -2.6030111443e-05 6.5482297842e-05 -4.2158743304e-05 -1.8064243279e-05 5.354579787e-05 
4.8471952827e-06 -9.0993441118e-05 0.00011200135026 9.9125929797e-05 -3.5317227559e-05 -2.5393813205e-05 0.00044680832455 0.00028969750273 0.00018540270101 
0.00070005011945 0.00059776782399 0.00072434682733 0.00054810720669 0.0006858878216 0.00074683358865 0.00024950523379 0.00038688074768 0.00060873243582 
2.2316219239e-06 7.9938523765e-05 0.00026846752681 -2.6183544301e-05 2.6609375827e-05 1.9359532062e-05 -3.2623521003e-05 -1.3155461004e-05 4.2396379479e-05 
-3.7207202738e-05 -4.8976601675e-05 8.8136770881e-05 -1.2513882252e-05 -5.0250380059e-05 8.0308344666e-05 -8.6463786827e-06 -2.4097660045e-05 7.0018989366e-05 
-1.2316201497e-05 -1.4194666784e-05 4.1433906273e-05 -3.9360300555e-05 -4.7788463535e-05 5.1985332932e-05 0.052067850244 1.3406798295e-05 1.8825021811e-05 
8.7171498565e-06 1.3725229312e-05 2.1356607148e-05 8.903566083e-06 1.1525979213e-05 1.8109950465e-05 8.1674285421e-06 1.1178277443e-05 2.5337824863e-05 
-1.9595252755e-06 9.7620180456e-06 1.0237333885e-05 -5.3521007712e-05 2.6390824068e-05 -4.6741751462e-05 5.7284711853e-05 8.399615034e-06 -2.0491675445e-05 
7.0878541748e-05 1.7276921413e-05 3.0203123037e-05 4.9372220064e-05 2.7484315935e-05 7.7747139257e-05 -1.8516837831e-05 3.4733198376e-05 6.3379388678e-05 
-8.1376117544e-05 2.1292546246e-05 0.00037111292839 0.00024138960228 7.0199647359e-05 0.00047972761406 0.00045469993661 0.00048709779916 0.00048395231414 
0.00038925877065 0.0005807244842 0.0006971268381 0.00042203204573 0.00056516396701 0.0012317437674 0.00070922598047 0.00073508124324 0.0021693643994 
0.0018186040498 0.0014483274832 0.0065408315016 0.0063022915125 -0.016064982369 0.0056996640047 -0.002253638065 0.025317456968 0.06353914043 
0.047401170421 0.084866814798 0.07388505806 0.057196349635 0.087977129161 0.084574362853 0.066200457038 0.091221603452 0.097718057004 
0.079770229048 0.10001953235 0.095193290788 0.094760563716 0.10788565761 0.1005887919 0.098692431973 0.10191458445 0.098032454661 
0.095961009615 0.10749046982 0.11356553367 0.098468389624 0.1079380162 0.10610775533 0.11034498366 0.11493960963 0.10957426876 
0.11085876351 0.10653938845 0.1063197884 0.10379763874 0.10760792442 0.1139263515 0.10307889826 0.10650562434 0.10632303556 
0.1109034215 0.10297812891 0.10704363665 0.10837747015 0.11074645013 0.10626919602 0.10793438133 0.10167839728 0.10821168187 
0.098148491692 0.096121602335 0.098280458258 0.10136704862 0.093821132293 0.097232886911 0.096897587015 0.10255963026 0.093935702411 
0.092548274637 0.087707789045 0.082537124209 0.07096521588 -0.010317811118 0.016407909166 0.011175628011 0.0068201717616 -0.0092236619645 
0.005222065628 0.004873097711 -0.0046701632843 0.0029568920291 0.004703343212 -0.003111155412 0.0047374287849 0.0046073334941 -0.002834704092 
0.0050286582985 0.0033450284793 -0.0028404861783 0.0028830789306 0.0050372773462 -0.0026329013997 0.0034058184962 0.0034486789284 -0.0023905410136 
0.003197124585 0.0042157736674 -0.0018540089019 0.0053898484917 0.0053287759976 -0.0019062118494 0.0036278850143 0.0039579668936 -0.0016605457742 
0.0063498218023 0.0087281917322 0.0021135143672 0.018287028383 0.034494042999 0.011295295193 0.028717289865 0.015120976994 0.012102333706 
0.058590873622 0.049617041346 0.038996887035 0.00063374366445 0.01699201253 0.023413846751 0.015078388871 0.0019254763654 -0.00068062370445 
0.01173314101 0.0046277613557 0.0074582922081 0.0026526395595 0.0050860310686 0.0050786051724 -0.0032618260088 0.0032740830318 0.0053352725458 
-0.0014927168643 0.004948175962 0.0072545976151 -0.0019634069906 0.003703039339 0.0049517485263 -0.0020484570003 0.002843597331 0.0048024364452 
-0.0019744019106 0.0024900279443 0.0055839303033 -0.002017716586 0.0048560664842 0.0039729451801 -0.0025932940684 0.0034660935746 0.0025312012886 
-0.0024020805426 0.010281224169 0.0094785888108 -0.0048147074545 0.0033678761013 0.022395790272 -0.01001104749 0.044904743145 -0.0018395922875 
-2.8898405077e-06 3.2560523173e-05 -1.6106625375e-05 6.0262604677e-06 -1.3427420305e-05 2.7039872971e-05 0.0040977401206 0.0019339718569 0.063799272741 
0.003940430438 -0.011147280152 0.030409392697 0.033105632206 -0.0081067518036 0.054114276753 0.021032824427 0.055245090642 0.046260278888 
0.022970291422 0.052137332657 -0.058916426365 -0.012073931552 0.05157581399 0.0013991932893 3.5531315221e-05 0.049020596805 1.158960379e-05 
-2.1781811561e-05 1.4807010819e-05 -9.3310996872e-06 -3.3586863363e-05 -1.0460090902e-05 1.5050513424e-05 2.4270792838e-06 4.3663427507e-05 8.4698569548e-06 
-1.809950078e-05 2.8723596865e-05 9.6498210855e-06 -5.6980376064e-05 9.3301427103e-06 3.706472194e-05 -4.3202403547e-05 1.3715944434e-05 3.9188582327e-05 
-4.8277090655e-05 8.1099470948e-06 1.0545485788e-05 -1.8506424566e-05 -3.4697697843e-07 9.3022127565e-06 -5.4865716665e-06 -4.0294125924e-06 2.6690323349e-06 
-5.0459849517e-06 -1.4169989484e-05 -3.875496483e-06 5.5920601443e-06 -1.6787831074e-05 -4.9913041539e-06 2.2381320151e-05 -4.5222608963e-06 -1.68987869e-05 
2.0031635247e-05 0.00027504740661 0.00015337097586 2.4536103645e-05 0.00042805991559 0.00035964399631 0.00020789337107 0.00043671049702 0.00044923426284 
0.00032066888984 0.00034812601117 0.00040675997247 0.00032880059056 0.00022906711214 0.00029623762896 0.00025109356797 0.00010164104431 0.00016561897413 
0.00015299605198 -2.5000193188e-05 8.9570888503e-05 0.0044014885777 0.0062683190993 0.0075847205646 0.010981084354 0.010728062591 0.017413542836 
0.029314117603 0.050172407129 0.023336539213 0.00280360922 0.0037307163784 0.0058270068355 0.0019465209137 0.0023792124542 0.0035891086386 
0.0013749495026 0.0016028895962 0.0024618213802 0.00097431865481 0.0010994979206 0.0017712475468 0.00068495617253 0.00075993591663 0.0012621194347 
0.00052366304305 0.00055415316015 0.00090335055695 0.00039579848696 0.00039753179983 0.00064637617436 0.00021604332883 0.0002436536586 0.00044205293618 
2.1027815017e-06 5.1769106518e-05 0.00021326972064 -1.9438041834e-05 -7.6186269603e-06 -1.1875864359e-05 -2.5531469658e-06 -1.0820823097e-05 4.5953903224e-05 
-2.9391422488e-05 8.4925096474e-06 7.0373554774e-05 -1.3658755833e-05 -8.0193563464e-05 5.8104656933e-05 -4.7662814361e-05 -6.2718247862e-05 5.2107259244e-05 
-2.7840785988e-05 -2.5702240552e-05 5.4707230621e-05 -1.9255471373e-05 -2.2972892775e-05 2.4404753801e-05 -2.8558046861e-05 -1.7037614948e-05 -3.0964941525e-05 
2.6800507723e-05 1.7558970745e-06 -7.6245375592e-05 3.3341837911e-05 -1.1299916678e-05 -6.0343355162e-05 0.001451269613 0.00049063489698 0.00012740559068 
0.0031007061992 0.0024440098255 0.0027445661181 0.0031727876445 0.0034616937052 0.0044651655258 0.0018245553553 0.0028025168873 0.0043932124822 
0.00040273717474 0.0010882871883 0.0023732521549 -4.9205644764e-05 7.6859960394e-05 0.00033278900104 -3.1044135055e-05 -1.3131060998e-05 3.4570847127e-05 
-3.9274486588e-06 -9.3034379714e-05 5.6853875425e-05 -2.9246135157e-05 -9.3740635235e-05 6.6714993962e-05 -7.0727386454e-06 -3.6269414595e-05 4.6220679944e-05 
-1.1396248502e-05 -1.6735727595e-05 3.8029469743e-05 -5.2417632259e-06 -4.852113671e-05 4.433858943e-05 3.5237173702e-05 0.026352385085 0.02136932561 
4.4708405593e-05 6.113041468e-05 -6.7554606647e-05 3.247806565e-05 4.1443819565e-05 7.1294639284e-05 8.7794337287e-05 0.061493148759 0.019344220373 
-9.9584836884e-05 0.0001320474046 0.017728407547 0.013054663142 -0.00011630490913 0.00010062878785 2.0849485663e-05 1.7026297837e-05 6.4945537262e-05 
-1.830395056e-05 1.4911656037e-05 0.00019689311243 -0.00010448156083 -0.00013143023867 0.0015039503715 0.00047179103087 0.002345913151 0.002089283528 
0.0025946608748 0.0024841081595 0.002546972634 0.003635821439 0.0030244625821 0.00256372765 0.0039720126664 0.0049375273475 0.0035882951683 
0.0052892938638 0.0087124886663 0.0059891426633 0.0089014307177 0.016895637508 -0.0033213341776 -0.0011990673287 0.0098956653314 0.0018783809945 
0.030336629933 0.031542118347 0.068320527933 0.06776789258 0.082670192011 0.078592400731 0.066507128639 0.087623124392 0.086718615549 
0.078204550621 0.090387625787 0.089915923761 0.084074036419 0.092396917266 0.093908410639 0.087410994473 0.096965390803 0.097349660115 
0.090227020061 0.098856937189 0.098367603479 0.092142139525 0.097973037977 0.096882578408 0.093510023702 0.097334897859 0.098975820936 
0.094205583864 0.098645514258 0.099439485091 0.094724448518 0.097300890409 0.097112704766 0.092706173818 0.096145965322 0.094799294219 
0.091342033507 0.091243046656 0.091444705833 0.088992361924 0.088453701639 0.089979018855 0.085421925806 0.085517484809 0.084308879619 
0.080413172789 0.079037680941 0.078090114513 0.074311347588 0.06566864536 0.064241455563 0.065030018308 0.045969370705 -0.0067508836121 
0.0030420589741 0.0081827811265 0.020020111888 0.052054649369 0.027688167604 0.00050505338272 -0.00024712855992 0.00015515206692 -1.2493156819e-05 
-0.00061256526697 -0.00054482657297 -0.00012300970068 -0.00033499763111 -0.00077411515541 -0.00042816575461 -0.00015228996024 -0.00079519732746 -0.00038000554621 
-0.00010964230907 -0.00070014155597 -0.00069576120826 7.3892262735e-06 -0.00050680621523 -0.00053020238334 3.8802903407e-05 -0.00028133826539 -0.00077960557797 
3.050987633e-05 -0.00029305049406 -0.00054537010035 -6.6226686613e-05 0.00018925230566 0.0049593669189 -0.00018558720723 0.0074086165172 0.015156870206 
0.0011900581488 0.0080466062405 0.006740966328 0.0017199568058 0.0064047574778 0.014695131981 0.00058304414112 -0.0026532224505 0.0073998109182 
0.0061442242562 0.002930451613 -6.6356026827e-06 -0.00071418713167 -0.00016549570173 -0.00096116740033 -4.2672274937e-05 -0.00023488798956 -0.00086024861819 
0.00024029660672 -0.0002673812073 -0.00079340534648 0.00023087848658 -0.00033912094682 -0.00079697134397 0.00016831452472 -0.00033310316623 -0.000728367304 
7.7031835891e-05 -0.00051571315933 -0.00058742668777 -8.4168091315e-05 0.0011741247571 -0.00077586689718 -0.00076828676348 -0.00080270425009 0.00078508254419 
-0.00022381838692 -0.00092942511643 -0.001828054843 -0.0013545917754 1.965823768e-05 -1.7825834912e-05 4.9514161336e-06 3.1971851957e-06 -0.0025808082368 
-0.0017918372634 -0.00018162942634 0.00077755713028 0.0074872538046 0.010774478981 0.0020544895798 0.00017881128677 0.0047660335417 0.0025350115001 
-0.00024402808888 0.028522116296 8.8178584402e-06 1.0211010398e-05 0.049017768126 0.056797900063 0.021745306289 0.0049804471525 -0.00015122782739 
9.9583795135e-05 5.0584957469e-05 2.47494819e-05 6.7868364665e-05 6.9467406658e-05 5.6851960421e-05 7.9135162724e-05 0.026264197315 0.034554688418 
5.8034488105e-05 0.00046040080406 -0.009351639504 0.0048242931303 0.012928327598 0.0011175492476 0.050847612659 0.035367591246 -0.0094252660373 
0.00019978590449 -0.00072258109722 0.0048077599158 0.018116431046 0.035744713435 0.011767128039 0.038310469273 6.2834249708e-05 0.00014047742031 
-3.8218065328e-05 0.00014184440763 6.6321304058e-06 3.1261080906e-05 3.856244003e-05 -8.4336188397e-06 2.6171639009e-06 4.6018956794e-05 -5.4834893138e-05 
-1.5819823035e-07 2.9593310265e-05 -3.2486872986e-05 -8.0635892935e-06 1.1990156594e-05 -5.3060203219e-07 -7.1571549694e-06 8.5105127073e-06 1.0607809828e-05 
-1.0238889985e-05 3.342262956e-06 -1.4224306806e-06 -1.7400324636e-05 -2.2360858477e-06 2.0034927436e-05 -1.3664899101e-05 -5.3184262882e-06 2.0262902776e-05 
-2.6948602413e-06 -1.5102112702e-05 1.314414387e-05 0.00015230319989 4.9542759543e-05 1.9689594655e-05 0.00024685043343 0.00019194396069 0.00013774290229 
0.00024738509802 0.00024979478233 0.00020468037943 0.00017740407198 0.00021218245597 0.00018471844831 0.00022647634028 6.5680110216e-06 -4.2755100558e-05 
9.6941860542e-05 1.0740103475e-05 -2.0514336288e-06 -1.823878792e-05 0.00044759503556 0.00040975277039 0.0082606506992 0.010503821569 0.022645141758 
0.03112862699 0.044319452664 0.038625538308 0.0030722425361 0.0036607893502 0.0021348488873 0.002580098061 0.0037283727514 0.0015632350492 
0.0018174057571 0.0026879635797 0.0011736561563 0.0013103764442 0.001933140538 0.00075765803715 0.00092239465344 0.001365792803 0.00026732112224 
0.00048808541989 0.00082441042663 -2.6189445692e-05 -1.351470858e-06 0.00019216416614 -4.2230660656e-05 -3.5155933051e-06 4.0295570196e-05 -3.4846770735e-05 
-4.0435545043e-06 8.1169439948e-05 -5.2910804633e-06 -4.2116657176e-05 0.00010311500518 -1.1555714389e-05 -6.5866438384e-05 7.9450182406e-05 5.3924075662e-06 
-2.3917052529e-05 3.6818930068e-05 4.0470786421e-05 -1.7431891447e-05 -2.6997204122e-05 2.4922981764e-05 5.3484036816e-05 -8.990599588e-05 2.1240193983e-05 
0.00011795293769 -0.00016213997061 0.00012558485263 0.00010235321572 -0.00026316579891 0.0013204067001 -6.5498764282e-06 -0.00013932184461 0.0063800991129 
0.0037914521634 0.0032071336849 0.0085305442223 0.0082925053037 0.0088770433052 0.0058313115406 0.0077616354143 0.010832336968 0.0021836883091 
0.0041594141653 0.006983196612 -0.00017311726186 0.0006783556423 0.0019878236125 -1.9556555926e-05 -5.1228511289e-05 0.00023991943223 6.9743502567e-06 
-9.2517504354e-05 6.7676898962e-05 2.0119828934e-05 -7.5976870316e-05 1.9275339133e-05 6.747072741e-06 -6.1987277839e-05 -8.1911171928e-06 -2.5679140481e-06 
-2.1634048816e-05 -1.0108881668e-05 0.0044453938827 0.0052949163274 0.0054063062268 0.0001046945629 0.00012482386212 0.00016707483732 0.021867644095 
0.02455517105 8.7807712637e-05 -4.738928616e-06 -0.00022297679338 0.0064327567649 0.0061257642832 0.0060909946465 0.0062007896589 0.0083400282385 
0.0054091271075 0.004251590366 0.0077104749374 0.0093632236201 0.0070769873539 0.0092657679835 0.026126512951 0.010584612818 4.2690272512e-05 
1.6222393666e-06 -6.486585041e-05 -4.7211728652e-05 0.071812586415 0.066664065184 0.078375843499 0.077436293886 0.080443314387 0.079834397029 
0.070890573039 0.083039537841 0.082051318136 0.073093269669 0.084659045314 0.083526281912 0.075334957887 0.085189445778 0.085037031117 
0.076938923518 0.084681608049 0.085746395499 0.077576628083 0.083459682064 0.084609932198 0.076952917948 0.081361466887 0.082307766724 
0.075083796063 0.078173206599 0.079216368826 0.072184415087 0.073048997131 0.075599112714 0.068037402928 0.068102384776 0.070609838879 
0.062861500665 0.062925325211 0.065142198455 0.057682335454 0.051069690442 0.036384901121 0.0096694838381 0.017300692439 -0.00055525671669 
0.0043835396712 0.00045536549461 9.0991271408e-05 0.00023168436166 0.00012533096174 -0.00022240735101 0.00015129874942 0.00013504579696 -0.00020394619719 
6.2662681993e-05 7.0101570822e-05 -0.00019436004675 8.589858767e-05 4.6545731468e-05 -0.00013854475575 0.00012733760525 3.4786336429e-05 -0.00018306496832 
0.00020160716384 9.7314271167e-05 -0.00020375126653 0.00030491055571 0.00039245489287 -0.00023107339339 0.00021894194972 0.0014577003411 -0.00031103583031 
0.00020609684168 0.00041263148435 -0.00046831439575 0.00014484411605 0.003671041586 -2.047867253e-05 0.00012110207092 0.00011716752313 0.00012190300698 
0.00018756907102 -0.00031364140509 8.3304306753e-05 0.00018018200394 0.00012445868265 0.00020622267431 -0.00031306089992 0.00057573452437 0.00023596647894 
-0.0003085792325 0.00073608396411 -1.5069586929e-05 -0.0004807767121 0.00078803268156 -0.00022952621437 -0.00014972580592 -0.00016041399579 -0.00023694672233 
-0.00044566749696 0.00099170033095 -0.0028792352829 0.002625397682 -0.00022363647877 7.2332732608e-05 0.0047147148651 0.013244192749 0.017445308454 
0.025965276233 0.015984747213 -0.00013505615137 0.00046823427607 0.00020388464324 0.00044550387513 0.0064225873165 0.0078336933422 0.010398242463 
0.0078856334181 0.075888749306 0.073957244268 0.065100134072 0.068641521788 0.030436672626 0.027491383977 0.020479643251 0.00043740807373 
-5.5735470836e-05 -0.00023693573641 9.3071422662e-05 0.00012311452131 -0.00025077426628 -0.00026279164282 -3.056138502e-06 1.6680450937e-05 -1.27094914e-05 
0.014951095504 0.00018462735185 0.0001628350087 0.00018296931634 4.6594515379e-06 -0.00012317706249 0.0025789713762 0.00010439442834 0.0010360662474 
-3.2596467578e-06 -1.7557128995e-05 4.6392577297e-06 1.3167949232e-05 0.0022718190457 -0.0034350996489 0.00012917756853 0.00012137584749 0.00016353357638 
-2.3967111448e-05 0.0074642443119 0.00064531925197 0.0012095984825 0.00060507725197 0.00011115892074 -0.00014495461762 0.00010067143658 4.8790569463e-05 
0.0115268483 0.014001177069 0.015827881339 0.027542732626 0.019675132154 0.023183476536 0.021350370208 0.023596218389 -0.00036092913935 
-0.00010767526186 0.059275352967 0.0038628971265 0.055123516794 0.0016252669944 -0.00042612687958 0.00011036716303 0.038799277306 0.052685382145 
0.059383778361 0.052499672941 0.04068250654 0.01330855075 0.00048767687708 -0.0015900049216 0.0059012523506 0.012533408474 -0.00066723397132 
-0.00057671108616 -0.00018191543712 0.00019120756705 1.2380262798e-06 0.00015448785982 -5.6496183119e-05 0.0018608274351 -0.00042226030522 0.00016658998274 
0.00038296747239 0.0015113930613 0.00087848357474 0.00034428366137 0.016960375662 0.01701567919 0.0016879667539 -0.00032434330926 -0.00036325650185 
0.0004615060328 -6.953882485e-07 4.3337004914e-05 -2.0469869724e-05 1.2422326956e-05 -9.1559045795e-06 7.8374486086e-06 1.2528398754e-06 -1.0467622151e-05 
1.6596498946e-06 5.0244590116e-06 -1.4093359025e-05 -2.2736314129e-06 1.7584225406e-05 -7.0385899932e-06 -6.3337943546e-06 1.1241215757e-05 3.688572187e-05 
-1.2459118427e-05 1.38677648e-05 0.00015793600836 8.6716806244e-05 9.4696372312e-05 0.00019017986389 0.00014906163115 0.00015904806682 -2.7094894892e-05 
0.0001129401367 0.0083201083832 0.012419667396 0.0026139563257 0.0030378216802 0.0035996539711 0.0042463468045 0.0042093638648 0.0050469394995 
0.0059954174721 0.0059062322794 0.0018511213243 0.0021932503902 0.0030321262477 0.0010143929192 0.0014074151864 0.0020656847337 8.9137937144e-05 
0.0005535755254 0.001042025573 -4.9671349874e-05 9.4518529705e-06 -1.2176747971e-05 -7.1094515818e-05 1.3667385099e-06 7.3045545435e-05 -4.7627586804e-05 
-2.8934768717e-06 0.00012247461358 4.7606571501e-06 -6.5091689201e-05 6.8056513285e-05 3.4992652369e-05 -5.8136572055e-05 4.0901573529e-05 8.0707473655e-05 
-2.9712519755e-05 -4.1969139096e-05 8.5451238377e-05 6.0626639934e-05 -2.7240902888e-05 8.9482449882e-05 0.00015958522552 0.012753183237 0.0052488708597 
0.0090546203119 0.015377710015 -0.00022723503871 0.0024255862501 0.0040958346816 -0.00017558055801 1.3819370083e-05 0.00020946362896 1.7718751518e-05 
-0.00010245145648 -4.5587431524e-05 4.0723561728e-05 -5.7295545247e-05 -1.3621028538e-05 4.2975157348e-05 -2.2530462159e-05 -0.00010191742396 3.5983253972e-05 
-5.0412456339e-06 -8.6211779906e-05 -0.00083106304077 0.00051589365293 0.0070069267512 0.0084970481361 0.0082145433104 1.7516161809e-05 0.064898360257 
0.063705389791 -7.7462826563e-06 4.2299161122e-05 -5.5222965915e-05 0.00033220251508 2.4848015884e-05 0.0098472784336 0.01060531156 -0.00040138757231 
0.00015301563009 -3.2480927516e-05 0.018879268854 0.02107458206 0.011996562159 0.0096661221165 0.01157152088 0.010538472908 0.010528112972 
0.00020396843467 -9.0648682849e-05 -0.00011751110926 0.067603214336 0.066594009458 0.058084929904 -1.6097903452e-06 0.022191421994 0.017714636201 
0.061786238807 0.060947764355 0.054573448366 0.068935322851 0.068321056938 0.060346026784 0.069657844797 0.069569599091 0.061735606762 
0.068766627055 0.069413179195 0.062200632095 0.066264984368 0.067594109246 0.06084874277 0.062726616068 0.064447440044 0.057918092749 
0.057873386573 0.060339610727 0.053860797576 0.052351612334 0.054869367442 0.048898263763 0.046794831901 0.049018669992 0.042929268359 
0.00017227560208 0.00014785051003 0.0033667323952 -0.00058800895347 0.0012758216106 0.055203973648 0.04747162173 0.057040803435 0.00017742686202 
4.2206376676e-05 -0.00018209842626 0.00017597191174 0.00010655444277 -0.00039690908423 0.00013525045779 0.00010431977018 -0.00028578390344 0.00010458803454 
0.00016709212059 -0.00028477520266 0.00014968444217 0.00017705356986 -0.00029975166073 8.245672311e-05 0.00015888697499 -0.00023769824734 1.4653530257e-05 
0.00035063343878 -0.00029393137602 -0.0004606034968 8.542821477e-05 -0.00022064088159 -0.00010078477162 -3.4871800828e-05 0.00018103180578 0.00025420602602 
0.0003402946276 0.00015927297665 0.00012107766408 0.00024587783959 -0.00021895866153 0.00026438147943 -0.00015548920849 -7.6407431009e-05 -0.00011951454976 
-0.00015663076677 0.013112219602 0.0066835946366 0.00013496405054 1.3648638331e-05 0.00038694813073 3.1802945294e-08 -5.3633774382e-05 0.00012894825646 
0.00029933186168 -1.7671840207e-05 1.6707176081e-05 -1.7874947479e-06 1.8030447561e-05 0.00039305616187 -8.9395358996e-05 7.234302086e-05 0.0001088544817 
6.2504945886e-05 -5.1555542603e-05 3.3859644607e-05 8.9279698426e-06 -0.00045283272305 0.026755102576 0.032956802181 0.042171537081 -4.1307391638e-06 
-0.00014817537755 0.016999259001 0.020624617612 0.027941700617 0.0032311200762 7.7983149482e-05 0.00021219275137 0.0092509676645 0.013775986562 
0.038203075484 0.00014387653845 0.00016284191291 9.7757715776e-05 0.00013312358992 -0.00023139233953 0.00020376398097 0.0066955996535 0.0023288930397 
0.0010607329322 -0.0012509777481 -6.1570683614e-06 -4.7828600986e-05 3.9074594383e-06 0.011919673865 0.010322094094 0.012598309099 -0.00020032272616 
-3.1438256217e-05 4.6245152354e-05 -0.00029503374749 -8.5948296662e-06 -0.00042357388961 0.00019830565558 0.0001456368919 0.012623415771 0.012425532592 
0.01254964654 0.00016075747878 0.00036623513839 -9.6182450797e-05 0.017776752915 -0.00012864772591 3.666423177e-05 0.00012323805201 0.044036358618 
0.033264456146 0.025727326655 6.4156757338e-05 -4.5244243438e-06 -5.2297744066e-05 0.00017738303031 -7.184336493e-05 5.7286211342e-05 0.00010603871139 
0.00017175424669 -6.5733979962e-05 0.05331673544 0.061465323854 0.060298291425 0.015220548755 0.012453648214 0.0090103323704 0.00085087648758 
-4.9434170802e-05 0.00017344612798 0.015369459262 0.037149932957 0.0064968977468 0.041378832087 0.0014478589119 -4.4601916903e-05 4.2010074073e-05 
-9.7810434655e-06 0.0005820333546 -0.00023397780214 0.0017356688664 -0.00047797304461 0.002621014768 0.0023795218284 0.00244022134 -5.0709357982e-05 
0.019888437232 0.014745084218 0.027392729828 0.016105337306 -0.00017454406589 0.0035287531728 -0.00014255532051 9.053464062e-05 0.00018791509149 
0.00016509186773 0.0033709067902 -1.1336224838e-05 8.5625126017e-06 8.2989424955e-06 -5.9286069855e-06 3.2534942982e-05 -1.6167415721e-05 -5.7108223594e-06 
0.00234867631 0.00296386047 0.0048790505869 0.0057634857611 -5.7722339149e-05 0.00012160326829 0.029857750587 1.3636070006e-05 7.2649210237e-05 
0.006353298377 0.0048877701885 -4.6495871901e-06 0.0035505168528 0.0041640284892 0.0054580796861 0.0039152703875 0.0068991575269 0.0081999171005 
0.0076035102081 0.0010269157613 0.0017129589623 0.0025107148036 -6.3345594233e-05 0.00019388878655 0.00078351360334 -8.4793280797e-05 7.9145520304e-06 
8.6388898236e-05 -9.8140141004e-05 5.7249248546e-06 0.00010570754068 -1.702447597e-05 -5.6663173551e-05 0.00015638135154 2.5116352379e-05 -3.8336474187e-05 
-7.9373323486e-05 -4.8712415353e-05 0.00021815047274 0.00013234604337 0.0001053918544 0.00011781330147 0.0012301631779 0.018018193845 7.9977952259e-05 
0.00032094313536 8.6410571286e-05 6.7858026761e-05 2.6259688705e-05 6.6216462929e-05 1.8112788459e-05 -0.00028514157514 5.9257680981e-05 7.1206303027e-05 
-0.00019737518639 -0.00020500232498 0.00032454022344 -1.0180964891e-05 6.7065070617e-05 0.052067712248 0.051360952085 0.0051145964278 0.0047299551946 
0.0069096072482 9.6642703534e-05 0.051209982454 0.049494081772 0.044032847754 0.01219650906 0.010474140094 0.0079183547288 7.0560160895e-05 
4.9039204988e-05 -2.6471860119e-05 0.053690930777 0.053009996762 0.045073339244 -0.00015729979987 0.045549507426 0.043929477827 0.039634648579 
8.442307501e-05 0.015762802348 0.0096986524923 0.011390966452 0.010792172426 0.054039863653 0.054336971458 0.046655126108 0.052645994359 
0.053886644368 0.046948460126 0.049370769537 0.05128043992 0.045382937022 0.044485510476 0.046973712189 0.041551539388 0.038830362378 
0.041767710139 0.036486447922 0.032422186622 0.035338660849 0.030422336479 0.0031269234717 0.0061627635074 0.003373938734 0.0041041149081 
0.0062911655434 0.006747300268 0.036250903377 0.027321478617 -7.5322073331e-06 1.0489172045e-06 9.8293196038e-06 -1.1098438327e-05 7.3115932623e-07 
2.3069548938e-06 0.00025177683283 0.00029476536801 0.0001347214439 0.00010899075169 0.00011888846341 -0.00010343939177 6.7518565327e-05 0.00022295192553 
-0.00017754832907 4.9184641267e-05 0.00025284403801 -6.5273798702e-05 3.5309861494e-05 1.7663135302e-05 0.015740885135 0.020287170006 0.014614361621 
0.014230301059 -6.2348239854e-05 -1.3338180231e-05 -0.00025401385747 -2.5457068694e-05 0.00012377127603 -3.539702842e-05 -0.00016316819738 6.4156869895e-05 
0.051075242479 0.024504016476 0.014204988841 0.0042593868612 -3.6650093464e-06 0.00015299856554 6.9988056222e-05 1.652481294e-05 -0.00012564041775 
7.6858828262e-05 1.700150206e-05 0.0070063328548 0.009977418624 0.043572555951 2.7782105902e-05 5.340136632e-05 -3.144231844e-05 -0.00035769754617 
0.00012332944648 -1.9148582742e-07 2.54504325e-05 -8.1218747718e-05 0.020219129889 -9.0959150135e-05 6.2453380999e-06 0.0001468043291 2.0356962216e-05 
-3.8800569552e-05 0.00019299800559 -2.1093112493e-05 0.0001180084843 1.9575689129e-05 0.012971044034 0.015806928294 0.014467596035 1.5688387153e-05 
0.0050123517041 0.0040188282002 -0.00042270646986 4.1920030878e-05 3.9286163491e-06 1.9316578087e-06 4.1382376306e-05 -1.2665106653e-05 9.1654969644e-05 
0.026655431444 0.0024811696456 -0.00014280513599 -6.486809296e-06 0.0099246766156 -3.9196045634e-06 -2.9233510367e-05 2.8253499041e-05 0.011997966788 
1.6862232098e-05 -0.00011229565798 4.7108111122e-05 1.459416734e-05 0.0019925852978 3.8373082256e-06 1.4996794817e-05 -0.00015241750375 0.0001090132862 
0.00011063513956 -0.0001370742218 3.700124267e-05 0.00019691490738 9.0552615293e-05 0.00018786919863 -5.2070404426e-05 0.0098030736198 -6.1031741492e-05 
6.9612373888e-05 1.1926023455e-05 0.044380191989 -0.00053717227056 -4.7542445647e-05 0.00039143086149 0.00011164096231 -8.7815569551e-05 -0.00020947303215 
-2.3644832464e-05 4.9054099671e-05 1.5886214389e-05 -5.5557248575e-05 0.014710230257 0.011881132421 0.00037838272353 0.0015855009825 0.00016180673635 
0.0026324225066 0.0034927483535 0.0026081455635 4.267533123e-05 0.00014337592431 0.00024936832021 0.021272235072 4.5519358275e-05 -1.8270235641e-05 
0.03925491469 0.039523801193 -1.9682637376e-05 0.00012221718929 0.011917793495 0.014133259547 0.038573216132 0.040079105605 0.033685076577 
0.033248860883 0.035886623709 0.031430340024 0.028427848402 0.031275330621 0.02677498036 0.023401984001 0.026827476504 0.023139274654 
0.019045002646 2.4727491577e-06 1.4053687272e-05 -1.9945313685e-05 2.5712793334e-05 0.0091759949673 0.0095713458122 0.00779940361 0.012898912589 
9.8888884835e-05 -8.0993960598e-05 2.0589821393e-05 0.00011748777482 0.013419388309 0.016034796793 -0.00011104842148 0.00010846000921 0.0079174428434 
0.0093812149798 0.012131688563 -5.8390980721e-05 0.037560659698 0.036427620345 0.040090422011 0.03942172502 0.032065359415 0.033451660862 
3.6370620623e-05 -3.8960477383e-06 3.0840343948e-05 9.985059903e-05 1.8552182362e-05 9.2912058946e-05 0.00016554787904 0.0041339582421 0.0048569201377 
0.00443713971 1.6808598626e-05 6.4485156784e-06 0.017893524184 0.012100909204 -9.4794948426e-05 0.011918006426 0.017554011323 0.03309107613 
0.023485840483 0.00015267548667 5.1131033031e-05 -0.00036142785897 -0.00018151929205 -9.966221082e-05 3.817961856e-05 7.7440316846e-05 2.1196783567e-05 
2.0705182085e-05 -2.4628403096e-06 2.963832411e-05 0.016591275542 0.0064056134162 0.00510881726 0.0057937205842 0.0067653250655 0.0084723189935 
0.0061015123304 0.021415334125 0.016757498679 0.03657172084 0.036630751514 2.4527773931e-05 -8.3016902641e-05 1.8530991347e-05 0.007899702286 
0.017709682593 4.2520160108e-05 0.0098221217689 -1.0515463035e-06 2.356199112e-05 -1.2462626423e-05 -6.6313285142e-05 0.019214595006 0.0025193555777 
0.00055745640635 0.00010539071156 -7.242076396e-05 0.030133307814 0.022087378753 2.1439815745e-05 0.0037834200606 0.021794901822 0.0049476474018 
-4.4956008799e-05 4.1492941422e-06 -2.4652542923e-05 0.00022089075117 9.6882091278e-05 -0.00015850575029 -2.553693119e-05 -9.3592573155e-05 0.019403810728 
-2.4731045732e-05 9.1992407152e-06 -9.5310785296e-05 0.0057537063168 0.027964010515 0.027087771588 0.025967340348 -7.5676998658e-05 -4.9157759764e-05 
0.01622590603 0.020035298531 -4.1288064843e-06 1.5534355766e-05 -2.7754909502e-05 -7.2762460904e-05 8.9414556265e-05 8.950099993e-05 -2.1037464033e-05 
0.025331724774 0.022319943325 0.00017214613183 0.012191779424 0.026754221243 -1.1033975995e-05 0.0085867150291 0.0065448152866 0.024707223707 
0.010131691845 -1.615415035e-06 0.094514046831 -0.029851980524 -4.6601674483e-06 -7.3482279517e-06 -2.1935440834e-06 -1.2680390132e-06 1.4688162057e-06 
3.2830643167e-06 3.9199574076e-06 6.7416313209e-06 3.8565573373e-06 1.5389908112e-05 -0.00027792454461 0.00043468830367 -0.0011376687607 -0.00022961975955 
-0.00086882272979 0.00020862568841 -0.0029406691808 -0.0019496380228 0.0018316772934 0.00021444726684 -0.00014838759623 1.5552163681e-05 2.7864362941e-05 
0.00019224904519 8.5768321572e-05 8.6194416707e-05 9.7883923581e-05 0.00015797396793 4.6054579195e-05 0.00017709041686 7.7900951727e-05 0.00012344843764 
0.00014583635683 0.00022968469463 0.00024356873451 0.00027939528692 0.00028718798416 0.00028179552016 -5.240368465e-05 0.00012952176922 -0.00012784813605 
0.092145552945 -1.3337250218e-05 1.8219073948e-05 -0.025328999726 0.010453332107 -0.00089531463999 -0.0027936094185 0.00017935941887 -0.00038887664412 
-0.00026766125778 -0.00012231637822 -0.00041881078343 6.9186890939e-06 -0.00018329742121 -0.00018001473 -1.5998978449e-05 -1.5122644465e-05 -1.4230852077e-05 
-7.3614198808e-06 -5.980846121e-05 -1.6179466094e-05 2.2499412916e-05 -1.3419965997e-05 9.3658549763e-06 2.0015040112e-05 8.2929152031e-06 5.2287935206e-05 
5.1293606532e-05 6.8210061454e-05 7.248471615e-05 8.7641168311e-05 9.7064864531e-05 9.8994176149e-05 0.00013647807739 0.00014692265446 0.00011487186639 
0.00011921003526 0.00012148373444 0.00012863591593 0.00014521463121 0.00014585198607 0.00019779736782 0.00015035077642 9.6023836429e-05 2.3246417262e-05 
8.8026234782e-06 -3.3765946958e-05 -0.00010043612195 -6.0782477668e-05 -0.00031099030987 -0.00032737208681 -4.811143185e-05 -0.00011391930739 -1.5763412704e-05 
-2.1002001171e-05 1.7302826423e-05 6.200599064e-05 7.9993875566e-05 0.0001033456939 0.00011950450413 0.00011713318164 0.00014314169151 0.00013495131003 
8.513986234e-05 8.7004490054e-05 7.7457315566e-05 7.6582190634e-05 8.6465475941e-05 1.850402277e-05 4.8485635257e-05 1.5233964386e-05 3.4408716968e-05 
-7.1605892912e-05 -2.2920125728e-05 5.9272032168e-06 9.8004859384e-06 2.3301416805e-06 -9.9119201733e-06 6.4142276854e-06 6.824461348e-05 7.0968423373e-05 
-1.4082010345e-05 8.067269744e-05 9.4975419044e-05 -3.2791622417e-06 1.8434955084e-06 0.00013536611943 0.00011816125625 3.9761741198e-05 5.8068729099e-06 
4.6269228561e-06 2.9268727692e-06 -7.5643377477e-07 -1.4124570511e-05 -2.4319420399e-05 -2.7034640545e-06 -4.7567268137e-05 -1.1350532171e-05 -1.4191783196e-05 
-4.317183932e-05 -3.4245613403e-06 -3.3444770601e-05 -1.5487039643e-05 2.4164053485e-06 -1.5821137242e-05 -5.7510970071e-07 -1.3759749303e-06 4.5004867272e-07 
5.7535577689e-08 3.9789958749e-06 1.2880964444e-05 3.0624873057e-06 0.0003089635972 0.00061584058187 0.00083682204778 0.0010466953764 0.0011396297931 
0.0012280701703 0.0011978917322 0.0010989431043 0.0010089331755 0.00085722528261 0.00071549438512 0.00054040555439 0.0004029101228 0.00024344832394 
0.00014134790399 3.9785331494e-05 1.5651472753e-05 -1.6273738596e-06 -1.8162822462e-06 1.7862779141e-07 0.0012141525012 0.078884630591 0.09216756841 
0.060790788444 0.092561693089 0.08567136036 0.095946085663 0.087047047911 0.094960886657 0.10192937475 0.09926169158 0.12023696376 
0.10297719205 0.091690587435 0.10091004375 0.1013330197 0.1026821464 0.10185522173 0.11898956069 0.10186468778 0.095757244324 
0.11826805544 0.10718442116 0.07275407955 0.092379970059 0.079214207119 0.11131160037 0.13603654711 0.11293747295 0.088902920461 
0.084293993774 0.094563556953 0.091330967863 0.098446653535 0.11767001254 0.098007578153 0.10200193823 0.098094165491 0.095124212351 
0.10245828064 0.12288464097 0.099267404255 0.1072964144 0.094593584385 0.10848594395 0.11064695839 0.10725168857 0.09560316978 
0.089546128791 0.096896718515 0.098027927852 0.098406436553 0.096639257436 0.1441774823 -0.062959889761 0.058734546779 -0.018599390627 
0.10602793664 0.075333183533 0.090701437346 0.069017399693 0.07647267742 0.061167610969 0.063215596783 0.059435356713 0.055713626207 
0.057745139513 0.053264353364 0.061843419775 0.052203089646 0.05372233967 0.048698646147 0.049414377886 0.041360444493 0.046165508535 
0.036366290828 0.045513973071 0.028423091992 0.036900029885 -0.0048888452861 0.0092448162964 0.011724620226 -0.066485386613 0.075676535182 
0.061650000067 0.067826223963 0.02228668692 -0.017613590641 0.031114380715 0.061012591861 0.060377713334 0.073842967193 0.071863317029 
0.069992534015 0.061747837712 0.070424727736 0.066414618707 0.073337921709 0.025009503259 0.061352732499 0.06229004796 0.071617813602 
0.051060908258 0.069206201434 0.072699592302 0.062015157773 0.031791004011 0.059139593124 0.073360013094 0.067769879899 4.3057908444e-06 
-5.643682806e-06 -9.480576881e-07 -9.7359016349e-07 1.1480721849e-05 -5.4952261482e-07 -9.8384739146e-06 0.0060747696424 1.2762925561e-05 -9.9824948007e-06 
-4.1499673822e-06 -1.2787965157e-07 0.0012402273353 9.6908573839e-05 0.0024865761427 0.0055647546865 0.08917783411 0.08085640778 0.089096365354 
0.10640065533 0.11180189126 0.10725606765 0.0072029555725 0.011657690833 0.0093279708223 -4.0897962138e-05 -6.1285825727e-06 5.73678481e-05 
-0.0024535664819 -0.0083592214058 0.00023753216408 -1.731648714e-06 -6.9640704817e-06 1.2463518384e-06 0.10030928742 0.10288863486 0.10453762037 
-4.3327000718e-07 1.8610965073e-05 -1.9456203779e-05 0.12275305101 0.12655980451 2.5932894201e-05 4.8289641149e-05 2.407989812e-05 0.089593116605 
0.090512244065 0.095880285303 0.0045360614224 0.12027509567 0.00052118389207 2.5092610688e-06 -2.2968252269e-06 -2.7954849742e-06 8.1864582363e-06 
0.066153913772 0.069343188664 0.10098249411 0.1082937895 0.073158713848 0.075018577595 0.065665655004 0.067412567837 -9.071890392e-06 
-2.4453246155e-05 1.2062553231e-05 -5.9095441357e-05 2.8296742093e-05 0.00010710922325 -0.00011713126185 0.0023081000937 0.0055951749003 0.0024522946268 
0.0074422972124 0.0058250654252 0.0040620926304 0.0068193498271 0.0047426769974 0.00016237111852 7.1983190021e-05 7.4898587987e-05 0.074120215499 
0.072662609703 0.06572656961 0.10830578048 0.10080744814 0.096200418157 4.4635628594e-05 3.0792613882e-05 0.00017157839719 -0.00012696196905 
-1.9014121939e-05 2.3713538036e-05 -1.9010876755e-06 0.00015660485642 0.0001656091824 0.00019142733279 6.4802288949e-05 -9.6997634682e-06 2.8794570505e-06 
3.6336741505e-05 3.3606671204e-05 6.0035807182e-05 -0.00014362015805 5.6118202416e-05 0.00092543819065 0.0006822942352 0.00095089258416 0.00066888155107 
1.0934712675e-05 2.0469426625e-05 -9.1062159421e-06 7.4243183697e-05 1.1613727189e-05 -0.00011769137872 0.06613401077 0.058617646416 0.067990499245 
9.4473538907e-05 -5.5877159407e-05 -2.6209651183e-05 -1.4511780593e-05 1.39863537e-06 -1.9949495504e-05 8.8514832899e-07 0.0055758655471 0.0013003845266 
0.016000621052 8.1985940224e-06 -2.1337528023e-06 -7.0301131228e-06 3.5271611645e-06 3.2210063423e-06 -1.063911529e-05 3.0681516377e-06 0.0001342655381 
0.00026382565336 0.00016633583775 0.000349222085 0.00062156964072 0.00070849727519 0.0016215816096 0.002370651746 0.00031984652994 0.00053535456869 
9.0465825317e-05 -2.9739184774e-05 0.00078193133031 0.010132833693 0.0010486999284 0.05404234157 -0.0016780882877 -0.00085830602853 0.00022085889425 
4.5520671985e-05 3.9919830201e-05 4.1039429067e-08 2.7396840958e-06 1.0606924951e-05 0.00088132362184 0.020656932237 0.029811982991 0.045154634145 
-0.022147841997 -0.0051388470155 0.013808921716 0.00061179492984 0.00090157463717 0.00052037243234 -1.714877325e-05 2.8863971432e-06 2.4963356864e-05 
-1.3861774847e-05 3.4223917068e-06 -3.4008877797e-06 -9.3565066037e-07 0.012159488287 0.065766098035 0.014903378323 -0.00018044234438 -0.00028332503078 
6.9833204402e-06 -8.2932619679e-06 4.1291996086e-06 1.7040881783e-06 9.402384771e-05 0.080854429941 0.079869536636 0.072961146219 4.59952602e-05 
-6.6736212493e-06 -3.9043645033e-05 -0.00031833220332 0.00023689740748 2.7968276527e-05 0.00033058830852 0.065897697423 0.054165944063 0.058114352937 
0.049019242782 0.052203445643 2.3836358998e-05 -1.4833177909e-05 -2.6777128319e-05 1.3714870396e-05 0.0096391305502 0.013823744952 0.011730955736 
0.040432442271 5.1297218793e-05 4.050687572e-05 0.00020404370209 1.4662962894e-05 -7.6124794536e-06 1.350999197e-06 4.5363883133e-06 2.6468427341e-06 
-8.1901028654e-06 0.071286941557 0.073723356497 0.062023320793 0.10014566524 0.10188177716 0.10454745864 4.2468030394e-06 2.6198154463e-05 
7.7655437729e-06 -1.9495942722e-05 9.7319330186e-06 3.1903395835e-06 -1.1488883819e-06 0.001150843358 0.0012320971482 0.026094657623 0.022208547712 
0.055877414367 0.00049932660773 0.00037248835745 0.00051338827878 1.9487629159e-05 6.6483473921e-05 0.00017608313104 -5.9914771214e-06 0.0052795225303 
-8.6267396588e-05 -3.5109926649e-05 5.9876038678e-05 0.0088329841443 -0.011610782433 -0.0025286942716 4.9835996593e-06 -8.0079272909e-06 8.9495611676e-06 
-2.3455936891e-05 9.1769461289e-07 -3.5404570373e-05 0.007974057864 0.0092321477981 0.010895632874 0.00077105220497 0.00099069368282 0.0012846777454 
0.001464122611 -4.3561671266e-05 -2.5290021825e-05 0.002983705092 0.0035123677567 0.0056993608099 -1.9443291551e-05 1.9714976561e-06 -0.00011441399526 
-2.0834176598e-06 1.4449007499e-06 -1.0723520364e-05 -0.0019697306464 0.0055632259432 -0.0062819159003 -2.6305771869e-05 1.0216464329e-05 8.7699471711e-05 
8.5028099978e-05 1.1201628547e-05 3.855313818e-06 2.1892459201e-05 -1.3578571366e-05 5.3015045456e-05 9.4142913433e-05 2.8441564861e-05 6.724564657e-05 
-3.3404281396e-06 3.2218289016e-06 -0.0013626010094 0.0011732827467 -7.0006319411e-08 0.0001756263827 0.00020361071377 0.00095658204998 0.016103625601 
0.019128576107 0.013952745937 0.016751402621 0.00041607801633 3.1272350464e-05 1.95946339e-05 2.3273928205e-05 2.4682002877e-05 0.062285511717 
0.047148792629 3.2973499692e-05 -8.963200193e-05 -7.9629575441e-05 0.00076583392833 0.00042826768895 0.00052586544721 0.085920593149 0.1008492666 
0.099148878935 5.7819192538e-06 -3.5939894271e-05 0.064955177256 0.064084347028 0.056464528083 0.0017648180663 0.0021489787244 0.0033710488565 
1.246041096e-05 -2.520472344e-05 -0.00010098649747 7.6465289275e-05 1.117662676e-05 -5.8392649771e-05 0.00013939931186 3.7623853024e-05 0.00016950512658 
0.00011729706616 0.00013385139948 0.00010839698758 6.146148105e-05 1.0495075773e-06 -3.6468811024e-05 2.0183207118e-05 0.00050788821405 0.0054015127241 
-3.6017716516e-06 -3.2163054649e-07 -4.2749570783e-06 0.00017780271813 0.0001557443558 5.4212879e-06 -3.2298727618e-05 -1.8008169593e-05 0.018096380289 
0.015066339906 0.011074939797 -0.0021351402005 -0.0052895064036 0.0041803979099 0.0028676026161 0.0031945380473 0.0023230049746 0.0005000923353 
0.051668746868 0.042039173137 0.056295415963 0.0050645510353 5.0337775643e-05 0.0002710696442 -5.0765126399e-05 6.7993124344e-05 2.1841440357e-05 
0.00010871850174 3.9878110385e-05 0.00016555180929 -0.0057310726067 -0.00012324963541 -0.002054344671 0.074092566471 0.083179740563 0.07501424294 
0.077939402079 0.053678665754 1.9047262619e-05 -2.7082518831e-05 4.5696977709e-05 -0.00026832677557 0.11314521537 0.080933393859 0.11279638138 
3.2283009061e-06 1.3193735632e-05 -1.2418174514e-06 4.1112493186e-07 0.0022110445652 0.00050086316761 0.0016720609565 0.00056238795627 0.094522459852 
0.094884850406 0.08734247264 0.070276419463 0.077185880319 0.069043178901 0.076201437377 0.083700408354 -3.4440335649e-06 -3.0712405152e-07 
0.00038235252207 8.4381765762e-07 8.7384428853e-06 1.5927892486e-06 6.1252705841e-06 -1.0736051376e-05 0.07130223224 0.068191033712 0.079053202983 
0.019976883141 0.024669289356 0.023976101381 5.1265770058e-06 1.8597804141e-06 -9.4338121409e-07 1.8057901824e-05 2.6959335859e-05 -1.4056391105e-05 
-8.3347078195e-06 1.7380610102e-05 -2.2960114823e-05 -4.0213899997e-05 0.10277099747 -8.9477693827e-07 1.8319841964e-06 0.023660760157 0.02623292159 
0.031609710899 -1.1536813802e-07 -1.2190843025e-06 0.11018727994 0.10645945812 0.10768529513 -3.0950496312e-05 0.003163766334 0.0011128508947 
0.0039504752437 -1.7925804024e-06 -2.3574230105e-06 2.0105440715e-06 2.2273256132e-05 -6.9701941352e-05 9.8707405187e-06 0.00027086618516 0.00040384792725 
0.00014872650187 -9.3632753701e-06 -1.9759147179e-06 2.2624619341e-06 0.07398892731 0.083075944455 0.077506372572 0.0030874475634 0.00350671911 
0.004203800707 0.004618842351 0.0054388157817 -0.00073590934562 0.00023637530334 0.10147090002 0.045706689055 0.043100715994 0.036598523499 
0.037937673297 0.034535861005 0.029390566202 0.047280873225 0.031622164899 0.038324340747 0.011363838558 0.011657423383 0.0096302616323 
-1.2985091914e-05 0.0048010690174 0.0064105181634 0.0083489133061 -9.9130127893e-05 0.080942507369 0.093049700493 0.071026153464 0.076119514224 
0.0050545382674 0.0068960963167 0.0084773064668 0.010037061832 5.9808003684e-06 6.2378622016e-05 5.8739166868e-05 9.8062539632e-05 5.2988149659e-05 
9.4308143321e-05 -5.494016007e-05 1.1993989402e-05 8.6082804327e-05 -6.3875131934e-06 -6.5092588231e-06 -2.4798287171e-06 0.022034600261 0.026248168294 
0.020015839554 0.024733411096 0.0096225092838 0.003222425485 0.0075060439844 0.0021931999165 -1.1848776371e-05 7.8044545731e-06 3.1274378142e-05 
0.021402029437 0.015405897998 0.020055465844 0.0006805940964 0.00052812631187 2.816722194e-05 2.0642933418e-05 -1.7707587066e-05 1.4889308098e-05 
0.0046616734121 0.0003543685391 0.020946707044 0.017105768057 0.01519546687 0.0880369123 9.4175390564e-06 4.0383029206e-05 -6.1525955867e-05 
8.8037676586e-05 -0.00035403293755 -0.0002927114529 0.00019559390769 8.4953825321e-05 0.001511749156 0.00065316022924 0.0029228462523 0.0024395597523 
1.0922020174e-05 -1.0720617776e-05 -0.00011477186373 3.0922062595e-05 -0.00012568516596 0.0011260302381 0.0035696788816 0.00094963917066 2.6444443694e-05 
2.3693944564e-05 1.0799930421e-05 -3.049154164e-05 -6.8206440385e-06 -9.9978834476e-06 0.0013873398873 0.00061978515618 0.0025703610001 0.00095496650966 
0.0013294760384 0.00044479734614 0.00022367763432 -1.0009621081e-05 8.4347094109e-05 -0.00037803785969 0.0037958411941 0.0037980229354 2.4862338561e-06 
-1.1671134835e-05 9.8868247575e-08 2.1569839452e-05 1.7169323624e-05 -4.5971452348e-06 1.0215649314e-05 2.7809555188e-05 1.832337708e-05 -7.5591455093e-06 
3.2418897643e-06 0.00030282536115 1.5399728476e-05 1.1930657383e-05 -1.3594718169e-05 3.1136031066e-05 6.5257826488e-05 2.1070759116e-05 0.00011281475418 
6.1100102963e-05 0.021109532712 0.049058001776 0.024891523147 -1.6919415731e-05 -9.3838835694e-05 7.0067183185e-05 9.3905825523e-05 -0.00029025542783 
5.3872548325e-05 -7.9945987475e-08 8.7620634992e-06 -2.6220182991e-05 5.2609985781e-06 0.00091082900692 -0.00016443120666 9.3128775942e-05 1.8229626853e-05 
0.0034845330019 0.00044765710459 2.8639606451e-05 -9.5045275317e-06 -4.6294522983e-06 -2.4290957056e-05 2.2497529499e-05 0.00015511878148 4.1209902418e-06 
2.4475213897e-05 -3.3805622771e-05 4.2130697423e-05 5.9429140533e-05 0.0023868727908 0.002489195572 0.0037293805267 0.007467932471 0.0066987838011 
0.013474391056 0.0069007881138 0.0042206226632 0.0042315043925 -0.0028435748712 -0.00036678286595 -0.0030582922277 -9.6213984168e-07 -1.2500092321e-05 
-1.1625403829e-05 2.6371579827e-05 6.0639920085e-05 3.6333260284e-05 6.2687421626e-06 8.801385371e-07 4.5397628269e-05 0.0031688802702 0.0014808175856 
-6.7299718709e-05 0.00052051700144 3.9960813108e-07 -1.7838925812e-05 2.3316150454e-06 -2.1218006641e-06 0.059803319403 0.065390509561 -0.00027328283478 
-0.0014167279296 -0.0076003808776 9.1625194455e-06 4.3817425838e-07 1.3692165002e-05 -7.5185429525e-06 7.416626427e-05 -0.00010061818638 6.9443594719e-06 
2.0678135315e-06 0.00033672187071 -0.0019080945023 -0.0056992470065 8.7182430437e-06 5.3047824212e-06 1.3796824084e-06 -4.4393559067e-06 4.6536816863e-06 
0.00017840079722 0.00011216158466 0.00014229222078 0.00055596258324 0.078389487959 0.072137103228 0.10151967102 0.10194328515 0.10329646243 
-7.5028930735e-06 4.9877655199e-05 4.691019052e-05 -5.3121424409e-05 0.0040204107403 0.0033788163335 0.0021670688793 0.012126548625 0.00072579480161 
0.00021703947336 0.0005620968105 0.003684621784 0.0042585293966 0.0059320367851 0.0073142835543 0.01530060009 0.017682471068 0.012410310192 
2.7956738095e-05 1.2478381971e-05 -8.720177297e-07 -3.2343009561e-06 -3.048017759e-05 -4.6134909734e-06 2.3305859143e-05 0.11255570323 -8.7079856415e-07 
-7.6129879651e-06 0.0039164510866 0.0052892422345 0.0064614422675 0.0085577938528 0.026994716481 0.030196854093 0.023949066827 -2.1739893371e-06 
3.847340044e-05 -4.7795128313e-06 -2.2364348234e-06 -4.1590270078e-06 -1.9104655278e-05 1.4932229432e-05 4.121075635e-06 0.0055396776412 0.007209887856 
0.0087857234384 0.00020753870968 0.00010835341453 0.0039460799715 5.2206060798e-06 -2.1695443082e-05 6.3646768289e-06 -3.3931763538e-05 -7.9281236267e-05 
3.7006707248e-05 5.2838506297e-06 6.5101457723e-05 -2.0639664194e-05 -5.0325937263e-05 0.00013018578148 -4.654459661e-05 -7.3559148808e-06 3.7281387145e-05 
1.1698410729e-07 -2.8459190339e-06 -2.2243892367e-05 0.00052506835656 -0.00058914442041 -0.0012915800645 6.0642266747e-06 2.3489318509e-05 8.1049294761e-06 
0.031119005858 0.034906627085 0.04062846118 0.00081090499651 1.0363096241e-05 0.00098830584746 2.4187115842e-06 -3.8671780544e-05 -0.00010017966629 
0.0057539626404 0.0039052306021 -5.8900971129e-06 0.075144949428 1.9164090302e-06 0.065136134483 0.062410430704 0.054255439657 0.054541513207 
0.027627847016 0.037441566114 0.007779906913 0.0042922441056 0.0095415166443 0.014808420541 6.2466677872e-05 5.6441459913e-07 0.030251981393 
0.025232572295 0.00014972834661 0.0027520503299 0.00061684410528 0.00091275507858 0.0027215930187 0.0068794012317 0.0049277704478 0.0808401089 
0.069748292267 0.077179295067 0.00078293779119 -9.4913996012e-05 -4.4671242378e-06 2.8173942691e-05 -2.1112329485e-06 5.6997815769e-06 1.8254064664e-06 
-2.643855775e-05 -1.0861367241e-05 2.6557383131e-05 1.7774825382e-05 -4.0205048538e-05 6.440731466e-06 0.00053061167234 0.001098712953 0.00058772917022 
0.00095369671867 0.0013398031442 0.00073245781766 0.0012753282755 0.0007517627046 0.0025479644242 0.0041994688392 0.0039028605684 0.00059750419512 
0.00078034331947 0.0061829113993 -0.00013877454749 -1.5859383203e-05 1.4794522668e-05 0.075297494864 0.065026320266 0.073839443001 0.1174272193 
-0.00080755259029 -1.2902511468e-05 5.6584233435e-05 -5.1348061958e-05 0.084017821207 0.083804203183 0.093329978945 0.099205195871 0.016655479442 
0.00062470313392 0.039541788227 0.0321414339 0.039292965455 0.00018334560178 -0.00013779444158 -9.5277722378e-05 -6.9430297492e-05 0.0085078254739 
0.011153781349 2.6035879467e-05 0.0001680715314 0.0059944511004 0.11004870883 0.10687864493 0.00027990797126 0.0020759390273 0.031926041522 
0.10859980398 0.0972900894 -5.3832418953e-06 4.1763416646e-05 4.3704663824e-05 6.0910116643e-06 0.00064433731612 -0.0022038548418 -2.0223205908e-05 
6.754281052e-05 -1.4395820087e-05 1.3478972705e-05 -9.1190884888e-06 0.086734186797 0.083480309276 0.078729611995 0.075988122947 0.0064760355281 
0.0014486945809 -4.9449616729e-05 -4.0783891759e-06 -1.1015837661e-05 2.0378075686e-05 -4.8424900844e-05 -4.7114269786e-06 0.093911638186 0.086443611132 
0.08507727424 0.00011316205756 -3.7167281603e-05 0.088553307764 0.094818243816 -7.175392199e-07 5.0205968561e-06 0.013604329615 0.020923146816 
0.0019875469095 0.012526919912 0.055278370413 0.089125534581 0.042144561777 0.0064191141686 1.278552637e-05 3.4033126822e-05 -1.3087361054e-05 
5.2141020124e-05 9.3343255787e-07 6.090397316e-06 3.5640496309e-05 4.072080978e-05 2.0266150643e-05 0.00016258284223 0.00011769101974 -0.00080933927916 
-0.00022624304644 0.012622125707 0.012903038333 0.015676738794 -0.00017390700967 -0.001693082329 0.0079093113895 0.0071438052579 -9.2821969179e-07 
0.0024760279835 0.0014851151398 4.6416764501e-06 -3.3801430116e-06 -1.7531623268e-05 1.7501941872e-05 0.011574359134 0.0097331539863 0.0070058236657 
0.0051454944576 0.0019380947343 -1.9111930767e-06 0.059365385115 0.051593178072 -1.7138163565e-07 -1.5737105536e-05 2.6286745277e-05 0.00027752660007 
0.00054409473171 0.00022956191241 0.00044518786086 0.011482335411 0.015794804779 0.020524086425 4.880889336e-06 3.0704237291e-05 0.010352635965 
0.010390720975 -4.0275668395e-06 3.6523094602e-06 -4.4894321038e-06 -8.1083968597e-05 -3.5501299435e-05 -1.9806364026e-05 -2.6619943207e-05 2.3512253156e-05 
-7.3060284167e-06 2.5250325152e-07 -1.5394000631e-05 0.00024734614775 0.00032624157384 0.00022548546371 0.0012888220032 0.0017828376766 0.00045611936726 
-5.3695021132e-07 7.2221072853e-06 -2.1760859843e-05 6.8830432315e-05 6.8677029329e-06 -1.6054397382e-05 1.6468369221e-05 0.0010320911898 0.0017196104031 
0.00028735651192 0.0013392662145 -2.7410096085e-06 2.2504962701e-06 -4.5695604915e-06 -1.1910605333e-05 0.072496987137 0.082297023968 0.074764599921 
9.2734323244e-05 0.0001579762523 1.1698022842e-05 2.865653122e-05 -2.0458130513e-05 5.7015030086e-05 0.00021507637592 -0.00020984965583 0.0002366547087 
0.00031337227496 0.00019663465386 0.040368831704 0.029477101524 -3.128917853e-05 1.0372430634e-05 0.00025638370042 0.10886203915 -2.0571210622e-05 
4.3971650054e-07 -3.4860377997e-05 0.00028398332198 0.00031933416982 3.7109383002e-05 0.00059251626931 0.00059493577947 0.00037445868267 0.00044831794448 
0.0064564359216 0.0052559780334 0.0090090496931 0.0043658778709 0.0068705808815 0.0072628754837 0.00019511356996 0.0016384244131 1.429534606e-05 
-3.0417219037e-05 3.0868124712e-05 2.7789954983e-05 -1.5864535304e-05 -1.1002995983e-05 -2.9432085364e-05 0.00025071907951 0.00033382088233 0.0081150605671 
0.003853516402 0.00018717386719 0.00020828084939 0.00015272946084 2.3066145003e-05 4.5123813622e-06 3.6589299013e-05 -7.832313827e-06 0.0082477087461 
-2.0269489781e-06 -4.88184963e-06 2.518336252e-07 8.4989981562e-06 -1.6675125538e-05 3.2054114498e-05 1.9307650411e-05 1.6324123937e-06 0.0011094055091 
0.0014250123715 0.0016459568271 0.12063027822 2.0442101072e-05 0.00099069081589 0.00068379017265 0.00012809693672 7.830462274e-05 0.010385463481 
-1.0101521458e-05 8.8047192265e-06 -2.3326569768e-06 -2.5461097519e-05 0.0022992674204 0.0022210570211 0.072850982441 0.013756121991 7.0601798851e-05 
-1.8199308598e-05 -1.1010086063e-05 -1.6726177777e-06 -9.192079239e-07 -1.7986641097e-05 1.3422357724e-05 1.7669803686e-05 -3.8385627308e-07 -1.5995161676e-05 
-6.1393997981e-06 1.0090357944e-05 -7.1024749097e-06 1.1139989023e-05 -2.161036579e-05 1.5525376534e-05 0.00026850491966 0.022394674049 -0.0065623764637 
-0.0025128018255 -0.00043476691997 -0.0034857337667 0.0079318684294 0.0095083067413 -0.00088764138148 4.688787143e-06 -1.0564255436e-05 3.3965569232e-06 
-2.0235723699e-06 0.0039585358719 0.0013046323345 4.6183632812e-05 0.028528496841 0.097281314106 0.077922070012 0.093510402598 0.074744150951 
0.014216244685 0.014828692157 0.011126162416 0.072396509104 0.079126032896 6.9793184364e-06 8.0475984328e-07 3.1126156482e-06 4.2009457367e-05 
-2.6234757392e-05 -1.6117104503e-07 0.037961358455 0.043292333011 0.034956886447 0.098982537024 0.10233694988 0.099905200959 0.11168289876 
0.099286129905 0.0050297837339 0.0054473976235 -3.762937479e-05 4.3602794584e-05 -2.0771389518e-06 1.4262992452e-06 -8.0418729542e-06 1.7730870954e-05 
-2.8289707655e-05 -0.0031062907121 -0.00023149134779 -0.00058058739731 -1.1075635404e-05 0.0023932722496 0.011392447761 0.0060718066135 0.00035707271144 
-0.00035527083738 2.5161635367e-05 -2.2631122465e-05 -7.7728480274e-07 0.0052540388181 0.021068995279 -0.00021071251616 0.00032185045374 0.073144502039 
0.07268010055 0.071648091935 -6.3765855873e-05 -2.1126984226e-05 -3.7153279633e-05 0.001811583983 -0.00047977622021 0.00043224419867 -1.4050768238e-05 
-5.7450368411e-06 6.1863300974e-06 9.657233968e-08 -4.9788155496e-05 0.0078405561394 0.0045197548647 0.007195406915 0.0070043485366 0.0059700635325 
0.0059326198877 0.01818136064 0.023046030776 0.015532667832 0.019804912966 -3.5408302943e-06 1.5807807225e-05 6.9743831225e-06 -2.0715457281e-05 
0.00020991360909 -4.1112483227e-05 0.033169633059 0.024362722762 0.014164177101 0.018343560898 0.017245789614 0.00014253433988 -0.00034599864975 
-3.068623706e-05 -7.5976766484e-05 1.62247861e-05 0.0078743197134 -0.0013643599296 0.00041316871659 -0.00011502888282 5.8673152004e-06 4.3524074899e-06 
0.00027567801523 0.00033096512365 0.00084296852116 0.012970379967 0.015884819772 0.0019754538211 0.0023960051701 0.026814392008 0.024725166033 
-0.00041723365181 -0.00020949843002 0.00017019965813 -9.0209640522e-05 0.00014989616218 0.00012769316822 7.7768088533e-05 7.4278445291e-05 0.00015009665854 
-1.5791789112e-05 3.7256457879e-06 -8.629785325e-05 -2.4971901206e-05 -6.1482382206e-05 -8.7115729866e-05 -0.00023400238956 -0.00020451746562 0.0015701424352 
-1.8604534075e-05 0.0036294037815 0.0022092007588 -0.00027651378429 0.00010837256051 3.7841028269e-05 -1.1460669474e-05 2.822643379e-06 -1.057320131e-05 
0.0021899060925 0.00049452045675 -9.2586204709e-06 -1.7706353285e-05 0.0041604037437 0.00061773697805 0.00085496032965 0.00066885801663 -2.758358292e-05 
2.7749773274e-06 -1.5260021031e-05 0.0098647757977 0.0081144053871 0.00037209192976 0.016552588248 0.023811449406 9.2678382304e-07 4.9445693507e-06 
0.10999590675 1.39977021e-05 -1.1212827132e-05 0.11320439 0.11137882926 3.6251877893e-07 -1.4785544073e-05 3.5457290522e-05 0.079540427257 
0.11041445972 0.10815141419 0.10941864341 3.2851173473e-06 1.8033985227e-05 3.4754034099e-05 0.0027356528038 -7.0801828602e-05 -0.00024702853802 
0.00036477558191 0.033015360299 0.034391397907 0.0076960816271 0.05567721136 0.047730021484 0.049108796785 0.041795619312 0.039932394534 
0.032902621532 0.00046594622993 0.062960944872 0.055302803395 0.061796618908 0.10755702022 0.054157719933 0.049507378931 0.0075707362947 
0.0091330353394 0.01184346818 0.0055367709582 0.0034595418408 -1.6662030392e-05 0.0049543010655 2.1283585219e-06 0.00012734233501 3.5775096896e-05 
-0.00014177363223 -3.4968323374e-06 0.05648103267 0.049042555833 0.0065994052337 0.013250712124 0.00010862515381 -0.00014910425825 3.8622358893e-06 
1.096591706e-05 -0.0070070799702 -0.0020102482676 0.0070720045713 0.00090389401171 3.1646947315e-06 5.9236640895e-06 8.7069053186e-06 -1.8400571638e-05 
5.4726378617e-06 0.00041958571296 0.00037071090124 0.00048104913234 -1.1855760545e-06 5.4192773003e-06 3.3396472022e-05 1.8075356986e-05 -1.008436837e-05 
0.00013227617474 0.00015458116104 3.4634505956e-05 0.00073037359145 0.00041073151982 0.00052324546707 0.0060257196057 0.0059967427048 0.0081212768123 
0.001689310254 -1.8731654787e-05 1.6587998628e-05 0.010699442681 0.013572761051 0.081119402081 0.071916929593 0.08011846778 0.0021676593904 
0.0017428728344 0.00038335956525 0.080645956651 0.090667604892 0.089687216213 0.018684251648 0.024779461938 0.022770697479 0.099576694163 
0.097235601459 0.062496540545 0.055295320287 0.052277067772 2.6665051248e-05 1.2431669419e-05 0.092850596143 0.091160091091 -2.6902559305e-06 
6.7411695236e-06 1.234513931e-06 5.3095596002e-06 0.054068562151 0.052283047124 0.062991327998 0.066092008528 0.073915307605 0.013068721577 
0.012319726418 0.016126639747 0.078058860038 0.058750550116 0.04902032471 0.068021498637 1.845810163e-05 0.007490835991 0.00047719205887 
0.00037892810143 5.7323344653e-05 6.837807605e-05 3.3318818756e-06 4.2512221207e-05 -0.00018925268457 9.750405537e-05 0.022261554546 0.014763327028 
0.0049173146584 0.0090806499048 0.0079860675596 0.010432866106 0.0089820165671 0.081233785844 0.089143376264 0.10164148784 0.00014547489256 
-0.00020782406855 0.00058793926672 0.00035062373571 0.00019028945172 -0.00031014545734 0.00074531505819 -9.7288529378e-06 0.014678969556 -2.7891600451e-06 
-7.6850062527e-06 0.0081280106481 0.011639880483 0.0094940173483 1.6473421863e-05 -6.8409047306e-05 0.00017512207271 -0.00080048374604 -0.0020359611583 
-0.00026952650569 0.00023258197134 0.00026395869702 0.00027406239504 0.0003164995298 0.00032952632264 0.00019549189597 1.8881959358e-05 2.6118718004e-05 
0.00031813220705 0.00016148700463 0.00014841770004 0.0083213406026 -3.5344107306e-06 0.00022539212443 0.00017810090449 0.00010162870769 -0.00020366869834 
9.5396568234e-05 0.00023806260298 -2.7134506952e-05 -0.0027753260138 1.3674463092e-05 -2.2218979433e-06 -1.7930359667e-05 4.7596773783e-06 8.9734667539e-06 
-1.1084911693e-05 -2.2784139152e-05 1.3028283665e-05 1.8978722396e-06 9.7993800532e-06 -8.3025864741e-06 0.00019651116388 0.00017882389449 5.0370902598e-06 
-5.6237748622e-07 -5.6997961536e-06 -6.8539376254e-06 -0.0034517386394 0.00014690707305 0.00017020434414 0.00016679894123 7.2410563249e-06 -2.2851008429e-06 
-4.3141380312e-06 0.09656230871 0.0051576231707 0.0068501935243 2.5366349172e-05 -1.5330428862e-05 0.087044744516 0.010932226505 -4.2348764021e-05 
0.057586034546 0.068561803032 0.057680834278 0.065783710975 9.5349123729e-06 -6.7794987757e-06 -1.6784050566e-06 7.2761989683e-06 5.9766518087e-06 
7.1409787171e-05 0.021403105706 2.3267254532e-05 0.00031813065362 0.00012986406252 0.00011622545953 0.00040917562431 5.8485295656e-05 -5.4016744127e-05 
0.010133011086 0.0050829116665 0.01968989589 0.025190690288 0.028722960879 0.00010350402753 0.00055104369614 -6.5077768116e-05 0.00016082062541 
-2.1869398837e-06 -1.591632087e-05 -1.2000746544e-06 -1.1985482694e-07 -1.6906587252e-05 1.72878078e-06 3.2957229765e-05 -1.167729414e-05 -3.0697498674e-05 
0.031605601758 0.029207900714 0.052919468732 0.053645871709 1.7762829055e-05 -0.0016505657003 3.755254597e-06 6.8342178693e-05 -3.3088052513e-05 
0.11229484598 -3.55930166e-07 0.096467660719 0.00082425994786 2.7871625075e-06 -2.587648111e-06 0.00029135167042 0.0076506952854 -1.8586586397e-05 
0.015714709592 0.010590509997 0.012326350142 0.0048585681596 0.003491085291 0.0031344250455 -4.8749454099e-05 8.2318245208e-06 -1.432323429e-05 
-1.2516991059e-05 4.8715737346e-06 -1.0252684029e-05 2.3530180564e-05 7.3066210827e-05 4.8796153931e-06 -7.6001192522e-06 0.05264551339 0.045541741753 
6.7761303128e-05 0.035594434887 0.061126871178 8.6690208924e-06 -2.5329488821e-05 -0.00021537714258 9.8402238209e-06 8.2447767179e-06 0.075639270574 
0.067548688187 0.068859836711 0.058571018356 0.060212839843 0.046562383616 0.054638133916 0.047678747138 0.041859386013 0.045702836425 
0.0012587620871 2.2940575277e-05 -2.900942111e-05 -2.4029917195e-05 -1.476161577e-05 0.0033755681649 0.009067903792 0.10767828731 0.10139963227 
0.083054523868 0.00034572186333 -0.00024810369194 -0.00031605276256 0.0010385365719 1.4395633532e-05 -5.844852218e-06 -2.7890055846e-06 -8.4195512763e-06 
6.4441985781e-06 -2.9884868458e-06 0.080179568245 -1.6708500156e-06 3.1788333919e-06 0.0086801861395 0.00017859050446 7.9979106093e-06 0.0067674821976 
0.007185682525 8.9919546774e-07 -4.4817305176e-06 0.052635557775 1.7287275465e-05 4.2734101531e-05 0.00022794831774 -0.00090238537037 -2.6866095233e-05 
-0.00014381347482 -1.3593054621e-05 -5.8389777902e-05 0.00034476256812 0.012104507371 0.013269481475 5.3561887543e-05 -5.1799509982e-06 -0.00011772852736 
0.019879390337 0.11003564132 0.11249474167 0.00018711355356 1.3604188609e-05 0.1166001247 1.8879992948e-05 -0.0014455523125 5.3513264746e-06 
-8.0578430147e-06 0.09579457073 7.0044268001e-06 0.04772953999 0.00027070521394 0.00016111466645 0.017333230888 0.02416707123 0.063341183614 
0.070591219644 0.061765199516 0.099608339323 0.095382469806 0.007778231501 0.0060723906101 -8.1231467873e-06 0.0020425129048 0.0018670715582 
-2.0234925998e-05 3.1870309339e-05 0.00011335813467 1.998626785e-05 2.7580700137e-06 -3.8278590073e-05 0.0033078131562 0.00032157644519 0.00016042567639 
-4.1480305358e-05 0.041158771812 0.048018257665 0.048869389836 0.017701364652 3.659175157e-06 0.0097389360735 0.0098596276932 0.048851873509 
1.9938949188e-05 1.9616994553e-05 9.8067571479e-06 0.10537844496 1.3852381961e-05 2.0342526944e-05 8.0989996996e-05 0.0053420834109 0.063390453134 
2.0280202282e-05 0.041252829011 0.042830777039 0.083337966705 0.0020441703141 0.0016808636099 0.00029762313985 0.00022506836948 2.0385821861e-05 
-3.125371725e-05 -7.7027316997e-06 2.1739184358e-05 0.003617344698 0.0073288275881 0.0032534372448 0.0058245244852 0.00031501803481 0.0018237521458 
0.0035377132718 0.0019760058572 -2.152665516e-05 1.2903643919e-05 1.1557178343e-05 -1.2160491215e-05 -5.8388859542e-05 4.2216105641e-05 -2.4560509987e-05 
-1.7425731694e-05 -2.9587517352e-06 -6.7250678908e-06 1.709576879e-06 1.8258557848e-05 4.1882103961e-05 3.8108740385e-05 0.037840723949 -1.7453352131e-06 
2.0904526261e-06 -5.9822514976e-06 -1.2310603131e-05 -9.2377510915e-06 -2.7465613307e-06 7.0716075275e-05 3.4068409991e-05 5.6024842795e-05 9.5581611244e-05 
0.0001786939682 0.00067491036744 0.0021942580424 0.0031470282432 0.10200308231 1.7168361702e-05 0.00013983315228 0.098103792565 0.0003637592104 
0.00041589140721 0.00091336010169 6.4569127948e-05 0.00049834949802 0.00050360917683 1.3319059963e-05 -6.6065653843e-07 -2.1504766575e-05 -1.3986786313e-06 
0.010634223705 0.0084399064294 0.0061369427083 0.0058681551195 -9.7339999235e-06 -5.8897992139e-05 5.890318209e-05 0.0029726017129 0.0027600705951 
0.0042876567663 0.0039877511563 0.0078106851508 0.0078322885703 3.3648191476e-05 0.047862783936 0.027069323564 0.033789216302 0.032177857811 
0.040074802758 -1.6814099465e-05 2.2303804954e-05 3.6624787401e-05 -3.5461361957e-05 2.5564838752e-06 -3.4826798323e-06 6.4348091713e-06 1.254258921e-05 
1.2116283849e-05 6.9502716787e-06 3.84616832e-06 4.1777256051e-06 1.510911451e-05 -3.3629710459e-05 0.00028788674422 0.00011351432701 -9.683234626e-06 
-5.6070586681e-06 5.5337845891e-07 0.0034697232269 0.0045441562216 0.012377904388 0.0040716929705 0.00015759625419 0.0010990589739 0.0016912802243 
0.0013296711447 0.002042465252 9.5233088729e-05 0.0036811159458 -5.9801845269e-05 2.7268722254e-06 4.4141364607e-05 0.016140586109 0.02339237454 
0.060803665466 -1.7608091594e-05 -9.910032026e-06 -2.3385007997e-05 -3.8457309351e-05 1.4366339982e-05 0.00071623838783 -2.2383206434e-05 -8.8225379198e-06 
-0.00022306763563 -1.1953283625e-05 0.0047967625587 -0.00028128530378 6.7060698461e-07 2.6619298985e-05 -5.9744559602e-05 4.5894486215e-05 -2.2944282547e-05 
3.039675415e-05 5.3557773031e-05 4.6361058064e-06 6.3832577572e-06 4.2183309718e-05 -2.825553947e-07 -4.3387763209e-05 7.5241851503e-06 2.4189300425e-06 
-5.6603983138e-06 5.9210654774e-05 2.5450728924e-05 4.2841106419e-05 -4.9688897479e-06 5.2791070064e-06 -2.8506498398e-06 3.4370066331e-05 2.5159872951e-05 
2.6641142586e-05 0.00028710821053 0.00022671569959 0.00023428030617 0.11521993134 0.043390989341 0.00018773143653 0.00020093602364 0.002458957664 
0.0020931362497 5.5033642209e-05 -7.4724349206e-05 0.0025695112532 0.0047394359309 -0.00016574701858 3.1029251152e-05 0.088006247185 0.11477866398 
0.096028489003 0.0038791422312 0.0073014535505 -6.5872701398e-05 6.4067124128e-06 0.013712397735 6.1315771631e-06 1.5457261265e-05 2.8626668053e-05 
3.8064731881e-06 -1.3451844543e-05 2.0266336447e-05 0.00011185282585 0.00016300892307 -0.0044003354892 5.5026397776e-05 5.5520651767e-06 0.10133652966 
0.014285188394 0.0089540800035 0.011029447084 0.08916648641 0.11140044801 0.1027414153 0.00046832043002 0.0013385199071 1.8124556285e-05 
0.11476181705 0.11249763741 0.0017728628195 0.0015865679497 0.0027445462673 0.0159892426 0.05223918101 0.042626179938 0.041972943321 
-6.7901187782e-06 2.411814672e-06 0.00032809915159 0.0002676359037 0.046913024664 0.018707713606 0.036981040958 0.032130835482 0.00012200764187 
0.056369927546 0.10581702411 0.10423823437 0.11106969636 0.10624611086 0.00028854953399 0.0043280099462 0.004968837007 0.0069015061738 
0.0016208213031 0.0010598406241 1.0977382171e-06 1.0474452171e-06 0.0054026084284 -2.8691451455e-05 0.01627889133 -2.0195782926e-05 -6.7736909663e-06 
3.6293291824e-06 -1.4493626326e-05 -0.00010099089038 -4.6260518746e-06 0.00054393878577 0.0040883203458 0.0029105843306 5.6713734216e-06 -1.7566981659e-05 
-8.5936263212e-05 0.00062190529534 0.0011236803446 0.00094969578663 0.0083178738364 0.0057198535024 6.1518258288e-05 -3.3785010187e-05 1.3620700236e-05 
-2.9728164223e-06 -1.1135044008e-06 0.11233475272 0.11412362003 0.11242421372 0.090765103411 -5.8992464184e-06 -4.8245546422e-05 3.1401695216e-05 
0.0041128596623 0.0048315635112 -1.1374326227e-05 4.4209133919e-05 -1.2262349127e-05 9.9339732583e-05 6.9139009676e-05 3.2988291992e-05 0.010312389933 
0.00091769927123 0.031920228193 0.049650814346 0.022034453902 0.031632230982 1.5337406254e-05 -1.6038931264e-05 -1.2256019834e-05 9.7799479365e-05 
0.00036750456022 0.00032256792674 0.0003771399819 1.2674779248e-05 8.8485249358e-06 -1.1527021564e-05 0.00042420875948 0.0033568159012 -2.1256919023e-05 
0.0016695694626 0.00332756224 0.00011662232594 2.375437046e-06 6.33849897e-06 0.00076588701699 0.020951009404 0.011379059251 -1.7912869351e-05 
-1.8348069624e-05 0.00071954985689 0.096625467698 0.098973924103 0.093732835424 0.10238994399 0.093930969843 -7.0644388033e-09 9.3118172813e-06 
-2.5834310668e-06 0.070330090515 1.3963654435e-06 0.00012737963084 0.00013406656961 -0.00010452685483 -4.5659743938e-05 7.8127613785e-05 0.0001709406148 
0.0041356924844 0.00014011863445 5.490334103e-05 -0.0001681642854 6.1657464647e-05 8.8344322124e-05 -0.00039407902933 1.3244307541e-05 0.012207039249 
0.026019444935 3.9276868141e-07 0.00087644214576 0.0017753735417 0.0013255223967 0.00073655321058 0.010989322758 0.023005763109 0.00015518407494 
9.2503478162e-05 8.7035570654e-05 0.00071707524792 0.0014295978881 0.00041100644359 -7.6953349934e-06 -3.2334330665e-05 -2.4568237302e-06 0.00017102368926 
0.00034445918829 0.02780953551 0.002968484665 0.015924500235 0.01014926853 -0.00090168905604 -0.0018957115038 0.019748689268 0.027827963257 
0.00036313969628 0.036522061278 1.7756067386e-05 0.030676630439 0.0056477386474 4.5623889127e-06 6.1524730247e-06 1.3005897055e-05 -2.7802096493e-05 
-2.0736148878e-05 -3.428727625e-05 -3.096746423e-05 2.6575507669e-06 3.4190696847e-06 1.3490583202e-05 1.3731206817e-05 0.0050432444916 0.0050894549597 
0.012862815581 0.0022327543723 0.042705237629 0.036533108659 0.034243654418 0.030834637227 -1.4184184426e-05 -3.8867679798e-06 0.041377835703 
0.049549942207 0.0417923695 0.049557911261 -2.2358504649e-05 4.2487894243e-05 1.283757866e-05 5.3905689997e-06 -3.479978404e-05 3.6681358545e-07 
8.7121700479e-05 0.076932923436 0.0066773705291 0.033727252766 0.056496437286 -4.300379617e-05 3.5475457797e-05 7.0209299946e-05 -2.9806680896e-05 
-1.0393151774e-05 0.00015787525542 -0.00059083872859 -0.0010375823708 5.1687999444e-06 0.00017171489724 0.00019635329346 0.00014843379633 2.1220783146e-05 
4.0264151916e-05 -3.0083837567e-06 3.1100563507e-05 1.9728367752e-05 0.00066185774088 0.00072006870927 0.00056455146312 0.00017806328337 0.0001545290437 
0.0027706983857 0.0044310352806 0.011810057472 0.003726172074 0.0074546954621 0.0047959155496 -4.179336978e-05 -2.3976416711e-06 6.1088107598e-06 
-3.1308200742e-06 0.0031040971562 0.0054834110702 -0.0027916516615 -1.5699525802e-05 0.013943613576 0.012117895926 -1.6456686821e-06 6.8002089602e-08 
-6.824083689e-06 4.8001054564e-06 3.5127681872e-06 -5.1715186403e-06 0.0055576564969 0.0049517325872 0.009862169195 0.0027588875942 0.0019342996781 
-0.00021896659914 0.039263117226 -9.4590733625e-05 0.00034276225869 0.00018221188398 -2.2143212656e-05 2.0722920579e-05 -1.4698302031e-05 -1.764863043e-05 
0.00014822676652 0.0012381628125 1.4277060516e-05 0.00020136029732 2.0522745298e-05 3.3189743656e-05 -4.3789227836e-05 1.3521582543e-05 -2.5138380456e-05 
0.00020635816277 6.1364238318e-06 -2.1953050671e-06 -0.00091228511691 -5.8300362344e-06 3.6744657983e-05 1.5994070844e-05 -1.7707527898e-05 -0.00019281817197 
2.3484949232e-05 -7.539277497e-05 2.4052733697e-05 -3.5615037407e-05 3.0950181659e-06 0.003495759019 0.00026714121511 0.096042520165 0.055471192182 
0.047826502825 0.047533334184 0.10025574172 0.097291064648 0.091753380498 0.0062159535281 -0.0059488385888 0.00012530570263 -7.760819037e-05 
0.00022092088549 -0.00069122396109 -1.6834146778e-05 -6.3658705894e-06 -0.00090550392969 3.3564994721e-05 3.801375651e-05 0.00093709365571 -7.5784800458e-05 
-0.00013133013387 3.8946981363e-05 0.015176564594 0.01860567344 2.8916678419e-06 3.978072128e-06 -1.299408919e-05 -5.5615322063e-06 -0.00044991998291 
9.5242105689e-05 5.8383604312e-06 0.00014404090086 0.00013826181478 0.00021980032158 0.00010739963924 5.4658144307e-05 7.3379189151e-05 0.057101697435 
0.065673803194 0.020412748654 0.02902122499 0.031504978722 0.014640169772 0.017515576383 0.014936913928 0.040088747305 0.035081866509 
0.0096071584287 0.011594873199 -8.2171293484e-05 -0.00015721521845 3.1106410066e-07 0.0016888880764 0.0067262406846 0.0014410165917 -1.6250897776e-06 
-7.7907599262e-06 0.0013047432208 -4.606413074e-05 0.0004176241754 2.2349390057e-05 7.602879578e-06 -2.4853475596e-07 0.037317358144 0.063715427442 
0.091430436572 0.0022230712873 0.0037831964977 -1.7739504757e-06 1.2953513345e-05 2.4123039255e-05 -1.4196489041e-05 7.2039487626e-06 -9.0734421251e-07 
-0.00042503929635 0.0015247648039 0.0016422459876 1.9381892416e-05 0.020855655775 -4.4497460874e-07 -4.1394093245e-05 0.0010796952808 -3.651628528e-06 
1.4210404295e-05 1.0473276641e-05 -8.0067999242e-07 3.9198268354e-05 -6.6706445416e-06 8.2236612839e-06 1.0634477507e-05 -5.9335383151e-07 0.0054223641165 
7.1367526394e-06 0.020260252359 0.017408699343 0.014256668648 0.011625556223 0.016391684679 7.8000404804e-06 0.02324239731 0.021800532563 
0.08169766048 0.007123957903 -6.2773002544e-07 -2.5137148531e-07 1.0429468354e-05 0.0044016480518 -7.2369647367e-06 0.064638935091 -4.7288713416e-05 
1.8226021799e-05 0.061099716618 5.7899140447e-05 -5.1339033312e-06 1.7908677106e-05 8.5531108909e-05 4.5909649969e-05 -3.7300975236e-05 2.2367056819e-05 
0.071124156675 0.012175867804 0.01254037445 2.9939791237e-05 8.0791630488e-06 4.2987477404e-05 2.1114974934e-05 0.092966230861 0.084966664649 
-3.2127628628e-05 0.02823601034 0.036054617842 0.0061497251196 0.010729142175 0.0051893006856 0.0071007424268 8.5144965194e-06 2.1108916444e-05 
0.00012506738594 -0.00021587126178 0.00015225335621 0.0094940900489 0.00089733586418 -1.9298565427e-05 3.3254880225e-05 1.5323745958e-06 -1.6522242546e-05 
0.02134177931 0.012033861207 -5.7886145557e-06 -2.1370579754e-05 -6.7658171901e-05 1.1325188511e-05 0.00042002051859 0.00017686884326 0.0030351585987 
0.00018561879024 0.056626338157 0.056981438193 -4.2656386184e-05 1.9653068338e-05 0.0002906583416 -3.2804252945e-06 5.0241941832e-05 0.00013283710586 
-3.4568113987e-06 -5.8653793726e-05 -0.0001042711239 0.027316898315 0.022582631524 -8.1579009674e-06 -2.057476451e-05 1.9460992255e-05 0.0019811756006 
1.3771432731e-05 1.4537404302e-05 -2.010378034e-05 4.5974419018e-06 0.0022669424087 0.0028595830638 0.0033587452912 2.0903255652e-05 -7.7882528258e-05 
2.5836642756e-06 -9.5870195114e-05 0.0029445630369 0.10514764928 0.044335922278 0.013802825868 0.012447562603 0.022444972486 3.5694191585e-06 
-9.0031128033e-06 0.00014598745298 4.2328741233e-05 0.092110747726 -1.2861047441e-05 0.1231144801 0.053403076819 -1.2064729988e-05 0.023981244079 
0.0178476287 -8.5211799935e-07 2.0957021239e-05 0.020220177835 -6.7908957208e-05 2.3123439913e-06 1.2632927686e-05 0.0068772429845 0.015206340396 
0.0056165373709 0.021148773528 0.02919941018 8.5517756467e-06 0.0016632471556 -8.8853540188e-06 0.11056718126 0.11332470253 0.093720956915 
0.092629504557 -4.7635299139e-05 0.00010460367721 -1.0332297996e-05 8.3335010758e-05 -1.6383146925e-05 0.092889788857 0.035799029997 0.11124485131 
-6.0471428768e-05 0.04643448709 -1.0962671101e-05 0.00024868900919 -1.1580206944e-05 0.070265690177 0.041714320497 0.055955628914 0.063250841642 
0.011265923149 0.0086484805846 0.013557528827 0.0054270718617 0.00018504544841 1.1575755382e-05 0.00082412506683 -1.4723187666e-05 -4.5817988104e-07 
0.00039289566372 0.054914172377 -6.1178275268e-05 -4.3493631772e-05 -2.7934888425e-05 -2.2867659267e-06 -6.6338973099e-06 0.00027080107252 0.019877412382 
0.0061413380423 0.0075631759659 0.0029885063985 0.0017163498267 1.1307065464e-05 0.021984534027 0.014051271084 0.00067367766905 -0.00024505068535 
-3.5477091152e-05 0.0060133059806 -0.005871229461 -7.2196890475e-06 -1.9566433432e-05 3.1687699766e-05 -5.8600415793e-06 1.0061668386e-05 -1.9198085488e-05 
1.2000406383e-05 1.8495076883e-05 0.002858779298 0.0040610485607 0.0049756348288 0.00040642942778 0.00047532330266 -1.2373804235e-05 0.00011449733874 
0.00011123992387 0.064028639885 -3.3962039909e-05 0.093044065242 0.089815715775 -1.0506719528e-05 0.0030018484186 0.0012239050868 0.0028116781152 
-2.7063091389e-05 -9.1914200294e-06 -2.2926288578e-05 0.098176236842 0.00090823234626 0.040240629286 7.683909214e-05 0.10088654291 0.029029176042 
0.078955849306 -0.0025988074721 0.06992260424 0.016156885815 0.006720274161 0.0084963832631 0.0049305767973 0.00063684251986 0.0056483952429 
-6.6880523495e-06 5.3926754486e-06 8.0365392352e-06 0.0048725556288 0.0084300566257 -1.2831462846e-05 0.05059153794 4.4186923354e-08 1.110102079e-05 
0.084962689427 6.0450243768e-05 0.00021376157752 0.0058491240556 0.0038847519244 0.00045200802747 0.018734666711 0.067335128539 0.0067243453897 
0.0087210272924 0.0065720115173 0.0027046326276 0.0053566909643 -0.00011611993242 0.088093567104 0.0023272808689 0.010385660373 -0.00039166483069 
0.0030022632809 -0.00016940390721 0.0001210115097 1.2972057977e-05 -4.874109234e-06 4.6247599354e-05 -0.00010451403978 -1.5249396629e-05 7.7419168248e-06 
-3.8248259476e-05 0.032895547196 0.00016366613889 3.0365269777e-06 0.014537324108 0.057411387981 5.9448929756e-05 0.047985869449 0.027146213092 
0.030414245321 0.00017584591366 0.025184879797 -0.0031664316335 0.0022097040355 0.021717558714 -0.0018657334302 0.0054033289043 0.051226147656 
-0.00017458136588 -0.0001055373245 1.1230061291e-05 0.048832075218 6.3248344131e-06 0.053501053915 0.0095711377618 0.010951237667 -5.8346421413e-05 
0.016921374777 3.5405365864e-05 0.0065332870317 1.0667309908e-05 -1.6456873051e-05 3.5298991673e-07 0.016647184685 0.012988969965 0.0020653756673 
-4.9396115276e-05 0.057463001557 -9.511605019e-06 0.077862201791 0.086431715978 1.1219579104e-05 0.00071312013812 0.00730955661 1.3030194785e-05 
4.1164071006e-05 3.1191302651e-05 2.0968332688e-07 0.061131692246 0.054480464396 0.059088789884 0.013217851062 0.006863328938 3.6732279619e-05 
0.0080579172665 0.014109730537 0.010874146796 0.087719547248 0.06674577128 -4.6180157672e-05 0.012170465516 5.0404042272e-05 0.060665827576 
0.0006483722191 0.050870435552 0.020722870362 0.044359149397 0.005514060782 1.0609022125e-05 0.0047456613703 0.013766654365 0.00038334862874 
0.0082039298371 0.001420426736 -7.1641766287e-06 -9.8255516762e-06 0.00096877398861 0.01981055217 -1.4705370656e-05 0.00018003629855 0.0078784573611 
1.0748524734e-05 0.00020370640727 -0.00056609183875 0.0059120459232 0.084330548674 0.0015399701546 0.0047908238681 0.00066470712618 -0.00017788699471 
0.040001315053 0.031743027331 4.5689241289e-06 0.034543667778 5.6482333836e-05 0.00025287916235 0.012317220585 0.0035641629267 1.4306525454e-05 
2.8895190139e-06 -9.9667652921e-05 -1.8214513901e-05 0.02620965111 0.028960648092 0.040988327874 0.036521880232 0.017100917041 0.0087155349264 
0.029794701535 0.035416560149 -0.00011111240309 1.3695900296e-05 -1.5168241708e-05 -4.0258131885e-05 -3.343023414e-05 0.014202916361 0.00017081397905 
0.050523376185 0.052787104677 0.043998872193 -0.00026665416307 -0.003943285538 0.026790382844 1.4528509751e-05 -0.0063110853793 1.0683196759e-05 
-2.0857699908e-05 0.11329656541 1.4455765162e-05 0.067724590127 -2.0135196562e-06 0.0042020984309 7.6254273155e-06 0.015168878509 5.5999308996e-06 
5.9551683964e-05 0.0010286813568 -1.5790119829e-05 -1.1324699749e-05 -4.9595344686e-05 -5.3513677146e-07 0.082443066231 0.00011356410642 4.0651406227e-05 
0.002254495918 -0.00026854886548 -1.7323849423e-06 0.0040872774053 -1.4606571438e-05 0.0044393124078 1.6284709978e-06 3.8186393655e-06 5.2642270176e-07 
0.0707498686 -1.9993671494e-05 0.00071826689628 0.00067529982429 9.3362457533e-06 1.8954416727e-06 -6.1748723065e-05 -3.6803497811e-06 1.6201333129e-06 
0.048162687287 -4.8603457027e-06 -7.81739613e-06 2.5650822231e-05 -0.00095256482233 -0.00018301216417 8.807329733e-06 -0.00017811880174 -9.5601925048e-05 
0.00011505220952 0.086846773791 0.0007730067739 7.5606374996e-05 0.01823769807 -3.8466787316e-05 0.085998817765 0.039757727849 3.3862419045e-05 
1.3505549692e-05 0.0046937391853 0.0046637088928 0.096474955608 0.050380522959 0.036189923519 0.048777759861 0.00016972135002 0.10012078727 
-7.057505953e-06 -2.2111230249e-05 -1.9503191773e-05 0.013336114921 0.010848279671 8.4480828505e-05 0.001061569314 0.058958877398 
Minor%20Principal%20Stress 1 8918 double
0.39510242274 0.31147081887 0.30485801632 0.40138192323 -2.2478626113e-06 -1.4386897102e-05 -2.0510298718e-05 -5.877233191e-06 -0.020566161583 
-0.048614142342 -0.039659976479 0.010353745298 -0.030579221921 -0.017547340881 -0.035191677444 -0.0037893747578 0.13636659087 0.12718011305 
0.12362086508 0.1303987211 0.14311100878 0.14125459213 0.13013991086 0.12543107591 0.14654968203 0.14807374492 0.12647767446 
0.13229600964 0.14566786117 0.14565743966 0.145067155 0.13417528501 0.14255915748 0.13923107607 0.13802720475 0.12656967809 
0.13931106641 0.13659996179 0.13555490964 0.15683594305 0.14469883603 0.1431318757 0.1377548633 0.13665562642 0.13869007416 
0.1673606165 0.15918224971 0.1414932926 0.14153228134 0.1405527689 0.16194712517 0.17495691037 0.14129560947 0.14155050857 
0.1439702565 0.14757355555 0.16822075844 0.14144667437 0.13715278046 0.13623469742 0.13747895645 0.14161254625 0.14542677787 
0.13792152747 -1.990242122e-06 -7.8030344902e-05 -0.00083689144959 -0.0019761742358 -0.0031536091769 -0.0042660880473 -0.0052424704583 -0.0058292408885 
-0.0060600001665 -0.0059730249875 -0.005503904417 -0.0047219871626 -0.0038468454244 -0.002813594179 -0.0018037393081 -0.0009131023666 -8.00198962e-05 
1.2650086553e-06 4.7841912962e-07 -1.1879909864e-06 3.293051647e-06 -2.4304849439e-06 -1.1782362405e-06 1.1262947954e-06 6.0156576307e-07 1.0733551605e-06 
-7.3994101515e-06 -0.19725513785 -0.0015397924366 -0.0011134474126 -0.00058416993046 -0.00032146357411 -0.00011311676467 -0.00018203354288 -0.00013772323321 
-8.5750849892e-05 -6.32047697e-05 -5.225354273e-05 -4.6641472147e-05 -6.8362727568e-06 -2.25257255e-05 -1.364320558e-05 -2.4257423065e-05 6.2937650021e-07 
5.1895985836e-06 -1.1105854979e-06 -6.4160462929e-06 -2.6275872841e-05 4.847905587e-06 -6.0748350409e-06 -6.0142929601e-06 -6.9026844386e-06 1.3760538827e-07 
6.5723310602e-06 -5.7818334234e-05 -3.1871269369e-05 -0.00014786603209 -0.00021725286541 -0.00019754490682 -0.00020265266746 -0.00012655092749 -2.9662263616e-05 
-9.8050561792e-07 -1.1759798081e-05 -1.7361138788e-05 5.1027314807e-06 3.9193443762e-06 -4.4653761397e-06 -2.8996118591e-06 -8.3587869151e-06 -4.2727730891e-06 
-3.2185127821e-05 -4.0716995962e-06 -4.0352557965e-06 -2.81841297e-06 -3.8120695532e-06 -3.3526639846e-06 -6.8024511165e-06 -4.7512421516e-06 8.9531242924e-08 
-1.6971196823e-05 -1.4177646043e-05 2.395237849e-07 -2.4932762146e-05 -7.5060397951e-05 -0.00014112410255 -0.0001423970183 -0.00020129144569 -0.00040393932626 
-0.0017153392372 -0.0021315372256 -0.0030141267453 -0.031249338024 -0.017940521875 0.0071982648181 0.01076327095 0.0066006603698 0.0065032675904 
0.012508479516 0.0072626896173 0.0086764998217 -0.0028024932785 0.0057434548924 0.014187137523 0.0037505816703 0.064795777458 -0.0022577658576 
-0.0065290708436 0.0058870791151 0.0070800206978 -0.0016521159444 0.0050649628452 0.0063953958007 0.0058485809874 0.012435905151 -0.0061839109253 
-0.0093671639527 -0.0096452025054 1.7677399618e-05 -0.00014173144371 -0.0012156080331 -0.0027681646625 -0.0042585621316 -0.0054234931907 -0.0060603004051 
-0.0060385006407 -0.0055904105718 -0.004642933912 -0.00347008341 -0.0021111529064 -0.00093782416585 3.4976049781e-06 -3.1269991149e-06 1.8477378148e-06 
9.900481183e-07 8.5115656106e-07 -5.2180304991e-07 1.9991949389e-07 -1.8264864937e-06 -1.2448518954e-06 -0.026390911235 -0.0087815187277 -0.0010625045127 
-0.00058819955312 -0.00027697344385 -0.00019773975943 -0.00012247295753 -6.9658495286e-05 -5.0107797193e-05 -3.7091598374e-05 -3.4943539983e-05 -1.7071033436e-05 
-9.9915042284e-07 6.4210280451e-06 -1.2087097522e-05 -1.4387914775e-06 1.2432004151e-06 1.6747483557e-05 -1.2187337748e-05 -1.2757260173e-05 -1.0585947276e-05 
2.5629812945e-05 9.345141256e-06 -9.1368265096e-05 -0.00019116701842 -0.000227074577 -0.00014089648879 -5.9170560819e-05 1.2914009088e-06 5.0496406541e-06 
6.6984811112e-06 1.1729883537e-05 -7.7322093285e-06 -3.1046496333e-06 5.9267655889e-06 1.2703077959e-06 -5.2448905755e-06 -6.2891005081e-06 -6.2529886252e-06 
-3.7840565784e-06 -4.5928895958e-06 -4.5320889425e-06 -8.7713387985e-06 -8.7316578708e-06 -1.8863163411e-05 -2.7546081277e-05 -3.1602124738e-05 -3.731658406e-05 
-1.3935523894e-05 -0.00010294790415 -0.00018409026416 -0.00024537438717 -0.00031215612623 -0.00049423227685 -0.001038895191 -0.0011327446073 -0.0031273439137 
-0.0068512882887 -0.19633549627 0.032668623067 -0.003817678705 -0.0033377390154 0.0065940875397 0.0072679092673 -0.002524987941 0.0089646137372 
0.0069591256301 0.01251503433 0.0070401775984 -0.0036505902025 0.01112255888 0.10666969463 0.041452117676 0.019327120107 0.012685052799 
0.010912999698 0.0066137118592 0.011893668285 0.0057997632309 0.0065703925895 0.00501987831 -0.0026189806722 0.012136373344 0.0011294670169 
-0.014410892559 -0.00027590293133 -0.00083190688608 -0.0016781125484 -0.0025536433877 -0.003447936027 -0.0041882323151 -0.0047964414888 -0.0050738365139 
-0.0050977253848 -0.0048665830833 -0.004397403525 -0.0037944406916 -0.003066766685 -0.0022691045976 -0.0015210114742 -0.00083273067383 -0.00027005517392 
2.1790013236e-06 -1.4192988556e-06 -1.6222035453e-06 3.9961824856e-07 3.7955927513e-07 7.1190964143e-07 -1.6264005432e-06 1.6069710799e-07 9.5025314877e-09 
1.2719452049e-06 -0.032166650177 -0.00090686554672 -5.9449989044e-05 -2.6918176194e-05 0.00010310363074 -3.1974947307e-05 -7.5333380369e-07 1.3757855574e-05 
4.8351335483e-07 1.6424110402e-05 2.3379757653e-05 -7.5835267671e-07 -2.1404636878e-05 -1.030964799e-06 -3.9236169767e-06 -5.7726208251e-05 -8.2035048249e-05 
-0.00013251051669 -0.00019057856475 -0.00022892430119 -0.00026077679011 -0.00026963867705 -0.00029074323453 -0.00033849261978 -0.00041541296528 -0.0004536284347 
-0.00045372672059 -0.00022627458935 -5.1310177876e-06 2.7127707328e-05 -3.5485926721e-06 -6.4313989001e-06 1.4775367631e-06 1.224077862e-05 -0.00014898886759 
-0.00029607126297 -0.00034391719449 -0.00033711790082 -0.00025006656147 -0.00022379704957 -0.00017514771371 -0.00015716935698 -0.0001412198012 -0.00014318965331 
1.7967833995e-06 1.4444299947e-06 -2.9216453709e-07 -2.1811710494e-06 -2.1933761983e-05 -0.00072192756654 -0.0011230225012 -0.001123182264 -0.00058623334339 
5.1160246326e-06 -4.1852667174e-06 1.7871423875e-05 4.3071258032e-05 6.3470165914e-05 5.3983298644e-06 -6.8714847326e-06 0.00077048406884 -0.074929743835 
-0.06088674638 -0.057141394957 -0.041104358603 -0.037085295929 -0.033276816418 -0.038585146837 -0.066205746656 -0.038877984065 -0.03812248974 
-0.03777521904 -0.038442269442 -0.06476168062 -0.040062621071 -0.038273975979 -0.032474185124 -0.038247083846 -0.03727652799 -0.049032557804 
-0.038120539738 -0.033332630084 -0.034123750894 -0.035510139257 -0.072532075928 -0.069082673989 -0.040442396103 -0.062887064509 -0.057545270703 
-0.048418447107 -0.039402321577 -0.031134019693 -0.024841138537 -0.018938422498 -0.01336246535 -0.0098199973364 -0.0097104127007 -0.0097819213053 
-0.0073735993859 -0.066601138563 -0.0059627583162 -0.0088754905257 -0.012729611222 -0.01082069468 -0.010937695982 -0.014720461754 -0.019237660255 
-0.024878994402 -0.031174748459 -0.037765570175 -0.048425446112 -0.054174602934 -0.058528770834 -0.02601638704 -0.036392841211 1.7878019717e-06 
-0.00025723042986 -0.00013967040327 -0.0081515339784 -0.0099704747495 -0.018038658215 -0.0008331758229 -0.031600357401 -0.001372529787 -0.0022249104592 
-0.0029773225629 -0.0036629723218 -0.0042091286249 -0.0045658481106 -0.0046685168276 -0.0045290826782 -0.0042094550188 -0.0037463223945 -0.003186313139 
-0.0025404998549 -0.0018828416327 -0.0012815863426 -0.00075704125113 -0.00032844539692 -3.4565524102e-07 5.6170641552e-07 2.5375465579e-07 -1.3320265482e-06 
-8.2274700714e-07 1.0912631694e-06 2.2753461267e-06 2.5339820444e-06 0.00044556499531 -3.6876698422e-05 6.2870068435e-05 -8.2796269581e-05 8.9660048281e-06 
-2.2000960348e-06 -1.378341247e-05 9.5520618919e-06 -1.6230603425e-05 -6.6203677507e-06 1.1199843514e-05 -1.2622916205e-05 7.5204497561e-06 -2.7953738861e-05 
-0.0002304934568 -0.00045758161878 -0.00069152535335 -0.00090402520914 -0.001025712944 -0.0010730898421 -0.0011152189883 -0.0011848810626 -0.0013569081883 
-0.0015430846831 -0.0015248683972 -0.00097639488087 1.7757138443e-05 -1.1558954986e-05 -2.0323007294e-05 -2.834707981e-05 -6.2188157441e-06 -2.6210665459e-06 
-1.9228417459e-05 -0.00088610675732 -0.001244896166 -0.0013236165324 -0.0012102655159 -0.0010103550376 -0.00082216984092 -0.00068722286933 -0.0006032875775 
-0.00060508482936 0.00041849581024 -1.2852370563e-06 5.1948466551e-07 -6.4593325321e-06 0.0003483271864 0.0021604548516 -0.0037865596554 -0.0027347013425 
-0.00015222209648 -8.8770569122e-07 1.0069583814e-05 3.4161453704e-05 2.0153609744e-05 -1.5149938919e-05 -0.0018718425411 -0.0058145657786 -0.0078743397137 
-0.00088114819857 -4.0324091534e-05 0.00054887195654 0.0024320088855 0.0022768163476 -6.2232588697e-05 -5.9079009406e-05 0.0028019971086 0.001407484068 
0.0026166300495 -0.0002723821833 -0.00022271323154 0.0028861670937 0.0015131040371 0.0017132502454 0.0029702543721 0.0012811462522 0.0031442982942 
0.002001387705 0.0018539893048 0.00137876331 -0.00014283354358 -0.037234705168 -0.0233995637 -0.033903163095 -0.028432268783 -0.023116386407 
-0.01785773844 -0.012417401959 -0.0067510336381 -0.00037924876988 0.00062817821946 0.00028069016367 -0.00041257211964 -1.5839323139e-06 -0.00023277039709 
0.00049638224206 -3.5631334635e-05 -0.0024809266537 -0.0075287786781 -0.012560240919 -0.017611483525 -0.022692965723 -0.027932970727 -0.032668128388 
-0.036297620824 -0.031402821551 -0.012563618459 -0.00029320493782 -4.7547192458e-05 -0.0032683234387 0.0011454500763 -0.037775262829 -0.00052667819058 
0.00056011031125 -8.0399225675e-05 0.00057867060219 -0.0001743823871 -0.01331263271 -4.0371199779e-06 -0.0037357640168 -0.0072677200729 -0.0026763625103 
-0.0033829262315 -0.0040006126641 -0.0044266091445 -0.0045895610443 -0.004516245753 -0.0042515906738 -0.00382473509 -0.0032950815638 -0.0026993606253 
-0.0021090174369 -0.0015266809697 -0.0010600526351 -0.00063527186402 -0.00028663956579 -3.2606947837e-05 -1.9448854913e-06 -2.985441107e-07 7.5290903337e-08 
1.0421424553e-07 -0.0018746506455 2.3388043775e-05 -0.0011151230064 -6.6298088385e-05 -5.312472004e-05 1.5260440938e-06 -5.3217544466e-06 3.2398815052e-06 
1.1108268296e-05 -3.7956526091e-07 -4.828759012e-06 3.4033007259e-06 3.4181434804e-06 2.4434917495e-06 -5.1910314655e-06 -0.00023370418713 -0.00072699199013 
-0.001267818536 -0.001779007998 -0.0021280584906 -0.002306068251 -0.0023384253706 -0.0023082187024 -0.0024430495938 -0.0026188956093 -0.0027769711361 
-0.0022876825916 -6.0313269564e-05 2.7880868271e-05 1.0845464215e-05 -3.0703727746e-05 -1.1028909968e-05 -3.6127625988e-05 -5.2183179728e-06 -0.0012473540456 
-0.0024488014278 -0.0028806100887 -0.0027707693655 -0.0023210312899 -0.0019262417564 -0.0016006624552 -0.001323513993 -0.0017095237248 -0.0012227015265 
-1.3340673291e-06 -2.4307222364e-06 -9.0075666583e-06 0.00040644493804 -0.0062271296155 -0.0021345891447 -0.0020716175985 -2.323412349e-05 -5.2789569659e-06 
-1.1486641867e-05 0.00020372116038 3.4113683352e-05 -0.025168565911 -4.4525376875e-05 5.4481669915e-05 0.00012166819696 -2.753547186e-05 7.6260642235e-05 
0.00027246569732 0.00034346765151 0.00018849118823 0.00018656461105 1.147854876e-06 0.00017479687648 0.00029563691891 0.00021056906443 6.0849128177e-05 
0.0001218618614 0.00014609880213 0.00019135171455 0.00024514887379 0.00019969449157 0.00014259851845 5.8697174081e-05 3.8292821849e-05 -0.018664899422 
-0.024829575988 -0.014468587076 -0.010366060197 -0.0063688857546 -0.0034625949424 -0.0031083878476 3.2343465217e-05 -3.1983263965e-05 -0.016084337336 
-0.0020406420524 -0.0050349964096 -0.0086992737907 -0.012586899562 -0.016543128904 -0.020262061346 -0.023066279447 -0.023892114139 -0.019575675339 
-0.0091385449506 -0.0001183120984 -0.025973547101 -0.0058953560778 3.9388327437e-05 -0.021622617463 7.9138923496e-05 -0.0042956786636 -0.00015999691857 
-6.0589347847e-06 -0.0072998480168 -0.0064891513148 -0.005049192316 -0.0113952759 3.473034349e-05 -0.00017212367825 -0.018029548274 -0.0011416094909 
-8.8486197836e-05 -6.8532289458e-05 -0.0040013633502 -0.0045857211766 -0.0049201359701 -0.0049602611716 -0.0046615555142 -0.0041598102598 -0.003562862987 
-0.0029333212715 -0.0022821228005 -0.0016708914887 -0.0011534156084 -0.00075642614772 -0.00045055592176 -0.00017910872232 -4.5337138037e-07 1.1525956631e-06 
9.0734265261e-07 9.6522938062e-07 -8.9573533106e-05 -8.3620037895e-06 -0.0041276128362 -2.3605622273e-05 1.3755031623e-05 -3.0456636107e-05 9.5876652909e-06 
1.0298059142e-05 4.8597628829e-06 6.4196978761e-06 1.1130560341e-06 7.5254373369e-06 -3.5483035439e-06 -6.1104555536e-06 -6.8682347315e-06 -0.00071602318877 
-0.001767562764 -0.0027720214287 -0.0035410701213 -0.0040078557471 -0.0040159471617 -0.0037067594783 -0.0035190202004 -0.003422386235 -0.003308540699 
-0.003114858167 3.5428252941e-06 -0.0016522859932 -0.0038875370732 -0.0047925813665 -0.0048355745857 -0.0042017838865 -0.0033881725988 -0.0027425058403 
-0.014508806065 5.6150897045e-06 -0.0058295881162 2.8014749269e-05 -0.012056873131 -0.0046356986192 -0.0065315580226 6.5062579933e-07 -2.4744170277e-05 
1.951744065e-06 -3.5148573031e-06 -3.6930383005e-05 7.1094207825e-05 -2.994769009e-06 -2.5476819883e-06 4.1556816616e-05 1.5650811726e-05 -7.5558496778e-06 
-2.4634786178e-05 1.4281197683e-05 1.1515663677e-05 -8.69048111e-06 6.8259551361e-06 -1.806010134e-05 -1.6390515623e-05 -6.6158243209e-06 -1.7300490601e-05 
-5.3687833405e-06 9.1050082099e-06 -2.6060103213e-05 -0.0095755490185 -0.0074011153367 -0.0073074740296 -0.0052498798884 -1.8159039856e-05 5.2964284432e-05 
-0.010336539621 -0.012891844473 -0.0042531736916 1.1403087957e-07 -0.0062429759797 -0.0086311904534 -0.011258619457 -0.013910033345 -0.015668418998 
-0.016077835603 -0.012840704429 -0.0031789600414 -0.0022404722857 3.134463932e-05 -4.5323490271e-05 -0.0039582333942 7.4906304912e-05 -0.01648102766 
-0.0027268578974 -0.018559348022 -0.0079963265224 -0.015295707571 -0.0074786488585 -0.0084725301777 -2.0130913343e-05 -7.232138423e-05 -8.3732565986e-07 
-0.008761249954 -0.0085385140281 -0.0016105492191 -0.017841766863 8.7689215243e-05 -7.2365906115e-05 6.0564663081e-05 -0.003054669515 -0.0049660074217 
-0.0054508474944 -0.0058939900137 -0.005656053287 -0.0049339155138 -0.0040940074929 -0.003359008857 -0.0025617749166 -0.0017831558152 -0.0011794322809 
-0.00073174285014 -0.00033446977729 -1.7880735145e-07 8.4533234941e-07 1.8681755307e-05 -0.000388388324 6.0037515055e-06 -4.7216924808e-05 1.8774561751e-05 
-1.7944823405e-06 7.5618661644e-06 -3.0159072852e-06 1.6652623584e-05 3.4148407749e-06 -9.599774358e-06 -0.00024075836335 -0.0019453323772 -0.0036596111633 
-0.0051495980077 -0.0060440297479 -0.0067604936945 -0.00081070806813 -0.006372783576 -0.0069984759982 -0.0074752494201 -0.0063861762463 -0.0050902614192 
-0.0080591984109 -0.0089326019075 -2.0249133963e-05 -1.831135905e-05 2.9670657898e-05 7.2789975127e-07 -0.0045636562154 -0.010044970489 -1.0374961483e-05 
-1.0185586017e-05 -5.3515842666e-06 2.6590985476e-06 8.2760753318e-06 5.39207697e-06 -1.0515387736e-05 3.7313140234e-06 -6.1128340062e-06 -1.6095768824e-05 
-3.0454891302e-06 -1.9351345363e-05 2.3374121956e-05 2.0889270609e-05 -0.01088198375 1.9504637287e-05 -0.010203315514 -2.6466618141e-05 -0.0093113359088 
-0.009391909174 -0.011240741085 -0.0039615660243 -3.5464550022e-05 -0.0046949587436 -4.4774506199e-06 -0.0027567702061 -8.1411089958e-05 -0.0057558483022 
-0.011145788284 -0.0085801689354 -9.4923030389e-06 -0.00330873747 -0.00016495797853 -0.0051153880263 -0.0063809338875 -0.013369820347 -0.009688198437 
-0.0091734584341 -0.0088721405836 -4.2083085391e-05 -0.0073450819196 -0.0045470682685 -0.003036868243 -0.0020498347062 -0.0012282156427 -0.00063402916561 
-0.00036030053991 2.0514921127e-05 -1.4539244246e-05 -2.6197332456e-05 4.1534552901e-05 1.0633021692e-05 -2.2688198782e-05 -0.0013311851866 -0.0084040307112 
-0.0065305963417 2.4651371646e-05 -1.7131716884e-05 -0.0036741007478 6.9099685272e-05 -1.0212741086e-05 1.72875484e-05 9.0019735537e-06 3.1098187119e-05 
-9.5662380526e-06 -0.006787755775 -0.003528898111 -5.5979054209e-05 -1.8369834325e-06 -0.0043006870268 -0.0015711109478 -0.0062967121374 -0.0017702908193 
-0.00053204000142 -0.0018189130347 -8.5153147317e-05 -0.0038612602456 1.0514400401e-05 -4.2979923606e-05 -0.00085734822758 -0.00031997828602 -0.0011255366953 
-0.0021514390623 -0.0032216168052 -0.0042128392494 -0.0048123210379 -0.0050364709789 -0.0048325704164 -0.0043121315248 -0.00351724587 -0.0026241806391 
-0.001682517386 -0.00081974546745 -0.0001982901599 -1.7401220691e-06 3.9496181571e-07 1.8823091244e-06 -1.1262288612e-06 1.9153814202e-07 4.7890837e-07 
-6.3146110588e-07 -0.0087761914254 -0.00014732941643 8.9626194967e-05 -3.2985048269e-06 -1.0265615228e-05 1.6844201172e-05 1.025455511e-05 -2.407505721e-06 
-9.0460975549e-06 -2.1682872756e-06 1.0771569282e-05 -5.5211621965e-06 -3.3399429043e-05 -0.0001336135821 -0.00024050343678 -0.00031732073768 -0.00033754962576 
-0.00039013167911 -0.00045032888623 -0.00053098054311 -0.00065619483335 -0.00052493861129 -4.6306755045e-05 2.6855640816e-06 9.4052921803e-06 1.2236894164e-06 
-3.2602987944e-06 -1.5080158402e-06 -0.00031069380881 -0.00041139400052 -0.00039856565691 -0.00036330173085 -0.00029732122845 -0.00028333012866 -0.00028632674877 
-1.9539864461e-06 4.6653115535e-07 -1.3516819977e-06 -3.6050791027e-07 -1.1434361073e-06 -0.00010702316667 -0.00047629405178 -0.0009497190822 -0.0012708662155 
-0.0010732399294 -0.00020940531628 -1.425965244e-05 -1.7408790257e-05 -1.6762690701e-06 -1.8963685208e-05 -6.5446697646e-05 -9.3179751179e-05 0.0006412363249 
-0.031473771431 -0.01584674053 -0.011023966517 -0.011374110909 -0.030014472851 -0.036919342844 -0.030749171143 -0.011420007003 -0.033064188558 
-0.028685882616 -0.032263513414 -0.011542438449 -0.031869506367 -0.032131320027 -0.032632176403 -0.03409387101 -0.029926860161 -0.031627607676 
-0.034452225602 -0.035429121204 -0.013674089221 -0.018567254844 -0.061052601073 -0.059065000235 -0.049331767443 -0.040075856929 -0.03306863132 
-0.027884608049 -0.02223164091 -0.017089796687 -0.011322050364 -0.0096041597253 -0.0096882034215 -0.0087257625453 -0.002255147832 -0.010875099186 
-0.0070137641144 -0.010506297618 -0.0031501747478 -0.0090303073065 -0.00957293821 -0.014149823867 -0.019020031122 -0.024763115517 -0.030751942209 
-0.038464569174 -0.047084327211 -0.059205886149 -0.057764112664 -0.01873025109 -0.044084985443 1.4076139706e-06 -6.3410055821e-05 -0.044398004592 
-0.037806364736 -0.001284867967 -0.0040216133878 -0.0017981010748 -0.0010186072732 -0.0035801234089 -0.0043022993582 -0.0046411655982 -0.0045485579803 
-0.0041760276969 -0.0035671798263 -0.0028707594622 -0.0020519179213 -0.0013192090805 -0.00071045323519 -0.00025196842465 4.7243957739e-07 1.8092158959e-06 
1.901014471e-07 9.1680854426e-07 4.8046441766e-06 -4.3905195785e-06 -0.0037648498972 4.004754645e-05 3.7353144801e-05 0.00040498741353 4.9485341295e-06 
-2.0634588278e-05 1.9972412086e-05 4.5948229366e-06 4.6705344946e-06 -7.9843737998e-06 1.2749252861e-06 2.4876007328e-06 -1.4655379403e-06 -0.00028609737378 
-0.00070312353278 -0.0010483905431 -0.001311304627 -0.0014611218025 -0.001594964997 -0.0017529039322 -0.0019758237346 -0.0019400474271 -0.00099575654623 
-3.6778842823e-05 7.3672299284e-06 6.5494300966e-06 2.1173246137e-05 -4.8745924711e-06 -0.00061367064267 -0.0013997282832 -0.0016333952172 -0.0014993623774 
-0.0012680318373 -0.0010888172088 -0.0010109416747 1.0360400548e-05 1.1808343163e-07 -0.00014988063125 1.6168462455e-06 0.0020843158905 -0.0025166433627 
0.00017079545323 -0.001152244349 -0.0039860465919 -0.0016050342351 -2.2448468411e-05 -4.4848094353e-06 1.4329054223e-05 4.2514540694e-06 -9.2532062768e-06 
8.0942278601e-06 -0.0001117690035 -0.0017822380003 0.00036850909621 0.00083236854106 0.0013680443087 0.000601632636 0.00061809208744 0.00067847329099 
0.00060620154017 0.00072789074583 0.00062744912516 0.0006756368059 0.0012759845453 0.000745825473 0.0011881834111 0.00076331047318 0.0014667376183 
0.0013826947277 0.00037708510324 -0.0072046373223 0.00010834021298 -0.00048092731571 -0.035873398726 -0.038146486129 -0.035459489055 -0.030592493913 
-0.025744676608 -0.020513230672 -0.015317382472 -0.009876336068 -0.0046519940318 0.00057501132702 0.00076308062104 -8.6573010921e-05 0.00051973844958 
-0.020222114583 0.00059956602884 -0.0025195051007 -0.0070011856953 -0.011781242118 -0.016553365481 -0.021617767489 -0.027259526773 -0.032496767182 
-0.034797242081 -0.030975622623 -0.012133536737 -0.0026706453436 -0.018494311662 3.5125158015e-05 0.00012984819669 -0.00017632291954 -3.553840887e-06 
-0.00016111345564 -0.0097138753493 -0.016197165565 -6.6006840756e-05 -2.0981515709e-06 -0.0047848347347 -0.0041836121807 -0.0044184408082 -0.0038264361863 
-0.0031157104548 -0.0023086281237 -0.0015803406561 -0.00095247918294 -0.00050021636204 -0.00015346055904 1.5318856761e-06 9.4111933964e-08 -1.3016229717e-06 
-1.014851858e-06 -0.005560488771 -0.0056473903801 -0.0019218777293 -0.0023516558708 -3.845926447e-05 1.6098247101e-05 -5.9070416881e-06 -8.3842949175e-06 
-2.1011136799e-06 -2.9920353319e-06 -2.7987588626e-06 -1.3463371017e-07 -0.00016374859885 -0.00099675347864 -0.0018930333116 -0.0026161960218 -0.0030390283195 
-0.0030937220341 -0.0030837161169 -0.0031087358964 -0.0031821150126 -0.0026183193469 -2.1925398859e-06 0.00012266855543 -1.5799027005e-05 2.6959344697e-05 
1.8480503032e-05 -0.0003685884176 -0.0027164825599 -0.0034500562057 -0.0033699619497 -0.0028379995021 -0.002275137341 -2.7020241788e-05 -5.5516629534e-07 
-1.1798925759e-05 -0.00700061936 -2.6208049696e-05 -2.5253467509e-05 -7.302609412e-06 -4.4104674125e-05 2.4742492886e-05 -0.0047405094636 3.7496288316e-05 
5.541931407e-05 1.0719781932e-05 3.1515038611e-05 2.5342417928e-06 7.6198092648e-05 1.41812251e-05 1.7619240259e-05 1.0535086454e-05 2.3515075234e-05 
5.0967363081e-05 1.2627534996e-05 3.7082478795e-05 2.0580895964e-05 3.665520742e-05 -0.0051428539237 -0.026375446715 -0.025705491611 -0.023301292833 
-0.019985614165 -0.0160954744 -0.012205667851 -0.0085316791839 -0.0053334935506 -0.00332750188 -0.0034700397393 -0.00059491939523 -0.0080363960772 
-0.0046450311119 -0.015107745527 -0.019164016571 -0.022232690725 -0.023035541235 -0.019070827779 -0.0089375338875 -0.00030194576031 -2.0789813203e-05 
7.2188721976e-06 0.00016265526412 -3.5173393295e-05 1.1583811271e-05 -0.00013878614624 -0.023356735222 -0.011524522989 -0.0031418100278 -6.1921994439e-06 
-0.0035693879509 -0.00036566106297 -0.0020048842548 -0.014207913942 -8.6383660324e-05 -0.0073219550474 -0.0012406379396 -3.29228204e-05 1.4869026044e-05 
-2.2478952233e-05 -0.0060009501971 -0.01486847605 0.00019973873991 -0.0026001518356 -8.7102432842e-05 -0.016906817677 -0.0013151563659 -0.0022366277944 
-2.3414737971e-05 -0.0041916257513 -0.0051037261697 -0.0026181671209 -0.0017797494731 -0.0010556323448 -0.00055060526214 -0.0002242630632 -9.830452825e-07 
1.8706359227e-06 -1.9957006198e-06 -0.0069586301898 -2.4473177832e-05 -5.453844976e-06 -1.3356786523e-06 -1.5657121756e-05 2.9270697963e-06 2.9819371912e-06 
1.1534951906e-06 -0.00090005545138 -0.0025080605568 -0.0040412816433 -0.0051984070364 -0.0053197305416 -0.004650737576 -0.0039922663217 -8.1434753762e-05 
-1.1489508785e-05 -0.0047309740286 -0.0057877637054 -0.0056913091142 -0.0048605486152 -0.0039271605237 -0.0037558224027 -6.0696289185e-06 -3.6523204708e-05 
-0.0044125706154 -0.0087081849826 -2.6609992715e-05 -0.019174846851 2.5863673164e-05 -3.7468606573e-05 -1.8634554367e-05 -0.014875620891 4.4365062744e-08 
-9.682413618e-06 -3.4535065416e-05 -1.9711118115e-05 1.1752376674e-05 1.7974686849e-06 2.3137385761e-06 -5.7710920425e-06 2.6206370645e-05 2.0301824125e-05 
3.2693846275e-05 -0.0006964425157 -0.00011591869381 -2.6623324222e-06 -0.018320049073 -0.017111522521 -0.015374893372 -0.013123058188 -0.010704930522 
-0.0089667337993 -0.007256263593 -0.0065217217625 -0.0058270964131 -0.014162587201 -0.012827039528 -0.012848820207 -0.0068026001199 -0.0085931753103 
-0.014690650304 -0.0055949101659 -0.0035438075083 -0.0030355101266 -0.0054992082537 2.6609339877e-05 -0.0038454998201 1.0099388936e-05 7.4813643483e-06 
0.00010105074311 5.6066982157e-05 -0.010736130677 -0.0031469705742 -4.6907345777e-07 -0.0043808855359 -0.0090988237612 -0.00059302949256 3.2316097256e-05 
-0.0052475075933 -0.010580016401 -0.007334229674 4.3805901425e-05 -0.013202804732 -0.0042432231296 -1.5084068304e-05 -1.9796320226e-05 -3.2872958461e-05 
-0.0091158562096 -0.0019827193267 -0.00011874565422 -4.7896433543e-06 -1.2710976695e-05 5.6852255036e-07 -0.0085707636716 -0.0069888803064 1.5038873512e-05 
1.5044933467e-05 4.0347139564e-07 -2.2066018196e-06 -0.00022300117798 -0.0025778204995 -0.0052142944509 -0.0081322314796 -0.0087044933582 -0.0083209368019 
-0.00698903396 -0.005561277482 -0.0025336979649 -0.0055103923609 1.9060191967e-05 -5.0301222809e-05 -5.4689082418e-06 1.9252485119e-05 -6.7950008842e-05 
-0.011225800998 1.9478861219e-06 5.4620424204e-05 -8.6009062351e-06 4.4326206274e-06 -4.9688122342e-06 -5.7689636879e-06 3.4580482768e-06 2.2657035684e-05 
-3.0423623434e-05 4.7652085165e-05 -3.8475322967e-06 -0.0005095615238 -0.001156478584 -0.012525347193 -0.012560662793 -0.011328346402 -0.010059044749 
-3.5360384615e-05 -0.0056745961817 -0.0081874359161 3.1325466811e-06 -0.0039279993013 -3.1749474335e-06 -0.0061960185405 -0.0022879378941 -0.0046719340753 
8.6570840733e-06 2.1076760369e-06 -2.5819773007e-05 -0.0067717424567 -0.0031117890891 -0.00038685088829 -0.013122278838 -0.0092172450505 -0.010137611981 
-0.010910257109 -0.0042923330903 -1.9484772855e-05 1.5462070159e-05 2.8179327316e-05 -0.0087431780941 -1.7052347256e-05 -0.0056091505237 4.1961398321e-05 
1.1805837973e-05 1.3237623856e-05 -3.2100266098e-05 -1.7486478665e-05 -0.00073332178744 5.2196055009e-05 -0.0053472293674 4.5300519105e-06 -3.8412261652e-05 
-1.112284326e-05 -2.1562498185e-05 -0.0024946494855 4.505567503e-06 -0.0016635024514 7.2104526694e-05 -3.6628331037e-06 -0.0088396831264 -0.0017006156405 
-0.0033245143492 -2.024185065e-05 -8.2909324472e-05 2.1905314951e-05 -0.00056465077968 -0.0074140314764 -0.0039617413045 0.41337220817 0.41890314282 
0.20065114642 0.14280457878 0.12706671318 0.1321615555 0.21889988727 0.22292738596 0.22340200752 0.12864696163 0.22920431694 
0.23068339476 0.23165783865 0.13146343974 0.22836334824 0.22973437852 0.22614456253 0.22390499058 0.23047668258 0.22168090349 
0.22010094833 0.22011087662 0.1327271137 0.1636225708 0.25935277247 0.24243301377 0.18552590612 0.14923486345 0.14943288154 
0.19387715802 0.22323830668 0.22035193684 0.20228315495 0.16431997449 0.20509022316 0.23273188347 0.23081238541 0.20776098231 
0.16948678885 0.21155494171 0.23159179562 0.2334166022 0.23612078769 0.20838301348 0.20714317186 0.22217558628 0.2188899007 
0.21777021825 0.19035297757 0.14517550235 0.14961159268 0.17948872146 -1.8058888077e-05 1.6360405922e-05 -0.00037953773709 -0.0013591824939 
-0.0025683196322 -0.0037368572961 -0.0048069376992 -0.0056150777162 -0.0060597800563 -0.0060946572301 -0.0058079847517 -0.0051627513142 -0.0042957937659 
-0.0033457134783 -0.0023097354653 -0.0013368635634 -0.00046547320039 2.0667755544e-05 1.5348107516e-05 1.8091528055e-05 1.6928391656e-05 5.483373172e-06 
7.0191119686e-06 3.7071863683e-06 4.1486405624e-07 -1.8703588272e-06 -6.6998817763e-06 -1.9252845403e-05 0.035105966509 -0.033918768822 -0.0042685559843 
-0.0023357577756 -0.0011512764665 -0.0007294652903 -0.00028273150957 -0.00022369695349 -0.00022895961941 -0.00016112201908 -0.00014781256107 -0.00013608217054 
-5.1815910919e-05 -3.6493678266e-05 -3.5704078737e-05 -5.410947806e-05 -5.3438615738e-05 9.4486370808e-06 1.3571839175e-05 2.6117288533e-05 2.6471797675e-05 
1.2469219347e-05 4.6120757004e-05 3.7590950174e-05 4.3832187539e-05 6.1259149092e-05 5.6217604476e-05 -2.0182192185e-05 -4.5895480765e-05 -0.00020594682574 
-0.00038574151033 -0.0004027599862 -0.00035505152834 -0.00030899430239 -0.00011015714985 8.1131375303e-06 3.0892868058e-05 3.0099662815e-05 2.8471578093e-05 
2.8587243605e-05 3.5866679447e-05 2.6228044796e-05 3.645514154e-05 2.4275662014e-05 2.7955625243e-05 -4.2816761756e-05 -9.0139191773e-06 -1.3691611605e-05 
-1.0590838299e-05 -8.412204272e-06 -8.2807128849e-06 -1.4125342922e-06 1.3309900236e-06 8.5765608805e-06 2.361770073e-05 2.2592204356e-05 2.4867613539e-05 
6.7183079202e-06 -0.00018663996398 -0.00037969850098 -0.00054243263552 -0.00061860029663 -0.00099715335224 -0.0018205314597 -0.0049910393217 -0.0054968852821 
-0.013435914409 0.049798699187 0.042086746614 0.029872759832 0.022659974533 0.0020999300086 0.00062711410054 0.014420334643 0.0028896645523 
0.0017100115882 0.0026672531405 -0.0036953366648 0.010464972755 0.01806964688 0.0047353795369 -0.07473372864 0.039995439497 0.015986746975 
0.0012662981547 0.00010096779466 0.0044143364819 0.0013417142525 0.0030063954566 0.0026487957165 0.0022859882673 0.014043170632 -6.7310188738e-05 
-0.016040857151 -0.0062229790675 0.040881203254 -0.068115939176 1.3468569683e-06 8.0646841299e-05 -0.00057036369264 -0.0019648406868 -0.0035571160399 
-0.0049464037662 -0.0058830356133 -0.0061928303037 -0.0059270690153 -0.0052150519863 -0.0041061078999 -0.0027910464437 -0.0014891428748 -0.00037641274977 
1.5095506418e-05 1.5464226134e-05 3.4421726995e-05 2.3060136805e-05 7.2183496348e-06 -1.6116419533e-07 -8.5252364746e-06 -1.7384828953e-05 -1.5498827095e-05 
0.044345649295 -0.015660048294 -0.0049231764499 -0.0014891050852 -0.00065783092922 -0.00050083921878 -0.00034719527599 -0.00019304612523 -0.00012632905583 
-9.121501634e-05 -0.00010165309825 -7.5709422718e-05 -1.9918288385e-05 7.7644823342e-06 -1.7477119443e-06 1.9541508444e-05 4.1766673623e-05 7.959528381e-05 
5.1848220907e-05 5.037052678e-05 5.8576765797e-05 7.1976552133e-05 0.00011179481099 -9.8156354999e-06 -0.00035290096879 -0.00059711603972 -0.00051442769207 
-0.00029835952487 -5.4633730096e-05 2.7038392272e-05 5.3159043435e-05 6.7007930647e-05 4.7297540245e-05 3.3623972306e-05 3.7452152104e-05 7.4541531015e-05 
6.0859003473e-05 -4.3446512891e-05 -7.4489731675e-06 -1.0734097514e-05 -5.3951514998e-06 -5.5220762063e-06 -7.8873173633e-06 -2.2093291983e-06 4.2826306407e-07 
5.8267964147e-06 7.0451276173e-07 -1.2842127535e-06 2.3001644865e-05 2.2542852606e-05 -3.0015480863e-05 -0.00036603880761 -0.00042714811664 -0.00046078266911 
-0.00064450093201 -0.0012377696039 -0.0023625320371 -0.0044095703038 -0.0079126503905 -0.029689919839 0.03907226295 0.026500761939 0.0027474385754 
0.00065278249865 -0.001620482307 0.003621821105 0.0012723874644 0.0018983625492 0.0026581735827 0.0034681316882 0.016410812701 -0.0018760138756 
0.016366033743 0.07425411756 0.03978521355 -0.012666531533 0.031253030182 0.071950442159 0.027803950144 0.01229439481 0.0016028520389 
0.0039226618572 0.013142114609 0.0022849917179 0.0019344882131 0.00039601337111 0.0030405236724 0.0095736654462 0.0026487292198 -0.032435396362 
-0.096284421411 -6.2857116215e-06 -1.5584261649e-05 -0.0063283841064 -0.032268238243 -0.042000932364 -0.014502864867 0.22352321866 0.23045647482 
0.18027185293 0.19765754037 0.17363451389 0.16795933797 0.17651408188 0.16903543596 0.17460364101 0.17929181178 0.18220800497 
0.18269461929 0.1731962812 0.18538600545 0.17233713109 0.18902234458 0.19299738433 0.17366518036 0.19129586189 0.18295320127 
0.18394841662 0.19074676273 0.17618671037 0.19429499603 0.19678140913 0.17245388003 0.18835636869 0.18415302474 0.18179362074 
0.18889580047 0.17633286337 0.19584914517 0.17164814147 0.17302759616 0.19012920672 0.17226753566 0.18232584861 0.17576812899 
0.17678609282 0.18168346406 0.17524247887 0.17496061499 0.17458139156 0.17540923051 0.17313172098 0.18875884768 0.20107917533 
0.18829221181 0.17555164788 -3.1547905817e-06 -8.0403216924e-05 -0.00024401684758 -0.00049444953379 -0.00087714411445 -0.00049853337738 -0.0013021343431 
-0.0018387621155 -0.0012047639574 -0.0022752333793 -0.0028308431983 -0.0021068483535 -0.0032852794178 -0.0038287305258 -0.0030228149306 -0.0042028103245 
-0.0046803585487 -0.0038670689291 -0.0049694348116 -0.0052506590499 -0.0045630642713 -0.0053967440775 -0.0055050965322 -0.00502519909 -0.005513923763 
-0.0054710353044 -0.005174843539 -0.0053697212133 -0.0051471644113 -0.0050520000052 -0.0049086807836 -0.0045377385831 -0.0047061576958 -0.0042294921075 
-0.0038047567 -0.0041420255062 -0.0034359771241 -0.0029422271833 -0.0034549433654 -0.0025345203685 -0.0020448436772 -0.0026709238856 -0.0016735130915 
-0.0012391156625 -0.0018860393202 -0.00088713461868 -0.00047472588319 -0.0011445734546 -0.00020685027274 -1.4579822625e-05 -0.00051427553218 -6.3148172219e-06 
-8.4083575719e-06 3.470328715e-06 -1.0517060132e-05 -1.1733907794e-05 2.1201168887e-05 -1.383219267e-05 -7.1549725557e-06 2.1376420761e-05 -2.6498317599e-06 
-1.0144007962e-05 2.1780794556e-05 -2.5645707962e-06 -3.7561438986e-06 1.110991232e-05 -5.8088049936e-06 1.621564436e-06 9.1109651399e-06 -2.0864203829e-06 
-2.8887384433e-06 3.8017018303e-06 4.7656254328e-06 2.2033728637e-06 -1.1986532231e-06 6.6554855945e-06 1.369488189e-06 -1.0047006411e-05 2.1315451362e-06 
6.9892226663e-06 3.5728025469e-06 -8.7504581717e-06 -0.035180134329 -0.081520264867 -0.0029841294494 0.0024961703507 0.0008749928312 -0.011478363936 
0.0017052233359 0.00024938918045 -0.0028182215638 0.00045526196736 0.00017630487112 -0.00073322689905 0.00030711565491 0.00026924544915 -0.00042937323762 
0.0001512837523 9.5842976187e-05 -0.00040367325874 3.229219739e-05 0.00010285356903 -0.0003094265788 0.00012156571196 6.4438798558e-05 -0.00016179368274 
7.2024818208e-05 2.0650087518e-05 -0.00010198487293 1.6757259123e-05 2.3038900862e-05 -8.9733087678e-05 2.6354326781e-05 5.2933238099e-05 -6.8056941343e-05 
-2.1656012318e-05 3.5584861944e-05 -6.4775840943e-05 -3.0663775687e-05 -9.5530506176e-06 -3.9915133729e-05 6.1214279613e-06 2.3874250006e-06 -3.1773478076e-05 
-2.3056645778e-05 -1.8293793549e-05 -2.6003793384e-05 -2.6275894359e-05 -6.0373456574e-06 -2.9360003887e-05 -5.355217215e-05 -4.7508075016e-05 -6.182122264e-05 
-7.8538214669e-05 -6.2568328971e-05 -7.3892107136e-05 -0.0001220214393 -8.7602745361e-05 -8.8438875289e-05 -0.00013247129074 -0.00011446568412 -0.00013040679462 
-0.0001420293534 -0.00011962692991 -0.00013884921172 -0.00013140015618 -0.0001453255612 -0.00020019222832 -0.0001581152989 -0.0001541628756 -0.00017555794743 
-0.00017238038579 -0.00018308195228 -0.00020600683029 -0.00020122428723 -0.00022909846349 -0.0002651137411 -0.00022087412142 -0.00021047370258 -0.00033271211449 
-0.00018452839967 -0.00020215786645 -0.00038424346765 -0.0001122087059 -9.5788510816e-05 -0.00029085007734 -4.4414347716e-05 0.00011904606549 -8.4700205135e-05 
5.9418487046e-05 0.00022999801063 -0.00012568317028 0.00017717214563 6.8617816021e-05 -0.00023930659151 0.00010318875266 0.00016089133064 -0.00029799745569 
0.00021621790563 6.3326528857e-05 -0.00020456544323 0.00010984269792 1.0011728548e-05 -7.217198307e-05 -5.1565192825e-05 -6.4319451167e-05 -4.1496897299e-05 
-0.00015643614058 -0.00013711738126 -0.00015077964952 -0.00018589714802 -0.00015830329719 -0.00021208605245 -0.00019616072369 -0.00013709372393 -0.00022644143207 
-0.00013722155737 -0.00012256016293 -0.00023024617624 -0.00013326445155 -0.00010359085679 -0.0001584368264 -0.00011251972026 -9.1196639535e-05 -0.00011404021177 
-8.7252554682e-05 -8.2263645299e-05 -9.6754422524e-05 -7.7861005068e-05 -9.0934472301e-05 -9.4164837875e-05 -5.7715686826e-05 -6.9799353369e-05 -9.6136346656e-05 
4.8251050975e-06 -3.0930232923e-06 6.341053002e-06 -4.1365292492e-06 1.0012959573e-06 5.1685641606e-06 -9.9570885708e-06 -2.1934455118e-07 3.3362979491e-06 
-8.0123589212e-06 8.7567458113e-07 9.6104299592e-06 -6.3085590985e-05 6.0591242393e-06 -0.00026636142853 -0.00040808378264 -0.00048166386702 -0.00052225015552 
-0.0007514375332 -0.00054664436375 -0.00040026611082 -0.00093144324474 -0.00037926467267 -4.425106382e-05 -0.00074831440922 -0.0001450794574 0.00010277509498 
-0.00018627525475 -0.00011595931674 4.4050470781e-05 -1.5617429254e-05 -1.1358011569e-05 0.0001003529851 -3.6375145136e-05 -2.6419434849e-05 0.00012841631663 
-5.5979795832e-05 -0.00011126675487 0.00026154232072 -8.506968086e-05 -0.0002167083176 0.00064454386459 -0.0001936340573 0.0014202556553 0.0018161210563 
0.0013498040769 -0.00058669847282 -0.0023157088189 -0.012147202078 0.041971742248 0.015495712976 0.027035209642 0.02100440367 -0.072770453542 
0.021442147811 0.023794304326 -0.061417057936 0.010433295694 0.010516350836 -0.056568937932 0.01206216531 0.01320705797 -0.0026811022633 
0.0091599071488 0.011939719743 -0.0066821144773 0.016923130465 0.011496790336 -0.0079739690295 0.017582651982 0.017513524144 -0.054383512827 
0.0062770721627 0.012854249341 -0.052435146682 0.01498821305 0.012778784288 -0.0058505388486 0.012708308836 0.012315078305 -0.0036166250365 
0.015090632273 0.0087199126075 -0.0053093037945 0.020056059874 0.020308947466 -0.051835214503 0.010636295841 0.015279792889 -0.054473228764 
0.014749655804 0.012240184677 -0.0074111909751 0.010310464699 0.011452956614 -0.0049499939903 0.013629894479 0.016726434892 -0.0046422467426 
0.014257632864 0.0082315412841 -0.0045249798578 0.0090870772037 0.016921822739 -0.049477061223 0.016152548319 0.015432077391 -0.0054018945033 
0.012451822948 0.014334062895 -0.0062200002702 0.013391079344 0.016719016488 -0.0099427439902 0.014018920741 0.0079812315245 -0.011267073178 
0.015404857542 0.014411446125 -0.0570288863 0.021676278862 0.041632898073 -0.065434924645 -0.074538001988 -0.078661835091 -0.071854694664 
-0.084231132027 -0.059082636686 -0.059611233432 -0.068844557964 -0.060646737006 -0.051075256386 -0.055271372874 -0.05160944371 -0.042634877458 
-0.045118261524 -0.041887019243 -0.033340385709 -0.03577734086 -0.03296553089 -0.028921993955 -0.029311218274 -0.025400552973 -0.023623076559 
-0.023568029365 -0.01981532494 -0.018931321107 -0.018041878323 -0.013870658114 -0.011902870468 -0.013544338432 -0.0079363043092 -0.0030631427308 
-0.0049914085767 -0.0032145099203 0.0012037304413 0.002852691718 -0.0028714894373 -0.016316782059 0.010486750758 -0.0042822345595 0.05346588762 
-0.0083039101929 -0.022899754496 0.026952766388 0.011729135538 0.0063014953789 -0.0086202200917 0.0010972752231 -0.0031696214114 -0.0035591238044 
-0.013830814069 -0.0069109844313 -0.013108492889 -0.010866441777 -0.014255801295 -0.0064128352816 -0.017875142165 -0.020213995196 -0.0086117626059 
-0.023290654035 -0.022833558563 -0.01382288898 -0.028166611626 -0.029303170767 -0.018923053423 -0.033828552536 -0.036195438883 -0.024965177483 
-0.039485832735 -0.042309936373 -0.031527466637 -0.048309194004 -0.058978243406 -0.040074988 -0.059135027053 -0.069104043501 -0.050549412967 
-0.075534019599 -0.080255277609 -0.06030151525 -0.065366111913 -0.06553146765 -0.046736529261 0.042416604952 -0.0056396889908 -9.6233278875e-05 
0.029572615356 6.2425086947e-06 9.3676968654e-09 -0.018716132513 -6.9196346384e-05 -0.00021359544824 -0.000687100419 0.00025230318171 0.00059941669231 
-0.00037230620313 -0.023978083421 -0.028596177954 -0.04966115791 0.028985618961 -0.0056165647816 -0.030230685581 -0.015670040495 -0.0069558049969 
-0.0068804285847 -0.017897106222 -0.035955016829 -0.024075676404 -0.021298845504 0.0031968397635 -2.5789753032e-06 -0.060045234766 -0.0011400170989 
-0.0015306883886 -0.0019685091927 -0.0023781768918 -0.0017921096229 -0.0027672229413 -0.003185456836 -0.0026058003239 -0.003543733952 -0.0038892726485 
-0.0033431766934 -0.0041777983593 -0.0044620143189 -0.003993387623 -0.0046332922651 -0.0047875689345 -0.0044632945574 -0.0048165601456 -0.0048339300951 
-0.0046825806845 -0.0047719063577 -0.0046606254414 -0.0046684692596 -0.0045106007871 -0.0042815068178 -0.0044349394113 -0.0040429957989 -0.0037569609697 
-0.0040254410901 -0.0034625627525 -0.0031270850076 -0.0034880774922 -0.002788636071 -0.0024122040084 -0.0028720457281 -0.0020770585284 -0.0017154965393 
-0.0022103357802 -0.0014080077859 -0.0010705654041 -0.0015649165356 -0.00080752898437 -0.0005277771163 -0.00099402550425 -0.00032196506413 -9.283696195e-05 
-0.0005107316394 -1.2103513148e-05 -8.4846204359e-06 -0.00011286823639 -1.534689912e-05 -6.3620919006e-06 2.3131864835e-05 -1.3724162158e-05 -5.2002195482e-06 
2.001966681e-05 -8.6675217456e-06 -7.8195109984e-06 1.4679304653e-05 -6.2067663904e-06 -2.7016523762e-06 7.5786389732e-06 -5.6533314416e-06 3.3159392502e-07 
2.2092013443e-06 -3.1796389351e-07 2.7679381108e-06 6.9291357404e-06 6.5148481999e-06 -6.9969806059e-06 -0.00023054355476 0.00064083871185 -0.00013507223313 
0.00054651333673 -2.3462738865e-05 -0.00098844690808 0.0004648665201 0.00023651997873 -0.00045791051351 0.00037302987751 8.8255642393e-05 -0.00066471181617 
0.00012236501676 0.00019943510404 -0.00055874934067 8.7287754941e-05 9.1640628482e-05 -0.00027069784949 0.00011742194435 2.2285812545e-05 -0.00017984048328 
8.4636963545e-05 7.9345478248e-05 -0.00017275226329 4.4674699994e-05 4.5819791275e-05 -0.00014602460165 2.7872343091e-05 6.4821185288e-05 -0.00011286184374 
5.7999271455e-06 5.2726537156e-05 -6.1937815365e-05 -2.4771785741e-05 -1.0366810566e-08 -8.9860349828e-06 1.5047178845e-05 4.0544250926e-05 -3.5771505478e-05 
-2.6300172213e-05 -4.8912739318e-05 -4.8470218655e-05 -0.00015088254739 -0.00016214464774 -0.00010390146598 -0.00027892751466 -0.0003026532252 -0.00033603003013 
-0.0004373635825 -0.00046648626375 -0.00052801956263 -0.00058107475187 -0.00057358635078 -0.00071420613474 -0.00066042359438 -0.00065617643942 -0.0008879908737 
-0.00071346559191 -0.00068809786922 -0.00096550517694 -0.00073224610528 -0.00071476424443 -0.0010363087468 -0.00076459710348 -0.00080575941257 -0.0010965942542 
-0.00084192796234 -0.0009486140466 -0.0012304665136 -0.00095671257319 -0.0010596898551 -0.0014302549167 -0.00098338689198 -0.00098304098467 -0.0015676391453 
-0.00076802467892 -0.00051677577215 -0.001264040797 -0.00010015324358 0.00012751678088 -0.00036743829889 -6.314410906e-05 0.00023554506901 -0.00011026801988 
3.9632525688e-05 0.00011032089393 -0.00023024900363 0.00020008859447 1.2375839397e-05 -0.00023982874117 0.00011930067351 4.7290729265e-06 -0.00026297073527 
9.1910016387e-05 -4.5669199461e-05 -4.1625100223e-05 8.9739243928e-05 -0.00017907911615 3.1831972266e-05 -0.00047994199052 -0.00063360515861 -0.00040339333159 
-0.00080570559553 -0.00079869686679 -0.000973054827 -0.00088853495206 -0.00082429517015 -0.0011914541837 -0.00082952606611 -0.00071562128238 -0.0011674421717 
-0.00067651646947 -0.00058851018723 -0.0010561033456 -0.00058167823648 -0.00049597742143 -0.00086342906826 -0.00046461535781 -0.00041021753554 -0.00071033752769 
-0.00040523640475 -0.00038294436722 -0.00061034082198 -0.00040129735631 -0.00034398427376 -0.00057981578296 -0.011136185606 -0.0073669158991 -0.0012167494882 
-0.0001270966582 5.1976939734e-06 -9.2233803088e-06 8.1028671137e-06 -1.2651165407e-05 -8.6016627808e-07 7.2509961524e-07 -4.5126741902e-05 4.8091254093e-05 
-0.0013745658474 0.0042864701908 -0.0014439530841 -0.011704874731 0.011132087359 -0.0024803035043 -0.0023872563746 -0.0021539964503 -0.0013285051183 
-0.0032712891731 -0.00068451545429 0.00032510043982 -0.0014832738257 -0.00023978929776 0.00013950981829 -7.8381608894e-05 4.7015833147e-05 -2.628258174e-05 
-4.9857474621e-05 0.00014634049662 1.3602027905e-06 -0.00017537733392 0.00034719392761 -1.1392858075e-05 -0.00035556181025 0.000683108194 -7.1400695719e-05 
-0.00088483979958 -0.0015476223899 -0.015096439527 -0.011026979271 -0.0034331463202 -0.022328741552 -0.0041903858685 -0.008197038701 -0.013029784335 
-0.0051498397778 -0.0051155725741 -0.0013971257656 0.0015664685597 -0.00032031602417 0.00047317520573 -0.00027515711415 -0.0013209633867 0.0022606595154 
-0.0026157941475 0.0029744725255 0.00092201253016 -0.0056291854613 -0.0083448593884 0.0014730672192 -0.008904630615 -0.0056384764806 0.00097389825255 
0.0021817401639 -0.0013471229851 0.0022002936059 -0.0012093880854 -0.0014518496614 0.0034162150465 -0.0017551251448 0.0029366448687 0.0031503335705 
-0.0048043533474 -0.0076257910658 0.0015446447731 -0.0076885082985 -0.006186785782 0.00069368988287 0.0020813708799 -0.0019196769473 0.0022421689548 
-0.00069932759232 -0.001760426693 0.0035324175838 -0.0019765585702 0.0013793254005 0.0011022262949 -0.001484362198 0.0021697261713 0.0037346074356 
-0.0026161515906 -0.0043960764652 0.0026263308702 -0.0013224656063 -0.0023639985593 0.003487709679 -2.4258246536e-05 -0.0022320286833 0.0040482713657 
-0.0020364426082 -0.002523686155 0.00087257392439 -0.0032696326161 -0.0012181500763 0.00046863720546 -0.0061943495111 -0.010542226592 0.00023264157286 
-0.0053750411769 -0.04568296606 -0.047790077952 -0.042349796639 -0.027507324727 -0.012435188669 -0.032985493263 -0.035043192498 -0.041186152516 
-0.028370694376 -0.034301507078 -0.031804132257 -0.022620394638 -0.027893229592 -0.026238152288 -0.017362030542 -0.022316532942 -0.020761916088 
-0.011787305204 -0.016481820455 -0.015500936779 -0.0055237259421 -0.010423163547 -0.010037129917 -0.00095974447646 -0.0034152545122 -0.0040370732099 
-0.00066313654673 -0.00053483560715 -0.00024240437367 0.0030810976782 -0.0013605279582 -0.00065715425467 -0.0059133062433 0.003848935451 2.2711241424e-06 
-5.7208952543e-06 -0.0076016822889 -0.0067144471987 0.0013393996936 -0.001208214296 -0.0036041742817 -0.0018320580658 -0.00092185489904 -0.0046203876284 
-0.0075988511564 0.00017197643917 -0.0089317266099 -0.012206870984 -0.0043340068794 -0.013928501238 -0.017271194713 -0.0095320498751 -0.018990328271 
-0.022838409758 -0.014651960388 -0.024352808702 -0.028275973802 -0.019773398702 -0.029733035037 -0.034284169379 -0.025016423642 -0.035644875328 
-0.041893519927 -0.030576848904 -0.043126514621 -0.045498256272 -0.035134077062 -0.043267256615 -0.041864900425 -0.035968539747 -0.035015943073 
-0.016042603717 -0.023359891774 -0.00011811696662 -0.00049341266884 -4.1483423192e-05 -0.00046656443657 0.0001464386558 -0.00019451290425 -0.0018569201383 
-0.0023346028872 -0.003513581363 -0.0025030179903 -0.0013270026849 0.0095432655695 -0.041096156191 -0.046921074319 -0.036987042691 -0.0014412182454 
-0.0040633562812 -0.0014862180908 -0.0034632060022 0.004356698114 -0.00044707959462 -0.00072504364922 -0.00096493842439 -2.1432289349e-06 4.7607266773e-06 
1.4351049444e-06 6.3058814906e-07 1.943499397e-06 3.9382557575e-06 -0.0017867598885 0.001672104579 -0.0029866875517 -0.00035557963274 0.0006194284677 
0.0011984838158 0.0005932686836 -3.6156151809e-05 -0.0010007248309 0.00082605431574 -0.0053433525657 -0.0094536987549 -0.014221380966 -0.0097838318749 
-0.01519985432 -5.2045159597e-05 -0.039315281896 0.00033810424129 0.00011031090399 -0.000560787559 -0.00070826562925 -0.0010600659493 -0.0043442970866 
-0.0026784726155 -0.00077305426086 -0.0036548882909 -0.014079613639 -0.015567141946 -0.0037968481905 -0.008514635465 0.00062800855612 -0.0024646514307 
-0.0027933765844 -0.0031913171249 -0.0034745855756 -0.003047235178 -0.0038336872578 -0.0040450229511 -0.0037298318445 -0.0043003952172 -0.0044484353439 
-0.004270786401 -0.0045401936676 -0.0045730766766 -0.0045820916524 -0.0045529619376 -0.0044859976012 -0.0046196308644 -0.0043440086605 -0.0042164909389 
-0.0044409504196 -0.0039671002345 -0.0037817829729 -0.0040820830801 -0.0034859351149 -0.0032411194757 -0.0035875380779 -0.0029180272367 -0.0026266959216 
-0.0030075654125 -0.0023143269959 -0.0020114227295 -0.0024018240914 -0.0017047594974 -0.00142295123 -0.0018070972852 -0.001180354701 -0.00092157603564 
-0.0012772690958 -0.00071321354852 -0.00049493936721 -0.00082477553432 -0.00032797150131 -0.00014474539566 -0.00042908669962 -1.8458104221e-05 -5.0132554105e-06 
-0.00013116641152 -1.5708944578e-05 -3.05179738e-06 1.4362274125e-05 -1.2549319298e-05 -4.960770415e-06 1.1107110383e-05 -7.3149493084e-06 -1.3345099766e-06 
7.6973178376e-06 -4.7662825003e-06 9.3734445763e-07 1.3731521614e-06 -0.0016422364232 -0.0020350986589 -0.0022737661215 -0.00062740614257 0.00016428125184 
-0.00086959741122 -0.0012310042437 -0.0014835337003 -0.00087239630838 0.00085669289078 -8.1198936795e-05 0.00061003690761 -1.5469670302e-06 -0.00061279388333 
0.00020670487123 0.00011960073038 -0.00050923844577 0.00016421570543 0.00013784909774 -0.00033749126001 0.00010641972494 8.8675170418e-05 -0.00023341192462 
0.00012881044602 7.7352083647e-05 -0.00010859968652 8.7430108181e-05 3.0507544245e-05 -0.00013536047007 4.5555632923e-05 3.1492250682e-05 -0.00013263497251 
-3.7013150058e-06 7.4389164601e-05 -7.7361898518e-05 1.1743432319e-05 4.4564752175e-05 -3.2978759849e-05 9.801745293e-06 1.2593265149e-05 -1.3018610546e-05 
-5.7103148495e-06 2.9463751238e-06 -4.0841928036e-05 -0.0001412580051 -0.00023712663159 -2.2892331794e-05 -0.00045834361851 -0.00060216543109 -0.00047772079923 
-0.00084617178944 -0.0010106933964 -0.0009683424344 -0.0012343129218 -0.0013767053529 -0.0014730179957 -0.0015530829807 -0.0015945051059 -0.0018857943621 
-0.0017190252911 -0.0016846609012 -0.0021418178159 -0.0017441613942 -0.0016996298058 -0.0022899013255 -0.0017396459763 -0.0017315582821 -0.0023137606201 
-0.0018293151775 -0.0018899260012 -0.0023893118837 -0.0019671012601 -0.0020894230784 -0.0025971158509 -0.0021037283466 -0.0021453222584 -0.0028256157861 
-0.0018603477367 -0.0015129676316 -0.0027789962667 -0.00070689239705 0.00011370946482 -0.0013773932656 -2.82772565e-05 0.00021378141781 -8.0146158103e-05 
-6.6411442642e-05 0.00012380936123 -4.5621662963e-06 0.00010869953991 -8.902422367e-05 -0.00017727154432 0.00020034542018 -0.00015506794543 -3.4848477742e-05 
0.0001099900019 -0.00019584207695 9.4929789733e-05 6.1738858467e-05 -0.00014257336729 0.00016302860349 -0.00051601409009 -0.0012224644031 -0.0001589816934 
-0.0016544251483 -0.0019057702203 -0.0017446320753 -0.0021228435315 -0.0021006116599 -0.0025699901113 -0.0021346272107 -0.001963898794 -0.0027696949175 
-0.0018475110214 -0.0016137634933 -0.002526314502 -0.0015322264207 -0.0013371544445 -0.0021246761427 -0.001246220816 -0.0011142208265 -0.0017637950412 
-0.0010419677233 -0.00094920223079 -0.0012156082418 -0.0014641861474 -0.00019819753065 -0.00099539765728 -6.405782818e-05 -0.00022413049876 -0.0012023185504 
1.0399765347e-05 -1.5979056178e-05 1.1502624773e-05 -2.4382038915e-05 -0.0046494103952 1.4449589744e-05 -3.9830770142e-05 -0.00087873797351 -6.7962853255e-05 
-0.00085409328106 0.0015403384965 -0.0068659150016 -0.0087819389879 -0.0028979303308 -0.00056514675085 -0.00092389241388 -0.0022540744312 4.5024947386e-05 
-6.4434006012e-06 -0.00010854049653 0.00029594841578 4.1818117539e-05 -0.00034572784785 0.00047924943799 -1.608903946e-05 -0.0028212679466 0.0038631651491 
-0.0048320836525 -0.00059190174682 -0.03169224319 -0.030104170984 0.0014797262575 0.0029875922884 -0.00052468634267 -0.00011731712072 -0.00031849423548 
0.00030876855152 -5.5498389007e-05 -0.00086812545772 0.00026712596098 0.00041247696145 -7.8945223011e-06 0.00037284085936 0.00016809553552 0.00043380988294 
0.00025693055312 0.00023141260156 -0.0012261018266 0.00036564649197 -0.0013463447875 -0.0010220627576 0.00062889422348 -0.00068150003638 0.00045244775474 
0.00038596289265 1.5766032337e-05 0.00062178994968 0.00012294512158 0.00040739351079 -9.9677754378e-05 0.00021346759478 0.0004445782374 -0.0011056139834 
5.6694094498e-06 -0.0013885490604 -0.0010287291671 0.00048626383556 -0.0008221167256 0.00041480166937 0.0003459959789 -3.9818147963e-05 0.0002141474668 
2.7571849501e-05 0.00045622678055 0.00049060506079 0.00021500330469 0.00032426462585 5.8022018642e-05 0.0001979514297 0.00039128770582 -0.00092455722855 
0.00018956835769 -0.0010768682588 0.00036782302324 0.00048252329711 -6.4826970025e-05 0.00039214492103 0.0003089588564 0.000272190836 0.00015349004585 
0.00045041015515 3.709397327e-05 -3.5258852556e-06 0.00049510979749 -0.000194474034 -0.00058693238761 0.00049694406248 0.00017850792983 -0.018199354533 
-0.020775530331 -0.026703038408 -0.028967955497 -0.013469431887 -0.016030831026 -0.016678234489 -0.0086629662162 -0.011098889109 -0.012775742822 
-0.0034927777887 -0.0061541932768 -0.0087432073703 0.00049237377555 -0.0015844430615 -0.0053022441714 0.0012723015013 -0.00045132588864 -0.0037945828584 
5.7367074789e-05 -0.00018789263838 -0.00087501722204 -0.0019154248136 0.00013330168827 -0.013905358492 -0.024010775674 -0.00019750596903 -0.0019975831962 
-0.0040225338397 -0.0059997963248 -0.0039945831487 -0.0080842084313 -0.010488678733 -0.0071481717469 -0.012478219646 -0.01501336607 -0.010898308912 
-0.016975542595 -0.019554986696 -0.014843972521 -0.021312494603 -0.023916541824 -0.018747768632 -0.025410672481 -0.027606234178 -0.022237566391 
-0.028506083856 -0.028951687246 -0.024299860666 -0.028067153751 -0.024038753816 -0.022698322864 -0.020267391932 -0.011213503485 -0.0035193213291 
-7.8360702266e-05 -0.00049361610989 0.00027119281597 -0.00016294775121 0.00011303406711 -9.5133126818e-05 -0.029992175742 -0.031131483709 -0.026383802791 
-0.02607290685 -0.00036617143875 -0.004986746625 -0.0039903820021 -0.00013793306638 -2.7066538092e-06 -2.16379639e-06 -7.338525802e-05 -0.02247246485 
-0.024893119095 -0.023715925015 -0.020312538377 -0.0013008180384 0.0006924877282 -0.0010246677296 -0.0033512424544 -0.0076451849542 0.00078856274378 
-0.00014654619293 -0.0018797061272 -0.0014674338259 -1.0020048981e-05 5.4371232921e-06 -2.9736808991e-06 3.5256473465e-06 -0.00019041261804 1.6087983696e-06 
1.8196839879e-05 -0.008569818764 -0.0063369075306 -0.014244679827 -6.7874254446e-06 -0.004203450136 0.00037674666003 2.9419101058e-05 -0.0048367809064 
-0.0051069465224 -0.0063951927744 -0.0035328322285 -0.0032186477471 -0.0086631731241 -0.01374948593 0.00041613766853 -0.0016105435282 0.00035120477251 
-0.0014590000926 -0.011979108111 0.0017073921191 -0.00056119948103 -0.00014242172234 -0.027953218728 -0.0199121486 -0.01162412034 5.0824207202e-06 
-0.00053205577 -0.0012053789009 0.00052942224851 -0.0055882561724 -0.013266545373 -0.014482607853 4.6996209782e-05 -0.0003919429216 -0.00095744344449 
-0.0043313457195 -7.1502241345e-06 -0.00027827334166 0.00039830621583 0.00059202383252 -0.0029833348413 0.00013234336421 -0.022273504627 -0.0037096906093 
-0.0039257023689 -0.0042918663448 -0.0044363923113 -0.0043310614053 -0.0046468031294 -0.0046977076702 -0.0048320695522 -0.0047148726299 -0.0046914485286 
-0.0050170021142 -0.0045233147317 -0.0044256961284 -0.00488029266 -0.0041540777906 -0.0039862805955 -0.0044648500434 -0.003647061025 -0.0034372583665 
-0.0039008957911 -0.0030830386324 -0.0028341262423 -0.0032635815869 -0.0024706229522 -0.0022159539385 -0.0026057427158 -0.0018804665308 -0.0016175915737 
-0.00196269568 -0.0013472928681 -0.0011215020708 -0.0013946923817 -0.00091864041924 -0.00070754779734 -0.00093514006981 -0.00056011252906 -0.00038234114059 
-0.00058892151207 -0.00024739763131 -0.00012050012503 -0.00029220126873 -3.1738465445e-05 -2.7082126946e-06 -6.4962546974e-05 -1.582540195e-05 -1.3977829178e-06 
7.0030413444e-06 -7.9891429413e-06 7.7211121839e-07 9.4697549078e-06 -5.6785164616e-06 8.5019302956e-06 7.4002185816e-06 0.00011457258082 0.00021054900317 
1.612395091e-05 -3.3063608239e-05 -0.0029641691445 -0.0042749600957 -0.00160339918 0.00028749186375 -0.00016580450931 0.00024475384017 -3.4738490047e-05 
-0.0003371386591 0.00023089116538 4.7806520324e-05 -0.0003082934924 0.00013439571891 7.585924731e-05 -0.00017860199501 9.6003354321e-05 8.3334144476e-05 
-0.00012125288118 9.8093635975e-05 4.6619848686e-05 -5.6500339691e-05 8.1978727778e-05 1.990309723e-05 -6.4643299702e-05 3.749931826e-05 4.5924262182e-05 
-5.8626244114e-05 3.1153929296e-05 6.0433372569e-05 -4.282701899e-05 2.9683774975e-05 3.1018446022e-05 -1.7490931775e-05 6.213216501e-06 -1.0462731698e-06 
-4.7640010276e-05 -8.5135733096e-06 -8.7192058863e-05 -4.6135360186e-05 -0.00046796949006 -0.00075525361633 -0.00025050637979 -0.0011963295843 -0.0015554408579 
-0.0012211490749 -0.0019791610584 -0.0023152835435 -0.0022151372576 -0.0026992992798 -0.0028669702175 -0.0030998373363 -0.0031170255475 -0.0031386378738 
-0.0036793496618 -0.0032405675265 -0.0031085775724 -0.0040023466437 -0.0030904701444 -0.002916440325 -0.0039052309829 -0.0029512892155 -0.0028595041712 
-0.0036535785343 -0.0029571936558 -0.002907034603 -0.0035747141952 -0.002921341868 -0.0029506342744 -0.00360895787 -0.0029379944479 -0.0026729976977 
-0.0035015459469 -0.0017642782031 -0.00021143473216 -0.00011607191435 -3.0605692512e-05 3.9713384456e-07 -0.00058891821331 -7.343102172e-05 -0.00023177191228 
-0.00027165548921 -0.0016074289165 0.0002090614954 -0.002646232042 -0.0032671880277 -0.0025304253899 -0.0037121988886 -0.0038254095377 -0.0042208697704 
-0.0039560227178 -0.0037449956816 -0.0047703777576 -0.0035583706267 -0.0031999684506 -0.0045671108562 -0.0028899284558 -0.0025862827537 -0.0038438141363 
-0.0023616089552 -0.0021237444496 -0.0031162867777 -0.019820306475 -0.016064248538 -0.0023849913333 -0.0026919376585 -1.013828403e-05 -0.00011827517719 
-0.00027423796138 1.1305220662e-06 -0.0065408832568 -0.0078739232181 -0.00016269177726 0.00029375547845 -0.011112967732 -0.012992234038 -0.0031363325568 
-0.0051063474207 -0.012915282264 -0.0080500068013 -0.00034617606576 0.00042334017825 -8.6262009804e-06 -0.00013670637119 0.0015792234857 -0.00028283717142 
0.0005150430894 9.8123320144e-06 -2.8159399265e-05 -0.00010243397253 9.3729497344e-05 0.00097519942683 -0.0028085678941 -0.00029918419156 -0.00010291671412 
-8.4164883062e-05 -7.3588012019e-05 0.00026880764372 -7.1071467732e-05 -0.00014075038355 0.00027585898219 -0.00011039694967 -4.4473175924e-05 0.00031223275405 
7.8269323597e-06 3.5275480582e-06 0.00014353484493 -1.5001074946e-05 -9.0170602976e-05 5.5708530542e-05 -5.3813627808e-05 1.4439350102e-05 9.9231311557e-05 
-2.5055796054e-05 -0.0001032435621 0.00012771726637 -8.9424156057e-05 -1.9517603873e-05 4.21986875e-05 2.20032204e-05 -5.350734086e-05 5.0128211981e-05 
-6.8074964592e-05 -2.5433587588e-05 7.1292853313e-05 -9.032796031e-06 -1.0954603434e-05 8.6068709076e-05 -0.0001059825574 -1.1620824375e-05 0.00016440475561 
-0.00011397507749 -4.7210387275e-05 0.00016139565056 -8.6013104346e-05 -8.891670021e-05 0.00024191691783 -7.3642319464e-05 -3.6358240686e-05 0.00038143247102 
-0.00010315524371 -0.00013926243522 0.0004613451828 -0.0078825892713 -0.0095893229394 -0.01111292468 -0.014919713626 -0.016898261337 -0.01395102734 
-0.005195539162 -0.0066843083893 -0.0088547119432 -0.00500005678 -0.005522108567 -0.0072484970106 -0.005895780803 -0.0031209567471 -0.0015335964153 
-0.00072130557653 0.00014121000196 0.0003635256698 0.0013130695383 -0.00026960775694 -0.010468665114 -0.0089116468498 -0.011241121118 -0.015339576481 
-0.011865383113 -0.0017889084152 -0.0038765696103 -0.0059564611425 -0.0041001072582 -0.00021772903142 -0.002933888555 -0.0054390013578 -0.0071568552406 
-0.005482228881 -0.0085194109085 -0.010299154008 -0.0077882050909 -0.011776793384 -0.013592227154 -0.010255225783 -0.015049815975 -0.016701105146 
-0.012902858046 -0.017941929744 -0.018942929504 -0.015184470639 -0.019666936693 -0.019431620237 -0.016309554458 -0.018614789488 -0.015505112303 
-0.0096288926751 -0.014820173144 3.6380839492e-06 0.00013986364798 -0.0029524537307 -0.0032342344943 -0.0036065532152 -0.0058881598749 -0.0020810556323 
-0.0024314623163 -0.0026954391307 -0.0017598379282 0.00065658974037 8.3288278207e-05 -0.00041951608814 -0.00016940013658 4.5351650696e-05 6.7853411706e-05 
-1.7320292896e-06 -1.6353595334e-05 9.0438588262e-06 0.00080057517793 -0.0011951451352 -0.0050330625989 -0.0048115938761 -0.0053158741527 -0.0012506547401 
0.0011316504369 6.310725357e-05 0.00013972949654 -0.020134593244 -0.015979077385 -0.021197348504 -0.0019350928622 -0.0026426436789 -0.0017751908165 
-0.0015535431834 -0.0029381648882 4.4855830058e-07 -0.0014807860351 -0.020014317061 -0.021244372277 -0.006254257114 -0.00635666764 -0.018054312383 
-0.017111079558 0.00023735969409 0.00034729207654 -0.010404592542 -0.012101149715 -0.0081857416492 -0.0075221777118 -0.0069726178361 -5.5345903092e-05 
-0.00040009918406 -0.002517856238 0.00016514834708 -0.00022986877924 -0.00072974062632 -0.0038400230522 1.5969686481e-05 -0.00061591500953 0.00050990023975 
-0.00017702434802 -0.0070162667669 -0.011241098929 -0.000187685539 -0.0067726458028 -0.0074879470567 -0.0086942936372 -0.008493444366 -0.0020608439102 
-0.0031172021797 -0.00060359546765 -0.021260459716 -0.02120527683 -0.017529119804 -0.018474034387 -0.0073434797623 -0.010589130178 9.7654588284e-05 
-0.00027477631681 -0.00010166005912 4.9479141433e-05 -4.5410861012e-05 -0.00024309438374 0.00030607575802 0.00026777155323 -0.00022748940171 -7.741187778e-05 
-5.6626032296e-07 -0.0014620090417 -0.0022713191099 -0.0040128732446 -0.0033445653447 2.4852842882e-05 -0.00032718813698 0.00037620699783 -0.0045197043981 
-0.0047013621961 -0.005008077553 -0.0051048186922 -0.0052573037551 -0.00538256494 -0.0053562305849 -0.0056825105538 -0.0052570543733 -0.0051272857421 
-0.0058505962275 -0.0047186359741 -0.0045339041269 -0.005341364425 -0.0040716650345 -0.0038357211697 -0.0045276993781 -0.0034233787871 -0.0031744966719 
-0.003747430686 -0.0027191964039 -0.0024524942988 -0.0029677879795 -0.0020105507163 -0.00175502869 -0.0021507567723 -0.0014243339539 -0.0011837667045 
-0.0014528057138 -0.0009581505156 -0.00074897763299 -0.00093820209121 -0.00055161797045 -0.00039475895319 -0.00051282988499 -0.00027350779865 -0.0075945090832 
0.0038463459602 -9.0627700671e-05 -1.2379337187e-11 -0.00013979926507 -1.1558343679e-05 -5.3189279771e-06 1.1489534712e-05 -0.00057982660687 7.5772127246e-05 
-0.00045770534545 0.00034596247546 -0.0032143855004 -0.00048160696482 0.0003464304412 -9.203097466e-05 0.00015852259444 -5.6306829627e-05 -0.00018673699427 
0.00012032540024 -1.5874192398e-06 -0.0001086370573 7.022033946e-05 2.5415805873e-05 -5.1839861723e-05 3.2621940899e-05 3.4049295533e-05 -1.2349803601e-05 
7.1159833154e-06 -0.0050555058379 0.0024659050027 2.9699678176e-05 2.5012068688e-05 -4.8888605245e-06 2.4290836188e-05 2.4249972796e-05 -5.6317160294e-06 
1.8623506892e-05 -1.466622597e-05 3.9286304205e-05 2.2013738018e-06 -1.1476995901e-05 -6.591740535e-05 -2.2042798853e-05 -0.00054898781366 -4.001339448e-06 
-0.0012506503219 -0.0019257016305 -0.0010612635758 -0.0026310939206 -0.0032751527679 -0.0027547211498 -0.0039295767377 -0.0044152522848 -0.0043446297143 
-0.0048185150206 -0.0050293159994 -0.0054825219209 -0.0054133640995 -0.0052388699298 -0.0063277922049 -0.0038516216464 -0.0035975797031 -0.003241162077 
-0.002964471392 -3.2142208235e-05 -0.0015339683867 -0.0037469879988 -0.0051505258275 -0.0032612370568 -0.0056206029739 -0.0058279955132 -0.0069396823505 
-0.006275923321 -0.0060706675976 -0.0071310690155 -0.005666772713 -0.0052007513687 -0.0070483840639 -0.004640819066 -0.0041733328998 -0.0058433813013 
-0.00024854673679 -0.0061713023972 -0.0082669617548 -0.0029393874523 -0.008264725345 -0.0089121407821 -0.00040973300321 9.017326352e-05 -0.00055754903855 
0.00039247852865 0.00065719501687 -6.0182624146e-05 -0.00049662990999 0.00034406220576 -0.00023610589586 -6.2460483664e-05 -2.1076244465e-05 6.8368720659e-06 
-0.0043696624199 -0.00012570410325 -0.0055649525037 -0.0064480963724 -0.0097647269421 -0.01072532893 -0.009590961805 -0.00014645312365 -5.9200263047e-05 
0.00016950564306 -0.00016661842174 -1.551043562e-05 0.00026047377569 -0.00014331865114 -6.8995855363e-05 0.00014434235979 -9.7816300549e-05 -7.3750765451e-05 
0.00014015611612 -8.800128516e-05 -6.5415043181e-05 5.888975613e-05 -9.7631758038e-05 -2.6541548715e-05 0.00013161635035 -6.0400760444e-05 -5.361362464e-05 
0.00011257102142 -1.8621236927e-05 -0.0059420578583 0.0055430408205 -5.2769841458e-05 -4.2429697508e-05 6.357479034e-05 -0.00010531162154 -5.4772530171e-05 
0.00014512055108 -0.00013059208908 -7.3359145711e-05 0.00018143289877 -0.00015888631467 -0.00017423610213 0.00022427562877 -9.7174248666e-05 -0.00022587100257 
0.00021551272944 -8.5384018872e-05 -0.00021269626901 0.00032152824401 -0.00012552471737 -0.00017994078304 0.00050583758056 0.00049560828549 -0.011374218149 
-0.01261630562 -0.010720027152 -0.00022645072455 -4.0580168554e-05 0.00025310003535 1.1367184933e-05 -5.9459288837e-06 -0.010756966723 -0.010497415187 
-0.0081408937206 -0.0088512711634 -5.6290664836e-05 -2.6858302321e-05 -1.7708489025e-05 4.6310103812e-05 -0.0084025417093 -0.011392340824 -0.0076032385946 
-0.0087338016749 -0.011572028083 -0.01220988866 -0.013397639708 -0.013407424007 -0.010556384374 -0.00014008171474 -0.0036153270011 -0.0039150138965 
-0.0044910638519 -0.0033206752177 0.00078492551216 -0.0008931041442 -1.6493751499e-05 -0.0040049520692 -0.0043291863342 -0.0053758027787 -0.0043329377226 
0.00030855546543 0.00026810505246 -0.00062146207288 1.4209419213e-05 3.416784895e-06 -0.0026198786655 -0.0044668573587 -0.010252650432 -0.0034957620571 
-0.0039825664047 -0.0035346461219 -0.00054744018804 0.00044286987717 -0.00037720708875 -0.0049484450125 -0.004562426374 -0.00027466804603 -0.00010085911669 
-0.0060379862719 -0.0080000164314 -0.0045948582072 -0.0036586305888 -0.00018432062494 -0.0095206988884 -0.0093288265239 -0.010986219972 -0.0085795024566 
-0.00011129229795 -2.8811692168e-05 -0.0024270264276 -0.0042287562956 -0.0055860771913 -0.00027755170751 -0.00076198080082 2.6002867666e-05 -0.0088463732436 
-0.005960728063 -0.0025477029162 -0.0053656253132 -0.011275764685 -0.0094344332878 -3.382786497e-05 -2.459746372e-05 -0.0053150698231 -0.0080454474402 
-0.0095002842087 0.0004216792044 -8.7362444426e-05 -0.016040988817 -0.015362118698 -0.00062201264864 -0.005341489076 -0.0078648575335 -0.0093326750902 
-0.01232430069 -0.012671500923 -0.0095405080306 -0.013290594291 -0.0058861997758 -0.0068922064299 -0.00021161239785 -0.010042692557 -0.011215910072 
-0.01010241946 -0.012535993805 -0.01066866316 -0.0094268870923 0.0003638591131 -0.00042597217572 -0.0066440677981 -0.0064392252786 -0.0046802253439 
-0.0043169360247 -0.0039965707933 -0.002071518234 0.0011592930633 -0.0031490974277 -0.0028185349071 -0.0037749806898 -0.0023027335527 -0.0019520694957 
-0.0025125606947 -0.0014934521882 -0.0012337587012 -0.0016189239658 -0.00091700248043 -0.00068915130899 -0.00091672628447 -0.0005554911288 -0.00035370813526 
-0.00050027641559 1.1533519789e-05 -0.0064567981155 9.60143007e-05 6.2601032669e-06 0.00011262970183 -4.3628074031e-05 -5.2032246688e-06 4.6149880438e-05 
-2.4089816004e-05 -0.00014850941622 -0.0012813301066 0.0063418807019 5.9475419034e-06 0.0001725625481 -2.6817388283e-05 2.1851780809e-05 -1.5312243101e-05 
-1.7070748993e-05 -2.6563354197e-05 6.9034682185e-05 -5.9547341433e-05 -0.0040187620253 9.3649518336e-05 7.6070651137e-05 -2.1524372842e-05 1.610317406e-05 
-0.00069371239721 -0.0017622083758 -0.0076589482476 -0.0082210515829 0.00031975452211 -0.00013261658474 1.6703919923e-05 -0.0080575256687 -0.0072934438038 
-0.0064125023708 -0.0057965462243 -0.0075976409569 -2.5289720134e-05 0.00015941723119 0.00033675781651 -0.00044814690345 -0.010791563078 -0.012192607976 
-0.005901153883 -0.0052059428287 -0.003921992973 -2.3977064024e-06 -0.014602572454 -0.0049247203961 -6.7602283293e-05 0.00039335867951 -0.0077156602596 
-0.0058293948104 -0.0071861769563 -0.0085475635751 -0.009738119875 -6.2664427176e-05 -3.3561364337e-05 -0.0021203291916 0.00088884493391 -0.00011598509092 
-3.3061181489e-05 -0.00095639120778 0.0032312568603 -0.00011244230068 -4.9044769255e-05 0.00012707822427 -0.00013003601009 -8.0782630757e-05 0.00010823736421 
-9.9382402091e-05 -0.00014118546809 0.00020126818837 -0.00011576278852 -0.00021230097852 0.00012182041336 -4.0157455799e-05 -0.0001955359526 0.00019541932584 
-0.0082529699204 -0.00041174574241 0.0004068817897 -0.0091381595502 -0.011561504159 -0.006063843905 -0.00807841901 -0.0089098708627 -0.0051213414099 
-0.0085889260034 -0.0078493714178 -0.0061750727064 -0.00020748403706 -0.0042117549871 -0.004856112853 -0.0037911792939 0.0009853464755 -0.0030254166755 
-5.9493024975e-05 -4.6849985999e-05 -0.0029852093966 -0.0040859171474 -0.0091698872247 -0.0085375251505 -0.0014346416995 -0.0060080473041 -0.0082711070301 
-0.00015424684822 -0.00019115099577 -0.00019531526569 0.00013238319303 -0.0060913616002 -0.0068460190995 -0.0053070694047 -0.0051037782115 -0.008380699237 
-0.0077289882722 -0.0027150245231 -0.018082756165 -0.040777501572 -0.0039794240426 -0.0055376726468 -6.1362889656e-05 -1.9215516736e-05 2.1529126616e-05 
-6.6256483254e-05 -8.1359813364e-05 -3.024624628e-05 0.0020745298887 0.00015093750792 -0.00018280750609 -0.013683997874 -0.00034720654495 6.3876087624e-06 
-8.1899566836e-05 -0.0078889319496 0.00027896837244 9.8139530802e-05 -0.0029430671126 -0.0025660246951 -0.0022190349661 -0.0061183884455 -0.0059302521577 
-0.0056581215114 -0.0019169302677 -0.0015372044925 -0.00080705502955 -0.00056779495998 -0.0011654921453 -0.0026598859691 -0.0022752774112 -0.0015697104731 
-4.0931251458e-05 -0.0054999103976 -9.3747388948e-05 -0.0054488284177 -0.0069601957537 -1.5197603004e-05 -4.4839336779e-06 -7.001041438e-05 3.5473411414e-06 
-0.0057283369673 -0.0040834298164 -0.0026641365758 4.2058199281e-05 -2.362267993e-05 -0.001048013732 -0.0001010277888 -0.00013517058146 -0.006954231519 
-0.0064390866279 -0.0048294931108 -0.0030103601544 -7.7903256113e-05 7.7827757926e-05 -0.00018855466281 1.4839853916e-05 -5.8978096275e-05 6.6660931434e-06 
-0.00013970234708 2.9990100596e-05 0.00010300042244 -0.0033551514965 -0.0025555324466 -0.002445467853 5.030806355e-06 -0.0016401355129 -0.0038748362035 
-0.0065025267655 -3.550244948e-05 -0.0018856842108 -0.0021438866542 4.8165120626e-05 -0.00036257201015 -0.00029095062754 1.9441473139e-05 -5.3039622088e-05 
-5.8724702332e-05 -0.0005929788644 -0.00053534277465 -0.00035585426838 -0.00020809670606 -0.0011620114126 -0.0011444301765 -0.0014855963501 -3.1142872583e-05 
-0.00031060832762 -0.00015249457577 -0.001189614939 -0.00069910299453 -0.0006730696987 -0.0024479153395 -0.0017150817922 -0.0015997257917 -0.003682017274 
-0.0030011580465 -0.0027040818783 -0.0047421626556 -0.0041999931408 -0.0037699016353 -0.0053629458569 -0.0050675694048 -0.0046094436939 -0.0054787111054 
-0.0054859421383 -0.0050334396739 -0.0051472881812 -0.0053665713547 -0.0050371954215 -0.0044401530468 -0.0048747625113 -0.0046437869656 -0.0034870329894 
-0.0040377662902 -0.0039591492087 -0.0023886575391 -0.0030296878115 -0.003087435273 -0.0013515956323 -0.0019042638158 -0.0021377727435 -0.00041527827124 
-0.00089919362441 -0.0012209079136 -5.5328421922e-06 -9.5842993368e-05 -0.00046869932469 -4.7917858819e-06 -6.59301263e-06 2.0261426666e-05 -7.1794694555e-06 
-1.891833847e-05 2.5672370453e-05 -1.1149791361e-05 -1.9965552501e-05 2.1124630531e-05 -1.0096044455e-06 -3.189977343e-06 1.332958473e-05 1.2894321097e-06 
-2.2104088811e-06 4.020732778e-06 7.0302372267e-06 3.0675818867e-06 1.4449426794e-06 2.0963922341e-06 1.7736265012e-06 -1.6005074967e-07 1.4086895112e-06 
-0.017773021963 0.0050612141101 0.0075469873314 -0.00033305659111 0.00038525926898 -0.0027126792698 -3.6405047536e-05 0.00072064883676 -0.00075731157625 
4.9015682822e-05 0.0003849972005 -0.0004399603744 0.00018679571082 0.00020297244099 -0.000529763574 2.1079901899e-05 6.4828554196e-05 -0.00036502020464 
6.7075011945e-06 4.7099677849e-05 -9.9933649473e-05 9.0391093171e-06 2.6080957887e-05 -6.7526203171e-05 1.1894689681e-05 7.2234390362e-06 -0.00010482861964 
6.3891737958e-05 1.2705916669e-05 -8.7845834468e-05 1.8470075511e-06 1.2412928039e-05 -5.0533985785e-05 -5.5437769356e-06 5.0536095518e-06 -1.3110566189e-05 
-1.8945665581e-05 -2.7013593608e-05 -9.0704805326e-06 -5.3430278779e-05 -8.337734091e-05 -5.0370729442e-05 -0.00010004404712 -0.0001168333998 -0.00014053851582 
-0.00014730227106 -0.000155119791 -0.00018956297473 -0.00017252213941 -0.00019366152139 -0.00022222873202 -0.00018669201615 -0.00021863967121 -0.00022868038837 
-0.00021711433984 -0.0002141172923 -0.00032565325283 -0.00027560750677 -0.00024270673155 -0.00040372233793 -0.00034386832955 -0.00027335604087 -0.00052267487219 
-0.00022197042902 -0.00024886745236 -0.00046885973758 4.8023242173e-05 -4.5171439862e-05 -0.00024633960471 0.00010645430407 -5.8098258919e-05 -6.4442113952e-05 
9.7365809401e-05 6.9605616503e-06 -0.00016421337196 3.6218951276e-05 0.00022445630162 -0.0003772747263 -3.4216397316e-05 0.00010664541507 -0.00017150696847 
-4.0277362742e-05 5.0690218223e-05 -3.5917368297e-05 -0.00014065040177 -0.00011163247088 -8.0836995783e-05 -0.00018271727764 -0.00019752857957 -0.0002690582402 
-0.00019152311496 -0.00021731892788 -0.00027765740106 -0.00016103209341 -0.00019908632537 -0.00025754394608 -0.00012816602343 -0.0001635245816 -0.00025254878386 
-0.0001333424006 -0.00013439694328 -0.00020194985294 -0.00012396721677 -0.00014716706673 -0.00021636851646 -0.0066407804878 2.4354353689e-06 3.5604475528e-06 
2.0699256742e-08 5.5436007222e-06 -3.43446876e-06 -2.4318659928e-06 3.0945760833e-06 -4.2772974169e-08 -2.670842774e-06 3.7076486774e-06 1.9878389283e-07 
-1.7010860494e-05 6.2771900882e-06 -3.0119585919e-06 -0.00011158027818 -1.2317744298e-05 -0.00031448420264 -0.00014806240213 -0.00021248706484 -0.00051415904861 
-0.00036720864786 -0.00058184558708 -0.00057026755642 -0.00054615869198 -0.00092927040923 -0.0003822855245 -0.00050971565004 -0.001041684353 3.625991232e-05 
-0.0001694868806 -0.00059952666987 1.3423700316e-05 -7.5140535019e-05 -4.4856832348e-05 2.2572749536e-05 1.0025525733e-06 -8.1821748061e-05 8.6165284044e-05 
-1.1398741234e-05 -7.5737715595e-05 0.00023299360179 -4.8421931358e-05 -8.5690141348e-05 0.00069287414049 -5.1247264932e-05 -0.00015527146567 0.00057959002613 
0.00046251102791 -0.00037480918193 0.0025272469596 0.0020532388116 -0.083758121455 -0.0071036822447 -0.014488753477 -0.019590406864 0.0072560962771 
0.0036820109671 0.013677800613 0.0024753785081 -0.0082387124445 0.0086507538959 0.0044438145218 -0.01239260415 -0.0009535728885 0.004543069487 
-0.0086892103758 0.0063332895019 0.0066958071639 -0.0084853844121 0.0093496907384 0.0081883523386 -0.011740497774 0.0046339504971 0.0037167275317 
-0.0082778193561 0.0035716723719 0.0084233769233 -0.0092542437165 0.0042479160929 0.0042203590357 -0.0073365817005 0.0072331777624 0.0059675869676 
-0.007304128581 0.006834479408 0.0052082596833 -0.0087858672373 0.0034660160623 0.006621271448 -0.0092460256928 0.0052882165505 0.0034353737988 
-0.0068451328305 0.0045299377881 0.0057035064813 -0.011303125358 0.010196124297 0.0068419072742 -0.0078960457892 0.0087997167733 0.016044760953 
-0.010279088634 0.0071020446449 0.0054042687207 -0.007165433976 0.0090471468148 0.0073695287132 -0.0098762467315 0.013363192945 0.0052777936692 
-0.01005219386 0.013243832927 0.0033201121744 -0.01254215436 -0.062864820042 -0.061638704696 -0.078498390332 -0.070446544632 -0.056505817561 
-0.070979203437 -0.061865143043 -0.062741342062 -0.057721878653 -0.050687230996 -0.053445080652 -0.045157607467 -0.041929072126 -0.042785974454 
-0.036823580807 -0.036138166144 -0.034668044278 -0.032859959711 -0.030325552374 -0.028689674414 -0.026553872213 -0.025767439032 -0.022906605453 
-0.021568597526 -0.020928678848 -0.017373984908 -0.015077540959 -0.014576481564 -0.011573593504 -0.01032709034 -0.0098389196736 -0.0058076387779 
-0.002648106579 -0.0015481607515 -0.0036281972085 0.009065442494 0.0134622792 -0.0038272663497 0.0070111814078 -0.013072675553 -0.0057911396172 
0.013624707479 0.022333821894 0.012138785177 -0.016894292225 0.0048533417951 0.0048497618624 -0.0051460273884 -0.0057603123834 -0.0060754239274 
-0.0032658454123 -0.012832261166 -0.0054144870139 -0.0036441204307 -0.01439279081 -0.017257082799 -0.010796480177 -0.019386010034 -0.018403186724 
-0.0090200635637 -0.023719722858 -0.020874262477 -0.013726595732 -0.029294212346 -0.028083416041 -0.019284085525 -0.035899471975 -0.033180311521 
-0.02524548977 -0.045396989837 -0.039528495977 -0.032124184965 -0.05311746799 -0.050098985909 -0.041106919537 -0.069380439275 -0.05951142835 
-0.055908259978 -0.078862134343 -0.06090695205 -0.063808664123 -0.05740120756 -0.044179576478 -0.053205814137 0.014304269599 -0.0080934514752 
-0.00011427536777 -2.3437007908e-06 -0.00015988419211 -2.0533665984e-05 -2.5324794468e-05 1.2869463705e-05 0.00090626166424 -0.001935261586 0.045389679034 
0.0014494101324 -0.020923211859 -0.019522331145 -0.024851145581 -0.025962712203 -0.0014826495138 -0.0038446455142 0.0096005630312 -0.0061290589114 
-0.00076467864851 0.018821964152 -0.077305416531 -0.039649955138 -0.0034038886863 -0.0015890688969 -0.00026249408801 -0.009837670781 -0.0019735061396 
-0.0014818113221 -0.0010554147299 -0.00067841307466 -0.00066389852853 -0.0014124332499 -0.0038260896907 -0.0033986066909 -0.0044900975946 -0.0042317162411 
-0.0039995249573 -0.0047849953767 -0.0046736787733 -0.0045484451884 -0.0046367796164 -0.0047300454366 -0.0046800008839 -0.0042124544145 -0.004436321907 
-0.0044305341445 -0.0035323699848 -0.0038828812516 -0.0039166036819 -0.00275286494 -0.0031616915202 -0.0032413764768 -0.0018880650981 -0.002327303753 
-0.0024608773775 -0.0010984271852 -0.0015094518858 -0.0016669620943 -0.00048386065613 -0.00079163841818 -0.00098214521542 -1.9754816548e-05 -0.0002511340718 
-0.0004445092261 -5.4635045701e-06 -2.2464911267e-05 -4.4329615422e-05 -8.9763599652e-06 -1.8686498482e-05 1.9454437252e-05 -7.2795198514e-06 -5.1151495499e-06 
1.053926267e-05 -1.787017964e-06 -4.174787992e-06 6.3737627265e-06 3.0341520651e-06 -4.3769926064e-06 1.3293170732e-06 -2.1091275095e-06 -6.0379853336e-06 
1.9234602086e-06 -0.0026080392889 -0.002253794237 -8.3616391192e-05 0.00068678899109 -0.00035004186309 0.00059341453526 -0.00029998399648 -0.00024438907079 
-0.0010752173621 -0.0022486152492 0.00030936303325 0.00019800794297 0.00044742646703 -0.00053152630947 0.00014845809039 0.00013383987631 -0.00040542003414 
2.7382636457e-05 0.00010077935538 -0.00028978936706 -3.0083730008e-06 6.1644619459e-05 -0.00015198405877 3.2920955847e-05 4.5364643661e-05 -0.00014459522908 
4.9907962799e-05 5.4983437053e-05 -0.00010666316202 6.5389601039e-05 7.4301377318e-06 -4.6019165804e-05 -4.5996077319e-06 1.7883060831e-05 -2.5060273912e-05 
-1.2454811288e-05 -2.5162583878e-05 -2.1141113075e-05 -0.00022266674464 -0.00016072613872 -0.00010153834036 -0.00048569515588 -0.00038965551773 -0.00046669521106 
-0.00070946070467 -0.00064626417303 -0.00081973841688 -0.00084983898922 -0.00086480342 -0.0010930951458 -0.00093846698883 -0.00094188432677 -0.0013064248304 
-0.0010312539832 -0.0010032835772 -0.0014760560229 -0.0011691854676 -0.0011000187865 -0.0016506106474 -0.0013471356477 -0.0012264816978 -0.0018934116527 
-0.0011957655186 -0.0012821013138 -0.0020457193495 -0.00035729112955 -0.00088838678981 -0.0015217490511 0.00015808157397 -0.00011116683484 -0.00013641548405 
0.00016671506429 -2.3334787068e-05 -9.3159627309e-05 -1.2479209053e-05 0.00016466603664 -0.00031179266038 -4.2679621443e-05 0.00032538255528 -8.5368247252e-05 
-8.0101371164e-05 0.00012571461566 0.00011240000584 -0.00052906616514 -0.00012183162554 0.00015106344239 -0.00092876834804 -0.00086206728032 -0.00092909788383 
-0.0010035347245 -0.0010905342911 -0.001440672162 -0.00090339343757 -0.001045906332 -0.0014880959462 -0.00075061792666 -0.00087301579139 -0.001333456634 
-0.00068764544891 -0.00073550637087 -0.0011404794764 -0.00064651857436 -0.00068349495102 -0.0010034313428 -0.00097354974871 0.0023948834295 -0.00044305387293 
-7.0848351457e-06 8.2544366342e-06 -0.00022805588112 1.2564339416e-05 -2.1897324699e-05 8.7212377942e-06 1.4276216148e-06 0.011706087524 -0.0087205627692 
-0.0019325594161 -0.0013304319822 0.0017971726585 -0.00015417009689 -0.0010123820636 -0.00046546840108 -0.00057006685872 -0.0017543460531 -0.0023814702213 
-0.0026807516045 -0.0039768286304 -0.00055691563952 -0.0016445256025 -0.0029692551626 0.00011861916203 -0.00023367119266 9.0600546708e-06 -5.3403811413e-05 
-6.432682451e-05 3.9324078641e-05 5.0227286942e-05 -5.8692608223e-05 0.00018682167354 -3.8324796227e-05 -4.3485676838e-05 0.00033883353719 -0.00025190386355 
-2.8529460797e-05 0.00034522932222 -0.00055204656752 -4.4255451292e-05 -5.321378446e-05 -0.01425037604 -0.0041381806979 0.00034521779659 -0.009071489309 
0.0035926934 -0.0014525823532 -0.0022035092759 -0.00016545924211 -0.0014612638364 -0.0018252270238 0.0012447601467 -0.0019066449269 -0.0048982489638 
0.0017041498759 -0.0028201967644 -0.0029876594669 0.00066964065327 -0.0035689243037 -0.00089423076214 0.0011544123701 -0.001316384483 -0.0011547446989 
0.001587624617 -0.0010758555298 -0.0012886128636 0.00070022236296 -0.0024667382067 -0.0034249199622 0.0015517789123 -0.0039019589156 -0.00094925006743 
0.0011538736846 -0.0020030313943 -0.0011747111121 0.0017521336044 -0.0017707597804 -0.0023135692847 0.00056307716909 -0.0010747263102 -0.0025140914479 
0.00081660146061 -0.0029926312844 -0.0031774097592 0.0017615354245 -0.0027226949716 -0.0011119006493 0.0017922814407 -0.0024910443095 -0.0016704869044 
0.00087750811869 -0.0023395250782 -0.0032276356034 0.00041370344171 0.0016469216006 -0.0078154539169 0.00074641534391 0.00092228833109 -0.024304022038 
-0.0072428364284 0.00050874506309 -0.0010563385694 0.0044868538403 -0.0095761410984 -0.046640120954 -0.046780401929 -0.048202780557 -0.042162588418 
-0.039209345669 -0.043105091473 -0.036367739969 -0.03821049101 -0.036414495597 -0.030607064129 -0.033856369549 -0.03063757098 -0.025401720339 
-0.028765479662 -0.025099791618 -0.020176949581 -0.02348932418 -0.019518352157 -0.014837414361 -0.018238481647 -0.013689378675 -0.0092041810399 
-0.012890768724 -0.007727903517 -0.0034443263218 -0.00778111926 -0.0012842149081 -0.00071090364622 -0.0028060371046 0.00083354043371 0.0025833696988 
-0.00050619192324 -0.00057959355861 0.0013590704033 -0.0014216057612 0.0026579779743 -0.0046766884995 -0.0053268476182 -0.024791601319 -0.0013673833443 
0.0020251295868 0.00034024211653 -0.0050638036917 -0.0040753906653 -0.010052364991 -0.0078332834332 -0.0049796754917 -0.015151589119 -0.012455296143 
-0.0093336939415 -0.020523619564 -0.017324098269 -0.014199201778 -0.026286474151 -0.022708805637 -0.019165969398 -0.032881111796 -0.028556255964 
-0.024611292478 -0.039662221495 -0.035031545434 -0.030264991013 -0.04392926858 -0.040130760419 -0.034989936187 -0.042763673648 -0.042596617173 
-0.034571269341 -0.019351823059 -0.040363005318 -0.024456350086 -0.0029164654957 -0.0024193429454 -0.0022262041399 -0.0031491095997 -0.025427882735 
-0.043287440305 -0.029158882421 -0.01036317165 0.00038418127734 0.0004570631599 -0.0006279183865 -0.001752024975 0.00019544774679 -0.00085870053584 
-0.00083641471118 -0.00068639388139 -0.0031021700775 -4.5550864524e-05 0.0010721065603 -0.0007642254698 0.001519228891 -0.0032111927351 -0.0062549641835 
4.3932174173e-06 -1.3311377028e-05 5.9461930253e-06 -1.2085451766e-05 -7.7275549282e-07 1.8318202411e-06 2.266962184e-06 -0.0021457826332 0.0022841563178 
2.8988971758e-05 -0.0012645916274 -0.021066246644 -0.0022264778003 -0.0031853474473 -0.0088827310005 -0.0031732012761 -0.0040820682139 -0.028535284839 
-0.011911051339 -0.019063581799 -0.00020698820282 -0.00044944375488 -0.0010457005016 -0.00032031072805 0.00097578107878 9.4111596203e-07 1.1766753612e-05 
-0.00015215814735 8.5439813222e-06 -0.0046187838968 -0.0046631423045 -0.0041725715097 -0.0038861122277 -0.0042697160293 -0.0044246487859 -0.0046763485945 
-0.0036890030803 -0.0039542205119 -0.0041738249597 -0.0030022141094 -0.0033030425072 -0.0034878711126 -0.0022009186545 -0.0025724682854 -0.0027121111051 
-0.0014687797549 -0.0018145732467 -0.0019314756857 -0.00085342698254 -0.0011448977905 -0.0012348789523 -0.00040067118952 -0.00062438706461 -0.00069224255357 
-5.4240127769e-05 -0.00022725099212 -0.00029630568887 -4.6233338061e-06 -1.5572483069e-05 -1.7698187944e-05 -3.2553469066e-06 -6.6259720912e-06 5.8609357154e-06 
-1.9033612428e-06 -6.0855133869e-06 2.7236606099e-06 6.6908041495e-06 -3.4950741428e-06 5.0720785932e-07 -0.0030110043931 -0.005042624578 -0.0048035340804 
-0.0039358110742 -0.0018456081077 -0.0014696212269 -0.0014955457332 -0.00036954245942 3.2327781279e-05 3.5536584355e-05 0.00027699440326 -0.0002223791211 
-0.0002690451212 0.00011121820117 -0.00075371759292 6.994482692e-05 9.8960326861e-05 1.4902877994e-05 0.00010724143664 -0.00013056428227 2.5541697764e-05 
0.00010736138827 -0.00012676496354 4.6162753878e-05 5.7133186576e-05 -8.0276279321e-05 2.7441213879e-05 1.0385439174e-05 -4.2053597631e-05 1.3753289602e-06 
8.2938063597e-06 -4.3702339659e-05 -0.00027076082785 -3.449802088e-05 -2.1875143427e-05 -0.00089598366219 -0.00059408311999 -0.00056171913446 -0.0015294845767 
-0.0012474435098 -0.0013814990276 -0.0019861622061 -0.0018371389239 -0.0021605118294 -0.002229854875 -0.00222825191 -0.0027236283212 -0.002302052044 
-0.0023116586746 -0.0030290750781 -0.0023591720099 -0.0023762347503 -0.0030996027094 -0.0025050152327 -0.0024139164303 -0.003201550323 -0.0025079359913 
-0.0024975451458 -0.0033404135185 -0.0016659296661 -0.0022282516467 -0.0031823368317 0.0001298658125 -0.00051619411731 -0.0012550379956 0.00041452399756 
2.1195566461e-05 -0.00011917704576 -4.1581119871e-05 0.0001265905401 -0.00028201474314 -0.00020013642998 0.00023171985362 0.00024056632398 -0.0002252844461 
6.5553273783e-05 0.00044696881987 -0.00071978300623 3.679016336e-05 0.0002827474743 -0.0021281378414 -0.0015883433679 -0.0013011601847 -0.0025183928565 
-0.0024992412391 -0.003014022209 -0.002372771429 -0.002594691648 -0.0033938303594 -0.0019968497157 -0.0022519672884 -0.0031025903543 -0.0016560961501 
-0.0018154361122 -0.0025677976418 0.0001207603128 0.00013401429704 -0.0001862396638 -1.1986968984e-05 6.6032465748e-06 3.0809509107e-06 0.00026816814076 
-0.0015079542599 -0.0054539090622 -0.0053612106464 -0.0066436419911 0.00014191063685 5.9557960931e-05 -7.9938565255e-05 8.3959177287e-05 5.1561589251e-06 
3.5415147524e-05 -0.00013860365894 -5.7318733875e-05 0.00034907888351 -0.00033249071072 1.5173177075e-05 0.001588284719 0.00038998497803 -0.0046178437182 
-0.004492583776 -0.0045495179492 -0.0048565433685 4.3062139558e-05 -0.00031710530734 -0.00016886418169 -4.7674041128e-05 -0.00013909327933 3.3746867674e-05 
0.00020321969979 6.5937302425e-05 2.7716196793e-06 8.0426652172e-05 3.3040484324e-05 -5.6233009633e-05 8.3393223821e-05 -0.00015795019901 -9.1320359961e-05 
0.00015299719853 -7.4890699654e-05 2.5618177701e-05 0.0001261932599 8.807244395e-07 8.8172459669e-05 8.6909192684e-05 9.5744590107e-06 -2.25330937e-05 
0.00010203405883 6.2799866665e-05 -0.00017656386703 0.00019458506585 -0.00012202685444 -3.585711851e-05 0.00021532097981 -2.1968580871e-05 -8.0629397048e-05 
0.00028451966377 0.00015296645345 -0.00013723073361 0.00026432492703 -0.0004377760467 0.00074988612737 9.1739519604e-05 -6.0837840146e-05 -0.0049655912891 
-0.0033977882776 -0.031252589365 -0.030876252465 -0.029981138877 -0.028056726705 -0.026766973509 -0.026616715052 -0.024410949093 -0.025117709259 
-0.022662492279 -0.020234016928 -0.022073069548 -0.018167898165 -0.015744196638 -0.0183706006 -0.013559119273 -0.01112053876 -0.014456976464 
-0.0088692198499 -0.0066138132006 -0.010712834495 -0.0045538385107 -0.0020010897489 -0.0075078776435 -0.0010046677616 0.00096044911693 -0.0049653726949 
-0.00044118347182 -0.00033739482386 -0.0036961318839 -0.00015176238894 2.3884910253e-05 -0.0020462258326 -0.0096328769595 -0.0075228782658 -0.0055097586501 
-0.0035184586083 -0.0066735749521 -0.018173487614 -0.015791780524 -0.022891875879 -0.020342625978 -0.017514178242 -0.026566500322 -0.024712178461 
-0.021147928434 -0.02787268187 -0.028149709474 -0.02325310484 -0.023405596398 -0.027568959908 -0.021918233159 -0.010907702123 -0.021032385959 
-0.014538717006 -0.0027617747312 -0.0029485417374 0.00026502815085 -0.00030955945982 -0.0018444754188 -6.561913862e-05 -0.0001599536968 0.00034336760158 
0.00010158536737 2.5115456664e-05 -0.0010524969251 -0.003181392184 -0.0025549363411 5.9111551501e-05 0.00011743967666 0.00021206507977 -0.00047875749171 
-0.00025170106513 -8.3601579685e-05 -0.0001388161895 0.00025622915328 0.00018901909124 0.001926307261 -0.0034137906203 -0.00057368601522 -0.028426257897 
-0.031048020673 -0.025740938169 -0.013792873512 -0.011665238445 -0.010088704123 -0.01361208243 -0.0037129631839 -0.0033054193085 -0.002911949512 
-0.000464643115 1.3860669572e-05 -1.2221340262e-05 9.4837383263e-06 -0.004584160596 -0.0032419261585 0.00055290929742 -0.0012300303837 9.805404847e-05 
-0.0014898913014 -0.0015910513425 -0.0021352290087 -0.0019484144221 -0.0037840825128 -0.019618061672 -2.6768623031e-06 -6.2299021677e-06 -0.0021399824462 
-0.006444356207 -0.00073036312802 -0.00022467955321 0.00073577565949 -0.010054499458 -0.0070860759096 -0.0014145097879 -0.0005357240407 -0.00049016559177 
-0.00062392548253 -3.4960885493e-07 0.00045803586864 0.00047305556875 -0.00072573397091 -0.00010466492356 -0.00073586836453 0.00016936847236 -0.0060622303731 
-0.0070919984879 0.00011643611837 -0.00016639713056 0.00031968132005 -0.01517904565 -0.015088046766 -0.015510335431 0.00031157915384 3.1651099811e-05 
-0.00032431423881 0.00033355252248 6.8234862143e-07 -4.9578115779e-05 -0.0036733744634 -0.0075838147977 0.00044000662155 -0.00050160550728 -0.018565753934 
-0.027653587128 -0.020543852083 -0.010340822283 -0.0022981970224 1.8763188381e-06 -0.00033404943302 -2.8576504266e-05 -0.0038768088127 -0.0019271898865 
0.00011064249628 -0.0006294815011 0.00024864900926 -0.0010230748609 -0.00029939267481 0.00076270192046 1.0982611363e-05 -0.0020574711895 -0.0059552546285 
-0.0044939112353 -0.0047412269208 -0.0048725173703 -0.0024916404847 -0.0028368734215 -0.0017070434772 -0.0020350225334 -0.0021832342988 -0.0010232973357 
-0.0013170801387 -0.0013869463057 -0.0005404193096 -0.00075842311608 -0.00076951971248 -0.00019905449239 -0.00037817766581 -0.000359287933 7.5502758113e-07 
-8.760576401e-05 -7.4740838968e-05 2.9436189377e-06 -1.0073397539e-05 1.3320186409e-05 1.9037723443e-06 -7.0461730115e-06 4.9045240284e-06 -0.0063662160391 
-0.005099657968 0.00010576313399 4.7890311581e-05 2.3731842743e-05 7.2578501609e-05 5.9615310943e-06 9.1890739895e-05 -8.3259226709e-05 3.2376161338e-05 
8.2975318395e-05 -6.2949367131e-05 2.4430475623e-05 1.7891930239e-05 -2.6208610419e-05 -3.3054047139e-07 1.3177800619e-05 7.9523177525e-06 -6.3842537068e-06 
1.9164760945e-05 -1.7830791814e-05 -0.0010316304752 -0.00047254623243 -0.00020041711958 -0.0022828100266 -0.0016651286429 -0.0016610004829 -0.0033877412427 
-0.0028927087858 -0.0031843209436 -0.0040910109525 -0.0039329006367 -0.0044881723106 -0.0041075865904 -0.0042499220561 -0.005222480562 -0.0037125528942 
-0.0039766557323 -0.0050355912615 -0.0033532111012 -0.003593069729 -0.0043595662651 -0.002424640517 -0.0026197830222 -0.00051643457573 -0.00030064353105 
-0.00016974705383 0.00087871495582 -0.00033350323238 -0.00014129979352 1.0936746504e-05 -0.0037378747539 -0.0022222607746 -0.0021178882683 -0.0045399308961 
-0.0043956846601 -0.0053658072503 -0.0044245479295 -0.0046912661752 -0.0057614130564 -0.0037458825195 -0.0041875693696 -0.0053812620051 -0.0030341740257 
-0.0034247169121 -0.0044820404482 -0.0013770593166 -0.0073005426546 5.3803720263e-05 0.00011263564843 -0.00011342107807 -0.0023290635637 -6.9249969222e-05 
-7.1968707722e-05 -0.0041227569828 -0.0043542668581 -0.0048258816352 -0.0069067881886 -0.0080015265148 7.0683059938e-05 0.00022725379191 -0.012347018006 
-0.022386732725 -0.022513361525 0.00042833404813 -0.00087479855009 0.00037132211757 -0.00034524301517 -1.6419248246e-05 -0.00020473831759 0.00015956118103 
-0.018508976909 -0.020580932679 -0.017181358737 -3.9011119018e-05 -8.1632852304e-05 7.3510289012e-05 -0.0025243520437 0.00072983650904 0.00032528596332 
-7.1870827432e-05 -0.00011604029275 9.9089589839e-05 -2.0133837624e-05 -0.00013115004523 0.00014455940284 -8.3794119133e-05 -5.0523007762e-05 0.00012153294354 
-7.1393644597e-05 -1.9495389228e-05 0.00015262940589 -4.442656986e-05 -8.4447370205e-05 0.00014278667151 -5.2164099732e-05 -0.00015709368182 0.00017254821932 
-0.00017358711784 -0.00016581029122 0.0002412095075 -0.00025384812055 -9.3073774822e-05 0.00033902605804 -0.00014328675942 -0.00010474453766 0.0003879378385 
-0.0019651588327 -0.00035264109766 -9.5652876228e-05 -0.0042212994544 7.9096073753e-06 5.257271596e-05 2.5726030151e-05 -9.2056135704e-05 -0.021503554296 
-0.020718047821 -0.019292434405 -0.019731904363 -0.018444800035 -0.018222515014 -0.017329247813 -0.015656595739 -0.016591125029 -0.014291540293 
-0.012534055678 -0.014646564716 -0.011157572541 -0.0093864400305 -0.012213783295 -0.0083691345229 -0.0069025040006 -0.010163974663 -0.0060423350813 
-0.0048042038348 -0.0085001461755 -0.0053560185504 -0.0048166714831 -0.0069261753041 -0.0047445394092 -0.0035109711864 -0.0033903347493 -0.0060335220662 
-0.017606624666 -0.016557719337 -0.015600251634 -0.013711665715 -0.013748254167 -0.015491143576 -0.018165904593 -0.0081240409635 -0.013259996214 
-0.009963411522 0.00022524331292 -0.00031194301802 -0.0077089526392 -0.0070929898828 -0.0181502592 -0.01851329512 -0.014176545687 -0.0065193130145 
-0.0048490568061 -0.0033513388911 -0.0036417131433 -0.0040075828548 -0.0030781037703 -0.01077007887 -0.0029323286423 -0.0030083836571 -0.0031326941423 
-0.0018226618676 -0.0054004674049 -0.0050901684371 -0.0050748923896 -0.0018668205387 -0.00016011278434 1.90222922e-05 0.00028131312196 -0.0053837167246 
-0.003973233737 0.00013875022762 3.7656409534e-05 -2.7283743104e-05 -0.00025473812048 -7.2535746155e-05 2.6637748167e-05 0.00012284674242 -0.00014624387862 
-3.5353126053e-05 -0.00026022091165 -0.0034518560796 -0.0025781680425 -0.0023173775911 -0.0037511448907 -0.00015863494699 0.00027444689495 -0.0001211179898 
-0.0067032777523 -0.01335849054 -0.0027373830193 -0.0035773419557 -0.0025515714859 -0.00010991231329 2.6520968439e-07 0.0003430003336 -0.0089558421488 
-0.007856776331 -0.0039648580085 -0.0057671497585 -0.0056018252388 -0.0038176053066 4.3004001726e-06 -8.9723950726e-06 3.9546894041e-05 9.3626846228e-05 
-0.00063650107569 -0.011105110693 -0.0081437693071 -0.0069042472753 6.8903572599e-05 -0.0011424673799 -0.00022093422605 -6.7885726689e-05 -0.00013362330018 
0.0004562940135 -0.00050686294734 -0.0049104762148 -0.0047155018267 -0.0054607035575 -0.0072366885611 -0.0087860672494 -0.013310955584 -0.0090593938542 
-0.0075888998166 -0.0065714210093 7.6617446054e-05 -6.2907851926e-05 -7.4134273173e-05 0.00013917745284 0.00014454062417 0.00014246137485 -0.012769107911 
-0.014531317938 -0.012245509128 -8.1751995546e-05 0.00025023162647 -0.00016252316972 -3.0563849193e-05 0.00032613291768 -0.0048220997679 -0.0041420379433 
-0.0036960038007 -0.00057681133004 -0.014770620144 -0.00018616976813 -0.00097624278101 0.00015493089969 -0.00029121460909 1.7057088693e-05 -0.017030729511 
0.00040943344296 -0.00057737347971 -9.6605186151e-05 4.7645832882e-05 -0.012990254939 0.0007454065049 -0.011064928161 -0.011761364843 -0.010207695359 
3.269197274e-06 0.00027952569122 -0.0018930764264 -0.0022995106588 -0.00016891936942 -0.00035020896241 1.6440667332e-07 -0.00010570952816 -3.6585507505e-05 
-2.4283464908e-05 1.4334467848e-05 -6.5327463731e-06 4.1029014587e-05 -0.0078108937993 -0.0059853444085 -9.8400880422e-05 -0.008652365883 -0.010899408044 
0.00010880316856 -0.00047699520405 -0.0026048389771 1.6171348906e-05 3.6269514467e-05 2.6184297995e-05 -1.1951383761e-05 -3.6597884752e-06 5.1829255781e-05 
2.3779146215e-06 -1.4424735886e-05 3.0891479276e-05 -6.6000816479e-07 -0.0006847703291 -1.7757244564e-07 3.1717041769e-05 -0.0026599225072 -0.0016065332805 
-0.0013495565969 -0.0047689083771 -0.003716411391 -0.0038281121386 -0.0066875669363 -0.005993731452 -0.0065461395444 -0.0070060389301 -0.0071381919424 
-0.0047822452104 -0.0052750834718 5.4721785623e-05 9.1581983308e-06 7.5142009268e-06 -0.00087261315935 -0.00059827938855 -0.00013505712786 -0.0069836272949 
-0.0066475689136 -0.0068219764674 -0.0071651031635 -0.0085121189774 -0.0057712651571 -0.0063843644438 -0.0078773628901 -0.0046923034377 -0.005186408446 
-0.0064617369552 -0.0035018605758 -0.0030991106137 -0.0049697029027 -0.005225921835 -6.0695464397e-06 -0.00014946621655 9.717765351e-05 -0.00028185392574 
8.3034753008e-05 -0.0023200019338 -5.7085382027e-05 -6.407635532e-05 0.00018870854563 0.00044284131941 -0.00049390900311 0.00061918022958 -0.01307545246 
-0.014978794642 -0.0093001811119 -1.8175665844e-05 -0.00017203149773 0.00015654515589 -0.0058671810578 3.7578282117e-05 -7.0693115254e-05 4.1981423573e-05 
-0.0041068562849 4.2705147995e-05 1.253163979e-05 7.2578464231e-05 -2.6462813256e-05 -5.7532421131e-05 -0.00014111211361 0.00025244371216 -5.6739610707e-05 
-0.00011541965864 0.00019909643966 -7.5735675138e-05 -0.00014734338906 0.00013823641606 -9.2684281341e-05 -0.00019773350184 0.00015455912817 -0.00032382132955 
-0.00018210729546 0.00029484744459 -0.00036355137298 -9.5646866158e-05 0.00033910368326 -0.00053097644791 0.00089450749262 -0.00018141206131 0.00056441659641 
-0.00029581958959 -0.00073604017456 0.00035126113124 -0.00035118603773 -0.00054872300637 -0.00078308952369 -0.00029695428098 -0.0011343376003 -0.001475689172 
-0.00080127043317 -0.0030519837987 -0.01430704502 -0.013853235602 -0.013705781174 -0.012806771699 -0.012649864972 -0.011985192126 -0.010804219593 
-0.012190749842 -0.01030212961 -0.0093217515373 -0.010732232847 -0.010802731259 -0.010477631717 8.6722398228e-05 0.00028450771922 -0.0005186972381 
-6.7294470835e-05 -0.0064263871024 -0.009368293678 -0.009407338987 -0.0093727692186 -0.010190591264 -0.01148552392 -0.0070684281901 -0.0020237048642 
0.00029487358827 0.00018894369241 -0.0001091129519 -8.3423140488e-06 -0.0015365111571 5.7608825837e-06 -1.0633216907e-05 -0.0062708567818 -0.0042214590878 
-0.0019352415259 -1.6498225071e-07 -0.00064446550746 0.00025711939924 -5.7476489195e-05 -0.0030976245091 -0.0058018752992 -0.0064338155811 -0.0046854749514 
-0.0071585639416 -0.0056115133355 -0.0057699362366 -0.0059499274955 9.6250715823e-06 -0.0024326518401 -0.0033619409721 -0.0044958330124 -0.0040367356689 
-0.0049335353326 -0.004213421915 -0.0035993664811 -0.0066610821179 -0.0037032585755 -1.4097819121e-05 5.6064276159e-05 -4.9487222064e-05 -0.005366155329 
-2.1724130062e-05 1.1022306669e-05 -0.011964293416 -2.8787699298e-05 -5.4812664541e-05 -0.00023737890731 -0.0060776800394 -0.0060364572425 -0.0064769998349 
-0.00021201886713 5.7368001899e-07 -0.0084183159069 -0.0086329910889 3.4976675911e-05 -0.0025666855938 -0.0028989447767 -0.0032942119277 0.0003899023769 
-0.0061892412244 -0.00030855037971 -0.0032609820944 -0.0028253249203 5.8810618877e-05 -0.014746152657 -0.015112626759 -0.013103127162 -0.015404617448 
-0.011647112 -0.0088844506142 -0.0069692821984 -0.01153930442 -0.007857070755 -0.0075570186175 -0.012298854679 -3.5529723552e-05 -0.008974254919 
-0.0091982730757 -0.0086186578025 -4.7026753743e-05 -0.010073257659 -0.010102482594 -0.010440588826 -0.01177088706 -0.0095225237712 -0.0076094167155 
-0.0039495506898 -0.0042836743616 -0.0036911493349 -0.004927399379 7.4981033747e-05 -0.00018061819796 -8.8808752241e-05 1.4103848852e-06 -1.5785459992e-05 
-6.3939988662e-05 3.7247759876e-05 0.00016845482251 -0.0086183537617 -0.0067961742433 -0.0093689988417 6.7276193231e-06 -0.010892450968 -0.0089921856559 
-3.1735986021e-05 -0.00011588967738 -0.0050103301117 -0.0054306513642 4.1866925523e-05 6.6283015494e-05 -6.9840327031e-05 -8.6395140336e-05 0.00017182652949 
-7.8740650587e-05 -5.6741380619e-05 7.0755530792e-05 -6.8307875287e-05 -0.00020341548038 0.0001789679525 -0.00013036665814 -0.00010852027581 0.00013352789103 
0.00014716758445 -0.00064242832548 -0.00092668953015 -0.0013740055218 -0.00036774653059 0.00048582221006 0.00019514088949 -9.5827159757e-05 -0.00018707645496 
-0.007239015879 -0.0054277420188 -0.0038288608327 -0.006628327113 -0.00030024778547 0.00034441350608 -0.0099658785884 -0.010630241676 -6.3907557448e-05 
-5.322725489e-06 -9.3970638577e-05 -0.010180939979 -0.00011866764287 -0.00011285762732 -0.00014860267273 -0.00010969471188 7.0834102841e-05 0.00012114022514 
-0.0038574238007 -0.0052642424594 -0.003947994968 -0.0073059555957 -0.0011761815492 -0.00054162189063 -2.4549198735e-05 -2.7461834641e-05 1.7374678056e-05 
4.5748362231e-05 -0.001195440437 -0.0018153687549 0.00052102678005 -0.00044162164122 -0.0026890248627 0.00057571899859 0.00017635508489 0.0002901955821 
-0.00027154131474 -0.0077362977062 -0.0085656804041 -0.010167278751 -0.0079780371994 -0.0067542399587 -0.0020924933924 -0.0018616154266 -0.0037748784589 
-0.0043898821447 -0.0032262142457 -0.003009830238 -4.5212987776e-05 0.00010238889456 1.068721389e-05 -4.2234362921e-05 -4.8959615098e-06 -3.4057759271e-05 
-2.4408703032e-05 0.00012955063234 -0.00031941536757 -7.090981397e-05 -8.5867486485e-05 -0.00026989847422 -0.001724472297 -0.010664117249 -5.3925690164e-05 
2.540666685e-05 -0.011193511509 -0.00011030164751 -0.00028179187145 -0.00052632987861 -0.0011150471776 -0.00071737142003 0.00010623102745 -6.4172414922e-05 
-1.088096894e-05 -0.011241534157 -0.010934962839 0.00019616504658 -0.00028034560262 -0.0019591263342 -6.4648759509e-05 -0.00021651781901 -0.00010592812003 
-0.0012390286077 -0.0016372951995 -0.0071360026681 -0.007953629115 -0.0011591460302 -0.0033076930017 -0.0064405020488 -0.0068659538563 -4.3152705527e-05 
-0.0025738234112 -0.0026120518676 -0.0066174085007 7.4779777451e-06 -4.0928219781e-05 6.4929406874e-05 -0.0002119198147 -0.0071699604121 -0.0081712601283 
0.0001587880979 -0.0002503876691 -0.0028546714292 -0.002705936704 -0.0037348006626 -0.0046219427658 -0.0088897602558 -0.004662416713 -0.0060502177908 
-3.7587428683e-05 1.1854223944e-05 -0.010112276677 1.2958172204e-05 -9.6212403538e-05 -0.0053907420706 1.1751780594e-05 -0.0001683754524 -5.9757044089e-05 
0.00014823366186 -4.4562110885e-06 0.049245296838 -0.055699468396 -8.3532026229e-06 -9.1510354713e-06 -9.1164016142e-06 -5.8823625878e-06 -9.2362895183e-06 
-6.6789204976e-06 -1.3483248226e-05 -1.0140565333e-05 -1.7488713825e-05 -6.0737409093e-06 -0.00077095355176 -0.00098651929652 -0.0020674208292 -0.0013143595676 
-0.002231493557 -0.0035152701479 -0.0049745735632 -0.0062685893771 -0.0091502654584 -0.00047437380703 -0.00045395438834 -1.1162130917e-05 -1.4737327382e-05 
-6.826218606e-05 -0.00020930683007 -0.00020029989547 -0.00027617820435 -0.00030214988739 -1.235969117e-05 -0.00010222479318 -3.1167325551e-05 -9.8641072422e-06 
-2.7457709168e-05 -1.6030235363e-05 -2.1747341402e-05 -3.6854342264e-05 -3.9553622186e-05 -4.8203638523e-05 -0.00029801618931 -0.00027363141986 -0.00038258982029 
0.044637983741 -2.2984392372e-05 -2.9525512107e-06 -0.059388295348 -0.0022912772822 -0.00389730426 -0.0045014513836 -0.0018295629548 -0.0011897299181 
-0.0010153032381 -0.00057680011423 -0.00067620190628 -0.00014840336489 -0.00025240940801 -0.00029156302397 -0.00021259416836 -9.5566721974e-05 -9.3856789524e-05 
-8.2633079491e-05 -9.7742744459e-05 -2.5533392498e-05 -1.813710405e-05 -3.9007429288e-05 -4.3605784032e-05 -2.0779581879e-05 2.3380892201e-06 3.8060758968e-05 
3.5067997224e-06 1.0417304945e-05 1.6652744479e-05 6.9440663186e-06 3.7037299046e-05 4.8562387656e-06 8.2509231574e-05 0.0001039132619 2.0696054911e-05 
4.3017902045e-05 3.350692555e-05 3.1568877938e-05 5.9428190284e-05 2.8453266525e-05 0.00015460266044 9.4199115711e-05 -8.8243837645e-06 -2.0907955832e-05 
-7.2018658847e-05 -0.00021707628028 -0.00025412155365 -0.00035173852666 -0.00050026636584 -0.00048588253029 -0.00027970085151 -0.00022863751902 -0.00015573420006 
-5.5657244768e-05 -3.082012927e-05 9.5887229228e-06 2.3170406142e-05 1.6878100687e-05 5.3351432627e-05 1.5094798101e-05 0.00010016329197 8.3127028103e-05 
1.5108113799e-05 3.5717356961e-05 1.9895778175e-05 1.5548027854e-05 4.8999074773e-05 -6.3712977912e-06 3.3654816189e-05 -6.5937292516e-06 8.2291992583e-06 
-0.0001722738503 -0.00013302039289 -3.166414706e-05 -2.2902692811e-05 -0.00017133130558 -4.0252018743e-05 -3.8415112626e-07 1.0977325473e-05 1.6376760747e-05 
-0.00027621224723 6.6583085845e-06 -4.9927905226e-06 -1.5718332371e-05 -2.9944480077e-06 8.1141637714e-06 3.8678951051e-05 -0.00040824374223 -0.00099498732506 
-0.0015745824874 -0.0023689835786 -0.0029739945572 -0.0037289874111 -0.0048258337668 -0.0053373605341 -0.0057238003875 -0.0060032500365 -0.0061234703866 
-0.0061421116861 -0.0060097809071 -0.005861428228 -0.0052165353302 -0.0046820022567 -0.0042758439953 -0.003672334494 -0.0031465442356 -0.0024644771711 
-0.0019569653316 -0.0013557997918 -0.00046441604436 -7.4870069865e-06 2.1867318585e-05 6.7962652623e-06 5.3136003811e-06 2.0538377059e-05 4.944473022e-07 
1.3634787631e-05 8.9228638206e-06 -5.5675119667e-07 8.9455273168e-06 1.3182263412e-06 1.2947982045e-06 7.005058569e-07 4.7926433128e-07 -3.776809061e-06 
8.2009132137e-07 -8.9177913052e-06 -9.6084681425e-05 -0.0042700469417 -0.0055556749115 -0.00091921744707 2.471998639e-06 -0.041573796132 -0.0040967601755 
-0.046438621383 -0.012018276892 -0.018388355427 -0.0066452851989 -0.0054841222042 -0.00079181444024 0.0041868913449 -0.0027800105776 -0.0013772735479 
-0.0052155216185 0.0031983704289 0.00084904651261 0.0043619710082 0.0021442614021 -3.644101334e-05 -0.0042264801985 -0.0036074240311 -0.0019861129039 
-0.0013541044961 0.0026711763971 0.0073878219989 -0.023818150018 -0.034215929405 0.0049613278868 -0.00021201769019 0.029576673459 -0.015497618317 
-0.006207222589 -0.011474504066 -0.0031798501279 -0.0029017373385 0.0018601904773 -0.00015166717412 0.00013296485987 -0.0056454172626 0.0035921620136 
-0.0014137543837 -0.0019299650582 0.0024714569659 0.0042170081058 0.0036854628497 0.0037401257771 -0.0043577372752 -0.0034786527512 -0.0046017991774 
-0.0034610278057 -0.011424980104 -0.020550629587 0.033889604103 -0.0047019579319 0.011766966589 -0.11991965417 -0.007657696251 -0.043466325038 
0.01766643701 -7.877666158e-05 0.020556523928 -0.00209853438 0.0055147970549 -0.00059762758034 0.006168918599 0.00010006130731 0.0012872613656 
-0.00083565794815 -0.002322248694 -0.0019219739315 -0.0029951925027 -0.0032503731473 -0.0036586545305 -0.00039294489481 -0.002831906517 -0.0036936681955 
0.0037868144897 -0.0016971574635 -0.0066467796755 -0.00057173412894 -0.021134081956 0.0072695747626 -0.0052731718673 -0.10439825067 0.0064275451429 
-0.010309407717 -0.011735058569 -0.040040968043 -0.093503821167 -0.020222053457 -0.0046670132557 -0.013259137103 -0.010798182085 -0.010510311828 
-0.011856492145 -0.0073313509427 -0.011147015709 -0.010069751824 -0.011431466959 -0.050570911132 -0.0056779900584 -0.0093639048543 -0.011080944029 
-0.015716268614 -0.010139315796 -0.012618141297 -0.010227701597 -0.027642980508 -0.012458188234 -0.0099258558403 -0.011662408122 -0.0010306677065 
-0.00080244273993 -0.0013062227087 -0.0010541476168 -0.0011421484637 -0.0016010526427 -0.0012535633969 -0.011869348265 -0.0011805996254 -0.0012650208794 
-0.00082327189109 -0.00085163496081 0.00026694991916 -0.00019898984754 0.00030013128583 -0.0075801982328 0.00018318049607 1.967913079e-05 0.00055429719795 
0.0025921664409 -0.0066849995724 -0.011239684105 6.7173486769e-05 3.4025697856e-05 -4.4901105038e-05 -0.0011394370299 -0.00054240499536 -0.00045830093066 
-0.028517088477 -0.053151428354 -0.025618318597 -0.0026066772649 -0.0029029254857 -0.002352374595 0.010223579739 -0.016579002963 0.0093746696804 
-0.0033356560772 -0.0038044224701 -0.0038758643954 0.022876792282 0.027342095551 3.1046502885e-07 -4.8313806045e-07 -2.6533207643e-06 0.00094914875532 
0.0007563171098 -0.0047253067169 -0.021868247666 0.017695981547 -2.4395750949e-07 -0.0020867789351 -0.0021346951217 -0.0016256128894 -0.0016520698251 
-0.016778911659 -0.014675184257 0.027886241038 0.030178567809 6.8362276233e-06 7.8247415254e-06 2.9559477431e-05 -6.9053636256e-06 -0.0011804651437 
-0.0016353544111 -0.0017727058814 -0.0073162495518 -0.0078188139568 -0.0075487342517 -0.0084569382522 0.00086520895194 -0.00047317136386 0.00049704302805 
-0.00015678389391 -5.3529538594e-05 2.4059106201e-05 1.5295246137e-05 -2.2411990162e-05 -0.017105093615 -0.014763374597 -0.014543112832 8.4702064227e-05 
3.7633043473e-06 -3.7523205173e-05 0.0041149879913 -0.0052228425911 0.00015028598832 -0.012357928798 -0.011967540464 -0.012200114901 -0.00093353953071 
-0.0018000767811 -0.0022493119787 -0.0036352173202 5.7040982011e-06 -2.6780919776e-06 -2.471426446e-06 -0.0050119142965 -0.007565746957 -0.0043799508949 
-0.0064045690833 -0.0082756058475 -0.008366801741 -0.010329350114 -0.0099045670081 -9.5877207565e-06 1.2261252947e-05 -5.1228255273e-06 -7.1667963613e-09 
-0.0041044065453 -0.0040664350865 -0.0046395993757 -0.013016139034 -0.015781193123 -0.014057233381 0.00018146138803 -0.00012499940837 -3.2189223881e-06 
-0.010201225384 -0.004888709008 -0.0059817020995 -0.0044109822352 -0.0046831667609 -0.004888058122 -0.0048635057494 -0.00025707780315 0.0001153759651 
0.00045133042125 -0.0024924435409 -0.0026302177501 -0.0029212091298 -0.0030125384505 -0.0063270549299 -0.0060509387763 -0.0056864797529 -1.5720623529e-06 
1.2049583402e-05 1.8107146792e-05 1.3914293802e-05 -1.2349368052e-05 -0.00017748309611 -2.785682305e-05 0.00016738732578 -6.5467622427e-05 -3.3704424461e-05 
-1.0805840298e-05 -0.00026379927744 -8.9953163177e-06 -0.045942635322 -0.0038770190283 -0.0021310982466 -0.010476311851 -0.015221208402 -0.0099472929555 
-0.013179874923 -0.0096877744526 -0.0036470138577 -0.0036460161475 -0.0040034861123 -3.5132000761e-06 -0.00083885735195 0.00072256377244 -0.010131034885 
-0.046224197617 -0.026242434728 -0.00032393252616 -1.0207160621e-05 1.3924204908e-05 8.3565484721e-06 -0.0027927962198 -0.002088867898 -0.0028019009755 
-0.0022035993232 -0.0022893586726 -0.0027135657026 -0.0025820192145 -0.0094488688842 0.031695632768 -0.0022271323096 -0.027457133357 -0.021898170276 
-0.019454833429 -0.0022219096687 -0.002480877273 -0.002782687249 4.2826542069e-05 1.3489068678e-06 -1.2358422164e-05 -1.4355759728e-05 -0.00029326350097 
-0.00033116293199 -0.00021949771639 -0.023476354663 -0.028207456562 -0.022563092552 -0.027280098662 0.00031457647452 4.0712361565e-05 -0.00014681207174 
-0.00037031309103 -0.00017966127923 -0.0070369571236 -0.0058524849745 -0.0077318212568 -0.0064188201949 -2.5559734347e-05 -1.4951912522e-05 0.0001327001231 
-5.9779573499e-05 -1.0928311368e-05 -1.6041703111e-05 7.0208240517e-06 -0.00482738177 -0.0046406038953 -0.0047958653442 -0.0045291741885 -0.0056056653514 
-0.0059010340614 0.0050687300618 -0.011008819215 0.0038498966226 0.0041111359772 -0.010822928763 -0.0056124396437 -0.0085620193658 -0.0074572104235 
-0.0070516652315 -0.0060753860959 -4.5033033657e-06 -2.7231647132e-05 -5.2071267391e-05 0.00010322749266 1.7973568348e-06 -0.0010308649761 -0.0027133322579 
-0.0018556698506 -5.6361361221e-07 -1.6834456486e-06 -4.3517975649e-06 -0.0054770302662 -1.3470923795e-05 -0.0018454978476 -0.0030066518223 -0.0408241183 
-0.0027505355285 -0.0024208245458 -0.0027601977915 -0.069897331069 -0.047962153909 -0.017935263792 -0.0038152669728 -0.0035734683939 -0.0036724291685 
-0.0008188882469 -0.0004867423186 -0.0010104402186 -7.9500192883e-05 -1.4574261495e-05 0.00012438299593 -5.4401830899e-05 1.4846535579e-05 3.3500474337e-05 
2.3404379241e-05 -0.00011919348274 -0.00016295019248 3.3937872835e-05 -6.2433921087e-05 0.00010718354107 -0.00516223169 -0.0059289208339 -0.0049202568444 
-0.0011785608522 -0.0012846314912 -0.0018218989134 -0.014634539959 -0.022791472045 -0.017760712687 -0.00014060321119 1.2462441938e-06 1.1103723869e-06 
-1.0187782582e-06 -8.0567751836e-07 -0.0052815989561 -0.0044881887083 -0.0050123087118 -3.285851541e-06 1.9175561121e-06 -1.8092089309e-06 3.6015595929e-06 
-0.0024527595446 -0.0028198176373 -0.0050258658924 -0.0018415428175 -0.0021878540039 -5.5130714418e-05 -4.7436986254e-05 3.4494939426e-05 -2.168800017e-05 
0.00012594889268 -5.3048686362e-05 -2.9008420716e-05 0.00010922261688 -0.0035056824332 -0.0032772431574 -0.0025572258652 -0.0023811996414 -4.6816722993e-05 
0.00083385264565 -0.013650038138 -0.017983155483 -0.015809498797 7.6565229734e-05 0.00013245045738 -1.0548841494e-05 0.00029491813533 -0.014831407449 
-0.010000873865 -0.014426993234 -0.018580591262 -3.9437245773e-06 1.1783581821e-05 -3.0273521026e-05 0.00025826723276 -0.00034964582756 -5.2568456559e-05 
-0.010178717967 -0.012774448452 -0.0094860759645 -0.011536011378 5.9458947204e-07 -0.012402286302 -0.01558033766 -0.013278025516 3.0333011341e-06 
1.143472522e-06 -6.3868551697e-06 -7.3812395633e-08 -1.1094778644e-05 -0.001375098797 -0.0019537889144 -0.0021143217212 0.00011094587639 -0.068748366463 
-0.001319456122 -0.0011935914831 -0.0010122169272 -3.6620937397e-06 -1.1625026951e-06 -0.0026762026742 -0.001940190637 -0.002751986998 0.00021643993955 
2.9418109907e-05 2.9835686119e-05 -0.034998451056 -0.04026195419 -0.044568328002 4.1886219143e-06 2.9099310792e-06 -1.6505565465e-05 -1.4971141272e-07 
-0.0004168094312 0.00014083452232 -0.00018532769565 -0.049956377301 -8.4324711442e-06 3.5918617638e-05 -0.0038134382399 -0.0057407407986 -0.0059916022223 
-0.021037637098 -0.019600306332 -0.023552118296 -0.04995747093 -0.042723399782 -0.044243087525 6.4411880707e-05 9.4757413177e-05 -7.1641954105e-06 
0.0060066440957 -4.585036757e-05 -0.0078315257014 -0.006001539457 -0.005967564601 -0.036442640251 0.028740567058 -0.0083903805896 0.033705838493 
-0.0017420482571 -0.001370872776 -0.0015824011153 -0.000974362714 0.0002512130261 -0.00019497407351 9.7993826347e-05 -6.5670488067e-06 0.00020300190618 
0.00098001440421 -0.00014305367361 1.5010089627e-05 3.0893947845e-05 -1.1153060551e-05 6.8170681337e-05 -0.00031214705529 -0.0022024736621 -0.0017996401816 
-4.8598066358e-05 -0.0002249512395 -0.00052448315571 -0.00047036333151 -0.0030450654633 -0.0047655220409 -0.00025748608477 -0.00051262912042 0.000553176324 
0.0001592083963 0.00021830490726 -0.00023968388659 -0.0019635130485 -0.0022403262393 -0.0019710302318 5.1168315633e-06 -0.0011384509761 -0.0013687730428 
-0.00086945801802 -0.012857842343 -0.011736877396 -0.0091655715408 0.0082417355477 -0.0027182704474 -0.0024469172882 -0.00031203325133 -1.8374727209e-05 
7.9363213726e-05 -0.0046778729603 -0.0048249469008 0.008930424895 0.016316522393 -0.0032712079363 -0.0038232810969 0.00021839656613 1.972331729e-05 
0.00018744891896 -9.5274452374e-06 -0.00014954193349 -8.2090578117e-05 -0.0025921316577 -0.0019831811141 -0.0024466896787 -3.0026891815e-06 -1.0704817344e-06 
-6.2463895368e-06 -0.0047375077953 -0.0045422057714 -0.0048763800517 0.0010946980422 -0.0029342872958 0.0019181111939 -0.0010413076273 2.9427114114e-07 
-3.6886071649e-06 -1.3035107218e-05 1.719302887e-05 -0.034571721585 -0.024196091769 0.0030988096429 6.674536944e-06 5.8421958063e-05 -5.2733792381e-05 
-0.00010468950274 0.0001633225456 -9.1336934983e-05 6.4666287452e-05 -0.00012572497927 2.9886159799e-05 -5.4264162644e-05 -3.3611220547e-06 -6.9735250396e-07 
-0.00012152496599 0.00014034350623 4.3837226736e-05 -5.0863120025e-05 -0.0087760661693 0.00041781159818 -0.015156377004 0.0012112396367 -0.0036824279567 
-4.1383508451e-05 8.2217524253e-06 -6.6594601118e-07 2.4236427962e-05 -3.4131183656e-05 -4.9841955775e-06 -2.8270354196e-06 -1.1165184867e-05 8.518867985e-06 
-2.9473903108e-05 -0.0033313626973 -0.0031778486647 -0.0035463467339 -0.00091099543408 -0.00066312897435 -0.00086053469255 0.00010616344317 -6.9917205318e-05 
-1.2084899746e-05 1.1975154549e-05 -0.002070081372 -0.00085153228598 0.00011327395865 0.00016707474708 -0.0013840220218 -0.0019554704705 -0.0012716530447 
1.5917036687e-05 1.3935260525e-05 -7.3642595953e-06 -0.00013879751565 -4.4149247261e-05 -1.7092255215e-06 -0.006022317074 -0.0067829969255 -0.0066135639645 
-0.0046250388273 -1.9140932228e-05 7.4153350437e-05 7.3846114124e-05 -4.6739755319e-05 -0.00022570842118 -3.5197294154e-05 7.3284214528e-06 -0.0061123324868 
-0.006137482721 -0.0047837713178 -0.01120003465 -0.010789765496 -0.0090600427668 8.3232876176e-05 -3.9882277024e-05 -0.00013141658414 2.0656260859e-05 
-0.0035312206272 -0.0033597091974 -0.015842718918 -0.01251230403 -0.019143920599 -0.00015821555157 -2.4888259528e-05 8.7878602319e-05 -0.00015384728657 
-2.5996247568e-05 -0.00011188358678 -0.0020742697525 -0.0018793891695 -0.0007468262945 -0.00030050427826 1.000324368e-05 5.3164144022e-05 -0.00013170336946 
0.00025302514455 -0.0007355596368 -0.001725269622 -0.0015616432555 -0.00024359721769 -0.001501497525 1.1793704971e-06 -3.5603981161e-05 -0.0011239126601 
-0.0011869448677 -0.00083810852534 -0.0096127485951 -0.010466378085 -0.0066484207299 1.6537153453e-07 -5.6948119398e-06 7.2869657242e-07 -0.016933539233 
-0.015319696655 -0.016559028922 -0.014842032418 -0.0042274860334 -0.0083135402121 -0.0064831697633 -2.018364679e-06 7.3504622256e-07 -2.1696437414e-06 
-1.0515231021e-06 -0.0078262111643 0.0078515871454 0.0021015904871 -0.0041575203585 -0.0051219641087 -0.0052678298039 -0.0082394255883 -0.01070775153 
-0.010424182297 -0.0042604640293 -0.0045187254025 -0.0046491150168 -0.0048439565015 -0.00041877379246 -0.014311243922 -0.016276774957 -0.013286880604 
-0.062746424762 -0.011828735506 -0.012997704965 -0.00077588449239 -0.0021443476388 -0.00097193061304 -3.3893370442e-06 -0.00019509641795 -0.00087938874949 
-0.00037435862381 -0.00098432592104 -0.00037620643596 -0.014510820247 0.00010883227136 -5.2540634694e-05 4.7587704793e-05 0.00019821101416 0.00024466511732 
-0.00036279005876 -1.9763135521e-05 0.00033103313899 -5.0438710398e-05 -0.018632030461 -0.022036150912 -0.021500128208 -0.0020875423254 -0.0077019963352 
-0.0092567717791 -1.274156766e-05 -0.010052431571 -0.0031775269077 -0.0061990919164 -0.00048885647782 -0.0028319843578 -1.2468757584e-05 9.5976012282e-05 
-0.0032576079558 2.5372955499e-05 -0.0015857307224 -0.0019051439521 -0.0011990195692 -0.0014764478068 4.6897078075e-06 1.8830444055e-05 -0.038374117611 
-0.042463140265 -0.038468200034 -0.0025045403258 -0.0030784176808 -0.0022728434221 -0.0028388271842 -0.0053095598215 -0.0077261228706 -0.0031684341286 
-0.0026518259185 -0.013846780231 -0.05417592794 -0.058560530078 -0.0030816579631 -0.00151058991 -0.0014510958725 -0.0010755561769 -0.0020136119786 
-4.0493320876e-06 1.5794354996e-06 2.1322522717e-06 -1.0689047874e-05 -0.013731968587 0.0013216057796 -0.0067426462742 -0.025820845258 0.01349304841 
-0.00088634974022 -0.016870780233 -0.015031335891 -0.017483199857 6.0446971169e-05 0.00011227277059 6.9675059572e-06 -8.5111620075e-06 6.6445714171e-05 
3.2216992761e-06 3.5589036045e-05 -1.6523574465e-05 6.7008744504e-05 4.7315872182e-05 5.302116475e-05 0.00027542932525 -2.082068349e-05 -0.00020016160937 
5.4809800897e-06 5.8848745053e-06 -0.00011420349681 -0.00017612878999 -6.7750920453e-05 -0.0015336491207 -0.00070795923333 0.0066510921595 -0.0022390128796 
-0.0033918056706 -2.6703271887e-05 -0.00011105153759 0.00010623666742 -1.8331038769e-05 6.6605408883e-05 4.0074194309e-05 -2.3210678834e-05 -9.0055589172e-05 
-1.616160837e-05 -0.0065735686408 -0.0087140035394 -0.0075630856748 -0.0049968904623 -0.004672600224 -0.0048219529371 -0.00015362859889 0.0002234250923 
1.6952605077e-05 1.827866601e-06 -0.0023853763794 0.00012406869584 -0.0014904676972 -0.0017111528008 -0.00069416964823 -0.0033687515671 -0.0043034082185 
-0.0030331043371 -0.0040471058964 -0.0092009593815 -0.010515267925 -0.010199754066 4.0530711344e-05 -0.00014365586333 -0.00012404982484 -0.00026118736561 
-0.00030536680496 -0.0026861288327 -0.0035573466488 -0.040100023886 -0.03463979657 -0.054560605902 -0.0011822580196 -0.0010754403884 -0.0017254105539 
-9.9057759824e-05 -1.9584350568e-05 -6.879204783e-05 -3.2387410052e-05 -0.00024827945345 4.4621017894e-05 -0.00061065550522 -0.00079296935414 -0.013541147753 
0.00055803177651 0.0004738392119 -0.0017987453904 -8.7336389517e-06 -0.012279296002 5.7737379331e-06 -7.0972091498e-05 8.6515125524e-05 3.5130903505e-05 
-0.00088879609362 3.4211999928e-05 0.0017107343661 -0.0019813200007 -0.0020358388328 -0.011446966578 -0.00030343205082 -0.0003551438524 -1.8053618035e-06 
4.1713330875e-05 -0.0028364734639 0.00022566209623 1.445724871e-05 8.1513620547e-06 2.5019444737e-05 -8.3756355354e-05 -6.7340797869e-05 4.4155297708e-05 
0.00017035932788 0.00017034334341 -0.00037383241077 -0.0017690237854 -4.9630890465e-05 -0.0089504612957 -0.00045571082435 -0.00045332152561 -0.00080568911398 
-6.6792504746e-05 -0.00024821532921 -0.00019038708344 -0.0022466030211 -0.0022388491387 -0.0014844228758 0.00010518926795 -2.1317422098e-05 0.00013418004632 
-0.00019075166532 1.5614699546e-05 8.426808287e-06 1.8199219722e-05 -4.4891579721e-06 6.8077228942e-05 4.9323582875e-05 -4.6608304233e-05 0.0001124686729 
5.3090655885e-05 -2.8836461218e-08 -0.0096888874693 -0.01131296682 -0.010017166338 0.00087203058156 -0.00029285086763 0.00030698916372 0.021756295428 
-0.01461470086 -0.00016552922574 -0.00030746595046 -0.00019677534285 -0.00120496853 -0.0044450740785 -0.012387654931 -0.015433374669 -0.031943411992 
-0.006072977724 -0.0011823190634 0.00016652801147 0.0011896561642 -0.011093338182 -0.023653963594 -0.020085235063 -0.031430170974 0.00023835248973 
9.2427180621e-05 -0.013305231345 -0.011731487997 -9.4005972847e-05 -0.014757062675 0.011045957197 -0.013092499936 -0.0025092437556 0.0082845280503 
-0.0072242891036 -0.0045776122509 -0.0067403940167 -0.0030737771676 -0.0081205627027 -0.0046644803656 -0.045324596844 -0.0587607291 -0.047330082519 
-0.037002505134 -0.0054290170793 -0.0077679277615 -0.0066402470979 0.0011442519475 0.00071679850828 0.0002192040645 -0.00021345913947 -0.0076113071654 
-0.0071305607443 -0.0046191669755 -0.001759800921 -0.0010175257787 -0.0010209731266 -0.00061608820479 -0.00063325276237 0.0011533472853 -0.00018544596042 
-0.00044563459717 -0.015812722189 -0.013014775276 0.00056320414433 -0.0051817708207 -0.00011485243481 -5.6201134786e-05 0.0015669067956 -0.0019496888876 
-0.0014195096252 0.00066809214149 0.0067990978171 0.055439265546 0.02414345798 -0.014337890759 -0.0013224303259 -0.0013981225769 -0.0021510668581 
-0.0097770406344 -0.0026985206598 -0.002822210799 5.9592979729e-06 -8.193315431e-06 -1.2941325666e-05 -0.027527639275 -0.025359844584 -0.032803374601 
-0.02721979891 -4.1826126531e-05 6.4961863728e-06 -0.00020768334174 -0.033508736165 -0.03359795694 1.5110033051e-05 -3.4891343658e-05 -0.00023589385029 
-0.00017370502083 0.00013810893633 -0.0034347361425 -0.0038368568699 -0.0038394038354 -0.0041812422528 0.00016311566896 7.6431222601e-05 -0.0001122064577 
-3.1297275194e-05 -2.1080453611e-06 -0.0028451836649 4.1590221357e-05 5.5891687923e-06 -0.0059266599724 -0.0055955958006 -0.0062629586461 7.8701745532e-06 
-5.0425129606e-06 -2.4134326268e-06 -1.6672294932e-05 6.8683227713e-05 -0.00012176113293 -1.2828826302e-05 -0.00097934575364 -0.0014828849125 6.813428681e-05 
2.5508275649e-05 -0.0040599478031 -0.0043306073886 -0.0042138117226 -0.0068734756948 -0.0059412225409 -0.0015855922896 -0.0023486549177 -0.0018419940236 
-0.004663711349 -0.0046036224603 -0.0046173923866 5.0664022962e-07 6.1125878377e-08 4.5739049691e-06 -9.4561946291e-05 -0.00014747150248 -0.00022951819044 
-0.0065070919559 -0.00027510140287 -0.00037769042036 4.5230572323e-06 -4.2935749979e-05 -0.0047193336306 3.5402611834e-06 7.1319490572e-05 -0.0001088919574 
-2.6746663213e-05 5.1558184897e-05 -0.00039584308591 -0.0023020348625 -0.0026748692789 -0.002920429522 -0.00032816338297 0.00041399802535 -0.00034440465134 
4.411627535e-07 5.0135216999e-06 -0.0051599769437 -0.0035145625843 -0.0034440882317 -0.0079753921699 -0.0058072967587 -0.0067928079417 -2.9569386166e-06 
-4.9868327136e-07 2.0737031891e-06 6.5534839638e-05 -6.1661808099e-05 -0.00085170214175 -0.00035569498916 8.0019533451e-06 -0.0041841337102 -0.004222624796 
-0.004474817896 -0.0055947032081 -0.024428505336 -0.027143501285 -0.023590843113 -8.825998687e-05 -2.2062183858e-06 -3.1744031849e-06 -2.7489125371e-06 
2.4350636623e-05 -0.0001312900793 -0.073755339226 -5.3367588613e-05 0.00015575494018 0.00011031623898 3.3033320596e-05 8.1138965874e-05 -0.0002735862176 
-0.00015743404276 -0.00020540492176 -0.00097100101916 -0.00063002731038 -0.00063883343245 -0.00011088447274 7.9617857455e-07 -7.651942234e-07 -0.0074356068841 
4.9194957659e-06 -1.6883814318e-05 -2.2627608568e-06 -3.2269640863e-05 -0.00036280632864 -0.00063941638477 -0.0010835542244 -0.0015203310779 1.5359926989e-05 
-0.00039322984761 -0.00057738568194 -0.00027410109969 -0.00042628297811 -0.0015967081151 -0.004005220595 -0.0025845348381 -0.0034682332026 2.0633150821e-05 
5.3549546617e-06 -1.5873725272e-05 0.018310866532 -0.0031526987628 -0.00010200881587 -1.478416098e-05 -0.00012700292705 -4.3027330257e-05 5.5673053683e-05 
-0.0021221799143 -0.0019247501045 -0.0014904127997 -0.0013832642108 -2.4179488161e-05 -8.8534442022e-05 0.030137662889 -0.028086576325 -0.0049443173862 
-0.0071106422616 -0.0046242912 -0.0019047203458 -0.0025905052182 -0.002474323612 -0.002755842353 -0.0056317247711 -0.0036595147502 -0.0040864295607 
-0.0012275316646 -0.00071794026646 -0.00034073355161 -7.25321234e-05 -0.00026854003906 -0.00017085085211 -0.0047656411276 -0.0066245261423 -0.0092360209413 
-0.0068206348547 -0.010917213036 -0.010171361372 -0.063034420056 -0.051989145556 -0.054110791914 -0.0052240329303 -0.001478097703 -0.0019051834304 
-0.0020743740912 6.8014298781e-05 -1.6731759436e-05 -0.0099189826998 -3.3929974703e-05 0.010332765967 -0.0053325924989 -0.0050040113757 -0.0036393388069 
0.00033351813998 -0.00020911319821 -2.1684616593e-05 1.7299428674e-05 -8.6914913649e-06 -0.0015868093657 -0.0014247848097 -0.0017784994227 -0.00045015061421 
-3.3390539785e-05 -0.0041826611023 6.8351042614e-05 -7.9786161467e-05 -6.5110636094e-05 -0.0042304594633 -0.0014182854117 -0.0045554102783 -0.009919487864 
0.0011349427946 -0.027744624506 -0.030575184879 -0.0075148355876 -0.0053319234191 -9.9967008697e-05 -5.9155578598e-05 -0.00029924586659 -0.00041707395906 
-0.00045910850021 -0.015587908863 -0.019325155291 -0.016645099745 -0.0021766206924 -0.00083930196411 -0.00072758719032 0.00013984079008 -0.032385895287 
-0.033918136621 -0.00020131314309 -8.1482230833e-05 -4.4433256015e-05 -0.054590503897 0.00016298921661 -0.024704304062 -0.021752771605 0.016811071225 
-1.1961078635e-06 -1.1894052649e-05 -0.0023107903858 -0.0027001882231 -0.0036918893296 -0.0035339581296 -0.0054546718976 -0.00037590028653 -0.0050870817499 
-0.0048271009692 -0.0043199827912 -0.0040188471522 -0.0038326821852 -6.0746649178e-05 -1.755331083e-06 5.0460924937e-06 -6.0315779069e-05 7.0508632936e-05 
-4.8351444611e-06 5.2042271101e-06 -2.0577398741e-05 0.00024820927892 1.3182823435e-05 -0.0034598964227 -0.0039041770353 -0.00084037765278 -0.00092876260207 
-2.1300383574e-05 -0.00010525778435 6.1089274221e-05 -9.3038784049e-05 -1.5769369943e-05 7.9324440177e-05 -0.00015271296722 -0.034892335082 -0.040318383788 
-0.015341659549 -0.014397229723 -0.013769084314 -0.067519079831 -0.056702148682 -0.028503476371 -0.035667495202 -0.034470199087 -7.9662833539e-05 
8.284824826e-05 9.5989362964e-05 -1.4815683431e-05 -9.7253383783e-05 0.00013515809799 1.9006594832e-05 6.1299151541e-05 -5.4823592894e-05 -1.5962886473e-05 
-0.002519329631 -0.0041490097004 -0.002118130894 -0.018271759187 1.3143955405e-06 -3.8669919732e-06 1.723754841e-07 -4.2960238732e-06 1.662928099e-06 
-0.0039943059156 -0.0098396007681 -0.009400561068 -0.010170103764 -0.020609297277 -0.017574552275 -0.031329205312 -0.027010042788 1.5387829212e-05 
-0.00041572159067 -6.0533070575e-06 6.03506677e-05 -0.0036796440086 -0.004191168494 -0.0047541755665 -0.0040002068862 -0.004274446629 -0.0040100035222 
-5.1879058624e-05 1.2433044361e-06 -0.0014697035438 -0.0020327959974 0.0010442576586 3.3344322777e-07 -6.6774544782e-06 8.8950372181e-06 -0.0036745326687 
-0.0013842685842 -0.00024471948509 -2.9262097405e-05 1.1960360621e-05 8.5139218277e-05 -0.00083413071816 0.0013787674686 -0.00082921046091 -0.0032281599379 
0.012181479038 -0.0036538915222 -0.0044586144085 0.0053666390155 -0.010840717321 -0.0066859454643 -0.0085875640147 -0.010329862915 -8.718596343e-06 
-0.010498231915 0.013106887139 -0.019704192506 -0.0070376939859 -2.8495169078e-05 1.8670091154e-06 -3.0036123859e-06 -0.024529906357 -0.021229699618 
-0.029240726672 -1.5678846965e-06 0.00012082954232 -0.077657750683 2.498651444e-05 -7.9216988834e-05 -7.4476586394e-05 7.4876646561e-06 -2.4841887993e-05 
1.8242228989e-05 0.00013436977858 5.0546269146e-05 -2.3068113272e-05 -1.7823572555e-05 0.029185838582 0.023964706255 0.0076045759713 -4.9105996683e-05 
-0.00019846179508 7.2845204328e-05 0.00013195759925 -0.00013458414514 -0.0043832762285 -0.025419480257 -0.0032901038701 -0.0069488682078 -0.0078817039085 
-0.015294111585 -0.015402570875 -7.9724320009e-05 -2.9195699965e-05 -3.4040386257e-05 -0.00042224367886 -0.0074683237862 -0.0084736834471 -0.0028601832091 
-0.0037868766618 -0.012874047617 -0.009504003915 -0.016923297233 -6.3546799085e-07 -0.00024141092934 -0.00043521665206 -0.0031457536386 -0.0037288098703 
-0.003572884461 3.4028344505e-06 -5.7069709804e-07 1.2703786941e-06 -0.0046633929056 -0.0020105587237 -0.0001984467252 -0.00019424208684 -0.00063806273702 
1.0496685277e-05 -3.8100062036e-05 -0.0059189187092 -4.6046047127e-07 8.7759877782e-06 4.5396710845e-05 5.1542901597e-05 -6.9384585963e-05 -4.5828861689e-05 
3.564802701e-05 -0.0019847883936 -0.0026728594292 -8.3602126811e-05 7.2036475912e-05 0.00015276839137 -1.6921028048e-06 0.00056035006519 -6.4232269676e-05 
0.00011080733143 7.0440197331e-07 0.00016801425013 0.00025154345209 0.00041912671974 -7.3441680905e-05 -1.7727692263e-05 9.7066630289e-05 0.0098003840244 
-0.0097403360377 -0.00055944548112 0.00016566503701 2.3236940665e-05 -5.6920412659e-07 1.7985247003e-06 -0.001430217934 -0.0043608048076 -0.0013870558946 
-0.0011396117716 -0.00063074240731 -0.00022598741165 -1.3743437686e-05 9.1011515335e-05 -3.1260840081e-05 0.00016218671272 -0.00020608441358 -2.711982766e-05 
-3.1728011569e-05 -1.0911212129e-05 3.7371437202e-05 -9.4967583985e-05 -3.1395318448e-05 3.7738456388e-07 -0.0055033911067 -4.803886156e-05 -3.2282513113e-06 
3.2313484557e-06 -0.0018936028622 -0.003231875381 -0.0053348853791 -0.0049288998092 -0.003873829882 -0.0022825881695 0.0021530343355 0.0040673680439 
2.468750852e-06 -3.2244045764e-05 0.0001036731633 3.3157333911e-05 4.8460016213e-05 0.0021772275528 0.00077529622507 -0.0072867419199 -0.0050681390602 
-0.008935213244 -0.0028200181826 -0.0026853367795 -0.0058027740351 -0.0049640605904 -0.00021891338156 -0.0032522860871 -0.0063976896209 -0.0079348832528 
-0.023450634975 0.00011754751087 -8.631689012e-05 1.429398864e-05 -0.012886507904 -0.017931819547 -0.032427846269 -0.020736620426 -0.020394959091 
-0.021595841768 5.3376815941e-06 1.6732164928e-06 6.0963017294e-07 2.0690693259e-06 -0.019111462822 -0.029613049172 -0.027600178515 -0.00076054360982 
-2.8065822729e-06 -8.6288960755e-06 -1.4204839022e-06 -0.0031854352784 -0.00095304206814 3.1077740166e-06 -0.022141056752 -0.018999736992 -0.013940669884 
-0.019727223847 -0.011493028924 -0.0091489863389 -0.01298534852 -5.792672257e-09 -0.003000361813 -0.0038158264394 -0.0040752568845 -0.0034581567309 
-0.0038199406483 -0.00070856688393 -0.0008780521999 -0.00057994138027 -0.0034774759737 -0.00909258679 3.8321974901e-06 6.0797347475e-06 -9.6428651301e-05 
-0.00027636130217 -0.00020730975934 -0.0050888145793 -0.024731413267 1.9673577423e-06 -9.0532744616e-07 -2.9668005912e-06 -0.00012564817499 -0.00010110962853 
-0.00022343631027 0.00045218744144 0.00026345291085 2.6171284919e-05 -0.0038126588084 -0.0034093958755 -0.0040562734592 -7.5543069023e-05 -0.00019963415617 
0.00306683284 0.0028626336915 -2.8037373346e-05 -0.00024035882726 -0.00014312190537 -0.00040929956775 -0.00019612194884 -2.5638168182e-05 -4.1039251236e-05 
-8.9947091753e-07 -2.0589242681e-05 -0.00032017670418 5.4535283749e-06 -2.2261366159e-06 -3.1096272953e-06 1.0544295079e-05 -0.00021977460494 -0.00017880366065 
8.7341456897e-05 2.1731512479e-05 -0.00032152476446 -2.7930022396e-05 -0.00017961816495 -0.0066775050658 -0.011189058328 -0.0074670895204 4.5507816909e-06 
-0.0027028209436 -0.0026884843832 -0.0031509923851 -0.0041931663985 -0.0045496225681 -0.0042052287844 -0.0026498147995 -0.0021323102945 -0.0018908415226 
-0.00034597241269 0.0031755160341 0.0031452243186 -0.0058823937244 -0.039594351219 -0.048473984813 -0.0042940519331 -0.0053660577781 -0.0061079965737 
-0.01792991962 -0.00028948592206 0.00021433110271 -8.6125255604e-06 -0.0046307640311 -0.0052262715754 -0.0063309878159 -0.000198718758 -6.8846561016e-05 
-0.00026993180111 0.00038532283938 -7.8889833628e-06 5.1433145852e-05 2.3454056286e-05 -5.0464145786e-05 -0.0053326702313 -0.0016996224526 -0.0011387575509 
-0.0012643437564 -0.00060882055653 -0.0032065944344 -1.3958452169e-06 3.381178786e-06 -0.0039919276642 -0.0037177885982 0.00023373943851 -0.00011417622895 
3.9430860938e-06 0.00068102300943 -7.9445197342e-05 -0.0020190995259 -0.0031235749227 -0.04184468267 -0.0045954860768 -0.0043173183772 1.5498977568e-05 
-2.5720902006e-05 -4.6281048796e-05 -1.3257517028e-05 5.4520147918e-05 -4.7776148356e-05 1.6672861711e-05 4.3799510613e-05 -9.5196101239e-05 -0.00012506957304 
-0.014250696396 -0.001878788251 -0.00038473145443 -0.00030313873168 -0.00059425523934 -0.00068680523228 0.0017124270668 0.028779465413 0.019257365971 
-0.0027589565687 -0.017806868433 -0.014263780763 -0.00099428879648 -0.00035853960687 -0.0049982329053 -0.0052452980658 -0.0053762634064 -0.0045533151995 
-0.0042917952297 -0.00448250096 7.0502492492e-05 -0.0022969820859 -0.0008080284052 -5.8638371563e-06 1.1939466166e-05 -0.0022612905684 -4.7287966996e-06 
-2.4041498128e-05 -0.0052199624475 -0.0050472953172 -3.4904588958e-05 -0.00036951000019 -0.00028808749814 -0.020972102202 -0.042267296458 -0.00015227174654 
-0.010245333691 -0.011782598147 -0.014883401033 -1.4766923812e-06 -1.8842084792e-05 0.00010636381474 -0.019159515975 -0.020867521868 -0.022738233334 
-0.012390169031 -0.0035161186003 0.0063071688994 -1.2524663867e-06 -0.0014565861323 0.018324584991 -0.0034847794867 -0.0059926285994 -0.0013517670721 
-0.0017430076532 -0.0055437173674 -0.0042252042265 8.0875380933e-05 6.996671911e-06 -1.5881818648e-06 -0.00015694511598 -5.5119276277e-05 1.1439343125e-06 
-1.6171053915e-05 1.7065742743e-05 -0.0045481759822 0.00088635534174 3.3187773111e-05 2.4057184202e-06 -0.0019448345455 1.7483632362e-05 5.6193915702e-06 
-0.0031049288182 -0.0022667310835 1.9073932942e-06 -1.1740103072e-05 -0.0039208647573 -0.0047744027897 3.1573672337e-07 0.00014191203283 -0.0053847761137 
-0.0076003661008 3.7970871373e-05 1.1432999615e-05 -2.422834794e-05 0.0001586025251 -0.0042402805841 0.00013976805792 7.7592117662e-05 -2.6141967685e-05 
-0.0038992919891 -0.0045150659051 -0.0051231970526 0.013332410087 2.7188434068e-07 -3.9381530271e-07 5.0990189862e-06 -0.027927063498 -1.9613544328e-05 
-5.9264189267e-06 -1.8699032641e-05 -1.6890271684e-06 -0.0001307357561 6.1092532769e-06 -2.9122790872e-05 -0.00015391186234 5.8632024823e-05 -0.0051966368303 
-0.0041927733291 -0.0052669999447 -0.0040880584573 -0.00027780605495 0.00034954665948 2.1676597621e-05 5.3674931308e-05 8.0050873849e-05 0.00070561996818 
-0.00063029532632 -0.00031131913478 -0.00022448980137 -0.00022348960593 -0.00072859657037 -0.0075699675921 -0.011249463512 -0.010523773457 -0.0023131407467 
-0.003069704034 -0.00074095653433 -0.00027172540641 -0.00050971101728 -0.011110146199 -0.010885658454 -0.0086678566539 2.3391714562e-05 -0.00084971645127 
-0.0049200966603 -0.0046782043284 -0.004391107007 -0.0030931079341 -0.0021919757142 1.5151492899e-06 -1.0803489889e-06 -4.5868092122e-06 5.2814850129e-06 
-8.7812685616e-06 -5.4343169251e-05 5.2228002067e-06 9.0223682969e-06 0.0079116109251 4.9469410252e-07 3.1864982576e-06 0.011262012081 4.3520076304e-05 
-5.92114643e-05 2.249277932e-05 -4.190355206e-05 -0.0013534119534 -0.0022568956827 -0.0028165164937 -0.0036478491963 -0.0031383712238 -0.0023615781329 
6.4313613785e-05 1.00586614e-05 -4.3425564425e-06 -1.2299059958e-05 -0.010499848569 -0.012110216128 -0.0097845713633 -1.8575277732e-06 -7.0281422795e-07 
2.5791882217e-05 -3.4042074209e-05 0.0029735217682 -0.00045386323082 -0.014531968862 -4.3493253525e-05 -3.6967222669e-05 2.8940741918e-05 -2.5076281073e-05 
6.0835486628e-05 -0.0005116773471 -0.0052538775069 -0.006502426721 -0.0067128078384 -0.00089263037098 -0.00063627598544 -0.0020224340362 -0.001355821528 
-0.0044249123251 -0.0040729340118 -0.0051882497875 -0.0053449621473 -0.0050757949863 -0.0055121332051 4.0606896249e-06 6.0466400032e-07 -0.00034931328489 
-0.00051021203229 -0.00048084678799 -2.5180609377e-05 -2.3544906702e-06 -0.0012219581729 0.00011489732918 -5.9399439254e-06 -1.8927251477e-05 -1.9925904577e-05 
-1.7942134754e-05 6.8885289072e-06 -9.8593205222e-06 -8.0453373474e-05 -0.00075695617014 -0.00030791326111 -0.0002453970997 5.2930936175e-05 0.00023000975974 
0.00023042883777 -0.00071538322549 -0.00066155562537 -0.00019028027844 -0.00012336369704 -0.00027944944076 6.3120291521e-05 -0.0008371335926 -0.031525119519 
-0.026239468066 -0.00013874693583 -0.041255580362 -0.0069894615157 -0.00078499199015 -0.0010652379502 -0.0019256780342 -0.01159002875 -0.01243642405 
-0.012464740334 -0.015229210469 -1.7455106714e-05 -1.4671270118e-05 -0.0024850608393 -0.0032527616847 -0.00017750070073 -0.00026059235452 -0.00054717077743 
-0.0011154910222 -0.0077575534607 -0.0063109050001 -0.0076840640441 -0.00079778197246 -0.00087351982788 -0.00067961157393 -0.0010713475354 -0.0022934344396 
-0.0096109289638 4.1588499338e-06 -2.3506413418e-06 -2.0846874678e-07 0.051720665451 -0.022656056283 -2.5655416635e-07 -4.1067357977e-06 -5.0091837744e-06 
-8.7170829871e-06 -0.0068432004608 -0.0036332917265 0.00011894828233 -3.5737963048e-05 -0.018101668673 -0.0027124853006 -0.0056830338695 0.018236958998 
0.00065335004842 0.00017184868874 -5.7870507998e-05 -0.00021107519184 -0.00020512366367 -0.00014217562889 -0.0047845720118 -0.0050700324228 -0.0026194591684 
-0.0019429624781 -0.0033181804813 -1.6052894991e-05 -1.2334727895e-05 1.1256150919e-05 -0.029153007207 -1.3018331493e-06 -0.0031906333103 -0.0051388992947 
5.480793155e-05 -8.8397289398e-06 0.00015359267305 0.00014836524864 0.031651518297 0.020384865753 3.8936515579e-05 -3.9413379512e-06 -0.0061065168773 
0.0082486503021 -0.00383290288 -6.040021385e-06 -1.6574431379e-05 -1.0558204727e-07 -0.00046220846749 -1.8077970509e-05 5.8649132938e-06 -1.1512169018e-05 
-0.00011167534255 -0.00020160590341 -0.0084028660361 -0.011148047305 0.00010191608569 -0.00055473990518 0.0055940558981 -0.0005920920275 -0.0036244383551 
-2.1054517572e-05 -0.0050954116213 0.015030761164 -0.0032344610425 -0.026027224305 -2.0955966241e-06 0.00074339281915 -0.0019713205299 4.2536712963e-05 
-0.0099390719301 -0.019466458887 -0.0044110245092 -0.0045268876648 -0.00024419164621 -0.0027152265172 -0.00011658125882 -0.0050212778805 -0.00074062799678 
-0.0058160793055 -0.0033683655073 -0.005388487528 -0.0071722940902 9.4725260626e-06 4.217837212e-06 -2.647557742e-05 -0.0019771148122 -0.0037530701227 
-0.0053984945871 -3.8888882774e-05 -6.6572573382e-06 -3.3538083089e-08 -0.0002772315864 1.9534853443e-06 -0.0028713599716 -0.0032562136116 -0.0016390964446 
-0.0022834328982 -0.0015639695694 -0.01688808253 0.0059785047396 -0.0043018010355 -0.0038491497817 -0.00078666361537 -0.00083761592432 -0.0040569982409 
6.1916346617e-06 6.5768784973e-07 -0.00085653472246 -0.0013909580802 -0.00087484775333 -0.013634624099 -0.0075648823692 -1.3091279214e-05 -0.00075903081104 
-9.1894686258e-05 0.00090778803129 0.0051591333492 -5.8566689659e-05 0.00027018458525 -0.003154730324 -0.00036562298716 -0.00026113108208 -0.0049466413034 
-0.0056019080382 -2.0810199404e-06 3.29206817e-05 -1.5558236067e-06 -7.878743343e-05 -9.0818059602e-05 1.4185092927e-06 1.3314914316e-05 -0.001645158114 
-0.00017541189216 -0.00010373902491 6.1491836244e-05 -0.0034959564452 -0.0024622687181 1.5713154649e-05 -0.00035409006369 -7.7388464706e-05 -0.00024588201101 
-0.00054678438798 -0.0001354154313 -0.0024007655396 -0.0043431415005 1.2614177676e-05 -0.00093559226871 0.00088100730421 -0.0022966250686 -0.0021076730216 
-0.0017394982955 0.00011637676396 -0.021252635015 -0.019352459599 -0.021169038314 -0.024327876051 -0.01858128304 -0.020675529561 -0.0072165604138 
8.4157096008e-06 -0.0031889866096 -0.0019582436164 -0.003715024251 -0.0028686405816 -0.0024963479224 -0.0016265381592 -0.0041840088076 -0.00015635358976 
-0.0092491441364 -0.0043512109066 0.00010719783755 -0.011000700429 -0.016990272178 -0.015120764936 0.00081724964816 0.00019213344719 -0.0033915637189 
-0.012271284427 -5.1517808354e-05 -6.9663850528e-05 -0.041749826401 -0.0039885121801 -0.0025196773653 -0.0033332206236 -0.0029506046319 6.2149955081e-05 
-0.0058608162835 0.0038885492723 0.0022904338109 0.0019723774909 -0.00031590256244 -0.026412158629 -0.026447696761 0.00026380843555 0.0011347217501 
8.2445194955e-06 -0.0011890171005 -0.0013748824085 2.6535669747e-05 6.0907718785e-05 -0.0029108701518 -0.00070562760027 -0.0030568587842 -0.00099893173167 
-0.00076317886718 -0.0091722210289 -0.030412316489 -0.0012979435881 -0.0036064317432 -0.0031279415451 -0.0030388156646 -6.6964937403e-05 0.0001469770502 
0.00026962269457 -8.247909696e-05 -3.7161434702e-05 6.7573577767e-06 0.00023927165383 0.00060015295662 -3.6239791836e-05 -8.9481090731e-05 -7.4263188174e-05 
5.8332802251e-05 -1.2036619211e-05 -4.2072543796e-06 -0.0081080738885 -0.0085672655458 -0.0070373415542 -0.001621636251 -0.0011583882641 -0.00043912126635 
-1.7887208935e-06 7.8125804941e-05 4.5409103475e-06 0.00011385663432 0.000101605248 -0.017918549649 -0.038569799973 -0.038376511832 -0.010052280899 
-0.0093438371707 2.452679941e-06 -0.016461533277 -0.015565081841 -0.0083647438118 -7.1233346522e-07 2.4941552436e-06 -5.8910357459e-06 2.3677095958e-06 
3.1799444014e-06 -0.002372697145 -0.017490246915 -0.014822105404 -1.9689150859e-06 -4.8142169389e-06 3.2681601045e-06 1.4838209611e-06 7.0243708194e-07 
-1.4854003519e-05 1.6407921724e-05 -0.00010721492798 -0.0004988893924 -9.6656197258e-05 -5.9500872033e-05 -0.006578089347 -0.0043581310498 -0.004141525781 
-0.0043151515969 0.00017550027694 -0.01067988799 -0.0047280471857 -0.00012174886321 -4.8633830169e-06 2.4760761195e-05 -0.0017886442221 -0.0014731807889 
-0.0033933329419 -0.003418196313 -0.0030220175959 -0.0030989915154 -5.8428992572e-06 -7.4096314532e-06 -3.4903172053e-05 0.00010202715325 -0.0010220196856 
-0.00047478979005 0.00013048832716 -0.0048754153113 -0.0018942790324 -0.0038269349157 -0.001440061805 -0.0015582588099 -0.0037551803709 -0.0016218293542 
2.5810867583e-06 0.00025446147598 -5.3651339197e-07 2.9913921961e-06 -0.00011984654379 -0.00018122946211 -0.00050650793347 -0.0013625064897 -0.0011973348317 
9.5207086788e-07 -0.00081072520646 -0.0025841650453 -0.014981233786 -0.0030481475087 -0.0034726266039 -0.0028146627174 -0.0025537451488 -0.026232591464 
-0.030506394999 -0.026424163846 -0.0085943365986 -0.0079641324316 -0.0086718554637 -0.023884551095 -0.031323873217 0.014069595898 -1.2306975436e-05 
1.3488264041e-05 -1.4592698265e-05 -0.0012110021107 -0.0046947802646 0.00077555263063 -0.012891078505 -0.0082001732715 -0.0091213397661 -0.0094773886352 
-0.00053903969003 -0.0038124037147 -0.0074504058686 -0.0090724738408 -0.01046299477 -0.0034893666899 -0.0010189792476 0.00053783043965 -0.0078504547572 
-0.0082661503791 -0.0021863761701 5.5677422952e-05 0.00013525158266 -0.0013626405695 -0.0010444791352 -0.0033091698159 -0.0029250547068 -0.010918957963 
-0.011366653661 3.2623876114e-06 1.5810884039e-06 4.4709985804e-05 -4.0031448436e-05 -2.2522195302e-05 8.1033494657e-06 3.3752490069e-05 -4.1115749203e-05 
-5.7655890868e-06 -2.7550551679e-05 -0.00015115891942 4.4029826271e-06 8.8692603842e-05 -1.980277547e-05 0.00016203373028 7.5964568737e-05 8.0248104812e-06 
-5.073026113e-05 8.0136149221e-05 -0.0068445578728 -0.0051626330554 -0.0067994879153 -0.00015671367125 0.00041100987142 0.00027564292589 -0.0018407959557 
-0.0016652357086 0.0010686608024 -0.0013545522081 -0.0043814163021 -0.00037207286976 -0.0078112330105 -0.0085759442139 -4.6266395089e-05 -2.837360539e-05 
0.00074693721567 -6.984413921e-05 -2.0383796538e-05 -0.0048250336504 -0.0034317268827 -0.018191631304 -0.004687516215 -0.0046055756443 -0.0017628493722 
-0.027696068178 -3.6825878864e-05 8.6279756656e-05 -0.00045058911623 1.9361303979e-05 -0.00025870168077 -0.0038437893196 -4.0332540902e-05 -0.00086137228133 
-0.00086805875854 -2.614169179e-05 -9.7289142716e-05 1.1593020005e-05 -0.004211473614 -0.0029120512733 -0.0045195145002 -0.004242534855 -0.016673019411 
-0.00062990323476 -0.00010172977511 -9.7155032006e-06 -0.00011575329509 0.00017276622069 0.00014404442984 -0.0049852327342 0.00027680682719 -6.2286646847e-05 
-0.00029314163147 -0.036227934132 -4.4433582247e-05 -0.00029995660551 -0.00053487721578 -0.07538154857 -0.00047099232728 0.0015621048188 -0.025467045597 
-0.0055193942099 -1.7128558656e-05 -0.0054846063574 -0.005249569635 -0.0050940894522 -0.010395131626 -0.011850439696 -0.00054096512503 -0.00046651003683 
-4.2208352208e-05 0.0025303625664 -2.9845173025e-05 -0.010088666141 -0.0091844221346 -0.0012127271833 -0.0052491484984 9.2660552548e-05 -0.00020595232387 
-0.00099044202538 5.0521617556e-05 4.5138600315e-05 -0.0093942616684 -9.7220049237e-05 -0.020793075909 0.00012336855297 -0.0032370475011 -0.019152361527 
-0.018625109257 -0.02160402749 5.1062025297e-05 5.0473528579e-05 0.00026205401047 -0.0049553563019 -0.0035433667642 -0.00044468204194 -0.00051264401293 
-0.00039253904087 4.9864161672e-05 -5.3278251025e-05 -0.0001319702081 -0.016302655554 6.1472326472e-06 -9.3149995575e-06 -0.029327159602 -0.034767544158 
-0.022124503812 -8.5124593807e-06 -3.2681183695e-05 -0.0025782503594 -0.0039112551499 -5.388523486e-05 -0.0027105369474 -0.00029634740476 2.6853547138e-05 
-0.0004591156124 -0.00021488520445 -0.010742257575 -0.0001377621887 5.2962309861e-05 -5.2980310479e-05 -0.01371727202 -0.00019432008443 -0.014868499573 
-0.0017815669542 -0.00085353598376 -0.0061269249929 -0.00021538832107 -3.1133407542e-05 1.6272410356e-05 -1.6002780441e-05 -0.01952695887 -0.019461643021 
-0.021495333074 -0.011532442462 2.9232896804e-05 -0.003729591727 -0.0012197009216 -1.3946494285e-06 -0.00013723118495 0.00017626295723 -0.0045869330295 
-0.0045493731472 -0.0089468515638 -0.0083613226214 0.00060129605709 -0.021513188619 0.026936594037 -0.021253843442 -0.0027255186615 3.4689229035e-05 
-1.7096735899e-05 -0.0016349192491 -0.00069933856559 -0.00032699726356 -0.0013950980132 -0.0045357795946 -0.0049677145395 -7.9028279375e-05 -0.0080531894001 
0.0016655970407 8.6990867934e-05 8.9945278311e-05 -0.0042816957717 -0.00025991805247 -0.0011520831361 0.013477442278 0.0049652006748 0.011691884831 
0.00053599929053 -0.0032918931076 -0.0030510746442 -0.0033264695377 -4.8573745637e-07 -0.0044612876336 0.01888049358 0.00014567584074 -0.011148791146 
-0.0022832026766 0.0012065458604 -0.00012816846368 -0.0091764490232 -0.0036076262819 -1.5305358505e-05 -2.2007660835e-05 3.6856660019e-05 -5.8428711868e-06 
-0.00015187163455 9.320410772e-05 -6.4959906099e-05 -0.00036937735869 -8.8682491913e-07 2.1168719258e-06 0.00016079698756 -0.00049793840263 -0.0004593862991 
8.3954511578e-06 -5.8278230649e-05 -0.00022255505715 -0.00015065751297 -0.00022920176422 -0.00046174683889 -0.0039180470446 -0.037045038667 -0.0024496446544 
0.00093445812796 -0.079709681052 -9.4351657701e-05 -0.00014889168469 -0.0010611962905 0.0052243144905 0.0019651276731 0.00039596968799 -0.0024808678642 
-0.0007373275368 -0.027400526856 -0.02328482912 -0.00079101638526 -0.0041058214811 -0.0053817554778 -0.0091854831554 -0.0023601688588 -0.00061829910471 
-0.0054299069418 -0.0051914753149 3.4259014828e-05 -9.2059061554e-05 -1.7882824679e-05 -6.5385741424e-07 -1.8818113531e-05 -0.0010229835374 1.5279315595e-06 
-4.0376273614e-06 2.163926382e-06 -0.00010399313252 -0.0048474201765 -0.0030569227749 -0.00091667878718 0.00011677403284 -1.5706066603e-05 0.00014109358747 
-0.011978847797 -0.010606604915 -0.0011279410018 -0.0020649524255 -9.8034044918e-05 -0.00022097252606 -0.025683760708 0.0055954345362 4.7141372392e-05 
-1.7532314568e-05 -0.027472712704 -0.0015629607928 0.00023828520099 -0.0017189677476 -0.0025762444557 -0.033835722273 -0.011652760371 -0.018233269173 
-0.0033092738178 -0.0033426001881 -0.0036621330215 0.00015275564444 4.59019758e-05 -0.0014821333385 0.00022618773158 -0.0017951060287 -0.0021793823446 
0.00093105949306 -0.0014325895231 -0.01905783561 -0.049778555193 -0.043607947845 0.00012669548993 6.9645808268e-05 -0.010764851507 0.0018160606758 
2.3286839112e-06 -1.0423281333e-05 2.2991645215e-07 3.2189872521e-05 -0.012197402185 0.00017259339941 5.6465231439e-06 -2.9788395086e-05 -0.011226285681 
-0.00023733165882 -0.0030788422469 -0.0028895623295 -0.0046739351607 -0.013036761717 -0.013810612199 -0.0077648322729 -0.003285090915 -0.0011125529345 
-0.0018017739343 -8.032685429e-05 -5.2567936819e-06 -0.00026805501262 0.00012838481103 2.3514456618e-05 -0.016685780997 -0.00020169193348 -8.0500359215e-05 
0.00014489927113 9.1248550678e-06 0.0001406014123 -0.0088297780269 -0.0036577000309 -8.0385540077e-05 -0.013662889221 -2.7322867589e-06 -9.9667081662e-05 
-0.01025243725 -0.0066159704933 -0.011526073292 0.00018134096431 -0.0018362224918 -0.0001336675659 1.1195293502e-05 -3.7922030241e-05 -0.008595306733 
-1.669815699e-05 -0.011430397066 0.0016512296437 -0.0067294566357 -0.0044587452998 -0.0053753767273 -0.00017259536396 2.8227588605e-05 1.5451803937e-05 
-0.007383655962 7.4546153574e-05 -0.0059538355876 -1.2607879943e-06 -0.00020408001829 -0.00028072246506 -9.236504696e-06 -2.4936583575e-05 -0.0044755918038 
-0.0055440764181 -0.0010671057217 -0.0018742004788 -6.5173093016e-05 5.0110583305e-06 -1.9430767204e-05 0.00048989561447 3.960049994e-05 -0.0012168676274 
-4.9697088429e-05 -3.7128167311e-05 4.572919316e-05 3.658436037e-05 -3.2478020527e-05 -0.0060156547668 0.0028957323393 -0.0037509725214 4.5612011929e-05 
-0.010779172974 0.013586786995 -0.0023102799727 1.6349322005e-05 -0.0039984609227 -0.006758554393 1.8899003704e-05 -0.0001506470743 -0.005263144631 
2.2121224473e-05 1.2259365713e-05 -0.00032873850426 -0.00043210027856 -0.0074185310353 6.8905060646e-06 -0.00098516216768 -0.0087445460399 -0.05017188656 
-0.0006110722542 -0.0066705387316 -0.0086250853032 -0.033932709058 -0.00021190891936 1.6595948616e-06 -3.3486629728e-05 -2.0031407641e-05 -0.0063070608997 
2.5094629857e-05 -8.2254950584e-05 -0.00047176435864 -1.8621378371e-05 -0.0052785636048 -4.5211202904e-06 1.113909135e-05 -0.016622726528 -6.4910424314e-05 
-0.0002388761901 -0.009058444432 -0.0048305102631 -7.4399943358e-05 -1.4359071874e-05 0.00024639389154 -5.3548381305e-08 -4.5510671555e-05 -3.7490353967e-05 
-4.549955016e-05 3.3343879568e-05 -0.014051975171 -0.0067990879208 -0.0073418954989 -0.0041018052093 -0.0060709282318 0.0001022030228 -3.9038081687e-06 
4.3709232306e-05 3.6963844138e-05 -6.0191554461e-05 -0.030228503792 -0.031747107512 -0.00013872369654 1.9408451596e-06 -0.030495015471 -0.025102660492 
-0.0040328116975 -0.0050708157989 -0.00027997527765 -0.00033292075842 -0.0066081858968 -0.036599305073 -0.0068905662865 -0.008255944604 -0.0045737062383 
2.1903861406e-05 2.576279981e-05 -0.0047261426093 -0.00014370269411 -0.00033577650091 -0.0017360461375 0.00080054112175 3.2163043334e-05 -0.00032552761205 
5.6208582054e-05 -0.0065325168461 -7.9143244376e-05 0.001694810619 -0.0027159150155 -0.00013752183653 -2.7748675277e-05 -6.4801748448e-05 -0.00016811600208 
3.9592963167e-05 -0.00056476163535 -0.0066841405326 0.00012919249817 -0.00060763050422 -0.0028963275857 -0.0070460410992 -0.0015608293689 -0.003258143925 
-6.1333016001e-05 -0.0051069707128 -0.010568304368 -0.011592009778 -0.001495937278 -0.009733245889 -0.0059367243389 -0.045483080124 -0.011706127304 
1.215052544e-06 -0.00021632639526 -0.00018912926454 -0.00024608274514 -0.0022070084136 -0.0061065921962 -0.00017311152071 6.1752955924e-05 9.2826705631e-06 
-0.0053004683043 -1.9804431702e-05 -9.6526889732e-05 0.037978239016 -0.023773413306 -0.035750419813 -0.00018225834374 -0.0051480536466 0.0033290946544 
-0.0011198537774 -0.00087059277348 -0.0048988868164 0.00014269550374 -0.00010417694642 -0.0087657623619 9.322805451e-05 1.3746787437e-05 
von%20Mises%20Stress 1 8918 double
0.60344228496 0.52616746423 0.51765670242 0.60773007634 0.33330843262 0.33332766058 0.33334998414 0.33334483267 0.33401152877 
0.30315937412 0.71788614949 0.7414960074 0.33213842902 0.35261315951 0.67050256314 0.75728890052 0.30161395128 0.24233140777 
0.22352184219 0.1972126909 0.18055505193 0.1757050703 0.17934133812 0.17780680042 0.16173386136 0.16048576729 0.17195908729 
0.16622238553 0.1595926661 0.15968315338 0.16222727252 0.16650112638 0.17184112599 0.18108709556 0.1938245823 0.21566707769 
0.23762548689 0.3287302497 0.313074727 0.2415470614 0.2186049816 0.20513567923 0.19153996878 0.18638375809 0.18243709161 
0.17715843318 0.16816969555 0.16678768792 0.16748784887 0.16747390804 0.16526122492 0.16814707926 0.16582478231 0.16776033671 
0.16700323008 0.16690700394 0.17853619576 0.18057324149 0.186657448 0.19127732709 0.19633587224 0.20989946687 0.23590085304 
0.26749447765 0.33323688845 0.33339426855 0.33377529969 0.33432999746 0.33490799492 0.33546965791 0.33597205723 0.33625510039 
0.33636966782 0.336346675 0.33609164425 0.335709838 0.33526028458 0.33474582751 0.33423608813 0.33379767289 0.33337324716 
0.3331136388 0.33289085104 0.33274534874 0.332738252 0.33277300789 0.33288183631 0.33301190272 0.33314572208 0.33326266054 
0.33333174005 0.62458636639 0.33803906617 0.31606715192 0.30276193163 0.29482369015 0.2907828128 0.28936878025 0.28928251327 
0.29007228875 0.29162665636 0.29352649556 0.29568492902 0.29812245355 0.30105856581 0.30393498478 0.30706941585 0.31011829217 
0.31308403576 0.31586712775 0.31826285142 0.32026169698 0.32140197357 0.32180369406 0.3213892394 0.31996456683 0.31747067844 
0.31345025227 0.30849565036 0.30256860124 0.29660865425 0.29235023298 0.29109142207 0.29321893141 0.29816929392 0.30376095341 
0.3100336723 0.31537469515 0.32018261723 0.32381404167 0.32705709485 0.32944574591 0.33129904044 0.33264551889 0.33335793556 
0.33341957454 0.33333468232 0.33358222118 0.33403835562 0.33470568364 0.33562631335 0.3368468833 0.3382221497 0.33929526451 
0.33852108575 0.33392803587 0.32546053899 0.31422697337 0.3032738225 0.29407627876 0.28946676612 0.28762257468 0.28910377019 
0.29780614365 0.31165643496 0.34302065281 0.43441261355 0.73715784783 0.69560236665 0.69561221821 0.64685009758 0.6537197111 
0.72000550396 0.6549179573 0.64482448498 0.54890503736 0.59643482891 0.60275054059 0.35303842145 0.2889411443 0.43675218573 
0.57691412948 0.5597387064 0.63478451028 0.56343288982 0.65700590955 0.6589153325 0.65932936915 0.70986672381 0.65091238855 
0.59517815109 0.7498986749 0.33325241363 0.33343176752 0.33395482975 0.33472227431 0.33545820305 0.3360465729 0.33635650673 
0.33635830127 0.33612887997 0.33565681884 0.33507431786 0.33439710345 0.33381570108 0.33331217973 0.33299848817 0.33279823279 
0.33274454588 0.33280532404 0.33294211393 0.3331091243 0.33324892936 0.33332366268 0.42936580278 0.34815309205 0.31148591731 
0.29834341498 0.29217009697 0.28968435306 0.28980583943 0.29097546808 0.2931545741 0.29576630833 0.29884320076 0.30249205327 
0.30635975368 0.31036548793 0.31405602033 0.31734622904 0.31981304724 0.32144953562 0.32184184247 0.32086626056 0.31842662376 
0.31378875786 0.30723232513 0.30002902706 0.29371596616 0.29148090725 0.29411703023 0.29964536117 0.30660536367 0.31341193417 
0.3190953458 0.32390098297 0.32771254829 0.33043579436 0.33226258646 0.33321073459 0.33346554017 0.33334400619 0.33349178418 
0.33386479269 0.33442678169 0.33514723392 0.33609857524 0.33732363023 0.33880158144 0.33934856112 0.33662254974 0.32982035555 
0.32017622843 0.30947358715 0.29965390064 0.29249547653 0.28841166594 0.28727454122 0.28930238978 0.29396757612 0.30966355522 
0.33548668304 0.62274544083 0.6589252527 0.57556689878 0.56762633767 0.64727162319 0.65438651321 0.57550847962 0.65621541761 
0.65152916564 0.69939515719 0.6204283412 0.50966378956 0.50796911324 0.27759422068 0.34774134126 0.53212986429 0.57000079803 
0.71055916586 0.62929799484 0.70714521403 0.65213719765 0.65545562482 0.65438457289 0.5741558647 0.64630722703 0.60218372213 
0.6349740594 0.33330543183 0.33361927685 0.33410888757 0.33460896882 0.33512578786 0.33553602758 0.33587578667 0.33603881979 
0.3360449424 0.33590579498 0.33563543817 0.33529809767 0.33489307022 0.33445305119 0.33405510888 0.33369658134 0.33340429455 
0.33317054162 0.33301381159 0.33293634406 0.33292840073 0.33296221446 0.33303949947 0.33313480076 0.33322492335 0.3333124765 
0.33334680497 0.45226296117 0.35939720667 0.33411461017 0.31939752296 0.31083830662 0.30599718009 0.3029862656 0.30189244981 
0.30089799912 0.30106671692 0.30201465795 0.30317430351 0.30461697408 0.306388077 0.30815744974 0.31011222374 0.31196119152 
0.31373770043 0.31520792942 0.31644554818 0.31694090103 0.31718702298 0.31681511446 0.31575489198 0.3140943993 0.3118001135 
0.30886816575 0.30562593539 0.30217168134 0.29941538211 0.29866636183 0.3004996591 0.30330714114 0.30783788507 0.31230020982 
0.31669183691 0.32044897095 0.32379855388 0.326473488 0.32860200241 0.33022357542 0.33160424088 0.33245804991 0.33304878726 
0.33369182968 0.33397807256 0.33432059499 0.33469172893 0.33469399208 0.33334169275 0.33128145667 0.32747578688 0.32172059929 
0.31539058937 0.31079102596 0.30851329102 0.30946833156 0.31287623261 0.32036694347 0.35754198444 0.40477730972 0.42547865426 
0.38906595752 0.36828683176 0.33454902546 0.31968927825 0.31301454693 0.31556834104 0.33931868892 0.31296127292 0.30585331569 
0.30441771327 0.30862755836 0.33385743177 0.30910034573 0.30493492695 0.301941684 0.30696499932 0.31011262935 0.31724917419 
0.31402736211 0.31685863588 0.32588073295 0.34475699779 0.39439802324 0.42659839888 0.39179968481 0.38036082477 0.36055913532 
0.34287251093 0.32839103861 0.31704014642 0.30723438726 0.2988087208 0.28887744104 0.27736059248 0.26110565392 0.23815448513 
0.26828325311 0.4902027202 0.27493772741 0.22779107911 0.25113378298 0.26691289373 0.2779021602 0.28765174103 0.2966912857 
0.30654102123 0.31662191416 0.32870124045 0.34504048381 0.3652154012 0.38715005568 0.39484033903 0.40491507767 0.33346897539 
0.33413578341 0.33521470128 0.40032350914 0.27836100224 0.45278526405 0.27559896703 0.45148743746 0.33366110966 0.33430822302 
0.33492011488 0.33547849349 0.33592876519 0.33619551719 0.33625234859 0.33615327306 0.33586828073 0.33549507633 0.33507134776 
0.33461597607 0.33417066605 0.33377943406 0.33346860724 0.33323765067 0.33304455211 0.33294798851 0.33292714764 0.3329568117 
0.3330298032 0.3331287074 0.33323945381 0.33351342877 0.3504893162 0.33731217374 0.32716676689 0.32114784229 0.31595093414 
0.31274169333 0.31071818376 0.30950112076 0.30894948399 0.30879911171 0.30920581032 0.30978555065 0.31042762005 0.31135958171 
0.31225931545 0.31311025711 0.31388998194 0.31420875107 0.31427580057 0.31393712364 0.31331209998 0.3124473603 0.31114771248 
0.30971942958 0.3082294088 0.30660713279 0.30450532898 0.3022611851 0.30150691267 0.30337094114 0.30731083485 0.31194035781 
0.31644715467 0.32036038204 0.32340281427 0.3259451749 0.32784866613 0.32929823008 0.33040582833 0.33144927464 0.33228851624 
0.33305026088 0.36377593305 0.33349471954 0.33324570622 0.33299390829 0.2931846007 0.34683204306 0.3283470023 0.325513022 
0.32138490605 0.31806371106 0.31806838147 0.32101918475 0.32449111321 0.32723334522 0.33033201991 0.35827827641 0.41856156087 
0.33226999479 0.31915901915 0.31092734237 0.30241957086 0.29744601672 0.29224037463 0.2891023463 0.28695271138 0.28745007699 
0.28518359617 0.28418209459 0.28442944216 0.28400541224 0.28619949585 0.28709137494 0.28731115633 0.29001984328 0.29340531749 
0.29955972925 0.30685540915 0.31721009467 0.33489097687 0.35196421258 0.35257441234 0.33305651676 0.32259041135 0.31318144985 
0.30485440371 0.29693773284 0.28859284607 0.27979603841 0.27505859577 0.28878453867 0.30151312005 0.33340891127 0.37036248179 
0.26149495404 0.26680249399 0.27596333985 0.28487852654 0.2937789403 0.30283493683 0.31243711574 0.32296918753 0.33471454369 
0.34664914405 0.35472520766 0.35422412994 0.33114316866 0.32974848094 0.32971680513 0.35903050208 0.34322312848 0.28112445963 
0.320733991 0.29287591538 0.33993689466 0.30282239894 0.38846186718 0.32847440221 0.38199589548 0.39677441812 0.33463834614 
0.3354610454 0.3362198428 0.33676413813 0.3369846648 0.33688361282 0.33655700036 0.33604269019 0.33545277463 0.3348441327 
0.3342680327 0.3337332919 0.33335483957 0.3330848003 0.33286901343 0.33272431526 0.3327165198 0.33277600093 0.33290481871 
0.3330604179 0.33375808341 0.31053601407 0.33303743894 0.33460395422 0.3293806847 0.32542085679 0.32194002766 0.31923513595 
0.31735086813 0.31570448822 0.31480743531 0.3143450995 0.31387862422 0.31359093377 0.31364510413 0.31374870686 0.31384294907 
0.31387373657 0.31364814056 0.31304275139 0.31205629376 0.3108582352 0.30956435944 0.30809234921 0.30684056933 0.30586468966 
0.30536092161 0.30428840588 0.30309457269 0.30140560274 0.30154456935 0.30866324278 0.31566857668 0.32107058282 0.32554298744 
0.32866365182 0.33055363389 0.3314478935 0.3316991607 0.33194612761 0.33235341027 0.33269677542 0.2882407788 0.29999196689 
0.3330558782 0.33253895179 0.3314845663 0.34260337647 0.35299717553 0.324105638 0.328053573 0.32612804837 0.3307199983 
0.33126701041 0.32960565074 0.34475232408 0.33822145459 0.37194787822 0.32046232255 0.32407085721 0.31590137885 0.30938154924 
0.30458115631 0.30028519637 0.29742493052 0.29626460847 0.29558031306 0.29424157497 0.29282481485 0.29289980151 0.29455293236 
0.2958966541 0.29721471403 0.29898649804 0.30237488237 0.30664730703 0.31263402813 0.3199100277 0.32939379575 0.31316482225 
0.32723345683 0.30850317588 0.3023894592 0.29683587778 0.29612868236 0.30310929571 0.31019157354 0.36029679043 0.387381284 
0.28359052115 0.28860456187 0.29486507412 0.30184760648 0.30981291943 0.31786711421 0.32641818844 0.33415061776 0.33873925559 
0.339632853 0.32889978055 0.33334944737 0.32654381513 0.32060443971 0.31989538943 0.30945593763 0.386799782 0.28092534413 
0.33324284945 0.34090613629 0.32730590398 0.32739630158 0.36680368083 0.31308737451 0.34194877023 0.3398378246 0.37124583282 
0.32901214341 0.29974023214 0.33657350273 0.33759446882 0.33825387411 0.33846690809 0.33801118125 0.33717611731 0.33625438611 
0.33534559479 0.3344600307 0.33366525582 0.33307334812 0.33270140182 0.33256095583 0.33227264789 0.33222883487 0.332430009 
0.33254922689 0.33291076038 0.3373970606 0.33120483223 0.2963963279 0.33011415291 0.32856370805 0.3272895829 0.32549295536 
0.3237614465 0.32211699149 0.31989106279 0.3198080116 0.31864281661 0.31762545799 0.31673213637 0.31608479887 0.31567575328 
0.31516561358 0.3143878776 0.31319099092 0.31153715213 0.30945822557 0.30729512512 0.30482617068 0.30258807465 0.3013964984 
0.3005899775 0.3261997004 0.33276025225 0.33598858674 0.33704243697 0.33704335075 0.33595088233 0.33478441056 0.33413382821 
0.33263806843 0.33110794241 0.34694039029 0.31800326624 0.31391659809 0.32580331636 0.33058338395 0.33685773382 0.3479616225 
0.32041583762 0.33238383822 0.34020907157 0.36840891589 0.3195607565 0.31637918514 0.31282272016 0.3086214529 0.30575929571 
0.30535522979 0.30542344851 0.3039981849 0.30120627058 0.30406029721 0.30543133117 0.30647347616 0.30807451826 0.31081360807 
0.3139038951 0.31806941571 0.32344638223 0.30990218386 0.30732642238 0.31514441558 0.32322239952 0.35005094018 0.36710885753 
0.3663400162 0.36575450687 0.31622535492 0.33276203822 0.29833873805 0.3031308674 0.30810020405 0.31406231473 0.31991640542 
0.32557807384 0.32915086581 0.33522574205 0.33381582669 0.32223000424 0.35452503029 0.33749461203 0.32499266653 0.33000549454 
0.29391640281 0.3234445507 0.32463578617 0.31847997106 0.33233226039 0.32334057966 0.32992244268 0.31576478822 0.35732473012 
0.35282054469 0.32444313913 0.32658087167 0.32717600998 0.31826282703 0.32539786158 0.32592295331 0.29401223806 0.33853579523 
0.33962409739 0.34086747495 0.34066574206 0.33930106893 0.3375922789 0.33638079809 0.33496022698 0.3336620838 0.33271353203 
0.33216271441 0.33182843246 0.33148142757 0.33174873495 0.33839348363 0.32608664015 0.32738854299 0.32817143219 0.32797627857 
0.32697213128 0.32516792064 0.32410556935 0.321688625 0.32089669026 0.31896440246 0.31847042317 0.31764421637 0.31649740274 
0.31485528216 0.31265175328 0.30911113108 0.34039879314 0.34794926094 0.34514358735 0.3447117492 0.34151428767 0.33856537646 
0.32441670798 0.31585527668 0.33606617697 0.35070478011 0.34583729909 0.33010847011 0.34097282658 0.31893953519 0.32313282323 
0.32037039685 0.31502402833 0.3138400154 0.31688141715 0.31681010286 0.31252035159 0.31601772221 0.31596170134 0.31627051948 
0.31860664682 0.32076317715 0.32275498579 0.32584438704 0.32081895769 0.33560105152 0.35499231135 0.3294522848 0.35106701456 
0.31581756787 0.32038894898 0.33641642754 0.35309711441 0.30261868163 0.34221139071 0.33475914386 0.33762638967 0.3055514778 
0.32277080103 0.32797783663 0.32468222861 0.32498155311 0.32747608826 0.32447907196 0.34434196163 0.32410202179 0.32549643751 
0.31177504773 0.32276873349 0.34023016248 0.34476544399 0.33914439743 0.33604418522 0.33404031206 0.33235858829 0.33132140814 
0.33117930338 0.32944136255 0.33005700574 0.33056584483 0.33537361983 0.32987883234 0.32691053954 0.32135606146 0.34729120827 
0.34222017086 0.32922397857 0.34412533062 0.32945961048 0.32782623797 0.32792291574 0.3244600109 0.32482248658 0.3276931839 
0.32658284435 0.31814761387 0.33744919143 0.33077131863 0.3228619568 0.31988366474 0.33199897262 0.34301600346 0.33322580033 
0.32991369628 0.32881897747 0.32973507693 0.32596020525 0.33304349221 0.33319418758 0.32689720703 0.33316883467 0.33375122391 
0.3343622993 0.33499856602 0.33560916184 0.33596792579 0.33608878008 0.33595844923 0.33563088219 0.33515951798 0.33464716256 
0.33412002684 0.33364658915 0.33331917819 0.33309235875 0.33297240647 0.33294787053 0.33301442836 0.33311755672 0.33323738805 
0.33333852464 0.38931891643 0.35595357769 0.32812287145 0.314172551 0.30742173557 0.30433616454 0.30267216564 0.30271983555 
0.30339528233 0.30422743679 0.30600616394 0.30817768788 0.31039122631 0.3124045176 0.31430821779 0.31568417275 0.31648208703 
0.31637157863 0.31552202765 0.31397710252 0.3115556252 0.30876733978 0.30498393881 0.30124872153 0.29959349771 0.30109081827 
0.30511098291 0.31018062799 0.31556866779 0.31993187521 0.32376127144 0.32701154164 0.32925303331 0.33112431171 0.33235845171 
0.33346764693 0.33365264705 0.33383119075 0.33413694567 0.33465058499 0.33428041193 0.33390988634 0.33258969174 0.32956611674 
0.32467792841 0.31917207734 0.31385789822 0.3101889301 0.30851881599 0.3092073367 0.31262567607 0.3219691097 0.36057334882 
0.44825577843 0.37752188191 0.33400914058 0.31598896055 0.33197403729 0.32561165356 0.31395638798 0.28351230452 0.31043857081 
0.30748831253 0.30814720851 0.27930864928 0.30833294058 0.30899326673 0.31108884614 0.31158840304 0.31271185235 0.31849928908 
0.32535530983 0.33718082551 0.3353746406 0.3785180515 0.38220672217 0.36187964818 0.34401327131 0.33028774366 0.31990388829 
0.31142495701 0.30327477987 0.29497100865 0.28558991354 0.27416016314 0.2588021694 0.23695429853 0.27308132129 0.40930275323 
0.25239717929 0.2301959321 0.24669419874 0.26478158619 0.27826648903 0.28875272037 0.2982396356 0.30711733832 0.3174966834 
0.3303842891 0.34497297672 0.36313066726 0.38579350348 0.37815460905 0.43929054744 0.33410767417 0.33769230135 0.48910450425 
0.46500768183 0.28743137872 0.26588988598 0.33394537408 0.33312761703 0.33551305395 0.33622729383 0.33655448391 0.33644121375 
0.33607364763 0.33550789248 0.33489966754 0.33424013328 0.33368630945 0.33327827231 0.33301880713 0.33288421184 0.33286305577 
0.33294260954 0.33307654406 0.33325054261 0.3334557915 0.32920837891 0.33019567937 0.34236776189 0.35204305828 0.32170018818 
0.31697451821 0.31410214263 0.31230381854 0.31091815401 0.31046373554 0.31063885623 0.31124311484 0.31206032279 0.31282067927 
0.31358311118 0.31395291937 0.3138239447 0.31307966155 0.31167796553 0.31019124846 0.30884529865 0.30781196438 0.30634517227 
0.3039442456 0.30212014624 0.30381111874 0.30880400468 0.31468628115 0.32007656813 0.32381876441 0.32660418096 0.32867304093 
0.33010978143 0.33131388826 0.33233872616 0.34616809113 0.33346457559 0.33147119935 0.33343711144 0.30925049327 0.33024534752 
0.3337319579 0.33077606532 0.32719256582 0.32391469194 0.31999639957 0.31819330955 0.31952890593 0.32212619933 0.32481186803 
0.32795770267 0.37977081608 0.40207199144 0.3222723334 0.30823628663 0.29956019231 0.29467299964 0.29228554736 0.29073016387 
0.28917399654 0.28775670945 0.28762516295 0.28844407618 0.29022198523 0.29152156026 0.29347137665 0.29853819388 0.30465770645 
0.31345763191 0.33140254847 0.36287960787 0.30518342087 0.32906407445 0.35361491146 0.34574821807 0.33617653579 0.32598637507 
0.31735115149 0.30870458803 0.30069127333 0.29259286044 0.28473994198 0.27702515378 0.27453352843 0.2917576465 0.29234077913 
0.4182860491 0.27791051618 0.27606542475 0.28449612699 0.29365524312 0.30242016702 0.31188219021 0.32257702683 0.334272781 
0.34636652456 0.35544676856 0.35711572932 0.33463813934 0.35266188344 0.26530399443 0.26809652212 0.35636036272 0.33216703937 
0.29457542932 0.39991293829 0.39074971056 0.30439111606 0.32983075653 0.33766329573 0.33668010845 0.33716095307 0.33634982717 
0.33542493442 0.3344481393 0.33362430608 0.33300016837 0.3326480517 0.33248109258 0.33248834203 0.33263753883 0.33287232375 
0.33307142473 0.32503379936 0.3277736205 0.3336975836 0.29304915053 0.32917261955 0.33725034013 0.3203011217 0.31841050532 
0.31685546803 0.31573820686 0.31504842953 0.31471682838 0.31454020003 0.31442127684 0.31405088702 0.31313541985 0.31151723733 
0.30925953557 0.30658054379 0.3045564671 0.30369016724 0.30387782628 0.30383031811 0.30125270592 0.3017915763 0.31009207249 
0.31893247472 0.32629836905 0.33060816053 0.33225497946 0.33298138485 0.33291786414 0.33284717652 0.32287475816 0.33277470223 
0.30873017226 0.32667961098 0.32868697748 0.32330098381 0.31996794769 0.33087066715 0.34753038959 0.33757023702 0.31035229961 
0.30376363376 0.30206318111 0.30039719232 0.29900588628 0.29828122379 0.2979603526 0.29873850272 0.30041263951 0.30281314798 
0.3066308073 0.31147494465 0.31725832395 0.32079218734 0.31362700484 0.39018782931 0.33544951195 0.3297254983 0.32325668125 
0.31656632973 0.30996162239 0.30407814828 0.2992187845 0.29557532536 0.29589453438 0.30384900342 0.31230727831 0.295002318 
0.28882150278 0.3092294786 0.31743839677 0.32599662618 0.33415991081 0.33968680155 0.34204719387 0.3663589032 0.32158899785 
0.33362456327 0.34849028352 0.32612310074 0.30620534779 0.31843679224 0.33892859091 0.30233856603 0.33514623143 0.33158185425 
0.32801986241 0.28199145762 0.33325391181 0.37869005552 0.37118388961 0.3591190972 0.32831484087 0.32983071606 0.32678973404 
0.31317816839 0.33961948514 0.37985470764 0.32466448585 0.37584473415 0.29913593077 0.34076845433 0.29818688576 0.28499009815 
0.35627051026 0.34117298368 0.33902777936 0.33497576754 0.33367538267 0.3326281162 0.33201624565 0.33182993189 0.33184870731 
0.33204315706 0.33252491329 0.32570727467 0.31793736866 0.32113105936 0.32302949918 0.32472606831 0.31956996463 0.31829349272 
0.31739146973 0.31654526301 0.31559553004 0.31425967363 0.31191823539 0.30833500272 0.30415985825 0.29858141281 0.32627658647 
0.33281043245 0.34193643196 0.34041880141 0.33934514679 0.3375335125 0.33594385 0.35128843727 0.32603640532 0.3130377278 
0.33791902454 0.31975601003 0.33351343454 0.32937076706 0.31835025654 0.33724617162 0.32216854335 0.33032744689 0.31108360902 
0.32974786809 0.31497375347 0.31021834578 0.30912943255 0.30908096707 0.31023240735 0.31217842189 0.31479972819 0.31830007524 
0.32281812413 0.32058824051 0.3718139757 0.31802888113 0.32572324719 0.32171508559 0.31734306372 0.31264636566 0.31024118598 
0.31004554785 0.30768666263 0.31097705771 0.3185272509 0.31960634907 0.31375041835 0.330279541 0.33290893933 0.32448198463 
0.3254593784 0.29807484543 0.33644996944 0.29563656975 0.33962446222 0.32810359389 0.32594378769 0.32888873898 0.32970570397 
0.31804353528 0.33546991291 0.36058992596 0.33489111148 0.32747281131 0.33085138079 0.35627422279 0.32691308811 0.32477846552 
0.33901428451 0.33230379 0.30345442272 0.3139550996 0.36605294024 0.33693728922 0.36163012241 0.34385878715 0.33325064994 
0.30932198514 0.33383975167 0.33068302477 0.33100208323 0.32250814853 0.32634562387 0.3243670937 0.32697297954 0.34741490201 
0.32431305392 0.32807328154 0.32111088499 0.31978271678 0.31842691761 0.31689900578 0.31479428616 0.35031893089 0.34717852369 
0.34299747395 0.33960194409 0.33301445051 0.34059063852 0.32327502042 0.34108378654 0.32267575945 0.34710854213 0.34877775642 
0.32583435688 0.32202706671 0.32693613368 0.32863531493 0.32066081707 0.32008866993 0.32090749182 0.32287120552 0.3245029559 
0.3266465221 0.35803451914 0.36031724155 0.33117633742 0.33237481551 0.32179791767 0.31866670675 0.31694215809 0.31844771544 
0.33970888667 0.32704058728 0.3239220673 0.33125928284 0.32496420362 0.34929296324 0.34163354331 0.32719366798 0.34169666287 
0.32813202999 0.33155174283 0.32904898125 0.34270949756 0.33600136374 0.32805506754 0.32390117576 0.31972714033 0.32230604537 
0.35619895521 0.33833234949 0.33805233844 0.32417054091 0.32584872014 0.35076215431 0.33166850026 0.34178426812 0.33198232771 
0.32866879773 0.3306676001 0.33032804296 0.32908332347 0.3307724867 0.33659567525 0.32019520814 0.34395163349 0.33096164856 
0.3352050901 0.33162313829 0.32261490894 0.3268184417 0.33270861279 0.34815902145 0.33371514541 0.34859895272 0.33182412035 
0.33672010252 0.33242526355 0.32983107288 0.33863062682 0.3275971645 0.34525631345 0.33867935362 0.51478494057 0.50985591914 
0.41202779863 0.26333829963 0.23994428717 0.21115376952 0.19907151405 0.19217521398 0.18914329201 0.18365246075 0.18030070791 
0.1768683066 0.17653355297 0.17364533813 0.17660346309 0.17506737394 0.17569530785 0.17963837975 0.18285560859 0.19081350027 
0.20421239256 0.21899082785 0.23193586418 0.26829131946 0.46417960581 0.45700260947 0.25924028698 0.22702057158 0.21290469047 
0.20181631599 0.19805411522 0.19519143142 0.18636269082 0.17006704995 0.1758896027 0.17806229222 0.17937367975 0.17644183601 
0.16458453785 0.17184581397 0.17846890746 0.1789949686 0.1774280079 0.17820389602 0.18619314786 0.19586233503 0.20166374854 
0.20621179763 0.21125459049 0.21858940413 0.25050978233 0.39018859722 0.33328168827 0.33330169995 0.33355235279 0.3340350197 
0.33462210572 0.33519717192 0.33574216441 0.3361381543 0.33634878655 0.33637632172 0.33624321164 0.33591894235 0.33548195032 
0.33500796707 0.33449498856 0.33401202339 0.33357254204 0.33323336278 0.33298287914 0.3328040356 0.33273118266 0.33274735236 
0.33282627114 0.33294282316 0.33307673536 0.33320495964 0.33330176978 0.33332869693 0.56593451185 0.36659238463 0.32782964216 
0.30772917358 0.29779329532 0.29245301037 0.28984645824 0.28920061898 0.28951113458 0.29070114892 0.29246772211 0.29453022977 
0.29685586625 0.29961343663 0.30247039044 0.30546408235 0.30857588863 0.3116475418 0.31456291911 0.31714942731 0.31935398481 
0.32089942882 0.32171475432 0.32176370171 0.32086212861 0.31893441947 0.31564766144 0.31103839151 0.30553395794 0.29941885431 
0.29409440902 0.29133340565 0.29183972534 0.2953913257 0.3008703375 0.30694933367 0.31281195063 0.31789896023 0.32206865076 
0.32554591448 0.32838024126 0.33048534968 0.33202480705 0.33304449928 0.33344766691 0.33341884569 0.33331495806 0.33343630241 
0.3337941274 0.33435327805 0.33514498208 0.3362330414 0.33756189457 0.33893573032 0.33928698324 0.33683068439 0.33020258365 
0.32002023805 0.30850382397 0.29801444664 0.29110591725 0.28774772556 0.28710125254 0.29022622612 0.30371011161 0.3219363016 
0.36905781443 0.53122938373 0.8354236453 0.79518337979 0.77242697307 0.64738657827 0.65327000908 0.80288943782 0.65925726374 
0.65325372906 0.63847265173 0.61992852954 0.69688455875 0.47934488784 0.36912693544 0.62732534311 0.39281494122 0.452683105 
0.54247287145 0.59481072752 0.62574948048 0.64539822242 0.65347203932 0.65987200933 0.66314699789 0.79394160673 0.65621979993 
0.66051172216 0.68154176537 0.87736131348 0.63993367714 0.3332381833 0.33334063404 0.33365630157 0.33432807987 0.33510504928 
0.33578908209 0.33624020251 0.33639494493 0.33628063362 0.33592017917 0.33538102187 0.33473641127 0.33409948303 0.33354195943 
0.33314084646 0.33287870808 0.3327529553 0.33276122215 0.33286612451 0.33302603042 0.33318448884 0.33329335328 0.33333195353 
0.53443165488 0.37521960268 0.32153351051 0.30330288488 0.29421151351 0.29048699076 0.28950868911 0.29018800313 0.29195836554 
0.29438125305 0.29724932212 0.30062057893 0.30441057959 0.30838055019 0.31227007898 0.31578578261 0.31870092118 0.32081105178 
0.32182960973 0.32154827432 0.31986982998 0.31639962797 0.31071138584 0.30361463596 0.29650383041 0.29203925995 0.29216501424 
0.29662176224 0.30305509675 0.31010280093 0.31641628063 0.32167573066 0.32597413664 0.32920017674 0.33148286477 0.33284637238 
0.33338282081 0.3334531301 0.33332637036 0.3333993718 0.33366141658 0.33413790459 0.33477829516 0.3356127985 0.33670553349 
0.33810383504 0.33933351033 0.33854493191 0.3338025978 0.3253548111 0.31482549782 0.30420652992 0.29553512686 0.28985958619 
0.2870220538 0.28688319049 0.29134515199 0.29931133302 0.3196855032 0.36018937474 0.56811395955 0.87606785334 0.67443166884 
0.64421518704 0.64981781186 0.65453193208 0.65791752816 0.66150358142 0.65786406986 0.64964474056 0.76995339525 0.60815036382 
0.55946795687 0.54282304713 0.3491645056 0.5969361676 0.39449407269 0.53092760777 0.53927006526 0.72807978785 0.62209806875 
0.6396346361 0.79682718836 0.65578382964 0.65760836767 0.65876579649 0.64713275266 0.65000716806 0.67238311591 0.83157696142 
0.67665475436 0.33331864502 0.3333449694 0.71447654392 0.34322467217 0.76067026351 0.33806810615 0.3799153973 0.37753641111 
0.27588654134 0.21381732388 0.1930170961 0.18034978114 0.17069029328 0.16052696136 0.15331387157 0.16146630632 0.15610457724 
0.15117598377 0.15170349977 0.14263155159 0.1517899093 0.11876986966 0.11851206618 0.13530619513 0.12622484225 0.1293166674 
0.12844797412 0.12494134783 0.13245220396 0.1128722172 0.10636620352 0.13347791427 0.1237973896 0.12851166892 0.12890185805 
0.12722362705 0.1334958008 0.12693725655 0.14042795752 0.14845024737 0.13898803916 0.15016357222 0.14789900293 0.15358990318 
0.15827255578 0.15956738374 0.17147855705 0.16328253883 0.17574695235 0.20313878445 0.25804366353 0.13074689649 0.1141357217 
0.12862193213 0.18973300256 0.33331759788 0.33330884076 0.3333698545 0.33353023427 0.33371434482 0.33345226487 0.33395713677 
0.33422143671 0.33386410534 0.33447328565 0.33474976978 0.33436007526 0.33500952873 0.33529059339 0.33486380378 0.33549167822 
0.33573586514 0.3353376058 0.33589708322 0.3360456752 0.335726713 0.33612562841 0.33618442168 0.33596012839 0.33618666325 
0.33616248811 0.33605030943 0.33610098221 0.33597980505 0.33598527224 0.33585323185 0.33565790652 0.33579494958 0.33548999566 
0.33527538124 0.33547034272 0.33506756843 0.33482129399 0.33509648799 0.33459455058 0.33434841263 0.33467331523 0.33415275624 
0.33393221291 0.3342595706 0.33375170098 0.33354491601 0.33386844731 0.33340301845 0.33327085734 0.33354092048 0.333146753 
0.33303973814 0.33328189315 0.33296014266 0.33289151739 0.33308965871 0.33285328771 0.332844206 0.33297074925 0.33283845091 
0.33285827984 0.33292023702 0.3328752629 0.33292430367 0.33294413675 0.33296499186 0.33302454517 0.33300047801 0.33307480082 
0.33313909584 0.33308511111 0.33318211176 0.33323994927 0.33317817767 0.333278488 0.33331628586 0.33327142678 0.33333444843 
0.33333058732 0.33335417783 0.33333190852 0.42853793767 0.4891364588 0.37817517618 0.35205010169 0.3382705786 0.38222082378 
0.32599174342 0.31890803949 0.3439535737 0.3115630914 0.30731104016 0.32562946465 0.30326438586 0.30101786313 0.3146474015 
0.29853847255 0.29772456225 0.3080762005 0.29631989625 0.29624763904 0.304266301 0.29572699433 0.29604473786 0.3023121692 
0.29556181371 0.29625041724 0.30120051285 0.2964101072 0.29729992848 0.30088726376 0.29782667482 0.29884906522 0.301493784 
0.299504862 0.3006403578 0.30254847265 0.30142478931 0.3028285629 0.30386075555 0.30375335106 0.30514303725 0.30548915178 
0.30605684892 0.30757644707 0.30725782278 0.30860815956 0.31008362838 0.30915650643 0.31104568247 0.31247675096 0.31105338611 
0.31339597535 0.3147441925 0.31287010352 0.31551823207 0.31666919225 0.31453283604 0.31731092142 0.31827175163 0.31586868292 
0.31856843499 0.31911166692 0.31678947711 0.31925672973 0.31941892332 0.31712485064 0.31924010869 0.3190173576 0.31707203928 
0.31848211598 0.31777217257 0.31635573592 0.31691734562 0.31568012234 0.31501160233 0.31452058666 0.3125696761 0.31303749372 
0.31103516118 0.30864258089 0.31037979264 0.3069305656 0.30408668393 0.30732881056 0.30234591886 0.29949847511 0.30384575839 
0.29809657458 0.29612969085 0.30056009474 0.29576331845 0.29514008416 0.29881213421 0.29598867187 0.29704058672 0.29942495421 
0.29848593237 0.30086474333 0.30164779762 0.30310056281 0.30581067732 0.30548569306 0.30803622482 0.31109025055 0.31006049584 
0.31331439184 0.31592068927 0.31456421107 0.3178245933 0.32018882062 0.31862903249 0.32191251094 0.32371576526 0.32219588399 
0.32510922092 0.32670163975 0.32517937066 0.32777563072 0.32895429811 0.32761039296 0.32979406877 0.33071548269 0.32947036224 
0.33140576755 0.33206956461 0.3309638802 0.33252309571 0.33285350763 0.3320765592 0.33318309904 0.33323212315 0.33278366035 
0.33364855619 0.33386922305 0.33401920072 0.33434219379 0.33383247447 0.33453106523 0.33497171389 0.33414591068 0.33516739547 
0.33574891953 0.33450770253 0.33579141698 0.33641747699 0.3347471417 0.33617286309 0.33572461322 0.3346318306 0.33240433816 
0.33257759999 0.33036348096 0.3263575062 0.32966633001 0.32331960909 0.31798826161 0.32477970737 0.31468008793 0.3095130361 
0.31847032262 0.30708260393 0.30275027122 0.31274323701 0.30146162719 0.29937077227 0.30911349322 0.29969404356 0.2990896458 
0.30835885731 0.30073474231 0.3018655658 0.31029758285 0.30578150178 0.31028002823 0.3151434146 0.3365192551 0.35321127888 
0.37767716209 0.41494871278 0.37744841195 0.40614126693 0.35535750243 0.33023434119 0.31139598454 0.30273163203 0.40852405669 
0.29098760819 0.28342569953 0.37866279082 0.27802988889 0.2706942954 0.35933408511 0.26769305342 0.25912196942 0.30514514033 
0.26161193686 0.25556310695 0.30178465488 0.25419395327 0.25216572538 0.29629881828 0.26209888196 0.2598576339 0.33072802869 
0.25231727237 0.24832297865 0.33038020129 0.24768781199 0.24572613533 0.2899811927 0.24670812826 0.24539357258 0.28527218807 
0.24533935156 0.2452475774 0.28634550435 0.2544466247 0.25528713657 0.32578408572 0.2486154523 0.24634863596 0.32508400967 
0.24494990805 0.24699439796 0.2884090507 0.24722827448 0.24907244274 0.28641284145 0.24693856752 0.24961760226 0.28770756101 
0.24978990395 0.25744928584 0.29081483413 0.25459810739 0.25563255619 0.32609916163 0.25283632558 0.25852113338 0.29584020489 
0.25898774786 0.26513759445 0.29907566137 0.26483377396 0.27303159215 0.30815279142 0.2774577781 0.2885850404 0.32089071588 
0.30318478812 0.31469095833 0.37308431167 0.32067695422 0.33425640466 0.40612287333 0.41150315945 0.44625296384 0.37418380901 
0.39491724468 0.38548038088 0.34973921986 0.3591240489 0.36901912274 0.3329753569 0.33662955246 0.35007191877 0.31968537195 
0.32142776707 0.33409670205 0.30905130361 0.31045996533 0.32130401372 0.30075715687 0.30021369043 0.31037151219 0.29242010526 
0.29242858197 0.3013409505 0.2823234952 0.28329960465 0.29228605308 0.26968010128 0.27344747659 0.2814155142 0.24862376204 
0.25810952785 0.26753059467 0.20841699719 0.23185967402 0.24750367509 0.20865377161 0.20726187749 0.23800422496 0.512383437 
0.38475039941 0.24167266529 0.20282246792 0.19544774189 0.22418486016 0.23459873007 0.23464464199 0.24822815316 0.23655443143 
0.25947005086 0.26350924137 0.26072854992 0.27113648687 0.27356477466 0.26934676298 0.28201139392 0.28311034186 0.28066867517 
0.29063873779 0.29158530641 0.29036569617 0.30046122956 0.30119978829 0.29991214408 0.3103257967 0.31126841986 0.30972465415 
0.3199760114 0.32380400334 0.32081768688 0.33540709526 0.34010805802 0.33476764884 0.35376646012 0.36694168017 0.35528976595 
0.3818035064 0.40026964097 0.37739977076 0.41435540879 0.45693372519 0.39002859079 0.45054786233 0.34543303043 0.33330795829 
0.38904357179 0.33340771299 0.33353533139 0.37909145057 0.33617017172 0.33660560237 0.32577011938 0.31787497383 0.32591302701 
0.33391955726 0.37948569496 0.47692507837 0.36135676326 0.25364340702 0.28212483139 0.53105778596 0.47234259088 0.31881540809 
0.25371827925 0.410674369 0.53676848738 0.42993505252 0.42663262108 0.28262082614 0.33358042099 0.44831801396 0.33362722345 
0.33389962147 0.33419735656 0.33446891718 0.3339874085 0.33475202115 0.3350340462 0.3346151599 0.33527859423 0.33551132155 
0.33519727479 0.33572223075 0.3358972106 0.33571536302 0.33601587757 0.33610169159 0.33608255392 0.33612559549 0.33612678011 
0.33623446704 0.33608767639 0.33600909458 0.33621147406 0.33588572755 0.33574315963 0.33602611328 0.33557074126 0.33537956281 
0.3356888854 0.33518578859 0.33497169419 0.3352826996 0.33475853121 0.33452795003 0.3348404784 0.3343195029 0.33410810456 
0.3343994544 0.3339232073 0.3337336815 0.33397681228 0.33358648046 0.33344189372 0.33361324321 0.33332869122 0.33321268205 
0.33334697929 0.33311487136 0.3330384997 0.33313364021 0.33298743535 0.33295331946 0.3329927256 0.33293554949 0.33293316204 
0.33292961075 0.33294292418 0.33296826422 0.33293631729 0.33299678558 0.33304040952 0.33299441724 0.333083654 0.33313706011 
0.33308000856 0.33318282571 0.33323519459 0.33317670411 0.33360031556 0.33374513289 0.33315316891 0.35546769789 0.34300338223 
0.33628716669 0.328795832 0.34326392621 0.32371429991 0.31948389652 0.33139403734 0.31617955602 0.31382867327 0.32368877727 
0.31122874733 0.30968010275 0.3181539323 0.30805851493 0.30748898505 0.31418301077 0.30642439011 0.30595799849 0.31155249025 
0.30533013813 0.30538466569 0.31001411487 0.30507834355 0.30554862386 0.30915416859 0.30545268964 0.30601202155 0.30878021172 
0.30624705779 0.30692288338 0.30897710983 0.30721561838 0.30808484862 0.30947508979 0.30842627044 0.30931046444 0.31008815807 
0.30977021331 0.31071836371 0.31087883562 0.31120091135 0.31208989027 0.3118075157 0.31252244093 0.31339248577 0.31272647073 
0.31376965687 0.31449484597 0.31352613541 0.31467758324 0.31527967636 0.31409400967 0.3153416631 0.31554494072 0.31426873095 
0.31540734547 0.31552695289 0.31414129911 0.31518353574 0.31503825523 0.31368459099 0.31456677833 0.31405690355 0.31290870427 
0.31342658005 0.31258624488 0.31182051197 0.31188114845 0.31074242313 0.3104535567 0.30997335708 0.30858073597 0.30899378409 
0.30772073774 0.30612349427 0.30740033424 0.30516736551 0.30336706109 0.30556462913 0.3023711826 0.30090343819 0.3033233578 
0.30062053788 0.30022955348 0.3015864525 0.30107776732 0.30208887262 0.30232537913 0.30392288935 0.3053693677 0.30517517792 
0.307618996 0.30996140197 0.30956538752 0.31208270166 0.31438136672 0.31421871945 0.31627602498 0.31849418261 0.31845846169 
0.32000356883 0.32187975945 0.32194540185 0.32318597382 0.32476287361 0.32470911486 0.32580668395 0.32708097446 0.32694563699 
0.32786134872 0.32890633023 0.32863108089 0.32945827869 0.3302606932 0.32987478787 0.33081457205 0.33149273806 0.33096275512 
0.33193464734 0.33235350419 0.33188277936 0.33273861531 0.33303194304 0.3326891367 0.37025548069 0.38889372481 0.36139736468 
0.33454048067 0.33373938459 0.33389975135 0.33379347334 0.3339566138 0.3333938275 0.33381671788 0.33378850181 0.33313148674 
0.2861295325 0.28071041143 0.34372328323 0.38212622046 0.316761613 0.3297240218 0.3279033637 0.32645485874 0.32362217306 
0.32697718716 0.32156537265 0.31833688761 0.32343917667 0.31682694759 0.31449661423 0.31452828903 0.313532846 0.31766800751 
0.31499371309 0.31556519084 0.31914462674 0.31742735161 0.31903876002 0.32231912141 0.32074741887 0.32398954499 0.32519443328 
0.33214745472 0.33184634686 0.36561565662 0.37954352951 0.44521650848 0.43447118211 0.37790317793 0.33389631741 0.32494100624 
0.31563091254 0.30596529717 0.32538041806 0.30273390137 0.30415304828 0.31490939318 0.2939707535 0.2966535243 0.3071865816 
0.2907787586 0.29382328082 0.30030308752 0.28806273394 0.28187699344 0.29489385786 0.28008283706 0.28150920204 0.29071495676 
0.28233272809 0.28117467897 0.28784210674 0.28120781868 0.28237845617 0.28754503493 0.27865973192 0.28148095775 0.2865328086 
0.27822652701 0.27482800494 0.28490761262 0.27454712838 0.27800029119 0.28430342968 0.2808930703 0.27825176592 0.28414662112 
0.28084809589 0.28002150072 0.28559919828 0.28162739882 0.27987956074 0.28679983991 0.28108486692 0.28065616321 0.28759092456 
0.28084153711 0.28104298591 0.28891292576 0.28828003044 0.28799065614 0.29165430741 0.29505264187 0.29330697461 0.29663682902 
0.3014736765 0.30079322696 0.30332483304 0.31051324505 0.31423110499 0.31219040106 0.3232235249 0.33078565582 0.32421192808 
0.34443247287 0.35396338902 0.36469151276 0.36427987211 0.3673424821 0.35235457525 0.35283913913 0.3280097862 0.33763612667 
0.31702427661 0.32560472575 0.32783994153 0.30739658859 0.31521985007 0.31793981593 0.29904832671 0.30649310017 0.30908179881 
0.29027648066 0.29815142123 0.3010141516 0.28036427301 0.28892624387 0.29286307009 0.26816809985 0.27854263219 0.28417158785 
0.25619471373 0.26776439985 0.27686532902 0.27614818048 0.26463695368 0.27941043607 0.29201833665 0.2873656223 0.33343710484 
0.333549771 0.37454914963 0.4026212618 0.24366545279 0.2545460364 0.25661073554 0.26425183561 0.26390579517 0.2681553754 
0.27708960778 0.27096595772 0.28006788915 0.28661924475 0.28038514381 0.28954446351 0.29582827073 0.28927076951 0.29863942815 
0.30542585174 0.29832933709 0.30838588561 0.31525151901 0.30767936307 0.31891030634 0.32676902792 0.31759107996 0.33125261242 
0.34082348045 0.32867788067 0.34621006059 0.35479894887 0.3405204269 0.35889493868 0.36840546991 0.3508453339 0.36786413331 
0.36863409565 0.35453943917 0.33287073981 0.33260663181 0.33212804312 0.32569124012 0.33220633773 0.32765337086 0.33141150692 
0.33051971748 0.32909003276 0.33007342726 0.36008618637 0.38017723276 0.34031801622 0.35112765241 0.33818551461 0.27159644808 
0.25132596537 0.26904101314 0.34133537749 0.29824627184 0.33319907998 0.33335100229 0.33335511755 0.33340333044 0.33351786564 
0.3334723659 0.33330956597 0.33336303127 0.33339263221 0.35796136754 0.28873654354 0.28440201361 0.29393008437 0.33868943837 
0.34818905133 0.34852434402 0.31944541878 0.33080449269 0.31943005785 0.29584842113 0.37341326087 0.39809157997 0.36018513899 
0.34472279819 0.34500079328 0.34775555329 0.32900492473 0.33184778571 0.3329413839 0.29551978567 0.30267861249 0.42043829544 
0.38398858901 0.35087980893 0.38536372063 0.41745413404 0.4199440352 0.35976916089 0.41218778005 0.30169528825 0.33444502786 
0.33479631708 0.33516618694 0.33548880838 0.3350541725 0.33583026542 0.33607951401 0.3358419327 0.33632121197 0.33646312792 
0.3365171243 0.3365697795 0.33660286073 0.3368848975 0.3365618097 0.33649500707 0.3369433898 0.33634666098 0.33618677838 
0.33672567687 0.33595954914 0.33575130194 0.3363155963 0.33548658724 0.33524851073 0.33574668687 0.33497075032 0.3347153197 
0.33514745387 0.33445022781 0.33420400494 0.33456269977 0.33396036831 0.33375047486 0.33400516754 0.333577325 0.33341691885 
0.33353630953 0.33328531265 0.33316457503 0.33321588941 0.33305630045 0.33296375805 0.33296907042 0.33289325075 0.33284798617 
0.33279173707 0.33283549678 0.33282902194 0.33271624132 0.33285167242 0.33287619379 0.33274017029 0.33292627824 0.33297586264 
0.33283962207 0.33304056983 0.33309901846 0.33297950242 0.33368282508 0.33404903949 0.33421852698 0.30629545309 0.2995821684 
0.33301901116 0.33336203723 0.33339213858 0.33265356483 0.33591842083 0.33153286063 0.32842209598 0.32561050148 0.33153339178 
0.3234631024 0.32085693499 0.32716081273 0.31918554689 0.31750217062 0.32343408909 0.31620760427 0.31506778503 0.32042197792 
0.31417048272 0.31357069125 0.3181722151 0.31267831812 0.31242061693 0.31646196149 0.31190854847 0.31184647197 0.31517157786 
0.31163762825 0.31179421881 0.31453846527 0.31160321249 0.31184025846 0.31408630277 0.31172007087 0.31202608128 0.31370904925 
0.31205198504 0.3124833406 0.31360472759 0.31255385775 0.31298528849 0.31368356795 0.31305207852 0.31347748226 0.31381486003 
0.31347300545 0.3138491266 0.31390118338 0.31373595107 0.31388226027 0.31379449941 0.31360820015 0.31359514547 0.31336809534 
0.31315358486 0.31295325036 0.31257152392 0.31238677717 0.31207769702 0.31147695929 0.31141414476 0.31099924827 0.31022961367 
0.31024781034 0.30963716784 0.3088141114 0.30899939219 0.30834681179 0.30742709814 0.30783748293 0.30715658831 0.30630906742 
0.30683129372 0.30597473131 0.30550619119 0.30555740149 0.3043816273 0.3048551205 0.30392106186 0.30270735443 0.30368821491 
0.30194643571 0.301635979 0.30208566331 0.30169107443 0.30273044364 0.30129205449 0.30593431121 0.30804091222 0.30490351826 
0.31129113453 0.31379805143 0.31219056835 0.31639275293 0.31874403716 0.31849598844 0.32091508857 0.32290707316 0.32339601511 
0.32449932475 0.32595190718 0.32719145237 0.32696501374 0.32816662451 0.32964484121 0.32868932831 0.32959618716 0.33100456197 
0.32979122128 0.33048085179 0.33157209693 0.33061598767 0.33115078566 0.33183154352 0.33137378445 0.33187896248 0.33216464583 
0.33205650815 0.33246742727 0.33286244927 0.33252696383 0.28469586102 0.27405246631 0.29676066923 0.29129075356 0.29506646283 
0.33328277284 0.33326599915 0.3330138027 0.33287987406 0.38960864321 0.33238356468 0.33226630805 0.34732505277 0.33930134851 
0.35134309618 0.34544338414 0.35663355325 0.36902365264 0.32491434866 0.32277201659 0.32952867426 0.32925345237 0.32207927827 
0.32373949104 0.32599208528 0.32760814094 0.32847978118 0.32810095008 0.32908941434 0.33088194782 0.33825935681 0.31545868584 
0.34861827189 0.35631868279 0.34122908939 0.34458353312 0.39263853052 0.36306782617 0.34837408289 0.33610838051 0.32101326536 
0.31923685331 0.32209590232 0.32102212521 0.31638285988 0.31266037437 0.30963351592 0.31964598638 0.30609024781 0.30333066265 
0.31249842961 0.30113880816 0.29847930707 0.30701494936 0.29607137699 0.29467202308 0.30224347895 0.29312624266 0.29238688764 
0.29873550252 0.29212986084 0.29163490329 0.29678932526 0.29136809831 0.29089769779 0.29596934195 0.2898568829 0.28923038583 
0.2948983354 0.28843362777 0.28845475938 0.2934430847 0.2884928921 0.28871587403 0.29271044142 0.28987386019 0.29040827808 
0.29372999916 0.2908438987 0.29145323646 0.29522468287 0.29220594953 0.29293048437 0.29651657714 0.29361328777 0.29478818812 
0.29808260563 0.29673116237 0.29850611472 0.30051844031 0.30077951191 0.3031086764 0.30442113258 0.30581503905 0.30970664278 
0.30954262049 0.31318432657 0.3185022189 0.31614863422 0.32312166047 0.33143999225 0.33639952881 0.32481546429 0.30914345536 
0.31319726305 0.32524672933 0.33003665083 0.30293347928 0.30656056881 0.31070110768 0.29570151577 0.29950429052 0.30529729203 
0.28876129029 0.29261146158 0.29929057765 0.28656460448 0.2878464912 0.2957167643 0.29651473558 0.28977654987 0.29903071183 
0.3064352711 0.30560832017 0.36558529505 0.37814941942 0.35243638928 0.39040504362 0.40920666848 0.27534270954 0.27962119875 
0.28237219359 0.28662074643 0.28585946081 0.28995545166 0.29429054828 0.29154099398 0.29789520416 0.30239667472 0.29825037349 
0.30642586579 0.31118948347 0.30573778945 0.31526432459 0.32044835683 0.31373327385 0.32487018617 0.33055672937 0.32200516421 
0.33481852036 0.33977886741 0.33025000798 0.34295806941 0.34602950052 0.33668657581 0.34656810688 0.34663956491 0.34143634301 
0.33133024101 0.32825626834 0.32892454593 0.32728506814 0.32680874302 0.32982976538 0.33365199925 0.33803299384 0.33571344418 
0.33024188119 0.34047854291 0.32747378494 0.326079342 0.31945870072 0.31950319821 0.32309994448 0.32013602579 0.31682511497 
0.32120792821 0.3234862898 0.31646806784 0.31355292478 0.30076780433 0.32944439638 0.39388974673 0.39906123909 0.27217985207 
0.2737736683 0.28190321914 0.28381444423 0.33317492325 0.33324242153 0.33332053162 0.3328286971 0.31087633216 0.33332412726 
0.33207051935 0.35060856339 0.34653954576 0.34572019763 0.33337290989 0.32530442241 0.30436851821 0.29785466088 0.32850944543 
0.32790011054 0.32676229545 0.32776240356 0.32879423231 0.36054423932 0.37567903178 0.31928495595 0.30849225603 0.31133769452 
0.38069022418 0.38639142923 0.33294048308 0.32456066241 0.36042008537 0.34600451787 0.34603044944 0.33964891186 0.33317073726 
0.33772389406 0.30651256075 0.36676019808 0.38188620665 0.37804935398 0.3391586858 0.3302276259 0.33007745042 0.32849445844 
0.32860125926 0.3331527563 0.29673845508 0.29574447851 0.3307958878 0.37998351822 0.30037722374 0.33908750788 0.33598407665 
0.33641184528 0.33685616927 0.33716427607 0.33711316069 0.33747682421 0.33760308437 0.33794634724 0.33770400025 0.33763596776 
0.33837424471 0.3374296438 0.33723943818 0.33823939344 0.33687363369 0.33658147644 0.33760441951 0.33616654817 0.33583180857 
0.33671496471 0.33542458244 0.33507854622 0.33579831032 0.33466669925 0.33434373198 0.33489584765 0.33397939995 0.33368465964 
0.33407056767 0.33341218511 0.33321225063 0.3333695495 0.33303622723 0.33290011193 0.33287973066 0.33282810249 0.33271635072 
0.33262955135 0.33257668644 0.33250680787 0.33240900807 0.33248368486 0.33248739738 0.33225247389 0.33257153571 0.3326121121 
0.33231560532 0.33265446626 0.33273711441 0.33249265514 0.33289577775 0.33298604223 0.3327309304 0.33151195812 0.33387945935 
0.33185122621 0.33132384901 0.29022257694 0.29237432655 0.33324085014 0.33264166578 0.32971297934 0.32921126952 0.32707495538 
0.32917184011 0.32651939483 0.32467286999 0.3276342263 0.32388151759 0.32248032441 0.32616664435 0.32164878392 0.32064119617 
0.32450253117 0.31985699385 0.31901873091 0.32284232229 0.31783207942 0.31744267597 0.32094671849 0.31732680544 0.31710879523 
0.31984911894 0.31654744246 0.31628911868 0.31920465314 0.31579142643 0.31563303715 0.31810224609 0.31517386843 0.31518446198 
0.31716207995 0.31485896023 0.31490545955 0.31637716085 0.31470187296 0.31475225419 0.31589565494 0.31448154148 0.31451309134 
0.31545204449 0.31410283378 0.31399162391 0.31482105273 0.31337238473 0.31307133629 0.31381975018 0.31225091751 0.31174210182 
0.31237902671 0.31073565552 0.31012689971 0.31051296568 0.30909475001 0.30843427708 0.30836855353 0.30722107228 0.3064977847 
0.30602328677 0.3053498648 0.3047820315 0.30364393483 0.30420730049 0.30383643774 0.30189162599 0.30336817445 0.30334664708 
0.30078440723 0.30273547941 0.30219830243 0.30226623093 0.30151846264 0.30035255613 0.30903578923 0.32055622468 0.32347060474 
0.32678224961 0.32904674898 0.32981571651 0.33067809968 0.33226577581 0.33445233512 0.33280864508 0.33371965077 0.33663657329 
0.33380339629 0.33420233979 0.33703058397 0.3337243003 0.33379722449 0.33646010214 0.33329487056 0.33335768392 0.33531661709 
0.33308547144 0.33325486475 0.33442261437 0.33543197173 0.33606744389 0.29991508742 0.29488504521 0.33684132381 0.33265654753 
0.33027427169 0.33002414544 0.34999762472 0.35660114393 0.31436111933 0.31430303391 0.30841290158 0.31105900915 0.32684665466 
0.32658795828 0.33426299506 0.33501091286 0.33392046945 0.33387959989 0.3375318151 0.35855515094 0.33997768799 0.32250837545 
0.32038276319 0.332710216 0.33243932911 0.34250124748 0.34963781354 0.37041229289 0.37673108449 0.31789604664 0.31441182479 
0.31275337769 0.31056764173 0.31787909085 0.3086669703 0.30674417949 0.31458187153 0.30453329052 0.30302313904 0.31060988067 
0.30155548611 0.30098455575 0.30712146815 0.30081792314 0.30039234771 0.30553763213 0.3003504018 0.2997968466 0.30533365985 
0.29907560581 0.29848935849 0.30467378948 0.29709678956 0.29704246106 0.30253629996 0.29848485969 0.29920918934 0.30258583051 
0.29995404953 0.30059524597 0.30469129583 0.30115058893 0.30182636633 0.30591309401 0.30266100046 0.30350728501 0.30719889731 
0.30491864675 0.30655759904 0.30941385616 0.30820730965 0.31028414121 0.31227128927 0.3124242235 0.31528381749 0.31588847439 
0.31808864101 0.32155290761 0.32065635702 0.30365307289 0.3060510575 0.31171044959 0.31378472152 0.31585755632 0.31596974417 
0.301978565 0.30208653918 0.30830076621 0.30972954142 0.3061177454 0.3111388465 0.32512264124 0.32373883299 0.32200788042 
0.35461905978 0.36057049745 0.34534949575 0.37713027872 0.36989425406 0.37817383091 0.37253644893 0.36739167936 0.37465414309 
0.36655401781 0.31361225889 0.30961047429 0.31524141076 0.33584458244 0.33843157143 0.33147890418 0.29352595937 0.29648028391 
0.29706156008 0.29903480132 0.3023427501 0.3005985348 0.30507111298 0.30886308444 0.30549666299 0.31197841498 0.3158429878 
0.31091584013 0.31900204905 0.32299738121 0.3169153003 0.326142269 0.3295788864 0.32271530844 0.33163636642 0.33375711364 
0.32986753663 0.32750116719 0.30009370264 0.32648880073 0.33489678592 0.33537574423 0.33589687631 0.3272749286 0.33376557169 
0.3342560322 0.33455520773 0.33325967668 0.31635457354 0.31446279908 0.31868207953 0.33061247234 0.32242887747 0.33016454912 
0.33624307654 0.33297421725 0.33266984541 0.35268536112 0.3617671568 0.34528531666 0.34230101208 0.33911654903 0.32710444944 
0.31893320508 0.33555336926 0.3246418635 0.33379941026 0.33125773975 0.33178925257 0.33311036028 0.2974681215 0.29104567156 
0.28716049165 0.29795299952 0.33307654728 0.3175693628 0.32180572599 0.32518515298 0.32527983285 0.32598225463 0.31884906918 
0.32085287444 0.40728941563 0.5194135292 0.33224489719 0.33554008126 0.33678052739 0.32552792753 0.32491005176 0.33349083394 
0.33098020965 0.33395542441 0.31397471846 0.31297324093 0.35796069295 0.35509650976 0.33183373156 0.36834790133 0.36310087515 
0.36193040487 0.35053914562 0.35896905859 0.32546000173 0.32607793326 0.3259671674 0.32361823587 0.32446074069 0.32733495611 
0.32624518963 0.32774438873 0.32726981606 0.32998647647 0.32860482256 0.32529146542 0.32301761735 0.35925536955 0.32364389297 
0.31950552295 0.31956674471 0.3263956898 0.32232568435 0.32084741513 0.32920186872 0.32303719377 0.3262054829 0.33201302877 
0.3217430787 0.28775095236 0.28887242016 0.29495575399 0.29367997547 0.36190741272 0.31700517878 0.32722245995 0.3375015535 
0.33808589578 0.3385535781 0.33893010825 0.33908689875 0.33948681044 0.33963712963 0.34030775569 0.33954805725 0.3392724044 
0.34077745308 0.33865156519 0.33817110583 0.33995769139 0.33740330764 0.33689223976 0.3384842809 0.33636091677 0.33584132172 
0.33695838068 0.33517987876 0.33468228462 0.33565650845 0.33408046012 0.33364095691 0.33430823977 0.33320336675 0.33288325309 
0.33319103943 0.33261970923 0.33243184697 0.33243660122 0.33226030443 0.33220786358 0.331976154 0.33204329981 0.56295870368 
0.51269447953 0.33188087672 0.33187050295 0.33163757741 0.3319827862 0.3321069423 0.33161702306 0.34368372625 0.34620635474 
0.31833940574 0.31915818885 0.32818671149 0.32936419212 0.3278803911 0.32744262 0.32775670098 0.3268534909 0.32766660452 
0.32681587511 0.32588380955 0.32799465724 0.32543995813 0.3245774658 0.32736506228 0.32372931563 0.32253520432 0.32602267937 
0.32249799452 0.61300950627 0.54220851891 0.3219887413 0.32138495393 0.32459993431 0.3202018437 0.31966733532 0.32287685327 
0.31928418548 0.31881022889 0.32131631808 0.31784434303 0.3175119291 0.31986889714 0.31727208033 0.31705053162 0.31875041398 
0.31663022717 0.31639859355 0.31807879531 0.31577773033 0.31542834321 0.31710430978 0.3145884407 0.31396886354 0.31574450687 
0.31286625096 0.31202907765 0.31374616282 0.31027950661 0.30915721617 0.31096111324 0.3007787687 0.2994486942 0.2983870596 
0.2977526611 0.33297249877 0.33623350519 0.34030977465 0.34168481469 0.34447846693 0.34045937463 0.3409702557 0.34654880908 
0.3409500269 0.34085617156 0.34496560089 0.33933823136 0.33876583311 0.34301883249 0.33732678375 0.33671912952 0.33992494654 
0.32681937281 0.32505265721 0.32441793027 0.33473112722 0.31170819784 0.31298228051 0.33666967639 0.33286463222 0.31601346293 
0.31694399024 0.35861670608 0.35000417693 0.34198466027 0.34118501685 0.34103706176 0.3187989886 0.33066032653 0.32947113536 
0.35336615608 0.34131037331 0.34359191094 0.34684328801 0.31460612922 0.31636445242 0.31723993627 0.31960385803 0.31806963564 
0.32416502991 0.31651820758 0.31459694945 0.3217894139 0.31176986526 0.31038922713 0.31754968124 0.30976856552 0.30955316085 
0.31443142268 0.3110337591 0.31112988837 0.31529768551 0.31101907096 0.31033298751 0.31679833516 0.308221793 0.3068326767 
0.31456331009 0.30821367243 0.6376507753 0.64287354743 0.30999202777 0.31058074786 0.31419353985 0.31068182432 0.31110008852 
0.31593471175 0.31138087992 0.31205940341 0.31601516531 0.31336736321 0.31460832872 0.31732722024 0.31579665117 0.31723142586 
0.31971122742 0.31840513079 0.3203741744 0.32166950902 0.32208551589 0.32458503356 0.32787308881 0.32419990377 0.31758387473 
0.31935797464 0.31970899739 0.33778460006 0.34221121495 0.33725405829 0.33205870891 0.33144711616 0.36080998025 0.35986990536 
0.35622456309 0.35163998291 0.33104487454 0.33444536971 0.33258159535 0.32766447273 0.35246702922 0.35758184031 0.30618618575 
0.30849368254 0.31496727545 0.31762470647 0.32025329521 0.32283006037 0.31803362404 0.32745441849 0.33578488305 0.33654403122 
0.33748190374 0.3353012973 0.35439877201 0.36018525542 0.33245612091 0.30374106435 0.29961057693 0.30036643727 0.30506366756 
0.32064715152 0.34092779519 0.34779585131 0.34773892278 0.33097756472 0.32074329837 0.32010646401 0.35349852596 0.33609559925 
0.34075325082 0.33807197603 0.34248563998 0.33179947853 0.3442270973 0.30757291194 0.30637013605 0.32538832954 0.35537332748 
0.31938976601 0.31974330584 0.33739503327 0.3356784753 0.33141988409 0.32371742697 0.3235806679 0.3300086151 0.33027949214 
0.33045649618 0.32731917343 0.32577627885 0.32532885896 0.32476676436 0.32826587492 0.32687367448 0.32882838151 0.32657139602 
0.32745608117 0.32524092257 0.30400340722 0.32175113292 0.32298725197 0.32620628188 0.32528447379 0.34293448957 0.34790929773 
0.32260196185 0.34358666478 0.34834420252 0.32372298824 0.32553815932 0.35459037249 0.33458387134 0.34792000115 0.3218602606 
0.32904112164 0.32744731229 0.32674865939 0.32083136277 0.30209044347 0.30431435872 0.32648580027 0.30998016046 0.31289610378 
0.32160866081 0.32411607144 0.3259019213 0.31380500897 0.34147531664 0.34640522385 0.34274247552 0.34266956182 0.33928538918 
0.33833672943 0.33766709004 0.65078199369 0.65471860951 0.33626718887 0.33545329076 0.33765980704 0.33453206441 0.33382218307 
0.33501915334 0.33303544815 0.3325151805 0.33315594456 0.33203083907 0.33174696818 0.3318576943 0.33166836078 0.33150280271 
0.33122843164 0.3321711666 0.30727474327 0.32885038437 0.3287857035 0.3290119815 0.32852209474 0.32977607316 0.32877227416 
0.32782259332 0.33036146525 0.65854147461 0.65797465023 0.33017474799 0.33293801439 0.3326607643 0.3275177167 0.32699707128 
0.3255623175 0.32428415283 0.32845771119 0.32390425861 0.65968244077 0.57421767514 0.32189402415 0.32092380241 0.32488395691 
0.31985318522 0.31948795599 0.31211111207 0.31025805625 0.33141000334 0.33681775994 0.33891212071 0.34602447677 0.34458423201 
0.34196104415 0.34049605395 0.34462151498 0.33293954577 0.32686955377 0.34882091578 0.35066895079 0.32411171324 0.32337369252 
0.32852060811 0.33069643277 0.33338992153 0.32227160977 0.32160764227 0.33860716278 0.3453478849 0.33996704418 0.31408360819 
0.34028654637 0.31523190069 0.34948992635 0.35111764769 0.33097977233 0.33253915759 0.65562406918 0.65307263299 0.32011263826 
0.32181167546 0.64911783843 0.64626374616 0.32198496396 0.32177885611 0.32777248105 0.32027625489 0.32027909636 0.32610303822 
0.32061882013 0.32158192372 0.32459372523 0.32336284557 0.32417077255 0.32625062558 0.32514732176 0.32462462321 0.32704720874 
0.31521337492 0.33748538479 0.35161409985 0.32494371026 0.3248665362 0.31645742641 0.31708669871 0.31905834418 0.31719754533 
0.31978546558 0.34688255689 0.34376034187 0.32744211875 0.33897089228 0.34090891096 0.64107950158 0.57022340526 0.33202350622 
0.32799808359 0.32059637453 0.31868517411 0.31817850385 0.32109815308 0.34973268058 0.32628212409 0.34086154103 0.35009232332 
0.33653924337 0.330977742 0.33130881178 0.3422724401 0.32504660584 0.32361419622 0.6421043531 0.59394999554 0.34785256048 
0.34625901526 0.32061559927 0.69268309156 0.72326850376 0.33848839367 0.34147807177 0.31973577338 0.31927829491 0.3207855671 
0.32295253639 0.32304178415 0.32226734799 0.34966532776 0.32845967021 0.32378439503 0.3263692202 0.32621836859 0.32436739019 
0.32610316307 0.32041434696 0.32701843484 0.32210337991 0.33628362184 0.33482917494 0.33318310002 0.34163028904 0.34187092311 
0.34104865786 0.33369362711 0.33272421703 0.33124074928 0.33070985384 0.33142021705 0.32903713125 0.33167873171 0.33063178715 
0.33111783788 0.31904883185 0.32862130747 0.34101540724 0.34388579843 0.33083278283 0.32990377272 0.32864277657 0.32812416186 
0.32666055437 0.32772931154 0.3271426767 0.3341314845 0.33732630701 0.32371836386 0.3341594055 0.33393414024 0.34362601954 
0.3211744785 0.32215633868 0.32276675124 0.3375074912 0.33681088326 0.33314100797 0.33075762161 0.33028187726 0.33041764178 
0.33598473286 0.33119002329 0.33149559073 0.33668570162 0.3352851915 0.33468452203 0.33189167872 0.33276236007 0.32535371865 
0.32570144915 0.33049751878 0.32585854824 0.3264640212 0.33016159441 0.32974852218 0.3285606535 0.33389977421 0.32895834276 
0.32882964465 0.32714954402 0.32859002321 0.33048955489 0.33049553187 0.33082408807 0.32925314824 0.32778526996 0.33334393793 
0.33336317988 0.33328474465 0.33386798152 0.33360766785 0.33344826623 0.33454454949 0.33416601214 0.33404763515 0.33521565846 
0.33485900323 0.33469072956 0.33579965554 0.33550142497 0.33531051173 0.3361414002 0.33599102478 0.33580234787 0.33620247376 
0.33620046827 0.33604934028 0.33601233973 0.33612699604 0.33603817206 0.33562021968 0.33585067774 0.33580517638 0.33511300482 
0.33539548257 0.3353999988 0.33452935226 0.33485676303 0.33490419269 0.33397908721 0.33426645352 0.33438476461 0.33349544679 
0.33374398717 0.33388406997 0.33317345721 0.33332548094 0.33347834021 0.33295594722 0.33305416408 0.33319647733 0.33287528143 
0.3329031601 0.33302326346 0.33288928023 0.33286337876 0.33295445063 0.33298067229 0.33291661562 0.33297802202 0.33311086875 
0.33303287779 0.33306514867 0.33323751022 0.33316839781 0.33317688452 0.33332228387 0.33328587442 0.33328607258 0.33333764782 
0.40965172244 0.37418329941 0.40628721603 0.3349039427 0.35434897649 0.37158991578 0.31381215537 0.3207656366 0.33947214221 
0.30326683642 0.30661872053 0.319928495 0.29868359581 0.30004218079 0.31026904993 0.29710204657 0.29730234591 0.30563427094 
0.29686182864 0.29638127321 0.30324254706 0.29794198971 0.2969525466 0.30251870881 0.29956650249 0.29837978184 0.30294423516 
0.30154490793 0.30005812327 0.30372797473 0.30423568279 0.30252062525 0.3050870098 0.30722656535 0.30537253823 0.30706366182 
0.31033420254 0.30841413144 0.30926331338 0.31314257486 0.31140194475 0.3114257896 0.31574606948 0.31418219793 0.31342909866 
0.31763589329 0.31648410057 0.31509206483 0.31887037733 0.31807732718 0.31612625305 0.3189787154 0.3188303451 0.31654566484 
0.31807240715 0.31857815419 0.31605633671 0.31607825542 0.31727271096 0.31486093096 0.31256221722 0.31477719817 0.31288580976 
0.30797279979 0.31110791268 0.31025612039 0.30258541748 0.30602147172 0.30686057548 0.29773297296 0.30069395309 0.30293215139 
0.29593072599 0.29689451025 0.30010895638 0.29786544395 0.29651291509 0.30003972803 0.30243232556 0.29977995899 0.30294677836 
0.30833480881 0.30496331414 0.30755260743 0.31436191525 0.31106641128 0.31291638423 0.31938101385 0.31660220062 0.31781534095 
0.32369340656 0.32135119076 0.32191537832 0.32723438214 0.32539595449 0.32549876571 0.32976784167 0.32841970826 0.32819952728 
0.33160753777 0.3307102802 0.33029037487 0.33272022674 0.33223925884 0.33178973027 0.37634230079 0.33348909526 0.33340981959 
0.33376266495 0.33357939574 0.33355513047 0.33412886387 0.33386178355 0.33375218619 0.33463641532 0.33429471414 0.33398869512 
0.33534768828 0.33489416007 0.33437405 0.33645705209 0.33581250535 0.33647070513 0.33629946106 0.33420552202 0.33441469917 
0.335770363 0.33347742624 0.32952493627 0.33271927763 0.33136075597 0.32235146157 0.32682458397 0.32736467401 0.31449885323 
0.31941525211 0.32198825966 0.30713904617 0.31163671806 0.31634005377 0.30176196687 0.30507122319 0.31163267591 0.29886799615 
0.30067165564 0.3088450399 0.29870829078 0.29900747521 0.30817219143 0.3016718521 0.30033633002 0.30984876675 0.30938684375 
0.30605801263 0.31553348082 0.35040211242 0.3362832682 0.47869554235 0.37411693606 0.38277081438 0.4456151031 0.33360939843 
0.35363996191 0.29373539627 0.31026069667 0.35268795606 0.27515659424 0.2927427416 0.32496400443 0.27312158945 0.28388357908 
0.31902466803 0.26113705369 0.2675656212 0.31547684525 0.26446993516 0.26060721894 0.30846478384 0.24982134867 0.25454225544 
0.29047196714 0.25195805783 0.25991313548 0.28795947236 0.25081424439 0.25219735297 0.2970059223 0.25681032577 0.25088241159 
0.29485280222 0.2464521623 0.2461461072 0.28527122295 0.25105497284 0.25756623393 0.28543286553 0.25029966923 0.25026775017 
0.29511360206 0.25272061562 0.2499644017 0.29877424027 0.2556216127 0.25017798775 0.29869410798 0.25736093276 0.2521102668 
0.29856148343 0.26411552797 0.25786981547 0.30312127748 0.27177311724 0.2622449746 0.30897322921 0.28823687709 0.27358166182 
0.31736830801 0.31214248546 0.29208451307 0.32333707602 0.44112381542 0.41509269561 0.40314655344 0.37790442923 0.38194523312 
0.36324488768 0.35173516575 0.36939370325 0.33910191167 0.3344987251 0.35077609493 0.32348833753 0.32235364634 0.33515319824 
0.31331676744 0.31257679297 0.32316690986 0.3048740573 0.30462728972 0.31389995722 0.29669653894 0.29677188022 0.30549479012 
0.28868473869 0.28868958655 0.29725160712 0.28007849978 0.27730324836 0.28877672668 0.26928609581 0.26498752789 0.27812536459 
0.25443139406 0.24596768823 0.26470914141 0.23387948196 0.20236915213 0.24615889425 0.20318593583 0.22716880484 0.24523799885 
0.36390065582 0.49576147882 0.19232449728 0.20051164862 0.22419877064 0.19815271026 0.23041775492 0.2484693359 0.23778991533 
0.23666498391 0.26192285701 0.25637448931 0.25540751254 0.27381619755 0.27213129335 0.27344972427 0.28302856761 0.28141849849 
0.28155239755 0.29258930344 0.29013413884 0.29168139702 0.30050747007 0.29935262004 0.3011283535 0.310934184 0.30890245512 
0.31052754768 0.32470394608 0.32036948015 0.32227231131 0.34257888574 0.3352334053 0.33621588598 0.36416481257 0.35548763189 
0.35228335106 0.40615524685 0.37738720452 0.37295915087 0.45162266241 0.41575657069 0.38770167417 0.37599575274 0.50913629315 
0.33325363861 0.33335590442 0.3330911327 0.33424905061 0.33567399478 0.33513161872 0.31615392893 0.32757450347 0.39225860789 
0.32547241866 0.45673631085 0.55530542037 0.52528812975 0.4024071059 0.33576555696 0.2885899623 0.27352474573 0.31800175974 
0.27751486717 0.25389829004 0.46363435394 0.42137791579 0.31782961582 0.34564052177 0.33280379614 0.35857536976 0.33416846023 
0.3338283082 0.33346326623 0.33310766954 0.33271752217 0.3335346596 0.33556688424 0.33522099638 0.33608348777 0.33587557292 
0.33587643585 0.33628609125 0.33622723705 0.33640352649 0.33616141294 0.3362429513 0.33650756182 0.33581509748 0.33600064322 
0.33626972588 0.33531228837 0.33556830921 0.33579131821 0.33475433314 0.33503933579 0.33520217051 0.33417000554 0.33445368606 
0.33457394733 0.33367404668 0.33391641038 0.33396496706 0.33331015977 0.33348137965 0.33347443827 0.33307123557 0.33318378054 
0.3331440388 0.3329445417 0.33299809082 0.33294326881 0.3329236738 0.33292673348 0.33286861189 0.33298861457 0.33294821179 
0.33290050701 0.3331082435 0.33304211354 0.3330047293 0.33326132377 0.33318650837 0.33316829027 0.33339841196 0.3333394994 
0.33335200005 0.32941152618 0.3307932565 0.32282020166 0.32952142587 0.33584144585 0.34872890446 0.33557412007 0.35278876952 
0.36706706558 0.34190256183 0.34709290147 0.31486647112 0.31826077282 0.32545111797 0.310750065 0.31258003105 0.31911382331 
0.30854765524 0.30942824407 0.31520857967 0.30760990148 0.30761688278 0.31300541422 0.30720084109 0.30687956702 0.31147704211 
0.30738023711 0.30698048928 0.31062375646 0.30833722144 0.30753367514 0.31050689007 0.30970938462 0.30868632424 0.31089580719 
0.3111811152 0.31013254787 0.31165067751 0.31259048093 0.31160277612 0.31244101506 0.31392237923 0.31301349205 0.3132316879 
0.31474612402 0.31410170204 0.3138060052 0.31504148309 0.31471493831 0.31396351864 0.31467402877 0.31474188488 0.31349269138 
0.31355670589 0.31397159685 0.31241693443 0.31205368509 0.31280998508 0.31095972735 0.3102285532 0.31136462758 0.30950793681 
0.30829824067 0.30967038179 0.30830493905 0.30567738804 0.30754951986 0.30704864037 0.30262121254 0.3045866628 0.30509314539 
0.30104976315 0.30185877092 0.30273122217 0.30266573661 0.30179823672 0.30275872427 0.30710250474 0.30501942995 0.30618409425 
0.31249205846 0.30986889459 0.3117509973 0.31780579912 0.31505698449 0.31741925235 0.32177238215 0.31960877051 0.3220191733 
0.32506325506 0.32322568249 0.32527906722 0.32777695698 0.32618289546 0.32766644469 0.32962834873 0.32850218126 0.32942830237 
0.33114746242 0.33025672427 0.3307737659 0.33227772626 0.33171036904 0.3318786353 0.33275134102 0.35506599065 0.34356082589 
0.33378988259 0.33363989306 0.33284097516 0.33278979914 0.33404227696 0.33379788073 0.33346543832 0.28161108407 0.35408961326 
0.33143747169 0.33197918089 0.33675391789 0.32926094654 0.33233037951 0.3324539709 0.33115017328 0.33055888106 0.32594184466 
0.32828290542 0.32821486526 0.32148042862 0.32431400216 0.32559685841 0.31700151298 0.31972380996 0.3143819391 0.31614489338 
0.31878631299 0.31433881923 0.31499391987 0.31848368175 0.31602084975 0.31561239651 0.32046081458 0.31913069094 0.31754729979 
0.32292764966 0.32557963015 0.32108369171 0.32561559866 0.32945032575 0.4219103222 0.38317680618 0.41131673739 0.44127922522 
0.36965242366 0.40751947787 0.31144998834 0.31810022652 0.30088183452 0.30319989706 0.31418278119 0.2947163367 0.29615387341 
0.30365192093 0.28681483633 0.28685903546 0.29692662848 0.28439422929 0.28536155429 0.29376436813 0.28462910895 0.28345615162 
0.29118168147 0.28257603491 0.28312339786 0.28954975214 0.28095936033 0.28029822172 0.28848655838 0.27984592452 0.28139065727 
0.28815682886 0.28230107936 0.28191085894 0.28792703404 0.28566463435 0.28643394576 0.28887806417 0.28549575622 0.28552799597 
0.29016290983 0.28698946061 0.28735664824 0.29276318961 0.29152768435 0.29196538355 0.29624377253 0.2984487837 0.29951906018 
0.30112419352 0.30972335609 0.30716582114 0.30840037835 0.32986727245 0.32119497766 0.32050675803 0.34206802557 0.40135977879 
0.37086993865 0.29083175678 0.29920008448 0.30475520797 0.35843292882 0.36849769658 0.35730901653 0.35490699226 0.34349872095 
0.34959626794 0.34128734806 0.33145772512 0.34079158334 0.32912560498 0.32066470297 0.33094532325 0.3193043164 0.31169835186 
0.32167014772 0.31038236584 0.30308649234 0.31306295102 0.30216612081 0.29476556938 0.3048046875 0.29374175028 0.28600108134 
0.29676912079 0.28480063718 0.27617313212 0.28877074525 0.2750945778 0.26455943585 0.28074227685 0.26590031226 0.25468455415 
0.27481515787 0.2610297685 0.28166836992 0.28178252809 0.27966494135 0.28994416474 0.42222136895 0.44394404346 0.25539177504 
0.26587548107 0.28481435217 0.27478050445 0.26946945828 0.28508963027 0.27854279348 0.28016688636 0.29452315911 0.28847219732 
0.28902241492 0.30369693596 0.29764983754 0.29805527448 0.31371663153 0.30701339622 0.30712069339 0.32553520609 0.31765812236 
0.31715796216 0.33870558748 0.33004476917 0.32829607688 0.35569386455 0.34348574579 0.34027597865 0.37023030146 0.35908892421 
0.35070843519 0.37557584966 0.37331268644 0.35727403268 0.33483217294 0.33447764833 0.33430578169 0.33509152306 0.37148489872 
0.36861348655 0.35371822415 0.35505230495 0.25516229249 0.24807950072 0.27018828192 0.26535325921 0.25735486473 0.26568135129 
0.27212302979 0.33729689664 0.32978002739 0.3218441532 0.33325254779 0.32938697426 0.33597312282 0.37094554098 0.38749745673 
0.33348259 0.33363371032 0.33184868589 0.33312151683 0.33340371147 0.33354589758 0.33346147607 0.28463586952 0.29654229247 
0.33442261366 0.36460564868 0.42497441085 0.39218367505 0.36310559487 0.40536371789 0.3394295872 0.35589659232 0.41513187617 
0.37664347485 0.40362049337 0.29860390169 0.30544830288 0.29477019581 0.29507186945 0.31109792652 0.33371561053 0.33281601861 
0.33061827754 0.33098895386 0.33701114674 0.33708055952 0.33646159145 0.33604882163 0.33657311034 0.33679355849 0.33742273774 
0.33589484473 0.33621943592 0.33677045268 0.33513312443 0.33548939242 0.33588445988 0.33431945413 0.33470040872 0.33493414013 
0.33364844977 0.33395127937 0.33404044388 0.33314347682 0.33336231327 0.33330265266 0.33284473588 0.33297533558 0.33281625919 
0.33269897568 0.33275988818 0.3325583989 0.3326944063 0.33269064376 0.33247846867 0.3328052935 0.33274739947 0.33256035264 
0.33298160729 0.33290035605 0.33274840025 0.33317253347 0.33306416388 0.33296781102 0.32452429382 0.32629552993 0.32856462791 
0.32898499695 0.33381343274 0.33337643883 0.33300893562 0.28000245439 0.28652849461 0.32566293857 0.32987828232 0.3392608657 
0.34379750669 0.33423961402 0.32857230973 0.31636341879 0.3173823541 0.31477248037 0.3154127041 0.31921010681 0.31374344425 
0.31395579813 0.31755099423 0.31321865203 0.31315749014 0.31623862295 0.31313365679 0.31289633771 0.31535225513 0.31338287572 
0.31300872302 0.31486094573 0.31367144662 0.31329982306 0.31462368487 0.31397271926 0.31360611844 0.31449573619 0.31396366037 
0.31379502269 0.31428988305 0.31340635377 0.31354093038 0.31364666362 0.31224017198 0.31263508234 0.3123756394 0.31043744544 
0.31113549471 0.31042583174 0.30839617421 0.30914809707 0.30792559017 0.30680080896 0.30741834842 0.30551238645 0.30588564466 
0.30625423284 0.30387174439 0.3051762671 0.30593040275 0.30368135695 0.30395094594 0.30528679573 0.30382811619 0.3016060618 
0.3027131729 0.30230328441 0.3029045975 0.30216935886 0.30143493549 0.30964074161 0.30693651275 0.30569438086 0.31686288818 
0.31368687472 0.31459701197 0.32310077025 0.32035387961 0.3229920718 0.32710022993 0.32527228827 0.32852755702 0.32932549205 
0.32801266264 0.33150092867 0.33073815458 0.3297784575 0.33262611151 0.33146238172 0.33078439038 0.33293128376 0.33205829457 
0.33146784178 0.33286321085 0.31855032615 0.32019749612 0.32135898446 0.33310766024 0.3331311039 0.33250084064 0.30059873531 
0.30781144028 0.32713054747 0.32800690282 0.3257229173 0.32549734649 0.32410551764 0.32157361836 0.32067270367 0.32594415025 
0.31915107041 0.32007666981 0.32122095567 0.32780393702 0.326705519 0.32980493935 0.34045009086 0.37109835831 0.33704174802 
0.33684705893 0.33715152882 0.3376335011 0.30466822161 0.30912724698 0.29786138386 0.29921421147 0.29601680928 0.29690372749 
0.30288992056 0.29442439089 0.29520266187 0.30112081906 0.29324387046 0.29373062798 0.29962147602 0.2928350383 0.29304597426 
0.29861095365 0.29282363168 0.29255327214 0.29808351989 0.29383932952 0.29326170423 0.29828000454 0.29562765134 0.29471232838 
0.29947618644 0.29819575233 0.29685180996 0.30151971753 0.30226384741 0.30011155525 0.30471691077 0.30770399015 0.30454952881 
0.30892871685 0.31475927986 0.3104504699 0.31425115739 0.32097634014 0.32738741834 0.30904430324 0.30926913757 0.39648873429 
0.39707010063 0.34030903796 0.3360874031 0.33271419089 0.32807382232 0.33246450679 0.32450957441 0.32050951502 0.32635921564 
0.31686387027 0.31280547834 0.3198073634 0.30930276936 0.30549704619 0.31315732849 0.3023188038 0.29859445197 0.30688766196 
0.2958236523 0.29234929697 0.30142567106 0.29022852536 0.28689650478 0.29707287111 0.28662039361 0.28588202715 0.29521954711 
0.28875400506 0.29803829781 0.29921260948 0.30233130853 0.30868203091 0.30802181287 0.29423736161 0.28973932171 0.28652486145 
0.28256410658 0.29167127489 0.31049079615 0.30591151315 0.31995048822 0.31473448752 0.31316889112 0.32996109149 0.32445896206 
0.32161482755 0.34002836768 0.33469533516 0.33007582993 0.34711444712 0.34352446396 0.33698348063 0.34961089038 0.34902262581 
0.34114327813 0.38424686838 0.37213627037 0.32076194173 0.32296300948 0.32334293999 0.32045427138 0.3318612772 0.33786133023 
0.33522772577 0.33126066568 0.36208118134 0.35184025269 0.34448910384 0.35680910117 0.32166732413 0.32422795995 0.32752359527 
0.32418243053 0.30020395111 0.30236794892 0.30825403884 0.30490677393 0.31037553448 0.32318669298 0.33086978487 0.34581486774 
0.3427805858 0.33720388688 0.30228227402 0.29801548953 0.29856787972 0.30567761139 0.33591820686 0.3353781874 0.33485491076 
0.33019775421 0.33079079753 0.33185004143 0.33217608612 0.32786930623 0.32916852089 0.27399370123 0.28716726157 0.27478180833 
0.33276669919 0.33228400908 0.33307260932 0.333496162 0.3698239243 0.3953642391 0.33334339681 0.33327417192 0.32932288551 
0.32711592008 0.36062711892 0.38182780382 0.38068068994 0.37547206318 0.36177862022 0.32955745263 0.32984802234 0.32909660912 
0.32768244716 0.33013227467 0.3287066826 0.32951676397 0.32773884645 0.32794992125 0.3091887027 0.31428972577 0.34848590695 
0.35036592704 0.3144974988 0.31348603558 0.31545079333 0.39817261771 0.38574368763 0.37983982812 0.32352309314 0.32681586404 
0.31859681819 0.32087324452 0.33082242427 0.31322158708 0.38358434262 0.3855551734 0.29496458993 0.29679115505 0.34740111555 
0.34751057573 0.33995110786 0.34490083302 0.33418489568 0.33293453623 0.28858661433 0.29502001557 0.2867147057 0.28027006957 
0.27675132154 0.37187008761 0.36631297722 0.36063213996 0.29766883112 0.30523945824 0.29920726183 0.29519241759 0.34954499096 
0.34076896376 0.33804614647 0.33834249204 0.33467705774 0.33524616875 0.33362691324 0.33409441853 0.33432937727 0.33280935421 
0.33315049746 0.33314018827 0.33233548489 0.33251922899 0.33231103935 0.33216190666 0.33223573739 0.33191734899 0.33218537507 
0.3321635212 0.33182375328 0.33236062671 0.33226203206 0.33193982034 0.33270219066 0.3325650528 0.3322830516 0.3267961033 
0.32683879121 0.31562908974 0.31547427941 0.31846884166 0.31903939403 0.32002922686 0.320778677 0.32203210258 0.32162704106 
0.32264596493 0.32376503092 0.31731975346 0.31771802463 0.32031957793 0.31652083643 0.31670561673 0.31890656314 0.31595400023 
0.31606092912 0.3178492745 0.31547298583 0.31553161689 0.31697536552 0.31479626897 0.31498182593 0.31609494419 0.3136492537 
0.31409787924 0.31499543769 0.31162879347 0.31247525726 0.31315522013 0.30872204287 0.30991255709 0.31016614587 0.30535617688 
0.30677316328 0.3062592599 0.30162052804 0.30270780049 0.30142109235 0.29892474474 0.29870379686 0.30956624933 0.3222659546 
0.31747611635 0.31793487904 0.32931391027 0.32537109331 0.33020432418 0.33601269761 0.33389953718 0.33774980297 0.33624445309 
0.33545290462 0.3410893704 0.33613447884 0.33582943317 0.3398328425 0.33520798758 0.33527530186 0.33836116405 0.33436723603 
0.3344646115 0.3366623053 0.3537018026 0.36644094456 0.32323547113 0.32461433836 0.32525543663 0.32816511246 0.30663913273 
0.3074445156 0.33708594711 0.33756210482 0.33848745825 0.32261486527 0.32373685316 0.33109297131 0.32791979952 0.36947792156 
0.3323849238 0.32975893644 0.31557663786 0.3185359709 0.33388214667 0.33301779718 0.33604035435 0.32282601577 0.32079045457 
0.33439767979 0.33291998217 0.32985977126 0.3050117012 0.30567581399 0.31196000585 0.33441627898 0.32466641604 0.33774149989 
0.30848831286 0.30931571536 0.31401133321 0.30417586087 0.30456591771 0.31061193766 0.303472164 0.30365914484 0.30960050374 
0.30381630488 0.30347112215 0.30903061939 0.30519572602 0.30445443892 0.30959450661 0.30737266924 0.30628270842 0.31113154671 
0.31065051382 0.30881240263 0.31342646496 0.31478554292 0.3124750178 0.31647264543 0.32002644062 0.3171833921 0.3204979029 
0.30099789075 0.31660133528 0.31721102762 0.37943661928 0.3745527533 0.31406018099 0.31939873623 0.31209595947 0.32760293394 
0.32470120211 0.32741045675 0.32235255198 0.31928980663 0.32368435414 0.31678359023 0.31378194344 0.31942414227 0.31121772555 
0.30845967633 0.31490155832 0.30705094249 0.30498892784 0.31130159612 0.304614369 0.30322073582 0.30972943215 0.30155847566 
0.30195765349 0.30876158695 0.3029672075 0.3074537269 0.30913553236 0.3115609237 0.31540319966 0.31998612128 0.314877432 
0.32258182909 0.31864521248 0.31550055136 0.31148419219 0.31667868532 0.33488785142 0.33237397866 0.33746431473 0.33627590476 
0.3317039443 0.29783966552 0.33839301648 0.3256606223 0.3262222502 0.32958268864 0.32595835173 0.32787946745 0.29657789313 
0.2935764117 0.33590761971 0.33643840136 0.33718322443 0.33570839916 0.33974438898 0.29374384349 0.29997852163 0.3003527269 
0.2890700345 0.33935084635 0.33860340143 0.33855540312 0.28337548773 0.3306813876 0.33236658503 0.32642167473 0.32583087974 
0.32702571353 0.32897979247 0.33110409763 0.32852247924 0.31906774869 0.32973789146 0.3306284289 0.31798280366 0.31590201917 
0.32250206747 0.34184216669 0.3383923581 0.33396788853 0.32705488734 0.29684543865 0.30142463854 0.30059779409 0.30194055749 
0.35700530109 0.36838431713 0.33390363325 0.33538191057 0.33405219239 0.32661508944 0.32532353833 0.32693846689 0.32226629682 
0.32503252042 0.3353069669 0.33519168923 0.32204294747 0.32286682156 0.33209481146 0.33263509929 0.32764570622 0.34840512415 
0.33924487848 0.36802072429 0.3581157009 0.34838934279 0.32326392588 0.32762003413 0.32834226048 0.32843387222 0.32277514515 
0.32549165985 0.32767781938 0.33828331477 0.33776218594 0.33933888002 0.33167201038 0.33556631388 0.33622232649 0.3028719753 
0.29929593866 0.3007092097 0.31431844254 0.30874919235 0.30999134347 0.31795886434 0.31963307465 0.31892568746 0.37251061461 
0.37313564127 0.36400760413 0.32786964254 0.32539903426 0.31964433138 0.32096266275 0.32110318073 0.33802862446 0.33684067854 
0.3359491241 0.37242563017 0.32247443901 0.36730315823 0.3681895636 0.3543906328 0.34616048335 0.33938009572 0.33568295192 
0.33138092801 0.33232731306 0.32895439915 0.33532449182 0.33135882345 0.35941544751 0.31140946458 0.30909684479 0.30588845755 
0.33279521217 0.35010913749 0.33371974665 0.3344829072 0.33127539878 0.33135582924 0.33143714583 0.33139930259 0.33080373462 
0.32040706427 0.32107402542 0.32375322218 0.3247548425 0.32502545949 0.32506843397 0.32604580642 0.32940739949 0.32866116476 
0.35460027106 0.35149393027 0.33424137743 0.32193223126 0.3227603904 0.32529469505 0.32341344384 0.32556932658 0.32647243866 
0.32718173401 0.31923553198 0.31969374598 0.3218300906 0.31816885883 0.31858081036 0.32046245202 0.31697919478 0.31741386832 
0.31908056396 0.31550227952 0.31615878615 0.31772848876 0.31320709237 0.31444322768 0.31599577196 0.30863331383 0.31056593113 
0.2981446103 0.30105132911 0.33051407862 0.3303563251 0.33114233027 0.34146418907 0.33838497129 0.32793716214 0.34560442898 
0.34650429829 0.34337228189 0.34399477693 0.34855313244 0.34031661388 0.34123606064 0.3449875698 0.33778714207 0.33865270746 
0.341149263 0.33695042824 0.33202705429 0.3391745423 0.33982095701 0.31670187483 0.31710028405 0.34853386156 0.34243805789 
0.34454368107 0.29033634304 0.31693502282 0.31778675397 0.32293171283 0.34189930148 0.34072293431 0.35971787224 0.32804118422 
0.32743762215 0.32640697679 0.3154925066 0.31609620697 0.32263508016 0.32886415392 0.31997933301 0.32080236608 0.3247644399 
0.29369511139 0.32022147281 0.32673730087 0.32740113297 0.32830349527 0.31479047773 0.31490034697 0.32119302534 0.31505507423 
0.31462222177 0.32032321675 0.31642832796 0.31563358249 0.32040946162 0.31871497595 0.31763367259 0.32185383995 0.321361915 
0.31989689978 0.3236065369 0.32467073044 0.32272333811 0.32542653325 0.36427908074 0.36016831311 0.3649762509 0.36640757525 
0.35971889645 0.35528249908 0.32563268458 0.33040022265 0.33159412784 0.33192717854 0.33093411351 0.3324748471 0.33303864541 
0.33175687905 0.29211170676 0.32160048902 0.31966341365 0.31803872741 0.31578957397 0.32020862358 0.31469517679 0.31364833119 
0.31774806102 0.31446515695 0.31445894242 0.31763581859 0.31691936705 0.31418342251 0.32552854985 0.33634023535 0.33872217423 
0.34329564792 0.32995211876 0.32862734974 0.31884908553 0.32145584863 0.32699588866 0.32475527459 0.32551517954 0.32640767315 
0.31592273333 0.32767192521 0.3318816784 0.31991419959 0.33304975084 0.33165219179 0.33154390739 0.3246956693 0.32551627974 
0.32579122674 0.33011989826 0.35507696141 0.34865008783 0.31986012367 0.3350549503 0.30364629466 0.30592429712 0.3457637477 
0.35143025962 0.3402880047 0.34064121932 0.34109869592 0.32718923624 0.33002162621 0.32882018652 0.32719086952 0.3365403443 
0.33815856683 0.3417302464 0.33707940535 0.34883368622 0.33592148759 0.32713959657 0.32785191693 0.32829716813 0.33939140616 
0.33620256268 0.33741516003 0.36140416672 0.32939227199 0.3299293971 0.33015662143 0.34112201189 0.34076311264 0.34226809126 
0.33342554176 0.33340510719 0.30629553463 0.31484482742 0.35391335263 0.33491062987 0.33544866968 0.33628660433 0.34062702219 
0.34128660144 0.3317212596 0.3302698778 0.3274947229 0.32976768066 0.32600155134 0.32300700515 0.32284052639 0.32483696186 
0.31975941872 0.31719327848 0.31821070486 0.32246331074 0.31395114259 0.31561090863 0.32488210232 0.34795091533 0.32177213992 
0.32340088617 0.32406870724 0.31940495322 0.35499436655 0.35344820233 0.35871073572 0.36107780849 0.32334117605 0.31868170949 
0.33732561593 0.33816852517 0.33720433183 0.33947537195 0.34342234448 0.34230626399 0.32198194195 0.32255538813 0.33179204463 
0.32343960589 0.32415770831 0.32501738992 0.31217745477 0.34299655922 0.3517864753 0.32744901118 0.35821412759 0.35362697787 
0.32578119025 0.32619260408 0.33990750028 0.34126476738 0.33010933412 0.33026893427 0.32469762849 0.32448584459 0.33020106142 
0.32659417775 0.32591434293 0.32963787422 0.32724542271 0.32683542425 0.33038164335 0.32754667594 0.32695121294 0.32958437059 
0.32856208033 0.33093705271 0.33163485779 0.33225929159 0.3298710908 0.35358574908 0.34183335462 0.338623553 0.33770767048 
0.32004213213 0.31851321106 0.31922803325 0.32203385194 0.35082732266 0.34685376537 0.32495751736 0.32405227535 0.32864868104 
0.32952489297 0.33162345659 0.32033497808 0.3285918138 0.32918417381 0.32608888489 0.32682797778 0.33339074214 0.33155174216 
0.32466991262 0.32329347024 0.32138814814 0.32530931507 0.3211079089 0.32342806948 0.33138773967 0.32464606902 0.3255451633 
0.32641741386 0.33162673971 0.33339010487 0.34376519716 0.34829953663 0.32051774733 0.35321564602 0.3463583239 0.33018937365 
0.33703928539 0.34586229797 0.34804309732 0.35227290398 0.34537068653 0.34662161861 0.33235930611 0.32950737524 0.3376373109 
0.33932451656 0.33633969423 0.33652264229 0.32899952658 0.33667467082 0.3320973813 0.32709402654 0.32811371507 0.33042598796 
0.32833521509 0.34131385141 0.34371421254 0.32861969825 0.3280708197 0.32790051089 0.32526497748 0.32330914437 0.33473065855 
0.33042406675 0.3219444795 0.35379424838 0.32831634898 0.32935652992 0.33001521791 0.32714171714 0.33837999464 0.32770914236 
0.32599308481 0.32041971805 0.31975374713 0.33438548188 0.34082375495 0.32620448582 0.32864763358 0.34195406663 0.32899613008 
0.329566505 0.33233006254 0.34417045382 0.34710872425 0.32725920276 0.32595114107 0.34282100123 0.34335061881 0.33137185992 
0.33476967001 0.3352080718 0.34348820137 0.32951661464 0.33355446866 0.33522855939 0.33768311596 0.34571464882 0.34789245747 
0.33488190103 0.33390191936 0.3352886953 0.33561142037 0.33755337389 0.34002794944 0.35029704868 0.34049514837 0.34463414537 
0.3345437453 0.33448546305 0.3537994689 0.3340991007 0.337669113 0.3258785517 0.33318495805 0.33106170237 0.33975102593 
0.33362331221 0.33331603593 0.60678357762 0.47310172794 0.33333350692 0.33340024968 0.33352965516 0.33371357541 0.33394788444 
0.33422569874 0.33456178323 0.33491970108 0.33537781845 0.33586234805 0.28749539821 0.28840266582 0.29167265579 0.29587618832 
0.30050994359 0.3088277529 0.32264894213 0.33881896698 0.37224617735 0.28701438774 0.28759760872 0.3364758174 0.33708546668 
0.31720287034 0.31181979597 0.30621876057 0.30127803118 0.28867081291 0.33778719193 0.32295730885 0.33853872284 0.33914629104 
0.33943990251 0.33911427258 0.33782217685 0.33548791468 0.33211751161 0.32778276866 0.2965175039 0.29306859945 0.29064747866 
0.61073757618 0.33345216377 0.3334573774 0.47168539916 0.3748289422 0.34393004455 0.32556504083 0.3126398561 0.30599623584 
0.30004808334 0.29603823539 0.29302292882 0.29143890358 0.28982807942 0.28938595476 0.28944951179 0.29123441948 0.2923421176 
0.29330106209 0.29456482044 0.2968978716 0.2984678528 0.29994425081 0.30176117017 0.30671444103 0.30871172692 0.3117818602 
0.31359664732 0.31500273253 0.3166554719 0.31784675823 0.31910198059 0.32009912316 0.32095752844 0.32174759228 0.32189523235 
0.32171389836 0.32121951485 0.32050790883 0.31931769091 0.31803886837 0.31582882817 0.31126086346 0.30790867311 0.30491604773 
0.30124389674 0.2982137885 0.29493050854 0.29281861812 0.29160777308 0.29186666821 0.29349708445 0.29595237891 0.2988489094 
0.30163241916 0.30518586103 0.30835328377 0.31178147806 0.31445695162 0.31731960627 0.31971193464 0.32212136668 0.32561096889 
0.32743688455 0.32865164533 0.32999532802 0.33092394099 0.33184627006 0.33246893503 0.33302393007 0.33329468132 0.3334696857 
0.28981102813 0.29043507713 0.30319691283 0.30514059421 0.28946275632 0.29570911418 0.31023202539 0.32144640232 0.31363540299 
0.29117026318 0.32389435493 0.3332530222 0.33333449934 0.33332857567 0.33324128206 0.3332905872 0.33356746804 0.33385971786 
0.33413077873 0.33452833813 0.33481628097 0.33519699854 0.3357518288 0.33601679412 0.33618062628 0.33632133461 0.33637844252 
0.33639211064 0.33636282561 0.33627331592 0.33595620769 0.33569130934 0.33547212152 0.33517054174 0.33491203873 0.33457082568 
0.33431075127 0.33401798675 0.33357102403 0.33333821242 0.33320067749 0.33304809933 0.3329357111 0.33283056958 0.33276440024 
0.33272880989 0.332740186 0.33278416962 0.33283718785 0.33290955416 0.33297618053 0.33306077555 0.33313048809 0.33320623319 
0.3332579384 0.33330656891 0.33340023156 0.33547120743 0.33611916127 0.33380246981 0.33273634256 0.74061005867 0.84688177354 
0.93639600804 0.93469066107 0.99979785593 1.0117968911 1.0468570813 1.0629934358 1.0763188289 1.0963899088 1.0987388542 
1.1125752474 1.1126566392 1.1172146602 1.1105435205 1.1087822547 1.101987323 1.092047681 1.0791894505 1.054124109 
1.0398212318 0.99036754767 0.96768522344 0.87325101036 0.83807620634 0.9802517396 0.66399636579 0.78691579282 0.91727324918 
0.9113542262 1.012450695 0.98914645455 1.0584375118 1.0361270829 1.0887969234 1.0721760412 1.1108034264 1.0959322749 
1.1143649546 1.1066302542 1.1133866714 1.1092565171 1.096781656 1.1020156377 1.0738730638 1.0863230777 1.0311657068 
1.0554105632 0.93622139465 1.0073412243 0.740253065 0.9393574708 0.80101775431 0.58542197193 0.26995347948 0.68749155011 
0.33630456531 0.49365637101 0.38014496281 0.5729785189 0.54360756404 0.61094617145 0.51479800316 0.62286968799 0.64272141067 
0.6335474202 0.56750622125 0.64640843831 0.65863190581 0.65618999343 0.65966923791 0.65853434014 0.57572274466 0.65991238676 
0.64962412457 0.65332121329 0.65004122948 0.65050511637 0.69671904026 0.66987167755 0.58501685974 0.61680476579 0.3089007525 
1.0398638593 0.81732741215 0.94802161781 0.74444733509 0.80286650113 0.99647183324 0.96626162568 1.1031093476 1.1138574806 
1.0920508294 1.1126691565 1.114693375 1.1038870295 1.0799597865 0.72243480267 1.0882866802 1.0741853026 1.1167581811 
0.99773743934 1.0436307393 1.0593979867 1.0153665859 0.91647567956 0.93494914983 1.1151191055 1.1000327971 0.33356895003 
0.33356150177 0.33373011677 0.33370624465 0.33384076206 0.33408200724 0.3339409209 0.27158737881 0.33341025941 0.3336995015 
0.33307746019 0.33341281656 0.27433581598 0.2813823622 0.27338823529 0.26053313021 0.2902208674 0.29566080385 0.29037356988 
0.28260026012 0.28595169021 0.28626234851 0.35725879211 0.35125890279 0.3554534286 0.31065989121 0.311693573 0.31287290734 
0.38417718562 0.38669688773 0.36718088488 0.33461820569 0.33481065358 0.33448770929 0.25360300801 0.31459673422 0.26171033105 
0.3350676261 0.33527893567 0.33537688343 0.25857827762 0.26080981415 0.33390427265 0.33371072055 0.33405779071 0.29050970897 
0.29024765684 0.28746212657 0.29255895847 0.25128501532 0.33306589368 0.33375817831 0.33353558516 0.33321150027 0.33297195558 
0.36727447711 0.34599447462 0.33692695889 0.32118965947 0.30109043003 0.29972735621 0.30646932021 0.30510752492 0.32969472651 
0.33102680052 0.3308757869 0.34374781499 0.34597240942 0.3451882643 0.34716379661 0.31044796128 0.32756550881 0.31679469497 
0.33589419921 0.32330689855 0.32030161453 0.32422896903 0.32105759561 0.30278334277 0.29822344341 0.3020975878 0.29991734762 
0.30088951663 0.30535613986 0.28295092118 0.28516750386 0.28711112155 0.29780764289 0.3020742665 0.29390583928 0.3268742686 
0.32598180956 0.32592917523 0.32496977021 0.33253791951 0.33258657012 0.33270556499 0.34169956065 0.347250969 0.33975196863 
0.34606577864 0.29495478852 0.29913630463 0.29854615077 0.30269435571 0.3328460623 0.33293122804 0.3328381466 0.33293307665 
0.33674537296 0.3366846916 0.33772655089 0.3085996858 0.30952220684 0.30551899023 0.30761493857 0.3112466043 0.30540527994 
0.29423179067 0.31843554813 0.3174924043 0.31666781622 0.33732735751 0.33797088701 0.33806160261 0.34913170642 0.36853145516 
0.34031617401 0.33466077197 0.33487783773 0.33511723835 0.33539611453 0.34180076844 0.34125588535 0.34023162541 0.31124772356 
0.31083887842 0.31285492396 0.31247673986 0.30417025892 0.30203037634 0.30628572095 0.30416544832 0.30636822686 0.3112821066 
0.30900299345 0.31683722063 0.33291326766 0.43961869587 0.38251772126 0.53036720531 0.42605553827 0.38320142365 0.37302936208 
0.37322642784 0.36333772263 0.33532224378 0.33550979127 0.33556855248 0.33287198354 0.31382379805 0.31602804524 0.55514630677 
0.48613062201 0.4700465134 0.32463350288 0.31413791709 0.31431972237 0.31241599616 0.30630826068 0.30914476879 0.30569938271 
0.30849015053 0.33443753626 0.33475030197 0.33463002207 0.43823718805 0.41036673372 0.41844855796 0.34292759037 0.33655644536 
0.33915720242 0.33435225492 0.33459866154 0.33487334023 0.29713318812 0.29545142103 0.29614359078 0.30097810146 0.31666201356 
0.31679906452 0.31898430962 0.32997251398 0.33444413877 0.32616928813 0.33006397391 0.31549884653 0.32289706117 0.31808915659 
0.32211594213 0.31835517646 0.32403950297 0.32578717186 0.32505354031 0.3264449598 0.32508537426 0.32734222822 0.32661515503 
0.32449388076 0.30617786784 0.30727480244 0.30884484821 0.33616751543 0.33636214318 0.33613108795 0.33629990373 0.3401813382 
0.34116010216 0.33464363906 0.3452242124 0.34760233299 0.28996710633 0.29104776014 0.29163737621 0.32439896113 0.3259709641 
0.32622058341 0.32745777307 0.30928744642 0.30874823394 0.31025001945 0.30852623169 0.31331541358 0.29591350866 0.28655172439 
0.28080612274 0.33298698252 0.33294581548 0.33294880989 0.33620347126 0.33654227837 0.34561542236 0.34120782412 0.32028586869 
0.30472517203 0.3046298569 0.30225480345 0.42364539742 0.39378530612 0.38850863387 0.33619546629 0.33588032963 0.33631056072 
0.30767403784 0.30882651077 0.30849680552 0.32473243832 0.32631194015 0.32698365419 0.30963579595 0.30993559696 0.31266704441 
0.31285778448 0.32517798353 0.32374948797 0.31800521181 0.31800722258 0.31951342079 0.30028267021 0.29822171548 0.2970637992 
0.332509743 0.33233657889 0.33280610462 0.29650799337 0.29111565449 0.30252567542 0.33113627037 0.3342073896 0.33349135709 
0.33348092279 0.33394289451 0.33908279597 0.33725206527 0.33805236137 0.33381390646 0.33347413567 0.3342253299 0.33387756659 
0.33446658193 0.3347883223 0.27745485237 0.27037609569 0.33433055336 0.30173953187 0.30167378095 0.30676861007 0.32863667335 
0.32849517495 0.32796579846 0.32814539475 0.30546465264 0.31152789589 0.31236090663 0.31231112232 0.31310027724 0.32174515976 
0.33065753212 0.32773376446 0.32973947381 0.33010184246 0.30829586535 0.30077608688 0.29932429008 0.29812452626 0.31732070727 
0.31860890405 0.32660428969 0.32814520332 0.3070616033 0.30774390923 0.31345422776 0.30597423279 0.31568126899 0.32030790042 
0.32002794003 0.32007985805 0.31780354671 0.31760574253 0.33442826977 0.32497779424 0.32480637897 0.32399351102 0.33237163823 
0.33298279267 0.33270848323 0.33333823496 0.33365035484 0.32827461519 0.33019656103 0.33002504822 0.29929630728 0.3596069976 
0.33347488955 0.33352320749 0.33318129523 0.33204323987 0.33266351855 0.31117803672 0.31195139282 0.31004510527 0.32832755011 
0.3285274374 0.32708013547 0.32820818502 0.33616650061 0.32336500848 0.32063258562 0.32211437079 0.3199545879 0.33294031055 
0.32989574578 0.33735080793 0.33368151049 0.3331220272 0.33396016018 0.30172307923 0.32549309713 0.32510037059 0.32475960876 
0.31489176021 0.31762672052 0.32012449633 0.35177201199 0.3435065238 0.34210637057 0.30049032795 0.29458518966 0.29974353991 
0.31649272456 0.33266203636 0.30916358173 0.31054718566 0.30871564444 0.33122703482 0.30016153599 0.33640624507 0.3102374472 
0.33403221684 0.33392193276 0.33379300825 0.33367940262 0.31185323533 0.30490900685 0.3101799035 0.30360986681 0.28727475274 
0.2872226152 0.2912897948 0.30301712154 0.29826165863 0.30384473942 0.29899380557 0.29387732483 0.33442696494 0.33422411632 
0.30878220616 0.33335906323 0.33351851308 0.33338974102 0.33628471403 0.34129129178 0.30535524305 0.30840673778 0.30278721555 
0.31315822705 0.31536240576 0.30920840549 0.33428608008 0.33441371548 0.33419862414 0.3072390574 0.31417997117 0.31478103201 
0.31411663702 0.32278417399 0.32414194616 0.32123643123 0.25868044123 0.33469673443 0.33454798703 0.3280396907 0.32743543227 
0.32600997725 0.33728430611 0.33791377287 0.25340056785 0.25114114036 0.3014316578 0.33797876048 0.31758594635 0.31234845799 
0.32090752143 0.3308716262 0.3313122641 0.33073133453 0.2968148957 0.29068854588 0.29312261505 0.33301349712 0.33304902068 
0.33306640273 0.3378545174 0.33758138419 0.33851051456 0.31064214802 0.30274618154 0.30619721353 0.26440902269 0.32049227632 
0.32143656723 0.32312466511 0.32410820824 0.35055883975 0.34648346287 0.28686781376 0.31775560104 0.31935712026 0.32259381944 
0.32572478374 0.32948031275 0.32884429136 0.32013059506 0.32726042787 0.3230485881 0.33559468723 0.33735845701 0.33272600099 
0.33639846352 0.31924265952 0.32432652175 0.32567865756 0.35166831495 0.30693247447 0.33153521993 0.31597811562 0.31434754627 
0.3230392296 0.32646723988 0.32771884328 0.33067602319 0.33226524228 0.33257861014 0.33352870597 0.30530087892 0.30176167382 
0.30438596312 0.30453211215 0.30359271483 0.30056094624 0.33265575919 0.33236432021 0.3328498159 0.32978576211 0.32894999557 
0.32924109094 0.32834279955 0.25809645647 0.26851595218 0.26409950841 0.27562621332 0.31248716493 0.31127118703 0.3132309632 
0.34196539188 0.34839209685 0.34404798414 0.30910209067 0.30248802981 0.3081605681 0.34093387196 0.3425822715 0.34247052424 
0.26760209074 0.31050177038 0.33559497962 0.33538640196 0.34004311969 0.29053860745 0.31086452194 0.30980338557 0.29609203295 
0.30153416801 0.29540441824 0.35794827697 0.35931249037 0.35105172104 0.30182584686 0.3002282286 0.30202769609 0.30098633257 
0.33636620785 0.33582782592 0.33663566044 0.33251118025 0.33593566341 0.31056388646 0.31734370237 0.30901541445 0.30527840179 
0.3037575908 0.30634037021 0.31990231023 0.32197659122 0.32055528631 0.35809777888 0.36359874549 0.35182830524 0.35464178893 
0.36377410273 0.3695586742 0.28840394392 0.28783609767 0.35934047742 0.36904434361 0.34225033848 0.34723187992 0.33266187409 
0.33254247443 0.3319609868 0.32496998139 0.32565608535 0.32523592837 0.33334881057 0.33340296524 0.33340548494 0.30746249868 
0.30918142838 0.30284655633 0.30464878259 0.32586380493 0.32437645149 0.32506156224 0.33352760472 0.33367427235 0.33343202344 
0.33356426418 0.38622153553 0.36497969155 0.36119503457 0.33936465045 0.3440747943 0.34715791509 0.35421473188 0.3629228404 
0.35746557882 0.3357427796 0.33592420705 0.33579153929 0.33594210287 0.31625156543 0.31685122903 0.31564541415 0.31391684999 
0.35090612242 0.3668918154 0.36572976636 0.33306555696 0.33108269791 0.33204343355 0.3335575447 0.27852280959 0.31335315553 
0.31568213117 0.31256713177 0.3149226467 0.31162988845 0.31428336649 0.31433595332 0.31864491417 0.29550875747 0.29264243418 
0.2947722113 0.35858273533 0.3646861614 0.3633630803 0.30444076205 0.3067798229 0.30857214444 0.33424745643 0.34927906608 
0.35249988597 0.30605419576 0.36115537432 0.32927088815 0.32888893423 0.32710084117 0.32652700313 0.31783380122 0.32049192557 
0.32182312468 0.31916251972 0.3330517313 0.33373168592 0.33236391111 0.33304350869 0.31080647751 0.30651781802 0.33886198555 
0.34414996142 0.33711114546 0.33491922542 0.33602434434 0.3344597361 0.33544009626 0.29091459887 0.29791618239 0.33494404652 
0.33466252624 0.29891620059 0.35970939453 0.37016843077 0.33496309992 0.33335314745 0.33349760582 0.33308172266 0.33394990203 
0.33327796845 0.33332619363 0.33327382596 0.33300381979 0.32785899439 0.32392013565 0.31153195856 0.31924381726 0.2484872669 
0.33375615933 0.31519345018 0.31305759848 0.31149211189 0.31798497376 0.31670050114 0.31335200386 0.3282918953 0.30615953482 
0.30185545036 0.3058678734 0.3532984176 0.35547481472 0.34878756319 0.35092986653 0.30485551658 0.30920686621 0.31004511657 
0.33332928241 0.33333481863 0.31504928713 0.3140515328 0.31386523351 0.32704965474 0.32727307019 0.25596368827 0.31800784858 
0.31914832497 0.31733445112 0.32057865168 0.31309714926 0.31566596728 0.32646274181 0.32550758263 0.32768581948 0.33303639292 
0.33441552478 0.31483511179 0.31527047718 0.31656923284 0.33601499159 0.33608129195 0.33592666699 0.30888673843 0.30620565423 
0.30944544358 0.33323739263 0.31870140475 0.3121531313 0.33058434981 0.3294274178 0.33099050507 0.33532271175 0.33402837187 
0.33134389426 0.33019558644 0.32333906862 0.32155736031 0.32057895824 0.30379469628 0.31926016827 0.31914317808 0.31692288948 
0.31673297349 0.31177977629 0.31049165642 0.36821491809 0.37041044029 0.38594358634 0.31406907232 0.31406138988 0.31342429075 
0.32465737619 0.32342980121 0.32051066128 0.30416562658 0.30537798066 0.3040087118 0.3053314866 0.31483904879 0.30624885977 
0.27802924169 0.28606106592 0.31297647438 0.29957218137 0.30064177259 0.30653383146 0.30821033115 0.31369493552 0.31331566218 
0.3356873316 0.32932924751 0.27953404708 0.26913347677 0.25995169111 0.24044464373 0.3255100036 0.32381512646 0.32773217941 
0.33154416392 0.28825626979 0.365163069 0.3723677235 0.36986286001 0.32099921949 0.31902393674 0.31920683414 0.2955043816 
0.30400153757 0.29940505215 0.36579745871 0.37364034792 0.33283930973 0.3545899064 0.33231358142 0.33271454627 0.33272026187 
0.33309467343 0.33309790187 0.33273696339 0.32854742141 0.32906348458 0.32629881705 0.29606316683 0.30071706705 0.29539849631 
0.29961533073 0.31863732348 0.31818412003 0.31754072791 0.31705590656 0.31504294435 0.32138471396 0.32008984606 0.29741882632 
0.3103070194 0.3249294526 0.30066673956 0.30315813392 0.2975234972 0.30623284495 0.31172229311 0.30862365331 0.26668915475 
0.39184164328 0.31965957753 0.32217592564 0.32189787675 0.30605225828 0.30055262689 0.32535664155 0.32201067511 0.4529484362 
0.41236854775 0.2950246584 0.30366930072 0.31391781113 0.34838135251 0.35574689371 0.34818624448 0.35510151741 0.32450507185 
0.32677448593 0.37150311029 0.36350176463 0.32064708837 0.3066128382 0.24212942935 0.2287153402 0.26061052075 0.19025047552 
0.30294446184 0.28614566744 0.33180041968 0.33271114294 0.33641133334 0.33605018848 0.36411446067 0.37910379544 0.3574339319 
0.35260928952 0.32823441232 0.32742457209 0.32950707202 0.29359424131 0.29719010213 0.29769339287 0.30030486672 0.44824568315 
0.41194034798 0.41227365367 0.30926688988 0.31183833138 0.3302852359 0.32980630996 0.32924675033 0.28878022222 0.2918001376 
0.29272483377 0.33421714392 0.33564735995 0.29278136956 0.2921688608 0.33302939417 0.33317164161 0.28804434943 0.23489385092 
0.2798573489 0.25814453405 0.39656080903 0.52576229478 0.19797122568 0.23145153337 0.32363663675 0.32504674246 0.32727739155 
0.33052707112 0.32914282614 0.32807088966 0.33467407022 0.33442218863 0.3353856604 0.32288736531 0.32456084837 0.3256008105 
0.31798894746 0.32408355553 0.32008344005 0.32339817284 0.33024925899 0.32870123651 0.32184860089 0.3202129055 0.332408246 
0.31451500899 0.30866146328 0.33643267808 0.33730917936 0.33699733386 0.33795281387 0.31815481028 0.31926349321 0.31944333882 
0.32015106783 0.31959302799 0.33477434427 0.31128604675 0.31716754164 0.3417837063 0.34063492675 0.34238537056 0.30754961313 
0.30990271613 0.30790017598 0.31017958154 0.3118664894 0.31166150512 0.30758954281 0.30649329588 0.30576819649 0.32460340497 
0.32146191767 0.33648666926 0.33685335877 0.33631259949 0.30086744075 0.30280818706 0.31395809675 0.31419372719 0.31388653867 
0.33641283951 0.33677183987 0.33673598134 0.333242375 0.33317322142 0.33325042041 0.30109261153 0.28992961717 0.29747740684 
0.30448916038 0.31825933871 0.3161212391 0.31327367098 0.31122327188 0.30337890705 0.33349101689 0.30680579334 0.31224369976 
0.30219087096 0.3081546934 0.33350778862 0.33418780497 0.33463829752 0.33487065815 0.30424611292 0.29950007221 0.3018872715 
0.33245177176 0.33263466923 0.30479364432 0.30934486229 0.30827294623 0.28973153493 0.28651938478 0.2916838483 0.33281422959 
0.3328927047 0.33278984301 0.33323037334 0.33987322075 0.3139679135 0.31619959186 0.33312626564 0.28969042129 0.3057466418 
0.30772737772 0.30693620263 0.31532360352 0.31995541402 0.31872523633 0.3121793087 0.33295006773 0.33296066519 0.33294448238 
0.32239122904 0.32080034094 0.39669051394 0.30206916579 0.30120873843 0.30056832816 0.29645112759 0.31220665514 0.31608191213 
0.31690874548 0.31549942885 0.31410661708 0.3145187042 0.3149269069 0.3162310282 0.3332324509 0.33316763201 0.25940788101 
0.32298556342 0.33045900037 0.33139204309 0.33121012382 0.32800097821 0.32869719456 0.32672226882 0.3274515998 0.34294983751 
0.33275972895 0.33287098539 0.33294079762 0.33304501376 0.32438426082 0.30441783098 0.33508850951 0.3370632856 0.31591325395 
0.31634924075 0.3179477075 0.2506005645 0.31749889847 0.31787397757 0.32061974963 0.31724789241 0.3202483026 0.30502918071 
0.33239042981 0.33260199962 0.33162752956 0.33184055988 0.31036830765 0.31524498691 0.41870193627 0.46266483552 0.31347231431 
0.31367482414 0.31452681891 0.3337275561 0.33497303387 0.33469896524 0.33517508163 0.31228839265 0.3352342604 0.33547156278 
0.33207066269 0.33239452558 0.33407711128 0.33452332618 0.33266006854 0.33425255078 0.39295758956 0.41570616723 0.44441202803 
0.28615495517 0.28960587065 0.29146981556 0.36479274736 0.35334278808 0.36281241091 0.31590544048 0.33403828589 0.33423350376 
0.33435279966 0.27455726812 0.31085517603 0.28942102704 0.3307325343 0.27688751345 0.30991662588 0.325002937 0.31526319506 
0.34773021434 0.33848071611 0.34846197212 0.30131485648 0.29665167501 0.33393014348 0.33370138808 0.33399461566 0.32041389484 
0.31666223711 0.3359761476 0.32259974079 0.3203752172 0.32421888088 0.28484778793 0.28569034835 0.28366956184 0.30329660586 
0.28261592328 0.30077687029 0.30428020214 0.35167723829 0.34426675528 0.33023802591 0.32942222636 0.33046613834 0.3272085793 
0.32749673204 0.30034700589 0.30280421681 0.29854024193 0.33030997221 0.26806127118 0.24704373948 0.26348337692 0.32941730677 
0.32585623422 0.33201500769 0.33189183664 0.33237197481 0.3378526778 0.33069158287 0.31114228272 0.31097745359 0.26898160141 
0.3014849455 0.30217001533 0.33324307431 0.33383657298 0.33830708725 0.38027830646 0.41135246419 0.37593201901 0.33607731471 
0.33614858626 0.30062994156 0.29750117999 0.30177030056 0.35778036606 0.36279433999 0.33546547784 0.33977929291 0.33406881867 
0.33831573885 0.32973394209 0.32932646882 0.32884612505 0.32861744621 0.33522241657 0.33555178476 0.32595481697 0.32277004787 
0.323675559 0.32060237691 0.33408984507 0.33537722309 0.33703636592 0.33487137387 0.33829845987 0.33459212412 0.33786241119 
0.31793140651 0.3155573565 0.31841467723 0.3805068165 0.37293358017 0.33977828786 0.34639028236 0.34018097992 0.33621415834 
0.29774034694 0.29920805527 0.30666860189 0.32710324391 0.32779539501 0.31396556249 0.31485714414 0.33786807907 0.33959686015 
0.26997640276 0.27571490942 0.27620835353 0.32637100212 0.33189769565 0.33224328545 0.33211968676 0.3317931252 0.3315019173 
0.33578520204 0.31439918044 0.30974405968 0.30998760267 0.3468697367 0.34023893918 0.35358971219 0.34682012831 0.32873362569 
0.33052133491 0.33059016769 0.33226014813 0.28608848266 0.29255539044 0.28876821669 0.33705118192 0.33754531407 0.33675815422 
0.3267678897 0.32514236066 0.3113246132 0.30986743187 0.32552479429 0.33298447859 0.33288671204 0.33295064837 0.32453416 
0.32247415799 0.32282995512 0.32956990674 0.32735221557 0.29889074289 0.29840995976 0.30086613052 0.33366454584 0.33622368768 
0.24034291691 0.33726907463 0.33871659671 0.25507136039 0.30287046271 0.32426320363 0.32331462549 0.32638534997 0.29662919587 
0.30328998517 0.24154838511 0.31263255239 0.32142626901 0.31018596119 0.31172311225 0.3170478308 0.33843381022 0.33952767213 
0.34486178105 0.33211541438 0.33142854018 0.42039804543 0.31340009835 0.31882060992 0.31823223171 0.32362906591 0.32620334231 
0.33144572197 0.30162149168 0.30778559758 0.31302158621 0.3082802556 0.32351179832 0.50671935759 0.35913447462 0.30188775773 
0.30119433264 0.30170879258 0.30179815679 0.30261525351 0.33613520789 0.29672312232 0.30570715657 0.29664059234 0.3033561589 
0.32248493791 0.32550657657 0.31326439604 0.31715114867 0.29957300114 0.29703009889 0.30377890621 0.30862947528 0.32999420531 
0.32880789932 0.29379544997 0.2870876303 0.28190120825 0.33286729739 0.33094732208 0.33117657725 0.33507816267 0.33601445906 
0.3356556748 0.3330749039 0.3331243333 0.3330762523 0.30888809087 0.33413706812 0.3297863311 0.33071495821 0.33069729065 
0.29853049104 0.30217996852 0.33180597747 0.30962687565 0.30609994747 0.3061800412 0.32287011384 0.32084736726 0.3246883294 
0.31334000032 0.31061124007 0.30939634209 0.33384114686 0.33370941548 0.29617921187 0.30214980835 0.29745564076 0.31895130407 
0.31602376349 0.31450425044 0.29615990173 0.29181146852 0.29298868022 0.32743436147 0.32697150251 0.32782533887 0.26894805581 
0.32208447223 0.31630770855 0.3184112893 0.32221581406 0.33376023826 0.33378594975 0.29491826935 0.29325813608 0.31708014631 
0.31873772806 0.31751626231 0.31912783357 0.3127284572 0.31416858834 0.30900743432 0.30648207309 0.30222977779 0.33354270872 
0.33135260057 0.33249769226 0.29720293079 0.3102261227 0.31599697483 0.30446725533 0.33618151089 0.35566864427 0.33301842756 
0.33298721218 0.30724400258 0.30331091933 0.32651224604 0.31733659433 0.31001304031 0.31413081936 0.2091097107 0.23072965002 
0.32254235569 0.33270625311 0.33386865979 0.33595462467 0.33744857663 0.30093552082 0.29390402849 0.31548750918 0.38985963326 
0.39861572725 0.38089677792 0.28223052254 0.28679506389 0.27994626763 0.30872458281 0.33586984836 0.24863077322 0.31890210378 
0.33412653177 0.32420705579 0.32626644787 0.32575924212 0.32969537243 0.33171527057 0.3345309008 0.30397587718 0.30599074696 
0.30741072349 0.33315853295 0.33318365248 0.3330650964 0.33310714723 0.30685773874 0.32431726275 0.32671681943 0.32022565323 
0.33318560372 0.33334394074 0.33334599398 0.24684047504 0.33088128642 0.33277684182 0.31230651876 0.3107865432 0.37209156671 
0.30741667535 0.33621169491 0.33241908738 0.2959105678 0.33474236694 0.33565512626 0.33604990052 0.33645231914 0.33549847497 
0.3358487499 0.33108061422 0.33184923035 0.33123783415 0.34292144575 0.3409994753 0.32989031872 0.33071504465 0.33164730107 
0.33183465499 0.33205114194 0.33607466625 0.31344938046 0.33306426945 0.33298286381 0.33316669889 0.33286310761 0.33260575169 
0.33267398376 0.28701154272 0.3253780459 0.32852104828 0.31373840213 0.31430731349 0.29704470328 0.34213326381 0.31755293169 
0.34951509407 0.3360243266 0.3148494222 0.31253066873 0.3121091295 0.31510550862 0.31414575309 0.31531948776 0.31291771107 
0.31409278337 0.3273433618 0.3163331398 0.31674273008 0.33336677324 0.33329112613 0.31419585728 0.3165186614 0.31829335025 
0.3145357411 0.31575529235 0.33806236354 0.32372948444 0.33075963232 0.34028136493 0.34075848273 0.33604739448 0.33230935449 
0.33450802123 0.3343192956 0.33518518626 0.33558135023 0.33576066672 0.33575673618 0.31503157899 0.31536816265 0.31460659582 
0.33778381152 0.37556886412 0.30989763934 0.32983226688 0.34446118378 0.35183653106 0.3388474662 0.34496323948 0.34359417373 
0.30992026395 0.33312632301 0.28716425036 0.31226585943 0.33726507485 0.34928042856 0.35917757143 0.32360513679 0.34715330645 
0.33096304704 0.32958010439 0.32929477838 0.3310222357 0.32766325788 0.32095097039 0.32411236104 0.33301344565 0.33115771832 
0.33188890335 0.33040156553 0.33636874553 0.33280291014 0.33295859716 0.33607403674 0.33576606669 0.31502349778 0.31855759417 
0.33331416265 0.34207519155 0.30945166496 0.32799064838 0.32663298504 0.35369901031 0.3117225946 0.31257767996 0.2987998063 
0.30418505316 0.3033655115 0.31004838612 0.30926227436 0.31851444888 0.31321520398 0.31840045476 0.32771245054 0.32378469252 
0.3843586995 0.31256331075 0.31366817019 0.31275798978 0.31333864938 0.26452074908 0.253504539 0.30887789238 0.29383361274 
0.33143406687 0.4005675258 0.38262898168 0.28431146607 0.27663683239 0.33917619315 0.33992546538 0.33983024432 0.33800555022 
0.3371937775 0.33703604251 0.29617388248 0.33445251268 0.31610514089 0.32965923348 0.317944388 0.33422268884 0.33109357118 
0.32984823285 0.33904887157 0.33875819561 0.3141468186 0.32022313729 0.31835484531 0.35255552002 0.36828271513 0.31496460429 
0.32702905246 0.32933713902 0.3314928207 0.33304874816 0.34641305685 0.34133628207 0.3207361787 0.31819640249 0.32152844867 
0.43729326747 0.30256255231 0.25499115536 0.33324063098 0.33319632487 0.2570658702 0.38207733518 0.3842037225 0.33316213713 
0.3336636829 0.28885707346 0.33549160555 0.3186945172 0.33289637519 0.33291472546 0.33230389849 0.33156373774 0.30812291267 
0.30283658119 0.30909806842 0.2845781914 0.28616545472 0.3258576835 0.32575296343 0.32622339878 0.30354943403 0.30305598024 
0.32835881892 0.3309078753 0.33057624999 0.3303398998 0.33621182543 0.337896988 0.32046981429 0.2965359501 0.29363459709 
0.34491074034 0.32557981708 0.31999381542 0.31938822387 0.33464191434 0.33777736372 0.35234617281 0.34870059811 0.31796584742 
0.33806372911 0.33980688578 0.34039750241 0.24240964781 0.33166689043 0.33124766012 0.33136129876 0.30020395392 0.30984284324 
0.33447956482 0.32262567394 0.32224638354 0.29406499961 0.31583144645 0.31523318663 0.30293024347 0.29594318761 0.33820741498 
0.334707 0.33816926219 0.33463033784 0.31840998724 0.32365759593 0.31641415427 0.32130137336 0.29687293528 0.32349857309 
0.34319455787 0.33043545843 0.33022105626 0.33132311769 0.32970626137 0.31105523366 0.31895198791 0.3178409901 0.31663165455 
0.31602396396 0.33337384524 0.3332768644 0.33325267505 0.31482838263 0.31272625972 0.31327551476 0.3257473293 0.3139290407 
0.33827942867 0.33759696635 0.33712332428 0.31314124107 0.31339976769 0.33340194986 0.33346557083 0.33334130407 0.33349707655 
0.33163415302 0.32635826958 0.32025005391 0.32249384872 0.26564037524 0.30092701801 0.30368722638 0.25708220461 0.29907694946 
0.30157657176 0.30317577854 0.30352942264 0.27484328933 0.27433214669 0.33377989118 0.33537185286 0.33385984914 0.33241031837 
0.33313642623 0.33041052623 0.32834525447 0.32709748316 0.32413519069 0.32322070553 0.32360974182 0.32335652926 0.32170425322 
0.32645329597 0.32470777047 0.37287830165 0.37881594376 0.33992735985 0.31661119856 0.33189731654 0.32760197233 0.3276613639 
0.32285349305 0.3288812592 0.33870240336 0.3420261953 0.34268363815 0.33239527232 0.33168645823 0.33409766234 0.32924455275 
0.33733887541 0.33664765767 0.33891718872 0.33931236987 0.33865373772 0.33964076518 0.33286413547 0.33279244768 0.33219797075 
0.33229410921 0.33260249157 0.32180800007 0.32420760526 0.37499141681 0.38374723621 0.33253027606 0.3144473504 0.31680285009 
0.31478331066 0.31720426694 0.33323059433 0.31868598458 0.32813697746 0.32676860205 0.32784563709 0.33028456166 0.32978209726 
0.31187787653 0.31535452166 0.3150232792 0.32692726788 0.32809619065 0.31614832265 0.29882410898 0.3201704715 0.34224428849 
0.33681457393 0.31271981921 0.3216746074 0.35301517155 0.32325763934 0.32614062503 0.32510219321 0.31542080103 0.31634402699 
0.31323078561 0.32299459569 0.33599887061 0.33547172487 0.32721686042 0.32630491212 0.31821465719 0.33646261592 0.3337104577 
0.33285458394 0.34785120337 0.34277767941 0.34618686756 0.33304091897 0.33330994508 0.33318012272 0.32275767621 0.32470225554 
0.33012276124 0.33299069167 0.33288504988 0.33296930983 0.36864395866 0.39048138095 0.33288859127 0.33305709634 0.31909902505 
0.31858355323 0.35592593841 0.33811204098 0.31440205349 0.32134835966 0.31352808083 0.30734183065 0.31707038233 0.25786573434 
0.28553975309 0.32794762195 0.32446070375 0.30855383406 0.31120278305 0.29793601857 0.33578525438 0.33594636826 0.32962942129 
0.32804651749 0.33327802794 0.32941826844 0.33063529965 0.33057295431 0.45881406809 0.33366763578 0.33544904317 0.2851028608 
0.31438417567 0.31691888724 0.317000841 0.29004812494 0.29035945313 0.27861997334 0.31938981455 0.3200342588 0.31920982292 
0.25401469002 0.30044039219 0.32201328076 0.32353069916 0.32436171342 0.43366690838 0.31652330705 0.32413123252 0.32485394927 
0.31218209479 0.31231081276 0.29067604667 0.29485642362 0.31797614378 0.36025455981 0.37535654549 0.35854519939 0.33743532482 
0.3125561573 0.30545665376 0.24738846046 0.29808775736 0.31522501818 0.33291797437 0.33542539466 0.34548435996 0.35759255549 
0.40065252062 0.43044043612 0.33651237124 0.33666430346 0.32393798649 0.3080729111 0.32773996045 0.33602286502 0.31516536418 
0.32576253867 0.30690305152 0.31331441535 0.30637255542 0.33298370712 0.32261772997 0.31985806779 0.33407162847 0.32355980458 
0.32239031837 0.30977806346 0.3124098684 0.31245205603 0.33300588206 0.29670780883 0.30470691528 0.30205711617 0.30997876746 
0.30785855141 0.31067354855 0.30858875865 0.25395023589 0.30042085214 0.33336905814 0.32740503153 0.32584613521 0.33499859326 
0.3242272661 0.32545848748 0.3216293463 0.32736165677 0.32481261627 0.31053692712 0.29410782072 0.3293405406 0.25151995119 
0.27907378876 0.29670619626 0.29276991691 0.29413874828 0.28645389157 0.33140967219 0.33613047552 0.32078892396 0.33892103562 
0.34646675188 0.30674533019 0.30650532887 0.33332144316 0.33331599088 0.3333071882 0.33312142446 0.3080377439 0.32817509988 
0.29953392024 0.30182683674 0.30177551353 0.3294743605 0.33017212622 0.31572599866 0.30306649254 0.30328779878 0.33338301478 
0.33355212853 0.30865920144 0.29282692038 0.28615026478 0.28791374057 0.2862485192 0.28800122855 0.30683019857 0.30651406104 
0.30800494191 0.30273209094 0.3327889892 0.33387014911 0.32639457449 0.32514392646 0.32455490785 0.32336817382 0.28491045476 
0.30177082353 0.29095149784 0.28430785523 0.29608960618 0.29475478039 0.28956883804 0.28261686927 0.33547056441 0.34605743358 
0.34107008662 0.33564401393 0.30069481599 0.39930890093 0.4165801684 0.37116750553 0.35290413808 0.35071479539 0.36206529152 
0.35632731213 0.34029037771 0.34699535952 0.36011863364 0.351024606 0.3335079093 0.33497970604 0.33450924872 0.31246899306 
0.38238837896 0.41212391102 0.35530289753 0.37593613058 0.32685406539 0.31396274362 0.31622439266 0.34047879098 0.35216430388 
0.3329074501 0.35286280814 0.31209305569 0.32596384712 0.32206438021 0.33044780083 0.33288579053 0.33726907185 0.3137069108 
0.31370174806 0.35087304995 0.32847569137 0.31350568952 0.33550480476 0.33178042226 0.3322320705 0.31219374667 0.30728563956 
0.30727634197 0.31472061573 0.32035138166 0.32380060589 0.32471655863 0.31121874268 0.31116244675 0.31268387361 0.32388150259 
0.31804194031 0.32423642446 0.31829691852 0.3465880948 0.34791008355 0.34378667542 0.33192428944 0.32963168498 0.331920813 
0.33260379363 0.2980430449 0.32289092261 0.32533624772 0.3113746483 0.32249076759 0.34870901367 0.34438935586 0.31864217016 
0.32185530838 0.33220086535 0.29808078348 0.29482597865 0.32443417351 0.33245870745 0.33200669368 0.33255817078 0.3325991538 
0.33235923803 0.30731194222 0.31875996074 0.31973034439 0.33299258308 0.33295299969 0.33302556136 0.33272853305 0.33277683947 
0.31570369344 0.31974207433 0.35884198824 0.37164916951 0.35952330895 0.35809816942 0.34748634438 0.33648926974 0.33624561025 
0.33676039787 0.32018133011 0.2718516734 0.28119998871 0.31806015734 0.33684651444 0.33973361695 0.33413929166 0.33395408075 
0.33528515404 0.33549060117 0.33499365282 0.33516385187 0.32957205943 0.32693294402 0.33073561229 0.26774448669 0.26505388646 
0.27139998001 0.32162566436 0.28041637238 0.27971668529 0.2824713597 0.31378788233 0.31356926127 0.32877594769 0.33242268269 
0.33292337902 0.30152788103 0.33204389164 0.33270996927 0.3130920854 0.31479065055 0.31406582979 0.31587519153 0.31388270351 
0.30402915685 0.33231048946 0.3323140387 0.37546489966 0.33503643612 0.33442404366 0.33220816122 0.33497141483 0.33147070125 
0.33489269616 0.33422929997 0.32170618265 0.31732433814 0.31769629188 0.29169087175 0.33912183755 0.25668137429 0.31394396918 
0.31997274889 0.31976471215 0.28813126375 0.28618813747 0.28952734317 0.27301774791 0.28409430822 0.32076447272 0.31702297453 
0.2886203026 0.29876305638 0.32516457802 0.32355474558 0.28563813934 0.29596563754 0.28664886963 0.2866578064 0.31340528726 
0.31179996458 0.331654819 0.3181899559 0.32157674136 0.3333512726 0.33302779684 0.33520905985 0.33485369717 0.38017018252 
0.37287769705 0.33512963289 0.29721953477 0.29596507889 0.33422880727 0.30307518912 0.29952114235 0.29888916485 0.31175924501 
0.30611572544 0.32921649232 0.32699716267 0.32709466559 0.32774600443 0.32733729978 0.33397888705 0.32578697707 0.32903939463 
0.34973048777 0.34292685207 0.30892800769 0.30361782457 0.31306050308 0.3231176246 0.33285720579 0.31610703085 0.33384195495 
0.33173209458 0.28329062774 0.29324521869 0.30713607509 0.31298569741 0.32504938603 0.32372014905 0.32378658146 0.30678990196 
0.28925743732 0.33780741764 0.33579134072 0.32000869315 0.32128120326 0.31821144799 0.33859549038 0.33888801711 0.33049001468 
0.31587509368 0.31147119137 0.30335251124 0.31031559165 0.33166278057 0.32895146382 0.33448787685 0.31011614982 0.33190745642 
0.33139381256 0.32867720645 0.32826588267 0.32969542133 0.32689742721 0.32697953217 0.33596327072 0.33608309631 0.2831108559 
0.33208531851 0.34180866425 0.34608920686 0.34712622328 0.35245721763 0.34251259932 0.33991117314 0.33443580727 0.33785340417 
0.29507091842 0.45688702469 0.33325355888 0.33325245349 0.33339026089 0.37714503345 0.33311047556 0.32344712329 0.32836877005 
0.3361848058 0.30861639453 0.33971843875 0.33905220409 0.33882090094 0.30642619245 0.30770679842 0.32836758205 0.32476616624 
0.30203978379 0.23580786361 0.3309193756 0.30867334897 0.31055528919 0.3137348317 0.33608718651 0.28891750724 0.29325402631 
0.32944410894 0.33592616008 0.32970693437 0.26685217674 0.34183816791 0.28844613805 0.35786087754 0.33531993922 0.32590313331 
0.32277381908 0.32185810335 0.30113748758 0.32572841379 0.30915158673 0.32696919976 0.32533643035 0.33174682105 0.331282454 
0.35003467589 0.32969376953 0.31117865107 0.31133275232 0.32004178713 0.33323794528 0.33308995725 0.33134714891 0.30982589759 
0.33124851517 0.31248879755 0.31247469138 0.32890780021 0.32773456841 0.27624638549 0.326326693 0.30722906112 0.30930915034 
0.31407519222 0.31615151825 0.35571832301 0.3358560078 0.3394584834 0.30941000534 0.29441124468 0.31397077312 0.39091669262 
0.32401523703 0.32261354321 0.34110592964 0.33138413479 0.31619582677 0.31839960787 0.31910114401 0.31103630695 0.31482893274 
0.31495924338 0.31203677652 0.31613357821 0.30682053929 0.27078084455 0.3274419791 0.33224139574 0.33182688793 0.33637600771 
0.33667118239 0.34993704474 0.34808941469 0.28924418086 0.32841760656 0.2663191494 0.31883711433 0.31375255074 0.33591308439 
0.34042105683 0.33363785469 0.31377028239 0.33028484701 0.3040667945 0.33564209307 0.33587752653 0.33335019846 0.23227956978 
0.26925024009 0.34179193619 0.34636732567 0.32769922153 0.29510855422 0.29903656055 0.24045756231 0.25520180488 0.2674001627 
0.28908098001 0.30289013616 0.29866125639 0.29919380487 0.33344074135 0.33622954856 0.3362070938 0.32968738531 0.30336584044 
0.29888414735 0.34465734607 0.33336580046 0.3762030146 0.33582860944 0.30253548441 0.3206370948 0.31384515143 0.30822698085 
0.33963300269 0.33892478634 0.34580131631 0.35772151668 0.33331519551 0.33362418308 0.30477038532 0.31332033275 0.31419414318 
0.31540980863 0.31487097164 0.31270117363 0.31925023031 0.3183444067 0.33160148186 0.31539906251 0.33952571152 0.22656516584 
0.25701674894 0.39509596968 0.36872454058 0.37010825491 0.33270388743 0.19686746391 0.22142760614 0.37909083925 0.37844460524 
0.31523110993 0.30013018834 0.31220145868 0.31443078105 0.3359309896 0.32574094708 0.32803509814 0.33368913045 0.31791570255 
0.33612109106 0.33600192086 0.30233023432 0.30592823937 0.30358321359 0.33312646242 0.31558839606 0.33378130887 0.33312790596 
0.33326018032 0.30718271975 0.33028269113 0.29201063697 0.29319694475 0.31505130516 0.30142790478 0.29903116769 0.30067008474 
0.32235061228 0.32241984452 0.32862598121 0.28937534933 0.32169135192 0.32171434784 0.3229712589 0.26893092806 0.33333824912 
0.29712864504 0.31760712705 0.32470994918 0.33786542172 0.25574368362 0.24687665337 0.3103886284 0.34645640201 0.28251274419 
0.33502775247 0.33512165642 0.33520089735 0.31952926291 0.32575487831 0.30719618956 0.3403805426 0.33365826005 0.33433144421 
0.29623227876 0.32444987171 0.32958306735 0.33575887448 0.32321784957 0.29675088446 0.33414510186 0.36544363573 0.35314334414 
0.32752142381 0.32496976821 0.3183062327 0.3454828854 0.31080431853 0.29087473157 0.31776079648 0.32772405967 0.28884574872 
0.33378575062 0.29460688617 0.29921985743 0.30999422759 0.32292836037 0.32014376544 0.28538185373 0.30242599088 0.33053000287 
0.30167623874 0.32669341474 0.33164903668 0.31253495661 0.31605734456 0.31250386587 0.30613589935 0.32023311032 0.33493984261 
0.33136181079 0.30269407545 0.33859875227 0.40207613924 0.39492565482 0.32258872859 0.42074500374 0.32517772851 0.31749280895 
0.3534188114 0.31649178909 0.3606346473 0.32693332212 0.33396233067 0.31468808551 0.3292903624 0.32907336078 0.32630713907 
0.33064245447 0.30529813977 0.41928782246 0.3431413148 0.32875855973 0.32756357588 0.32965160098 0.32932257374 0.32102247039 
0.34499159667 0.31237418168 0.32655823741 0.29792941857 0.29220421426 0.33251056875 0.32131882262 0.32656571082 0.3367617534 
0.33951538893 0.32211018825 0.33356922924 0.30931008794 0.31405487671 0.31067176509 0.31848782227 0.32809288743 0.32902593362 
0.32841027105 0.32856092316 0.32809015952 0.29460890483 0.30532408414 0.34047195917 0.24832330945 0.3339328672 0.313012864 
0.35412068858 0.2464750444 0.27824790544 0.31959019343 0.25566788774 0.32693179292 0.33371216352 0.35096520076 0.38784902587 
0.30291344462 0.32942691481 0.32943191714 0.33017047543 0.38539521808 0.31610158575 0.3316184573 0.31302179364 0.33918768206 
0.33267016896 0.34931008579 0.3521776327 0.31015473289 0.29318080404 0.31503641651 0.34080144446 0.31248701369 0.36130347582 
0.32341289321 0.32842660042 0.33528368594 0.32977440142 0.32092996332 0.31133660228 0.335406257 0.27952099936 0.32282427374 
0.33127919662 0.30618279085 0.33819781487 0.32736029151 0.32603219392 0.32293602065 0.32650787375 0.34472048446 0.35194674234 
0.33101896438 0.32834808219 0.32736890371 0.34410581187 0.30743266448 0.32542472406 0.34299398891 0.33096398587 0.33183441807 
0.31534634333 0.31498937276 0.32089249113 0.32040460261 0.32351314723 0.33219288113 0.30695685018 0.3237332436 0.31744386787 
0.33586100835 0.28561816286 0.31328453154 0.30866757891 0.34228163216 0.31276566855 0.3449441023 0.240725467 0.33715699395 
0.30355118873 0.31779993935 0.36221723474 0.32928198295 0.31431789398 0.3087156808 0.29900019191 0.30477766943 0.30580295934 
0.34462936222 0.27919612779 0.33205646255 0.33743009923 0.33536780018 0.30251156913 0.33148984198 0.33235158602 0.33237522822 
0.30282945701 0.33363407283 0.36029911937 0.29624421203 0.3313946277 0.30509374399 0.32123666998 0.33367819462 0.33498074142 
0.31761958028 0.32828228281 0.31343935834 0.31969509732 0.38161646029 0.35152153232 0.34243122509 0.35105632452 0.32115202195 
0.33337603314 0.29161909722 0.29932315549 0.28958399946 0.28656919852 0.3404480802 0.2923413498 0.32252157614 0.30444753748 
0.32758364812 0.31785437723 0.31928103381 0.35712926331 0.3880302849 0.43195536806 0.31708013152 0.30213499811 0.28099779595 
0.30987768078 0.32298756816 0.3372617636 0.34559560944 0.34469148562 0.30464721343 0.31519099866 0.32088232064 
